x,y,z,stresses_full_xx,stresses_full_xy,stresses_full_yy,stresses_full_xz,stresses_full_yz,stresses_full_zz,stresses_full_max_shear,stresses_full_cfs_1,stresses_full_cfs_2,stresses_full_cfs_3,stresses_full_cfs_4,von_mises,aftershocksyn
709640.0783812654,3920767.5119837918,-2500.0,-0.27505461116037488,-0.3171360185038905,-2.4416891831066319,-0.014121453721137248,-0.11583481714190537,-0.0038578696748215267,1.247130694484305,-1.2497970064931443,-0.50736134700781266,0.50736134700781266,1.2497970064931443,2.3870514029858856,0.0
714640.0783812654,3920767.5119837918,-2500.0,-0.20208678348505618,-0.1315368276382376,-2.4081974690300991,-0.0038860715917580823,-0.1150600258568673,-0.0038557194181243642,1.2115790754820408,-1.1273589955056647,-0.65697675691531576,0.65697675691531576,1.1273589955056647,2.3313530673549518,0.0
719640.0783812654,3920767.5119837918,-2500.0,-0.14803341942204315,0.065886461109227024,-2.2899429673457772,0.0069200045483303121,-0.11045694894668275,-0.0037397474897518657,1.1494909762235708,-0.95689970527129931,-0.794641621917483,0.794641621917483,0.95689970527129931,2.2287732316762239,0.0
724640.0783812654,3920767.5119837918,-2500.0,-0.11728462646157088,0.26014127975166285,-2.0827909822863035,0.017543524278516916,-0.10181516640018967,-0.0035027163165973893,1.0617050092839102,-0.7454361204880986,-0.90592716515811178,0.90592716515811178,0.7454361204880986,2.0820286721809595,0.0
729640.0783812654,3920767.5119837918,-2500.0,-0.11091563371814474,0.4345773655413841,-1.7904675993348966,0.027152263952868575,-0.089273219861567124,-0.0031473348386693496,0.9525853206318653,-0.50501585269761562,-0.97672620478801431,0.97672620478801431,0.50501585269761562,1.899000945037677,0.0
734640.0783812654,3920767.5119837918,-2500.0,-0.12612181898905611,0.5731738786026227,-1.4251938451339174,0.034944315204662152,-0.073348953842113068,-0.0026872917299058299,0.86851824931136179,-0.25163497771670607,-0.9954720695185878,0.9954720695185878,0.25163497771670607,1.6936832528475538,0.0
739640.0783812654,3920767.5119837918,-2500.0,-0.15644321456375462,0.66301399878604939,-1.0069000926368803,0.040266130966608395,-0.054907626577002287,-0.0021464932606925476,0.78951775532984281,-0.003290652460430199,-0.9552284228827852,0.9552284228827852,0.003290652460430199,1.4869359103875004,0.0
744640.0783812654,3920767.5119837918,-2500.0,-0.19281101330559081,0.69637503102128961,-0.56102067189470106,0.042712959277236048,-0.035067305528081343,-0.0015565533401874557,0.72184609646980336,0.22247468840449269,-0.85512548062318772,0.85512548062318772,-0.22247468840449269,1.3063518861523626,0.0
749640.0783812654,3920767.5119837918,-2500.0,-0.22519517370029069,0.67191367081287334,-0.11525935673420824,0.042187428281752155,-0.015058069770486644,-0.00095288732051997832,0.6754680509476243,0.411002659096533,-0.7007430651464468,0.7007430651464468,-0.411002659096533,1.1824304396824949,0.0
754640.0783812654,3920767.5119837918,-2500.0,-0.24443919991646104,0.59466014692344571,0.30398887065177466,0.038902730247921367,0.0039354950177945972,-0.00037026286257027139,0.65601975316028727,0.55237551673814578,-0.50331566801548189,0.50331566801548189,-0.55237551673814578,1.1366343040002282,0.0
759640.0783812654,3920767.5119837918,-2500.0,-0.24381800609559848,0.47486815009436645,0.6747939332579167,0.033331821192006804,0.02091514022124577,0.00016128452578021728,0.66181536127622476,0.64232123959693677,-0.27795970507713219,0.27795970507713219,-0.64232123959693677,1.1663602102955271,0.0
764640.0783812654,3920767.5119837918,-2500.0,-0.21996552655063126,0.32607043104927846,0.98181882772406182,0.026118128559087392,0.035166263266398663,0.00061938875309876685,0.68489006314106982,0.68206713479213699,-0.041373577492733793,0.041373577492733793,-0.68206713479213699,1.2460217033369052,0.0
699640.0783812654,3925767.5119837918,-2500.0,-0.57258321213614394,-0.78209354556057165,-2.6546984591116258,-0.041988913713829859,-0.1314106541846666,-0.0046227248878690577,1.4620873350825085,-1.5932130138261646,-0.19545524739340114,0.19545524739340114,1.5932130138261646,2.7807280765456324,0.0
704640.0783812654,3925767.5119837918,-2500.0,-0.45916751394217853,-0.6351395560913552,-2.8083139990361379,-0.03304215589142058,-0.13961704651645093,-0.0049093627088980301,1.4890003384130897,-1.5841509260080837,-0.36031175891814726,0.36031175891814726,1.5841509260080837,2.8397041208642992,0.0
709640.0783812654,3925767.5119837918,-2500.0,-0.34858486546808354,-0.44455482516506545,-2.8902016213638011,-0.021785611419807276,-0.14446219068054661,-0.0050917749149135228,1.4875144158942919,-1.5151425215131995,-0.54391440311711858,0.54391440311711858,1.5151425215131995,2.8474110735066125,0.0
714640.0783812654,3925767.5119837918,-2500.0,-0.25138558302216257,-0.21877561416923147,-2.8793960024332228,-0.0086895253972913717,-0.14493471536692212,-0.0051379296001305063,1.4534626519870466,-1.3807027062858119,-0.73374635640213304,0.73374635640213304,1.3807027062858119,2.7966142238559315,0.0
719640.0783812654,3925767.5119837918,-2500.0,-0.17741428165131712,0.027517881928817812,-2.7595145376092458,0.0054588072302250885,-0.14023334276740237,-0.0050218548525461293,1.3845619824585997,-1.1814352772386074,-0.91280071497676718,0.91280071497676718,1.1814352772386074,2.6839248645362117,0.0
724640.0783812654,3925767.5119837918,-2500.0,-0.13375818417268764,0.27428812521377743,-2.5223783020446668,0.019602399902165113,-0.12993663382979573,-0.0047288422109988491,1.2812302199489742,-0.92537605744485163,-1.0611726812685722,1.0611726812685722,0.92537605744485163,2.5115457384196653,0.0
729640.0783812654,3925767.5119837918,-2500.0,-0.1228825756277986,0.49842318182692075,-2.170965660703378,0.032530402452343447,-0.11414258162516726,-0.0042597476303398059,1.1483590220296844,-0.62812973501836988,-1.1587712531416818,1.1587712531416818,0.62812973501836988,2.2889304006105049,0.0
734640.0783812654,3925767.5119837918,-2500.0,-0.14155454350968552,0.67716190017270772,-1.7207640582617316,0.043049607747925843,-0.093535023882845028,-0.0036333011546731582,1.0431638529363834,-0.31145919519525556,-1.1887285536677514,1.1887285536677514,0.31145919519525556,2.0342523010153344,0.0
739640.0783812654,3925767.5119837918,-2500.0,-0.18102390528647,0.7919608053298135,-1.1988495685010305,0.050177588247820357,-0.069345688507957429,-0.0028852410538075125,0.94381928578675378,-0.00040460667673070105,-1.1407304079198333,1.1407304079198333,0.00040460667673070105,1.7755568604318179,0.0
744640.0783812654,3925767.5119837918,-2500.0,-0.22857116054563278,0.83182592126605359,-0.64060917388348571,0.05331021670990143,-0.043207156132078407,-0.0020642111246788461,0.85896779257739742,0.2805039029584242,-1.0133554037478067,1.0133554037478067,-0.2805039029584242,1.5505933698195704,0.0
749640.0783812654,3925767.5119837918,-2500.0,-0.27006990044361107,0.79519171853880632,-0.08473424674332812,0.052319033054014537,-0.01692442474573623,-0.001225107413647699,0.80226005711667081,0.51102957058553977,-0.81470589877998789,0.81470589877998789,-0.51102957058553977,1.4010214351064918,0.0
754640.0783812654,3925767.5119837918,-2500.0,-0.29285042009389772,0.68984314434727778,0.43233765818648118,0.047553286948311194,0.0077818713606574502,-0.00042140181709093274,0.7808531859364245,0.67806353990793156,-0.56110588095376923,0.56110588095376923,-0.67806353990793156,1.3542388087357247,0.0
759640.0783812654,3925767.5119837918,-2500.0,-0.28806291511505727,0.53098323166777628,0.88121387053558431,0.039750316829243841,0.029500332839386557,0.00030176077135675932,0.79128891036253735,0.77687350916755737,-0.27423146075182392,0.27423146075182392,-0.77687350916755737,1.4022713415594585,0.0
764640.0783812654,3925767.5119837918,-2500.0,-0.25195672127623264,0.33808901139396597,1.2425674482622722,0.029883972839177115,0.047274945075626955,0.00091228645121632331,0.82180253519480351,0.81064276392499557,0.022519798436304861,-0.022519798436304861,-0.81064276392499557,1.5072898992223249,0.0
769640.0783812654,3925767.5119837918,-2500.0,-0.18589801229556846,0.13145810081005299,1.5079942764256358,0.018994054158812217,0.060652815040444737,0.0013929705517058293,0.85886904484368465,0.78866963229164133,0.30749284830151358,-0.30749284830151358,-0.78866963229164133,1.6282077746577546,0.0
774640.0783812654,3925767.5119837918,-2500.0,-0.095348366064045578,-0.070731651982836943,1.6789415152356546,0.0080369666187997228,0.069642417309510846,0.0017406715583846339,0.89197851699336017,0.72388402514271943,0.56334465912096521,-0.56334465912096521,-0.72388402514271943,1.7363811920803693,0.0
689640.0783812654,3930767.5119837918,-2500.0,-0.97156955712033555,-1.1471165282619895,-2.4828281019887255,-0.068380289368124611,-0.129079490795352,-0.0048796064756069964,1.5548511465944124,-1.687668159665404,0.12552483350303245,-0.12552483350303245,1.687668159665404,2.9480419642968392,0.0
694640.0783812654,3930767.5119837918,-2500.0,-0.86555895183956033,-1.103470579543866,-2.7891650818936782,-0.064607440462548502,-0.14546889731977639,-0.0054646908183878257,1.6505439520782417,-1.810258599252903,0.0074558136081285253,-0.0074558136081285253,1.810258599252903,3.1342388547231552,0.0
699640.0783812654,3930767.5119837918,-2500.0,-0.73683638822109088,-1.003855983628736,-3.0697913557011316,-0.057598219968382235,-0.1606614521086682,-0.0060116760723638012,1.726591030382528,-1.889206586006402,-0.1506803014329996,0.1506803014329996,1.889206586006402,3.2851688330670066,0.0
704640.0783812654,3930767.5119837918,-2500.0,-0.59418686473412075,-0.84257826979961925,-3.2973558814829511,-0.047087226932606786,-0.17327841144933578,-0.0064750477347364083,1.7751138769149095,-1.9075468229353643,-0.34715225851760001,0.34715225851760001,1.9075468229353643,3.3864073225323672,0.0
709640.0783812654,3930767.5119837918,-2500.0,-0.45010336251034544,-0.62004593374275119,-3.4408623856512608,-0.033148743839573912,-0.18175468953489282,-0.0068029173285435243,1.7883359721920342,-1.8500324776119088,-0.57407001456087858,0.57407001456087858,1.8500324776119088,3.4238474447028167,0.0
714640.0783812654,3930767.5119837918,-2500.0,-0.31943918337085914,-0.34498000090927,-3.469247902166988,-0.016308808512023938,-0.18451525514311798,-0.0069425953174492875,1.7596196378454798,-1.7063101519055439,-0.81621926929382138,0.81621926929382138,1.7063101519055439,3.3857381371161472,0.0
719640.0783812654,3930767.5119837918,-2500.0,-0.21695560490154803,-0.035551622663420719,-3.3564740388827987,0.002400733428532587,-0.18022574760552343,-0.0068485364525006746,1.6847226240058513,-1.4742454754080876,-1.051170734520827,1.051170734520827,1.4742454754080876,3.26521193745686,0.0
724640.0783812654,3930767.5119837918,-2500.0,-0.15411586326911994,0.28136317038497954,-3.0873421353015771,0.021486789739375709,-0.16807898457792839,-0.0064916122258202027,1.5631154497728144,-1.16248707971944,-1.2512303589236335,1.2512303589236335,1.16248707971944,3.0630470118012001,0.0
729640.0783812654,3930767.5119837918,-2500.0,-0.1359270747100392,0.57327455960592388,-2.6626262667365026,0.039160598678782577,-0.14804945416865009,-0.0058674222141613065,1.400168340964878,-0.79123824725839254,-1.3873598627853776,1.3873598627853776,0.79123824725839254,2.7903465163399965,0.0
734640.0783812654,3930767.5119837918,-2500.0,-0.15889709620264508,0.80726490698144582,-2.101839256386087,0.053610570367088002,-0.12103433512507063,-0.0050012891504024508,1.2670722782789343,-0.39049508923060117,-1.4344941860067462,1.4344941860067462,0.39049508923060117,2.4708943542324637,0.0
739640.0783812654,3930767.5119837918,-2500.0,-0.21102435351034957,0.9561595985110829,-1.4422972552862134,0.063325657547394221,-0.088816021841458065,-0.0039475991740844027,1.1404694175511825,0.0042703150994237715,-1.3769697990143017,1.3769697990143017,-0.0042703150994237715,2.1429653623960472,0.0
744640.0783812654,3930767.5119837918,-2500.0,-0.27411998644537544,1.0039763262057211,-0.73416880687198871,0.067382796539359233,-0.053829449414485468,-0.0027830222956380457,1.0326411156802768,0.35808512354618788,-1.2124359941070901,1.2124359941070901,-0.35808512354618788,1.8591171181533837,0.0
749640.0783812654,3930767.5119837918,-2500.0,-0.32789299349609402,0.94898441297671143,-0.032533280095330783,0.065613404589074178,-0.018781440894644827,-0.0015947860645863165,0.96260945380078766,0.64251820112761748,-0.95292356802937872,0.95292356802937872,-0.64251820112761748,1.6772061196563914,0.0
754640.0783812654,3930767.5119837918,-2500.0,-0.35453233972864623,0.80345751037723512,0.61146818744603215,0.05860101845668253,0.013779469069813789,-0.00046706502571017207,0.93945000097583631,0.84010462477840886,-0.62265124760568169,0.62265124760568169,-0.84010462477840886,1.6321751644893119,0.0
759640.0783812654,3930767.5119837918,-2500.0,-0.34235927278064393,0.59034518517160495,1.1580501502534264,0.047518795519547824,0.041830315856257509,0.0005310331137146644,0.95663004976932287,0.94605272362937376,-0.25326093937226035,0.25326093937226035,-0.94605272362937376,1.7064208447207583,0.0
764640.0783812654,3930767.5119837918,-2500.0,-0.28756760398787928,0.33807898865501712,1.5830728444202906,0.033866015666688704,0.064094598227025373,0.0013531396754529388,0.9967092241022637,0.96710941752320068,0.12203287933409052,-0.12203287933409052,-0.96710941752320068,1.8441695516372545,0.0
769640.0783812654,3930767.5119837918,-2500.0,-0.19385295609582681,0.075137052734621762,1.878686703661121,0.019184911812996426,0.080088350926804885,0.0019778862036400561,1.0413940872327783,0.91835300027760769,0.47374709266355097,-0.47374709266355097,-0.91835300027760769,1.9912776092898721,0.0
774640.0783812654,3930767.5119837918,-2500.0,-0.070448648565877861,-0.17426107395589277,2.0509501617429469,0.0048286607447929992,0.090017575164928004,0.0024063756098181201,1.0777142821359682,0.81913004765662845,0.77971877119212551,-0.77971877119212551,-0.81913004765662845,2.113425279117827,0.0
779640.0783812654,3930767.5119837918,-2500.0,0.070553286625368389,-0.392617749967756,2.1156992401917014,-0.0081800787289339656,0.094586193718958739,0.0026566353417315728,1.1017911224246819,0.68927997315753997,1.0265655303273755,-1.0265655303273755,-0.68927997315753997,2.1944422904778556,0.0
784640.0783812654,3930767.5119837918,-2500.0,0.2167588986832687,-0.56976755608238994,2.0940190584478535,-0.019195882197250567,0.094779100265446087,0.0027569441004266786,1.1298708128238177,0.54637329607614349,1.2092829534020191,-1.2092829534020191,-0.54637329607614349,2.2301568937113871,0.0
684640.0783812654,3935767.5119837918,-2500.0,-1.3091565941801881,-1.3616085466187124,-2.3734195577859563,-0.088477831850767671,-0.1306019711461377,-0.0053455260580835629,1.6564486510533503,-1.7230086959849038,0.29774315572753296,-0.29774315572753296,1.7230086959849038,3.1395486770977841,0.0
689640.0783812654,3935767.5119837918,-2500.0,-1.2308361183783776,-1.3979222408820038,-2.7656434715901521,-0.089192370382376068,-0.15264777318814063,-0.006183211418664937,1.8020767972242138,-1.9294795007756651,0.2217520545290057,-0.2217520545290057,1.9294795007756651,3.4192607797842234,0.0
694640.0783812654,3935767.5119837918,-2500.0,-1.1131807670166716,-1.3792366159185017,-3.1673383122303163,-0.086413718515729404,-0.17533661770774181,-0.0070461558734806638,1.9363239241327428,-2.1108107547755406,0.098446693845120947,-0.098446693845120947,2.1108107547755406,3.6792368046743702,0.0
699640.0783812654,3935767.5119837918,-2500.0,-0.96005977721788183,-1.2903414526106856,-3.5519897584318825,-0.079302902203757145,-0.19725549439850398,-0.0078848336919784181,2.0495296010833002,-2.2451354502042866,-0.078647655344600276,0.078647655344600276,2.2451354502042866,3.9016981134067095,0.0
704640.0783812654,3935767.5119837918,-2500.0,-0.78130293454922684,-1.1196518175467258,-3.8838272938553908,-0.067253734156496686,-0.2164980369444458,-0.0086323789741596796,2.1306287498261733,-2.3079507170629432,-0.31076911780450778,0.31076911780450778,2.3079507170629432,4.0663190209100062,0.0
709640.0783812654,3935767.5119837918,-2500.0,-0.59292098943536342,-0.86314118398920403,-4.1196514797989598,-0.050110888902226133,-0.23076035250362767,-0.0092077127927985402,2.1680882903747909,-2.2753796365815129,-0.59088243823757236,0.59088243823757236,2.2753796365815129,4.1520441936799983,0.0
714640.0783812654,3935767.5119837918,-2500.0,-0.4157059912910509,-0.52833663226538485,-4.2134292256412298,-0.028385967152180124,-0.23758054281120458,-0.0095235046435439129,2.1513850919067545,-2.1289250985707167,-0.90117206845883735,0.90117206845883735,2.1289250985707167,4.1399787762078182,0.0
719640.0783812654,3935767.5119837918,-2500.0,-0.2718661398693521,-0.13706162484348841,-4.1237681248978557,-0.0034000986792927144,-0.23472709674803896,-0.0094992280798674444,2.0729443230617233,-1.8609835212770114,-1.2122585547347673,1.2122585547347673,1.8609835212770114,4.0172477775047408,0.0
724640.0783812654,3935767.5119837918,-2500.0,-0.18002792725400238,0.27463238266404877,-3.8232854015734343,0.022729671661587476,-0.22068558134733454,-0.0090777629395146428,1.9302950953984723,-1.4796510771812164,-1.4853322140600229,1.4853322140600229,1.4796510771812164,3.7814401456226983,0.0
729640.0783812654,3935767.5119837918,-2500.0,-0.14983596594268833,0.66049282510903928,-3.3076104810870568,0.047319526828778137,-0.19512838981123498,-0.0082417051273304329,1.7290238838572181,-1.0109226813386143,-1.6777723789806545,1.6777723789806545,1.0109226813386143,3.4450553792261425,0.0
734640.0783812654,3935767.5119837918,-2500.0,-0.17805796768979637,0.97198550469671618,-2.6009524298143867,0.067557976694001237,-0.1592113537519784,-0.0070242406429759001,1.5586032803128349,-0.49669688255221789,-1.7515603459844473,1.7515603459844473,0.49669688255221789,3.0394195581783325,0.0
739640.0783812654,3935767.5119837918,-2500.0,-0.2480233759242623,1.1683656060364007,-1.7555344283147045,0.081061042049000095,-0.11555907468798515,-0.005509743782991839,1.3948376297562362,0.011766216822887365,-1.6823440357664128,1.6823440357664128,-0.011766216822887365,2.6176331600533453,0.0
744640.0783812654,3935767.5119837918,-2500.0,-0.33315284432691877,1.2258468414959327,-0.84399135180650253,0.086380820578359371,-0.0678900869596131,-0.0038223042574051518,1.2557308542827288,0.46351091551087853,-1.4661719492357328,1.4661719492357328,-0.46351091551087853,2.2543209340138746,0.0
749640.0783812654,3935767.5119837918,-2500.0,-0.40365369481020053,1.1427337314079249,0.05357578421371758,0.083299711968347345,-0.020363359445161294,-0.0021044387663554003,1.1682981833118906,0.81781190448158658,-1.1213601327951797,1.1213601327951797,-0.81781190448158658,2.0313252108740798,0.0
754640.0783812654,3935767.5119837918,-2500.0,-0.43405759369278074,0.93878923501260669,0.86408015478083811,0.072815060851011915,0.023164460113945167,-0.000492081289114685,1.1439649384007953,1.0512511735767798,-0.68467979180687299,0.68467979180687299,-1.0512511735767798,1.9929386515130092,0.0
759640.0783812654,3935767.5119837918,-2500.0,-0.40897644262521549,0.64934124378503999,1.5331758756219851,0.056835639783532475,0.059753878924950217,0.0009069002205855008,1.1708722150031656,1.159992943841941,-0.20321990120691763,0.20321990120691763,-1.159992943841941,2.1045756574963019,0.0
764640.0783812654,3935767.5119837918,-2500.0,-0.32539127389899969,0.3165035733230353,2.0313030242984813,0.037711519326949126,0.087716577974271917,0.002025319691873668,1.2230617678236697,1.1572242152874672,0.27524818568040144,-0.27524818568040144,-1.1572242152874672,2.2841763127367063,0.0
769640.0783812654,3935767.5119837918,-2500.0,-0.19134731008732375,-0.019493752512950904,2.3534711489587763,0.017755691645994037,0.10663170759152582,0.0028388165549264426,1.2758655688876761,1.0673820855914857,0.71046792120100877,-0.71046792120100877,-1.0673820855914857,2.4608611455794231,0.0
774640.0783812654,3935767.5119837918,-2500.0,-0.022227616850382857,-0.32656560559853381,2.5142871448581823,-0.0011162829863373665,0.11711364915186002,0.0033593092843484961,1.313704595667339,0.91945723942608204,1.0745927075295196,-1.0745927075295196,-0.91945723942608204,2.5943681416296553,0.0
779640.0783812654,3935767.5119837918,-2500.0,0.16372455855846782,-0.58369978005628942,2.5407218051678857,-0.017572216974708559,0.12045393368851634,0.00362382017195774,1.34339317961899,0.74130099076822653,1.3534130636052688,-1.3534130636052688,-0.74130099076822653,2.6688719095734332,0.0
784640.0783812654,3935767.5119837918,-2500.0,0.34924214746060189,-0.78089580369968814,2.4649471664094791,-0.030885941279565267,0.11825589505427957,0.0036823925129658638,1.3649051240838368,0.55594869781292089,1.5447232471841683,-1.5447232471841683,-0.55594869781292089,2.6834551873085535,0.0
789640.0783812654,3935767.5119837918,-2500.0,0.52050569496951227,-0.91715900138540352,2.3187204370189618,-0.040847773470030289,0.11214030421288831,0.0035880051419058564,1.3555647142549403,0.38005409464392215,1.6551323765485659,-1.6551323765485659,-0.38005409464392215,2.6451054862898928,0.0
794640.0783812654,3935767.5119837918,-2500.0,0.66817266116409713,-0.99769382016293628,2.1298418993663031,-0.047622517889374993,0.10355299588892555,0.0033895706825306151,1.3211526987256164,0.22395410935265947,1.6965325152286526,-1.6965325152286526,-0.22395410935265947,2.5642267393129972,0.0
674640.0783812654,3940767.5119837918,-2500.0,-1.6326323112025132,-1.3367347777961271,-1.7404600173836471,-0.097718260195529955,-0.10138368415913361,-0.0046380050742462998,1.5164167070310357,-1.3797015222871689,0.41528724153955021,-0.41528724153955021,1.3797015222871689,2.8736035381710265,0.0
679640.0783812654,3940767.5119837918,-2500.0,-1.6558082899640236,-1.4847958564387609,-2.1260918992833147,-0.10612648491902348,-0.12435467153120784,-0.0055847441501350511,1.7022014772648413,-1.6388345346532283,0.42708958317003609,-0.42708958317003609,1.6388345346532283,3.2271526863403635,0.0
684640.0783812654,3940767.5119837918,-2500.0,-1.637074922089069,-1.6113821575774059,-2.5685463356264799,-0.11277689103203299,-0.1507359770847467,-0.0066647731670487816,1.8961106082626518,-1.9151277852689739,0.40818117336244797,-0.40818117336244797,1.9151277852689739,3.5972953663967489,0.0
689640.0783812654,3940767.5119837918,-2500.0,-1.5681630559531787,-1.6978996064123426,-3.0601402732197034,-0.1164965921215355,-0.18009725080821495,-0.0078617765043596625,2.0914492857261808,-2.194610042172628,0.34514256627379369,-0.34514256627379369,2.194610042172628,3.97178533005509,0.0
694640.0783812654,3940767.5119837918,-2500.0,-1.4442033495357041,-1.7220566913284343,-3.5831181643111751,-0.11591948162483177,-0.2114343804522687,-0.0091380619667148742,2.2786174538553174,-2.456070647690014,0.22371340825299657,-0.22371340825299657,2.456070647690014,4.3329798733691467,0.0
699640.0783812654,3940767.5119837918,-2500.0,-1.2663477599948407,-1.6600808121679913,-4.1066450729505171,-0.10963060947923513,-0.24300178137054168,-0.010428339303745558,2.4449391154831663,-2.6707683597996814,0.031343406652240224,-0.031343406652240224,2.6707683597996814,4.6575334771493813,0.0
704640.0783812654,3940767.5119837918,-2500.0,-1.0442994839388806,-1.4908453358184022,-4.5850170947536437,-0.096419808459681941,-0.27221382384003767,-0.0116358960532452,2.5749991390754663,-2.8038952134895423,-0.23885303113500611,0.23885303113500611,2.8038952134895423,4.9170617566800976,0.0
709640.0783812654,3940767.5119837918,-2500.0,-0.79774782411919409,-1.2018796022889346,-4.9586407192030952,-0.075638534670905158,-0.29570035509389347,-0.01263434790722644,2.6517445233256907,-2.818602769470282,-0.58307944459586514,0.58307944459586514,2.818602769470282,5.0802784706035951,0.0
714640.0783812654,3940767.5119837918,-2500.0,-0.55543211717909213,-0.79634742373618639,-5.1594215451686765,-0.047603227801025848,-0.30960518182042179,-0.013278087050516542,2.6585351108523483,-2.682915970329498,-0.98192078367705993,0.98192078367705993,2.682915970329498,5.116990622824475,0.0
719640.0783812654,3940767.5119837918,-2500.0,-0.35080511240895634,-0.2989302391644495,-5.1214652644946499,-0.013925078187616038,-0.31017538245734982,-0.013423277815782796,2.5821233240598831,-2.3787744903333325,-1.3975067018562712,1.3975067018562712,2.3787744903333325,5.0039828890653686,0.0
724640.0783812654,3940767.5119837918,-2500.0,-0.21432199583339798,0.24230791298828039,-4.7961591283172371,0.022398910005536826,-0.29459022419146397,-0.012957865978206707,2.4162244319638684,-1.9109408989828971,-1.7751951437059024,1.7751951437059024,1.9109408989828971,4.7322712704246923,0.0
729640.0783812654,3940767.5119837918,-2500.0,-0.16412851091989514,0.76072785004850085,-4.1681154334484374,0.057279912888348224,-0.26183977831736804,-0.011833960230049942,2.1658942283715175,-1.3122969710224561,-2.0514363804572127,2.0514363804572127,1.3122969710224561,4.3146881758235445,0.0
734640.0783812654,3940767.5119837918,-2500.0,-0.19856345844661563,1.1832578974597079,-3.2663499021248672,0.086249295402503798,-0.2133507376082926,-0.010091893976860519,1.9448376220378065,-0.64214532436779614,-2.167252995130136,2.167252995130136,0.64214532436779614,3.7926502469140857,0.0
739640.0783812654,3940767.5119837918,-2500.0,-0.29418667482438554,1.4472248068752391,-2.1651385791429045,0.10543744039447853,-0.15305931247875165,-0.0078651731816523178,1.7294071459269562,0.023785263877094787,-2.0837770408253977,2.0837770408253977,-0.023785263877094787,3.2411643486789274,0.0
744640.0783812654,3940767.5119837918,-2500.0,-0.41120109316229164,1.5162767635916543,-0.97215846360282465,0.11250502117254199,-0.086797006307513302,-0.0053607031091997635,1.5468630900716698,0.60941233952228424,-1.7942268476659455,1.7942268476659455,-0.60941233952228424,2.76855516892397,0.0
749640.0783812654,3940767.5119837918,-2500.0,-0.50477174232863986,1.3892871782529759,0.19327131618827284,0.1071821582575769,-0.021130711194513051,-0.0028187105893405862,1.4363957831415148,1.0551292709310649,-1.3272836689129777,1.3272836689129777,-1.0551292709310649,2.4929894273935749,0.0
754640.0783812654,3940767.5119837918,-2500.0,-0.53781515838740979,1.0988500890222799,1.2246229305891776,0.091218445782271257,0.037963968472128615,-0.00046506076253645487,1.4121300829058894,1.3294327814828408,-0.7402301674447318,0.7402301674447318,-1.3294327814828408,2.4697343224354351,0.0
759640.0783812654,3940767.5119837918,-2500.0,-0.49025335678124665,0.70051977041508384,2.0471138382738601,0.067796634911812648,0.086159428181612388,0.0015284305037914013,1.4529450443276399,1.4317715603193246,-0.10461542929351542,0.10461542929351542,-1.4317715603193246,2.6344817276271839,0.0
764640.0783812654,3940767.5119837918,-2500.0,-0.36179068966067623,0.25760470200655977,2.6260203808837237,0.040670086822414207,0.12127570351197753,0.0030648740896121584,1.5200532706134779,1.3869681394289137,0.50998033252075015,-0.50998033252075015,-1.3869681394289137,2.8667370279300912,0.0
769640.0783812654,3940767.5119837918,-2500.0,-0.16847568962990597,-0.17281840364375306,2.9640305612009388,0.013341380360540753,0.14318901393239059,0.0041221646425821179,1.5804169589187409,1.2346988719922449,1.0486809267293129,-1.0486809267293129,-1.2346988719922449,3.0746322436580464,0.0
774640.0783812654,3940767.5119837918,-2500.0,0.06432181089756063,-0.54883342688539405,3.0911839318280263,-0.011492111409088361,0.15332499253150114,0.0047372316678831756,1.6167557778765775,1.0184017188059178,1.4776499834397905,-1.4776499834397905,-1.0184017188059178,3.21253407520389,0.0
779640.0783812654,3940767.5119837918,-2500.0,0.30933950408126781,-0.8465977614429423,3.0522848920230641,-0.032156054207798421,0.15399279591860007,0.0049833445107165296,1.6520914467459411,0.77682621608216984,1.7841232869438057,-1.7841232869438057,-0.77682621608216984,3.2673599565057345,0.0
784640.0783812654,3940767.5119837918,-2500.0,0.54301178010571405,-1.0585385188993861,2.8957340775669058,-0.0479396639688476,0.14777519270912684,0.0049483468997518799,1.6559891355639087,0.53946075071870569,1.9721936140850336,-1.9721936140850336,-0.53946075071870569,3.2441712113793804,0.0
789640.0783812654,3940767.5119837918,-2500.0,0.74840265144218343,-1.1890411407299928,2.6657916525717837,-0.058876437848840099,0.13709119842006384,0.0047181575701131778,1.6218497463794537,0.325440555894845,2.056888654104112,-2.056888654104112,-0.325440555894845,3.1565198359647555,0.0
794640.0783812654,3940767.5119837918,-2500.0,0.91578681545177631,-1.2496178399700524,2.398526291486315,-0.065477466833465156,0.12395394415639077,0.0043670120817197646,1.5592448091066569,0.14474457563478105,2.0585179673211274,-2.0585179673211274,-0.14474457563478105,3.0206274858349431,0.0
799640.0783812654,3940767.5119837918,-2500.0,1.041700815206323,-1.2547992147677247,2.1206789985441676,-0.068492290352906798,0.10988848096754143,0.0039533338411872404,1.4772540729277053,0.0004358890702085283,1.9983421484393558,-1.9983421484393558,-0.0004358890702085283,2.8521367203926276,0.0
669640.0783812654,3945767.5119837918,-2500.0,-1.8586423904792431,-1.2818334856659219,-1.4026951920184008,-0.10515017785819264,-0.08709005609220731,-0.0044868200465510173,1.4704182508611108,-1.1620748962135958,0.42983708281892469,-0.42983708281892469,1.1620748962135958,2.7902685636952804,0.0
674640.0783812654,3945767.5119837918,-2500.0,-1.9616020036106643,-1.4871765318991876,-1.7698155020616502,-0.11860997820776627,-0.11050178606604001,-0.0055450033717179704,1.683039799365295,-1.437166764222185,0.48630368085668219,-0.48630368085668219,1.437166764222185,3.194012327388811,0.0
679640.0783812654,3945767.5119837918,-2500.0,-2.0302437799676274,-1.6956039336411541,-2.2151247815289583,-0.13177479491359598,-0.13890120582906262,-0.0068141588283605397,1.9165834209947319,-1.753029375803639,0.52665052543599955,-0.52665052543599955,1.753029375803639,3.6383697771654737,0.0
684640.0783812654,3945767.5119837918,-2500.0,-2.0501155197935597,-1.8911630855708073,-2.7436149843209132,-0.1434998429662053,-0.17260761594895502,-0.0083070066887654843,2.1672792036829676,-2.1037765665311747,0.53696150381362506,-0.53696150381362506,2.1037765665311747,4.1166208050674662,0.0
689640.0783812654,3945767.5119837918,-2500.0,-2.0067097408966625,-2.0507692787272802,-3.3527172640782554,-0.15219804958093341,-0.21147524912027829,-0.010017526359210778,2.4280566295599328,-2.4757220977502379,0.49911099460577768,-0.49911099460577768,2.4757220977502379,4.6159181946690131,0.0
694640.0783812654,3945767.5119837918,-2500.0,-1.888324285246042,-2.1440955721818491,-4.0273632938941661,-0.15585457933125399,-0.25459595973655885,-0.011909174011379375,2.6876190254791195,-2.8447489232789591,0.39173468224968455,-0.39173468224968455,2.8447489232789591,5.1155560201529831,0.0
699640.0783812654,3945767.5119837918,-2500.0,-1.6901497107737111,-2.135465180450391,-4.7343650034684384,-0.1521710032351308,-0.29996421507170679,-0.013901579504288632,2.9297567444544654,-3.1744715219327588,0.19306107999766797,-0.19306107999766797,3.1744715219327588,5.5856918090615766,0.0
704640.0783812654,3945767.5119837918,-2500.0,-1.4190097349772379,-1.9888383476564979,-5.4175499707450259,-0.13890143413946843,-0.34419038669079138,-0.015859005729790501,3.1332911979308071,-3.4165906766434118,-0.11374044539868389,0.11374044539868389,3.4165906766434118,5.9872720370132306,0.0
709640.0783812654,3945767.5119837918,-2500.0,-1.0972953770319436,-1.6765379448282418,-5.9962038614736128,-0.11441179165044038,-0.38241195264978461,-0.017586333260296634,3.2731546766941504,-3.5151709658024544,-0.53265380567105858,0.53265380567105858,3.5151709658024544,6.2741371576926142,0.0
714640.0783812654,3945767.5119837918,-2500.0,-0.76375365894410208,-1.1910092438142623,-6.3701634988381022,-0.078409531838956728,-0.40859593599174338,-0.018839990318959762,3.3230887671768876,-3.4161915464608108,-1.0456594943209772,1.0456594943209772,3.4161915464608108,6.398267275250852,0.0
719640.0783812654,3945767.5119837918,-2500.0,-0.46862486094821881,-0.55665169270713433,-6.4343929332660013,-0.032656935196248328,-0.41639377055746191,-0.019360377655811011,3.2601645067413783,-3.0820951607376941,-1.6055353072717287,1.6055353072717287,3.0820951607376941,6.3186524704871987,0.0
724640.0783812654,3945767.5119837918,-2500.0,-0.26204136721058918,0.16357472101383302,-6.1030588506984609,0.018652231114383355,-0.40054710136598987,-0.018925957301113457,3.0707437492774416,-2.5081496547907824,-2.1353416295990937,2.1353416295990937,2.5081496547907824,6.0132569736551256,0.0
729640.0783812654,3945767.5119837918,-2500.0,-0.17788375295690534,0.87266628661990364,-5.3380185928837616,0.069199889579353205,-0.35855231153480466,-0.017418585177238315,2.7575320633005584,-1.7343536274741207,-2.5388293065760936,2.5388293065760936,1.7343536274741207,5.4923079881808565,0.0
734640.0783812654,3945767.5119837918,-2500.0,-0.21915359525660361,1.4581001626754964,-4.1714075897661775,0.11169746320763256,-0.29199588664191639,-0.014877928156331016,2.4667363021279032,-0.8456807783117577,-2.7222324366850055,2.7222324366850055,0.8456807783117577,4.8104855807969829,0.0
739640.0783812654,3945767.5119837918,-2500.0,-0.35253998049494928,1.8206665166961913,-2.710645653445884,0.13966045750741821,-0.20689307951458091,-0.011519298574629858,2.177877529201508,0.04320931592518229,-2.6216528186739714,2.6216528186739714,-0.04320931592518229,4.0758470701454481,0.0
744640.0783812654,3945767.5119837918,-2500.0,-0.51679211995618168,1.90311103659687,-1.1196868081402434,0.14918016938017395,-0.11266719590931458,-0.0076994537864425484,1.9336298109922401,0.81551681409727472,-2.2251507608377601,2.2251507608377601,-0.81551681409727472,3.4496271283686739,0.0
749640.0783812654,3945767.5119837918,-2500.0,-0.64253445597489356,1.7061799937976474,0.41883899685671039,0.13995347886815912,-0.020012090991225379,-0.0038379116960389854,1.792219283662049,1.3818753311369105,-1.5790961151237701,1.5790961151237701,-1.3818753311369105,3.10639086712249,0.0
754640.0783812654,3945767.5119837918,-2500.0,-0.67473477926693437,1.2851140893978199,1.7463022699342361,0.11514253259750264,0.061569531027653737,-0.00032204940637639074,1.7704150027985528,1.7000314135628221,-0.77532266774529535,0.77532266774529535,-1.7000314135628221,3.1127440011275471,0.0
759640.0783812654,3945767.5119837918,-2500.0,-0.5878759733956247,0.7293171733921161,2.7594167997777501,0.080198937095522796,0.12563399019641255,0.002568775724841378,1.8308676308141161,1.7778538385525968,0.075007636516966736,-0.075007636516966736,-1.7778538385525968,3.3524558751218931,0.0
764640.0783812654,3945767.5119837918,-2500.0,-0.38863264138693243,0.13533360115629878,3.4209884925042369,0.041233287628988112,0.1695178872545145,0.0046974876908579075,1.9154427723451393,1.6612904544611322,0.86940680050789498,-0.86940680050789498,-1.6612904544611322,3.6490735875053666,0.0
769640.0783812654,3945767.5119837918,-2500.0,-0.10766538499198419,-0.41587931986619786,3.751140867679319,0.0035853330268278256,0.19393441348793,0.0060602822237145141,1.9804971134046301,1.4149359409722029,1.5337964266573405,-1.5337964266573405,-1.4149359409722029,3.8853842753861842,0.0
774640.0783812654,3945767.5119837918,-2500.0,0.21356044763096343,-0.87111632383513138,3.8072950341150387,-0.029005320489027864,0.20188605386133507,0.0067492496729377599,2.0157774216998567,1.1036581735189939,2.0297535136223956,-2.0297535136223956,-1.1036581735189939,4.0127612084079809,0.0
779640.0783812654,3945767.5119837918,-2500.0,0.53491805206390486,-1.2063147947336113,3.6624491378529282,-0.054579997477992394,0.19743033523388709,0.0069066037405848928,2.0441999427637123,0.7804624172275727,2.351042810191216,-2.351042810191216,-0.7804624172275727,4.0253047453063964,0.0
784640.0783812654,3945767.5119837918,-2500.0,0.82532499734446818,-1.4208168825383201,3.3882144522936422,-0.072684797057545547,0.1846797642905211,0.0066854523086093314,2.0166667302045278,0.48159768147435011,2.5142692388967691,-2.5142692388967691,-0.48159768147435011,3.9383989953616698,0.0
789640.0783812654,3945767.5119837918,-2500.0,1.0655406825039637,-1.5289357463849382,3.0448563016971879,-0.083894182942259629,0.16718532790352469,0.0062239879203825742,1.9442183819143817,0.2271456173046551,2.5483919774790653,-2.5483919774790653,-0.2271456173046551,3.7755086163564031,0.0
794640.0783812654,3945767.5119837918,-2500.0,1.2473698510761442,-1.552076670964424,2.6775664625602356,-0.089335167698524579,0.14767732105632053,0.0056330708660775088,1.8410038678033829,0.024502021134942042,2.486099821005288,-2.486099821005288,-0.024502021134942042,3.5608277663937851,0.0
799640.0783812654,3945767.5119837918,-2500.0,1.3710328300242312,-1.5129472594153246,2.3168773650840322,-0.090317033717095124,0.12805412077392811,0.0049936223689261835,1.7192217485818524,-0.12739070663196683,2.3581161728399276,-2.3581161728399276,0.12739070663196683,3.3156355383529648,0.0
804640.0783812654,3945767.5119837918,-2500.0,1.4421231233574294,-1.4321016591063811,1.9811775958862741,-0.088093800509051245,0.10950468806537203,0.0043597364392797362,1.5885038417460018,-0.2343129714963641,2.19026199085895,-2.19026199085895,0.2343129714963641,3.0569227884438241,0.0
664640.0783812654,3950767.5119837918,-2500.0,-1.9890567369359369,-1.1267647965250045,-1.0392215656334562,-0.10629763263657314,-0.06895122628570037,-0.0041241422302605519,1.3722524571392569,-0.8848028390150503,0.37697990871126408,-0.37697990871126408,0.8848028390150503,2.6103146480927366,0.0
669640.0783812654,3950767.5119837918,-2500.0,-2.1743077764329204,-1.3618995621921,-1.3542936606338958,-0.12384111863472173,-0.090621944622246736,-0.0052171645226756587,1.5980675496875034,-1.1435944715362283,0.46287622550544111,-0.46287622550544111,1.1435944715362283,3.038692225877083,0.0
674640.0783812654,3950767.5119837918,-2500.0,-2.3437612983472613,-1.6247981710873285,-1.7552823162341273,-0.14288518336129816,-0.11819866397862375,-0.0065844536034622087,1.8563673733061625,-1.4592517608998263,0.54972992105244334,-0.54972992105244334,1.4592517608998263,3.5293614514611598,0.0
679640.0783812654,3950767.5119837918,-2500.0,-2.4810415591212531,-1.9071923860974753,-2.2585421175778646,-0.16267980740217497,-0.15278563332403666,-0.0082746044100446316,2.1476036842985815,-1.8359167706430302,0.6274381259262729,-0.6274381259262729,1.8359167706430302,4.0835604622110253,0.0
684640.0783812654,3950767.5119837918,-2500.0,-2.5656640269809858,-2.1929418431960079,-2.8781502543278594,-0.18191566450251245,-0.19532980571025801,-0.010329074587273317,2.4695071774097062,-2.272347935802753,0.68002785820705058,-0.68002785820705058,2.272347935802753,4.6975114953534582,0.0
689640.0783812654,3950767.5119837918,-2500.0,-2.5744233677618129,-2.4553765544560457,-3.6212261271754609,-0.19856382569174896,-0.24631301994463892,-0.012768922481712578,2.8156311680083923,-2.7580154801285746,0.68444725892445857,-0.68444725892445857,2.7580154801285746,5.3596951050076411,0.0
694640.0783812654,3950767.5119837918,-2500.0,-2.4847186615304957,-2.655373402657518,-4.4807851585905292,-0.20977859883040456,-0.30528814023570511,-0.015574979266603966,3.1736490422294485,-3.2683156159630649,0.61048998922675568,-0.61048998922675568,3.2683156159630649,6.0476585894752661,0.0
699640.0783812654,3950767.5119837918,-2500.0,-2.2803558109629551,-2.7417403504533286,-5.4262503058000915,-0.21196796901108009,-0.37027068060263935,-0.018661818611427954,3.5236992841391559,-3.7598737947855527,0.42317837279175108,-0.42317837279175108,3.7598737947855527,6.724914527750089,0.0
704640.0783812654,3950767.5119837918,-2500.0,-1.9596293887040774,-2.6561315139949118,-6.3931235130466932,-0.20117227787265049,-0.4370846395892784,-0.021849638238432442,3.8373660186415059,-4.1680214713491566,0.089220647040638479,-0.089220647040638479,4.1680214713491566,7.3390489377993342,0.0
709640.0783812654,3950767.5119837918,-2500.0,-1.5439397867483973,-2.3446918431949855,-7.2755558642141196,-0.1738809670466252,-0.49889958442699389,-0.024843766691039999,4.0782089496992757,-4.4097081260334496,-0.41131008016644421,0.41131008016644421,4.4097081260334496,7.822793390225474,0.0
714640.0783812654,3950767.5119837918,-2500.0,-1.0830626554982477,-1.7769720384982537,-7.9280303871076701,-0.12830159898400317,-0.5463449914606564,-0.027237862927856751,4.2049371652439476,-4.3954451096142346,-1.0688818920898573,1.0688818920898573,4.3954451096142346,8.100196738447778,0.0
719640.0783812654,3950767.5119837918,-2500.0,-0.6516369322932748,-0.96862984930266527,-8.1832314241556467,-0.06583530867078391,-0.5686339627332222,-0.028558879812531354,4.1780559104725041,-4.051931968069729,-1.8285359164290402,1.8285359164290402,4.051931968069729,8.0996099317562091,0.0
724640.0783812654,3950767.5119837918,-2500.0,-0.33265485472968725,0.0011572356803402079,-7.8896216868158566,0.0078331845325271387,-0.55590576017542304,-0.028363331765095784,3.9698324055722649,-3.3517636493117839,-2.5828458027578591,2.5828458027578591,3.3517636493117839,7.773489802851655,0.0
729640.0783812654,3950767.5119837918,-2500.0,-0.18950256918569644,0.99025613359572673,-6.9626490795012339,0.082831628346121802,-0.50241209840257806,-0.026370988961094959,3.5764386948806584,-2.3393303400302972,-3.1839002126152818,3.1839002126152818,2.3393303400302972,7.1222677759394699,0.0
734640.0783812654,3950767.5119837918,-2500.0,-0.23697071835029962,1.8211734978632752,-5.4309419708518938,0.14693664740392079,-0.4094153666138437,-0.022590671005095937,3.1880436715556617,-1.1375778410902917,-3.478578103489248,3.478578103489248,1.1375778410902917,6.2172689076315386,0.0
739640.0783812654,3950767.5119837918,-2500.0,-0.42740020516336968,2.3316953007770511,-3.4524460543345223,0.18888423118583353,-0.28627836635674869,-0.017375659048837352,2.792170159455003,0.075069368899121303,-3.3582577277138883,3.3582577277138883,-0.075069368899121303,5.2175350658895523,0.0
744640.0783812654,3950767.5119837918,-2500.0,-0.66351830763610953,2.4284803414872003,-1.2845430680175987,0.20188769191327927,-0.14875617124583673,-0.011364929243565774,2.4579717076703318,1.1135121673435515,-2.8012598728439202,2.8012598728439202,-1.1135121673435515,4.3700332493429208,0.0
749640.0783812654,3950767.5119837918,-2500.0,-0.83452876251344554,2.1172535811417244,0.78445589427519546,0.18569924455588635,-0.01488614662874806,-0.0053211631099256539,2.2743255067754298,1.840106300682564,-1.885337922460973,1.885337922460973,-1.840106300682564,3.9393689573383894,0.0
754640.0783812654,3950767.5119837918,-2500.0,-0.85716451418086981,1.4945862043365432,2.5128197783798614,0.14623257009615612,0.09978136260772287,6.7236519264628872e-05,2.2593412554456713,2.1990765500389129,-0.76253004700909244,0.76253004700909244,-2.1990765500389129,3.9997709300399156,0.0
759640.0783812654,3950767.5119837918,-2500.0,-0.7009987826743409,0.70798305620685364,3.7584158392358424,0.093103936789526415,0.1855830113625008,0.0043369361980467591,2.3469432668470502,2.2179095456762812,0.39034130911395104,-0.39034130911395104,-2.2179095456762812,4.3441386998359928,0.0
764640.0783812654,3950767.5119837918,-2500.0,-0.38881034591001495,-0.093427429979257931,4.4904222966474405,0.036451099194472335,0.23968545641850197,0.0073038452384239149,2.4499077781141967,1.9812130949079712,1.4210914885221384,-1.4210914885221384,-1.9812130949079712,4.7152522516792637,0.0
769640.0783812654,3950767.5119837918,-2500.0,0.022200439000142843,-0.79579225071435222,4.7658079285461445,-0.015575865768121692,0.26484366005214999,0.0090256173900548128,2.5122518896860431,1.5943541383777164,2.2322036879485831,-2.2322036879485831,-1.5943541383777164,4.967443206293173,0.0
774640.0783812654,3950767.5119837918,-2500.0,0.46501959715491126,-1.3354103452328896,4.6898757218774403,-0.057971309529004957,0.26708411439863666,0.0097137036306689586,2.5500450716892482,1.1532974125504742,2.7863660284406784,-2.7863660284406784,-1.1532974125504742,5.0551321234270867,0.0
779640.0783812654,3950767.5119837918,-2500.0,0.88208407950993706,-1.694667319118788,4.3793572884377543,-0.088793198162618936,0.25343569848629721,0.0096407724834889769,2.542680984320882,0.72834946333475825,3.0943110800777354,-3.0943110800777354,-0.72834946333475825,4.9875127517852844,0.0
784640.0783812654,3950767.5119837918,-2500.0,1.2347715638113836,-1.8881063150315325,3.9378329851088574,-0.10837571539756094,0.230345496903475,0.0090716403460851212,2.4629273868750383,0.36093974256656458,3.1957214957442721,-3.1957214957442721,-0.36093974256656458,4.7970066633658801,0.0
789640.0783812654,3950767.5119837918,-2500.0,1.5043485800370151,-1.9470513385035073,3.4445850502386048,-0.11836900811121172,0.20289713928607814,0.0082255096371503921,2.3327061958367241,0.068398833218023647,3.1415801212854957,-3.1415801212854957,-0.068398833218023647,4.5215369627066924,0.0
794640.0783812654,3950767.5119837918,-2500.0,1.6879772901821402,-1.9075511183330174,2.9532618288960153,-0.12093547656888287,0.17464501182341691,0.007263906603599002,2.1719764320971637,-0.14839033149002212,2.9818641765200034,-2.9818641765200034,0.14839033149002212,4.1957068195959177,0.0
799640.0783812654,3950767.5119837918,-2500.0,1.7931512972401389,-1.8029684607203251,2.4957974579615594,-0.11821822424032449,0.14779917186993746,0.0062943417215339742,1.9965304839276721,-0.29777856655619694,2.7589497407829224,-2.7589497407829224,0.29777856655619694,3.8472904528402667,0.0
804640.0783812654,3950767.5119837918,-2500.0,1.8326431167743193,-1.6605433428013689,2.0880666767588902,-0.11206221895911146,0.12354417657152382,0.0053810762945188202,1.8178829368293243,-0.39197941462660268,2.5053448440828792,-2.5053448440828792,0.39197941462660268,3.4966454536300615,0.0
809640.0783812654,3950767.5119837918,-2500.0,1.8208101150549425,-1.50060761318015,1.7352622730108258,-0.10391600613360136,0.10236065367037692,0.0045571434402784192,1.643833829086609,-0.44369875653896762,2.2440306455772223,-2.2440306455772223,0.44369875653896762,3.1575330739841965,0.0
664640.0783812654,3955767.5119837918,-2500.0,-2.254062678858173,-1.1284619992975122,-0.93701036049544673,-0.12097616357926716,-0.067376096674417754,-0.0046405640159694738,1.4553322364491201,-0.80161212758985312,0.36386139019951624,-0.36386139019951624,0.80161212758985312,2.7766389415918704,0.0
669640.0783812654,3955767.5119837918,-2500.0,-2.5168427023027191,-1.4065945419501038,-1.2590548700759645,-0.14409272867237022,-0.091469190926347643,-0.0059956649362556463,1.7198611370945875,-1.0785714633023216,0.47333716815035698,-0.47333716815035698,1.0785714633023216,3.2788996358738811,0.0
674640.0783812654,3955767.5119837918,-2500.0,-2.7761441118174646,-1.7319488471760009,-1.6833975628796456,-0.17031656267503748,-0.12319520022912828,-0.0077413826987195516,2.0299721884276551,-1.4296688615009774,0.59419515206549645,-0.59419515206549645,1.4296688615009774,3.8683951396979492,0.0
679640.0783812654,3955767.5119837918,-2500.0,-3.0126846797634155,-2.1006289408786998,-2.2361965899464211,-0.19909626181478429,-0.1644638558071535,-0.0099700130709444237,2.3893351994356711,-1.8663645692925703,0.71768046439138533,-0.71768046439138533,1.8663645692925703,4.5525427876265416,0.0
684640.0783812654,3955767.5119837918,-2500.0,-3.1995769538287271,-2.4994608933699389,-2.9447109688079132,-0.2291400379530483,-0.21725016181323825,-0.012776428843221905,2.7989055843939892,-2.3957994842646544,0.82738266020372264,-0.82738266020372264,2.3957994842646544,5.3338044436746284,0.0
689640.0783812654,3955767.5119837918,-2500.0,-3.3025999117273588,-2.9011045405222822,-3.8322007071364412,-0.25807889697164893,-0.28322668492672398,-0.016240743078329446,3.2547954816082085,-3.0154749401573113,0.89629795697090175,-0.89629795697090175,3.0154749401573113,6.205705511788727,0.0
694640.0783812654,3955767.5119837918,-2500.0,-3.2831064716466738,-3.2589005456200897,-4.9086378875358383,-0.28213641289064817,-0.36310684568500345,-0.020397695818276697,3.7454341306658385,-3.7055873334902767,0.88453858019388409,-0.88453858019388409,3.7055873334902767,7.1475098786382736,0.0
699640.0783812654,3955767.5119837918,-2500.0,-3.1051635789900254,-3.5035322542343432,-6.1561872824075836,-0.29596049398667146,-0.45563490748623586,-0.025189811415846419,4.2482548140191474,-4.4196539154872134,0.7396745576401611,-0.7396745576401611,4.4196539154872134,8.1179960049680719,0.0
704640.0783812654,3955767.5119837918,-2500.0,-2.7479775270197151,-3.5453332261672106,-7.5100883713649873,-0.29288644290384508,-0.55627577092515679,-0.030406552164232756,4.7266587552396553,-5.0759706047461055,0.40287234109578707,-0.40287234109578707,5.0759706047461055,9.0497571550736335,0.0
709640.0783812654,3955767.5119837918,-2500.0,-2.2224599701880634,-3.2874653339458817,-8.8393789935038249,-0.2659791244578858,-0.65591449675064917,-0.035623167572918807,5.1287537015046496,-5.5552798920446413,-0.17555600173738517,0.17555600173738517,5.5552798920446413,9.8468871087909839,0.0
714640.0783812654,3955767.5119837918,-2500.0,-1.586456473970498,-2.6542133154649581,-9.9377701886517382,-0.21010920119792897,-0.74026009100739798,-0.040170507981143778,5.3901065575709532,-5.7125628206275412,-1.0096181929610379,1.0096181929610379,5.7125628206275412,10.390375250802931,0.0
719640.0783812654,3955767.5119837918,-2500.0,-0.94803228577791254,-1.632536916424582,-10.540183880295219,-0.12488141731750867,-0.79097650296564914,-0.043181437981563667,5.4428705650551281,-5.4099948190192233,-2.0449819119791721,2.0449819119791721,5.4099948190192233,10.555891327207807,0.0
724640.0783812654,3955767.5119837918,-2500.0,-0.44485831328162301,-0.31295283008016117,-10.378474908256239,-0.017419291328808491,-0.7894144397900148,-0.043754736492717113,5.2322643130348894,-4.5698147246463314,-3.1353598824173581,3.1353598824173581,4.5698147246463314,10.246281572936866,0.0
729640.0783812654,3955767.5119837918,-2500.0,-0.19647251731567966,1.0965217367142033,-9.2733901549318141,0.096781195659877792,-0.72273638943562657,-0.041230892817467737,4.7384920154256855,-3.2296853534221439,-4.0507847765734644,4.0507847765734644,3.2296853534221439,9.4353522681533892,0.0
734640.0783812654,3955767.5119837918,-2500.0,-0.24589488952220845,2.3087704745853124,-7.2305214113882936,0.19660757444347665,-0.59033829187977704,-0.035490598052473663,4.2112343770650051,-1.5681696687670306,-4.5338596690184509,4.5338596690184509,1.5681696687670306,8.2128921723624781,0.0
739640.0783812654,3955767.5119837918,-2500.0,-0.52507906312046604,3.0486461968160703,-4.4855957404329327,0.26168034820099545,-0.4070276702113701,-0.027120409323287908,3.6548326811876919,0.12846871396566328,-4.3927685697292196,4.3927685697292196,-0.12846871396566328,6.8184311987492849,0.0
744640.0783812654,3955767.5119837918,-2500.0,-0.87388178192921206,3.1577879592000624,-1.4570972908768687,0.27968185121564065,-0.20019390065419485,-0.017315130693819378,3.1855280102682313,1.5559322346175364,-3.5866635724195302,3.5866635724195302,-1.5559322346175364,5.6429764049139761,0.0
749640.0783812654,3955767.5119837918,-2500.0,-1.108839905573314,2.6543350535822907,1.3833893241252582,0.25071203742265485,-0.0015134271846169972,-0.007527093822870555,2.9432249565837152,2.495705082826345,-2.2515179818815119,2.2515179818815119,-2.495705082826345,5.0994541512540463,0.0
754640.0783812654,3955767.5119837918,-2500.0,-1.101601019875116,1.7131846930356136,3.6583575009250588,0.1862722226393233,0.1627565968640185,0.0009707243013918923,2.9426799956506158,2.8774357763494738,-0.64831337794714217,0.64831337794714217,-2.8774357763494738,5.2548301905877013,0.0
759640.0783812654,3955767.5119837918,-2500.0,-0.82164063818963295,0.58421492025943011,5.175918959088766,0.10387425700869232,0.278152130096466,0.0073965728256597824,3.066354675859742,2.772737871969535,0.93475463338337506,-0.93475463338337506,-2.772737871969535,5.7423183788543692,0.0
764640.0783812654,3955767.5119837918,-2500.0,-0.32735449597293909,-0.50007144358842448,5.935289944614186,0.020629214538137097,0.34287676313864929,0.011536266263455105,3.1837746400612628,2.3376056663626907,2.2713300350662267,-2.2713300350662267,-2.3376056663626907,6.1901045591747828,0.0
769640.0783812654,3955767.5119837918,-2500.0,0.27618520670073859,-1.3834048593868806,6.0684324948320798,-0.051140322626567633,0.36437290320333127,0.013619828245713839,3.229649513606581,1.7436814986211444,3.2402160687375008,-3.2402160687375008,-1.7436814986211444,6.4255341160582624,0.0
774640.0783812654,3955767.5119837918,-2500.0,0.88262110253210002,-1.9988335854197534,5.7630101852220479,-0.10523344723555911,0.35440300576804951,0.014114378446015284,3.2536769297988952,1.1300734754141635,3.8207600722739068,-3.8207600722739068,-1.1300734754141635,6.4192823645672412,0.0
779640.0783812654,3955767.5119837918,-2500.0,1.4130678321179935,-2.3498537851886638,5.2015193393584722,-0.14060447405473106,0.32495556065055048,0.013538053353527729,3.1760815723505296,0.58488343156957745,4.0608487517499494,-4.0608487517499494,-0.58488343156957745,6.2092378568558297,0.0
784640.0783812654,3955767.5119837918,-2500.0,1.8247920801035793,-2.4805460393051284,4.5288262564507216,-0.15945331892571882,0.28590249316555782,0.012343490146084324,3.0127071451425036,0.14890945096290076,4.0402946588595166,-4.0402946588595166,-0.14890945096290076,5.8547857686759759,0.0
789640.0783812654,3955767.5119837918,-2500.0,2.1062807094519402,-2.4494479734596117,3.8437354240000285,-0.16541150998299076,0.24423697051732154,0.010870530669956035,2.7971736410073329,-0.1706700233444447,3.8430183460206404,-3.8430183460206404,0.1706700233444447,5.4139262201057488,0.0
794640.0783812654,3955767.5119837918,-2500.0,2.2669002227378132,-2.3127631018107224,3.2044592042499733,-0.16228298490183501,0.20428579200720867,0.009345207814786682,2.5564274491611991,-0.38575858324417989,3.5414114308656988,-3.5414114308656988,0.38575858324417989,4.9338612993296209,0.0
799640.0783812654,3955767.5119837918,-2500.0,2.3267704007312133,-2.1163932373923591,2.6392072730789313,-0.15337158231016881,0.16832793197728946,0.0079008031101236286,2.3098775290322289,-0.51623455198585688,3.1905703525476588,-3.1905703525476588,0.51623455198585688,4.4488431962825254,0.0
804640.0783812654,3955767.5119837918,-2500.0,2.3092965590212331,-1.8939565785813617,2.1566883498298504,-0.14123902464780308,0.13725973350573967,0.0066043151147066438,2.0703312581614579,-0.58307309771085358,2.8285222486256512,-2.8285222486256512,0.58307309771085358,3.9814384021644562,0.0
809640.0783812654,3955767.5119837918,-2500.0,2.2366771560856735,-1.6679628271403417,1.7543715901325787,-0.12771207938980433,0.11114305159482103,0.0054799568190807887,1.845457483096195,-0.60487437685903311,2.4791813850787277,-2.4791813850787277,0.60487437685903311,3.5450007349230299,0.0
814640.0783812654,3955767.5119837918,-2500.0,2.1277554155849545,-1.4521749129258863,1.424157540409783,-0.1140015279593492,0.089595958777063431,0.0045268992183362892,1.6392301890365255,-0.59660417525489462,2.1559843587570304,-2.1559843587570304,0.59660417525489462,3.1462290946225107,0.0
659640.0783812654,3960767.5119837918,-2500.0,-2.1851551699639828,-0.82717897545363117,-0.56797980143905558,-0.11064669372274051,-0.04381450951009238,-0.00389327970344813,1.2703040421574601,-0.46067783803685397,0.21346367751866929,-0.21346367751866929,0.46067783803685397,2.4373836349165354,0.0
664640.0783812654,3960767.5119837918,-2500.0,-2.5136566812739725,-1.080985444077744,-0.79636329220369106,-0.13530758785599015,-0.062587997636508699,-0.0051317717759537104,1.5225188023991987,-0.67198726971523526,0.31868109758059382,-0.31868109758059382,0.67198726971523526,2.9165365342439991,0.0
669640.0783812654,3960767.5119837918,-2500.0,-2.8711790489150761,-1.397250545775933,-1.1108459651575286,-0.16497719156108495,-0.088445378895366314,-0.0067819327962849035,1.8274159857847909,-0.95517936137314208,0.44880621380958668,-0.44880621380958668,0.95517936137314208,3.4961833240607967,0.0
674640.0783812654,3960767.5119837918,-2500.0,-3.2468017134497673,-1.7844902054837681,-1.5414727383016076,-0.20008969853219333,-0.12380711331594914,-0.0089748263263073613,2.1941063186578478,-1.3299147010663406,0.60381092729425179,-0.60381092729425179,1.3299147010663406,4.1939740108917656,0.0
679640.0783812654,3960767.5119837918,-2500.0,-3.6206561265211095,-2.2469743868157162,-2.1260394309367787,-0.24063055759396454,-0.17169041535812168,-0.011872109439647187,2.6313895230416571,-1.8177266632359594,0.77874087960662397,-0.77874087960662397,1.8177266632359594,5.0271538650525978,0.0
684640.0783812654,3960767.5119837918,-2500.0,-3.9608901435980233,-2.7797207315871644,-2.9092663145058086,-0.28572471264430499,-0.23563018028815003,-0.015661523210510609,3.1460908640498744,-2.4389374120520646,0.95986529071782434,-0.95986529071782434,2.4389374120520646,6.0094814862269557,0.0
689640.0783812654,3960767.5119837918,-2500.0,-4.2213933144821159,-3.360909624048587,-3.9386593666100018,-0.33304326184170774,-0.31934129248607929,-0.020539222794724726,3.7402535663132968,-3.2064259846301653,1.1193817548524752,-1.1193817548524752,3.2064259846301653,7.1459932866082614,0.0
694640.0783812654,3960767.5119837918,-2500.0,-4.3422995012611176,-3.9418462957512355,-5.2543099823258421,-0.37805926061664885,-0.42591973869666705,-0.026668775194988739,4.4068400316844007,-4.1148668365310499,1.2093357240178686,-1.2093357240178686,4.1148668365310499,8.4249509244236442,0.0
699640.0783812654,3960767.5119837918,-2500.0,-4.2565228037344411,-4.4364047087750675,-6.8692487193331635,-0.41332687342473745,-0.55634185004225933,-0.034104836607711041,5.1238561820809281,-5.1247496537845736,1.1570808982093557,-1.1570808982093557,5.1247496537845736,9.8067985267207778,0.0
704640.0783812654,3960767.5119837918,-2500.0,-3.9061914902567736,-4.7153426683121182,-8.7380023397222288,-0.42821354685813162,-0.7071098216869639,-0.042673859669938509,5.8475495946789122,-6.1430254456443922,0.86736565171303814,-0.86736565171303814,6.1430254456443922,11.211352899412695,0.0
709640.0783812654,3960767.5119837918,-2500.0,-3.2709010024189689,-4.6155442856124136,-10.716076848411099,-0.40983595121236815,-0.86727301923844002,-0.051822693386407354,6.5067662540962115,-7.007617335173153,0.23914693987413349,-0.23914693987413349,7.007617335173153,12.507191681507024,0.0
714640.0783812654,3960767.5119837918,-2500.0,-2.4025958781851688,-3.9770129368237006,-12.524511173609017,-0.34609700754089595,-1.0158766807837134,-0.060485938424335826,7.0025770787565511,-7.4906902419280357,-0.79466550041516415,0.79466550041516415,7.4906902419280357,13.511126823734836,0.0
719640.0783812654,3960767.5119837918,-2500.0,-1.4491309129120329,-2.714226470864944,-13.749613687480302,-0.231191930398601,-1.1220011134234968,-0.06707704437938948,7.2189046991333745,-7.3403227542843528,-2.2050329537736313,2.2050329537736313,7.3403227542843528,14.008924434567946,0.0
724640.0783812654,3960767.5119837918,-2500.0,-0.6374558182084592,-0.90566588203922216,-13.916210283130669,-0.072255976542149394,-1.1500803429404058,-0.069736650587076204,7.0488365457910991,-6.3709397396624228,-3.8045262396264219,3.8045262396264219,6.3709397396624228,13.80690544106869,0.0
729640.0783812654,3960767.5119837918,-2500.0,-0.19550097163906621,1.1495172906335116,-12.650253169368908,0.10662864400092617,-1.0715679561609406,-0.066898006490175493,6.4353319376919096,-4.580031234209649,-5.2337682558527856,5.2337682558527856,4.580031234209649,12.813358722594851,0.0
734640.0783812654,3960767.5119837918,-2500.0,-0.23302839761969746,2.974985999314852,-9.8813777829051244,0.26787611998134997,-0.87948019671285127,-0.058015456922673382,5.7073151579834276,-2.2244713586812934,-6.0465342979220242,6.0465342979220242,2.2244713586812934,11.130912611879467,0.0
739640.0783812654,3960767.5119837918,-2500.0,-0.65507829239436222,4.0841125211288034,-5.9649222293362083,0.37286636899957915,-0.59744753323958077,-0.044059539291318395,4.901928308031664,0.22058924984899786,-5.8890001456859791,5.8890001456859791,-0.22058924984899786,9.1290768799962354,0.0
744640.0783812654,3960767.5119837918,-2500.0,-1.1867753196751771,4.1954388166947894,-1.6096085886646461,0.39805936597955915,-0.27527865770291554,-0.027377662171919333,4.2225053635385414,2.2330393176974193,-4.6807095495387552,4.6807095495387552,-2.2330393176974193,7.451243667452407,0.0
749640.0783812654,3960767.5119837918,-2500.0,-1.5114066603733285,3.3577730005977737,2.3808856573462354,0.34479033942811937,0.028737047641247133,-0.010887803566124376,3.8971925154571005,3.4539887084653973,-2.6713462775237371,2.6713462775237371,-3.4539887084653973,6.7634366609076135,0.0
754640.0783812654,3960767.5119837918,-2500.0,-1.428091262273208,1.9008916388218799,5.4020050733707858,0.23645666975216564,0.26873169065028274,0.0029484188299463204,3.9238505057732946,3.8053499981464478,-0.32751896746004316,0.32751896746004316,-3.8053499981464478,7.0815608550180844,0.0
759640.0783812654,3960767.5119837918,-2500.0,-0.92365541026200237,0.25978771887541763,7.2085751549075994,0.10605550578610787,0.42353523976475804,0.012799043695412536,4.0915920317408254,3.4572308094922022,1.8696662192474565,-1.8696662192474565,-3.4572308094922022,7.7568689534875848,0.0
764640.0783812654,3960767.5119837918,-2500.0,-0.13372465069718487,-1.2023926373050253,7.8885325464593228,-0.017157630295219748,0.49605510724344704,0.018527912472992087,4.2074249380773283,2.6983901992971617,3.5874026039466855,-3.5874026039466855,-2.6983901992971617,8.2604310712867033,0.0
769640.0783812654,3960767.5119837918,-2500.0,0.75151980310419442,-2.2831341614771854,7.72283031659292,-0.11511796803374376,0.50417854104197513,0.02081755971219355,4.2293475403743814,1.8059763260385782,4.6949071996162886,-4.6949071996162886,-1.8059763260385782,8.406396226499897,0.0
774640.0783812654,3960767.5119837918,-2500.0,1.5687536963787083,-2.9353217491291921,7.0373277848754956,-0.18151672087704937,0.47039681904997477,0.0206797246537835,4.1781774195926085,0.97351623801285259,5.2249709943491602,-5.2249709943491602,-0.97351623801285259,8.2084467816320359,0.0
779640.0783812654,3960767.5119837918,-2500.0,2.2189481429199907,-3.21290025932193,6.108204601257551,-0.21835668658650029,0.41471555378751729,0.019088821671718818,3.9779299758882498,0.29951967392975432,5.2994732167124177,-5.2994732167124177,-0.29951967392975432,7.7555595564115158,0.0
784640.0783812654,3960767.5119837918,-2500.0,2.6667263747949095,-3.2124007995861965,5.1274736243016426,-0.23174235645173311,0.35168515201275108,0.016803101552343786,3.684347700430938,-0.18997260654691317,5.0638043897630034,-5.0638043897630034,0.18997260654691317,7.1476485206933109,0.0
789640.0783812654,3960767.5119837918,-2500.0,2.9213465822712932,-3.0325227170016511,4.2074652392590961,-0.22870773579600012,0.29030388018958597,0.014329604302307203,3.3455144063758619,-0.51095743673522609,4.6474420263819045,-4.6474420263819045,0.51095743673522609,6.4685354202315128,0.0
794640.0783812654,3960767.5119837918,-2500.0,3.015364211025934,-2.7543366816884558,3.4011850194494611,-0.21547147738912362,0.23522934901904494,0.01196368373249773,2.9957376594464491,-0.6970306951033729,4.1484089943786184,-4.1484089943786184,0.6970306951033729,5.7786192921776163,0.0
799640.0783812654,3960767.5119837918,-2500.0,2.988565912633804,-2.4359937498885178,2.7240019767958534,-0.19679508659933359,0.18823403740793351,0.0098502467054893562,2.6570024993115782,-0.7843857760010311,3.6325603419953021,-3.6325603419953021,0.7843857760010311,5.1165767930918458,0.0
804640.0783812654,3960767.5119837918,-2500.0,2.8785421706731782,-2.1149468421860278,2.170611233183509,-0.17597407148732575,0.14941305971953908,0.0080396998301006488,2.341855758778304,-0.80458800792126217,3.139481376958642,-3.139481376958642,0.80458800792126217,4.5041877166355491,0.0
809640.0783812654,3960767.5119837918,-2500.0,2.7164663091897649,-1.8128099881734847,1.7262664813519233,-0.15509932837527113,0.11802204867357034,0.0065294983483075207,2.0562772685426665,-0.78224134307365134,2.6898925522780148,-2.6898925522780148,0.78224134307365134,3.9514135990589963,0.0
814640.0783812654,3960767.5119837918,-2500.0,2.5260965649201061,-1.5402860185033587,1.3733551820205421,-0.13537820528683314,0.09299134192887816,0.0052912454742004966,1.8020144420194157,-0.73516229905037733,2.2921746395043119,-2.2921746395043119,0.73516229905037733,3.4606072509386792,0.0
819640.0783812654,3960767.5119837918,-2500.0,2.3244127521226536,-1.3011579829404798,1.0948097041378873,-0.11741933504613551,0.073208973532588997,0.0042868936588119824,1.5782883303513409,-0.67555050249161697,1.9472864367457143,-1.9472864367457143,0.67555050249161697,3.0296122985136105,0.0
654640.0783812654,3965767.5119837918,-2500.0,-1.9796661433090754,-0.50687518889227101,-0.27862874420450462,-0.094710929233749908,-0.022611549892486857,-0.0030711045558639407,1.0625953023653458,-0.16314379554988273,0.04457490308763111,-0.04457490308763111,0.16314379554988273,2.0584960031126611,0.0
659640.0783812654,3965767.5119837918,-2500.0,-2.3341749085499055,-0.70719383171040995,-0.41826523378768732,-0.11833317725157473,-0.035379279356160469,-0.004116510642072667,1.2873735108858408,-0.29870152489195295,0.12415632093733812,-0.12415632093733812,0.29870152489195295,2.4863292705838682,0.0
664640.0783812654,3965767.5119837918,-2500.0,-2.7444434086553611,-0.97029825183631635,-0.61925392648821942,-0.14797106536747204,-0.053800161900100681,-0.0055471638282469414,1.5655839564879079,-0.4917720112399272,0.23220522829867185,-0.23220522829867185,0.4917720112399272,3.015976667044602,0.0
669640.0783812654,3965767.5119837918,-2500.0,-3.21142789673734,-1.312592018111838,-0.90784609232187707,-0.18492202282167225,-0.080245327324821564,-0.0075101222450970921,1.9098886649128695,-0.76357337267368508,0.37510376904171872,-0.37510376904171872,0.76357337267368508,3.6717422794167098,0.0
674640.0783812654,3965767.5119837918,-2500.0,-3.729925632102161,-1.7520540106982203,-1.3206745434705265,-0.23049737212991375,-0.11799036903754249,-0.010205229666062431,2.3350682393395363,-1.1415423249754351,0.55832841089578511,-0.55832841089578511,1.1415423249754351,4.4821091372078401,0.0
679640.0783812654,3965767.5119837918,-2500.0,-4.2842660193521036,-2.3056935363045277,-1.907643398799975,-0.28574983316159225,-0.171448475147679,-0.013897959958135361,2.8574793654858328,-1.6595525770113402,0.78388143670263277,-0.78388143670263277,1.6595525770113402,5.4787896296161733,0.0
684640.0783812654,3965767.5119837918,-2500.0,-4.8425001780694963,-2.9841621667776428,-2.7341217740611765,-0.35095269422358771,-0.2463312710949779,-0.018927734707439931,3.4935511393007839,-2.3562595797879551,1.0455761094244089,-1.0455761094244089,2.3562595797879551,6.6939828816694451,0.0
689640.0783812654,3965767.5119837918,-2500.0,-5.349702570830063,-3.7818643987624156,-3.8802950302271899,-0.42470755247042213,-0.34955348543383918,-0.025701621261348145,4.2566232207600345,-3.2695333125757355,1.3212385671537805,-1.3212385671537805,3.2695333125757355,8.1545205202212188,0.0
694640.0783812654,3965767.5119837918,-2500.0,-5.7225983720987577,-4.6609653194670768,-5.4334435025475578,-0.50258199729731234,-0.48853145784626417,-0.034653767104614118,5.1511935605002126,-4.423867009138462,1.5613471688339939,-1.5613471688339939,4.423867009138462,9.8711283835009649,0.0
699640.0783812654,3965767.5119837918,-2500.0,-5.85056122991561,-5.5293248988894748,-7.466138450560222,-0.57533930469088401,-0.66931443269328639,-0.046139945019175024,6.1636370964441642,-5.8070974358819267,1.6755600253952561,-1.6755600253952561,5.8070974358819267,11.821005875295317,0.0
704640.0783812654,3965767.5119837918,-2500.0,-5.6116019745295525,-6.2174653666332782,-9.9914041827784583,-0.62725803519311185,-0.89286227957116182,-0.060229580900117437,7.2491634442684605,-7.3346394414568392,1.5232958983912228,-1.5232958983912228,7.3346394414568392,13.923250688664703,0.0
709640.0783812654,3965767.5119837918,-2500.0,-4.9134007557950037,-6.4699469595267987,-12.889360804470941,-0.63585466627781451,-1.1491042165810541,-0.076374393768107784,8.3169921593401508,-8.8071758747878377,0.92265867741001095,-0.92265867741001095,8.8071758747878377,16.010858430820683,0.0
714640.0783812654,3965767.5119837918,-2500.0,-3.7617953325695921,-5.9798863886111286,-15.817043947192483,-0.57529256000088136,-1.4098010611442777,-0.093007620216104439,9.2201430266292412,-9.8845523338740406,-0.29992131923481224,0.29992131923481224,9.8845523338740406,17.811507397529713,0.0
719640.0783812654,3965767.5119837918,-2500.0,-2.3339767726034504,-4.4987089824838975,-18.150433496049914,-0.42582236890832664,-1.6241101413809731,-0.10727989078094367,9.7620732693676917,-10.120201907380006,-2.2016607041800618,2.2016607041800618,10.120201907380006,18.96072941652281,0.0
724640.0783812654,3965767.5119837918,-2500.0,-0.99514884847864915,-2.0199746625863,-19.050829646116107,-0.18877249660353768,-1.7239303236808501,-0.11531090070525402,9.7350892645488631,-9.1032710193657671,-4.5775028216452593,4.5775028216452593,9.1032710193657671,19.076986197530623,0.0
729640.0783812654,3965767.5119837918,-2500.0,-0.18448911183916783,1.0494567350244097,-17.739022120234011,0.10004918252950262,-1.6452577621742157,-0.11330585132707731,8.9964162242626138,-6.6997114647152411,-6.8709940055696652,6.8709940055696652,6.6997114647152411,17.912872808137958,0.0
734640.0783812654,3965767.5119837918,-2500.0,-0.17099798450154896,3.9008937212304899,-13.928271938077621,0.3717693988747563,-1.361754393415338,-0.099375921602515516,7.9742998497084638,-3.2638696446763928,-8.2836776066460445,8.2836776066460445,3.2638696446763928,15.552547016770022,0.0
739640.0783812654,3965767.5119837918,-2500.0,-0.83222639578175894,5.6315920355043083,-8.1526945740656434,0.54922945843785087,-0.91078665569044692,-0.075058963688182004,6.7673248529348191,0.38552472528947668,-8.1293112489643047,8.1293112489643047,-0.38552472528947668,12.579484071909702,0.0
744640.0783812654,3965767.5119837918,-2500.0,-1.6728035099356227,5.7131241614919519,-1.6712703719422815,0.58462766857572768,-0.38780857014194042,-0.045236005264502242,5.7474527621827569,3.3063362259672147,-6.2407423615682571,6.2407423615682571,-3.3063362259672147,10.101603887249002,0.0
749640.0783812654,3965767.5119837918,-2500.0,-2.11891694298764,4.271681739973328,4.0792053012719514,0.48320791847324424,0.093900950511440387,-0.016149497953814516,5.3022292257201222,4.8863201548856736,-3.1034788175908901,3.1034788175908901,-4.8863201548856736,9.2343845010331798,0.0
754640.0783812654,3965767.5119837918,-2500.0,-1.8543384462293175,1.9582840687840273,8.1072418408037308,0.29509216408052796,0.45128740767325637,0.0071951446723281078,5.3760555342238661,5.0740928515165766,0.40914856818867351,-0.40914856818867351,-5.0740928515165766,9.825040529856528,0.0
759640.0783812654,3965767.5119837918,-2500.0,-0.93648191290206473,-0.4495277451368202,10.146185585297138,0.084702837719104418,0.65560683733647218,0.022547179450439006,5.5868781772956444,4.2611389803522695,3.4769372474870188,-3.4769372474870188,-4.2611389803522695,10.725384160605172,0.0
764640.0783812654,3965767.5119837918,-2500.0,0.33340088359062303,-2.3924291926121333,10.513239472164654,-0.097785146170988088,0.72475920837674357,0.030265772226375047,5.6577514696544675,2.9832857296059609,5.6301162499546242,-5.6301162499546242,-2.9832857296059609,11.206361450050778,0.0
769640.0783812654,3965767.5119837918,-2500.0,1.6186890347751681,-3.6428351551436675,9.7786561341524223,-0.22792853368403426,0.69948084568959912,0.032189943497910579,5.6189404585466169,1.6773258121312011,6.783666979792276,-6.783666979792276,-1.6773258121312011,11.112256356387341,0.0
774640.0783812654,3965767.5119837918,-2500.0,2.6842230129054503,-4.231836309290232,8.4903138909337077,-0.30325190162833909,0.62185032649375982,0.030483269265989803,5.3893697707315136,0.5906192300277211,7.1036279599429513,-7.1036279599429513,-0.5906192300277211,10.550932390466114,0.0
779640.0783812654,3965767.5119837918,-2500.0,3.4281332909866484,-4.3175092557517036,7.044785563928265,-0.3335521062704237,0.5240841797242094,0.026947948169115166,4.9842017489510093,-0.19429483250446866,6.8481929473762353,-6.8481929473762353,0.19429483250446866,9.6968841555406922,0.0
784640.0783812654,3965767.5119837918,-2500.0,3.8500946141926344,-4.081235573949618,5.6739466440473167,-0.33239156878596021,0.42626744900300145,0.022810195901937533,4.4932140361092365,-0.69456794005692002,6.2613621967220254,-6.2613621967220254,0.69456794005692002,8.7063745847442515,0.0
789640.0783812654,3965767.5119837918,-2500.0,4.0040542898321041,-3.6743786343844405,4.4842898687181423,-0.31217507413668844,0.33862849954203617,0.018777705970442746,3.9805500869650863,-0.96939471310244318,5.5278881488418268,-5.5278881488418268,0.96939471310244318,7.6919743842320125,0.0
794640.0783812654,3965767.5119837918,-2500.0,3.9610652041673315,-3.2030843934132749,3.5046733473429641,-0.28229105293167017,0.26492703764815445,0.015189172068749016,3.4860064926779044,-1.0845994653736504,4.7681988657405263,-4.7681988657405263,1.0845994653736504,6.7235584413379916,0.0
799640.0783812654,3965767.5119837918,-2500.0,3.7879902296337957,-2.7325966051099608,2.7236446083963801,-0.24901316275915691,0.20531749270228772,0.012158066492355514,3.0310287402196741,-1.0964283819004819,4.0508504127706662,-4.0508504127706662,1.0964283819004819,5.8382095542366166,0.0
804640.0783812654,3965767.5119837918,-2500.0,3.5386794914656901,-2.2979350239282139,2.1131264098080553,-0.21611530780021301,0.15827586996957391,0.0096776700105301282,2.6247890094125816,-1.0470170561799941,3.408631424651861,-3.408631424651861,1.0470170561799941,5.0509467802715076,0.0
809640.0783812654,3965767.5119837918,-2500.0,3.2524640288767732,-1.914386017057532,1.6413560619596481,-0.18561561504942439,0.121717822345833,0.0076870084038757596,2.2689798449783596,-0.96536888208577243,2.8522676445668225,-2.8522676445668225,0.96536888208577243,4.3633688024845974,0.0
814640.0783812654,3965767.5119837918,-2500.0,2.9560003398464909,-1.5855581470590967,1.278948694737374,-0.15840678678096048,0.093566805118581314,0.0061078045773510035,1.9611517573494273,-0.87018714636610917,2.3802054126357985,-2.3802054126357985,0.87018714636610917,3.7697178071180746,0.0
819640.0783812654,3965767.5119837918,-2500.0,2.6661396734776455,-1.3088258815263178,1.0011172637679959,-0.13471452985508153,0.071997070639459579,0.004862927541372292,1.6968565187220597,-0.77282118144466594,1.9848926355819492,-1.9848926355819492,0.77282118144466594,3.2607788081280624,0.0
654640.0783812654,3970767.5119837918,-2500.0,-2.01188944436073,-0.3450713099064559,-0.14762145580620759,-0.096205785533887714,-0.012678918855043969,-0.0030791380603870638,1.0399587167216244,-0.00086505812233855783,-0.068375188382995264,0.068375188382995264,0.00086505812233855783,2.03748000774381,0.0
659640.0783812654,3970767.5119837918,-2500.0,-2.4221199930788839,-0.53001347487481254,-0.25305529702125878,-0.12277600796560892,-0.02366541342864889,-0.0042175598801466249,1.2764528724714022,-0.10390608338437579,-0.0017808389471812291,0.0017808389471812291,0.10390608338437579,2.489207077808012,0.0
664640.0783812654,3970767.5119837918,-2500.0,-2.9141184647790124,-0.78435007052947248,-0.41315799178729484,-0.15715649506132612,-0.040381118461019931,-0.0058186904531184486,1.5753940535966178,-0.26181113781319421,0.096892409426430792,-0.096892409426430792,0.26181113781319421,3.0600767279652228,0.0
669640.0783812654,3970767.5119837918,-2500.0,-3.4981863776614843,-1.131441081757409,-0.65534948135148086,-0.20155914084977244,-0.06562987254092377,-0.0080834820451722873,1.9542823192312244,-0.49918056236632857,0.23835176219965895,-0.23835176219965895,0.49918056236632857,3.7836521277978323,0.0
674640.0783812654,3970767.5119837918,-2500.0,-4.1803751046491318,-1.6004374893464859,-1.0204447988488123,-0.2586042947623074,-0.10353352638481257,-0.011300887409646942,2.435026881543203,-0.85040389398056138,0.43492093904155937,-0.43492093904155937,0.85040389398056138,4.7020572081976137,0.0
679640.0783812654,3970767.5119837918,-2500.0,-4.9571229280473856,-2.2254111116197124,-1.5683908618658635,-0.33114360255578112,-0.16006435955470402,-0.015881436430136266,3.0442602184417193,-1.3622474973079457,0.6987426143816704,-0.6987426143816704,1.3622474973079457,5.8666875583039229,0.0
684640.0783812654,3970767.5119837918,-2500.0,-5.806579262236796,-3.0414331950677149,-2.3851838881810732,-0.42176119722066518,-0.2436646199884146,-0.022395716494822467,3.8127526516133869,-2.0954801813655717,1.0373340788570062,-1.0373340788570062,2.0954801813655717,7.3372651086134288,0.0
689640.0783812654,3970767.5119837918,-2500.0,-6.675916094451197,-4.0745818885041372,-3.5893036777692173,-0.53168193481012904,-0.36578147170826159,-0.031606406967257313,4.7728661224750262,-3.1230416890475214,1.4443752590539352,-1.4443752590539352,3.1230416890475214,9.1772390535096857,0.0
694640.0783812654,3970767.5119837918,-2500.0,-7.4655245752909805,-5.3213409733548325,-5.3328670146461832,-0.65870958942267033,-0.54085789493170877,-0.044465402918580831,5.9522668187154375,-4.5197678308726443,1.8829672423330523,-1.8829672423330523,4.5197678308726443,11.442161315945182,0.0
699640.0783812654,3970767.5119837918,-2500.0,-8.0153178684588102,-6.7123790121359228,-7.7867246775177836,-0.79383826126806112,-0.78479516919895698,-0.062014769768999368,7.3613121292767811,-6.3352730213752384,2.2593933210082464,-2.2593933210082464,6.3352730213752384,14.156113803878688,0.0
704640.0783812654,3970767.5119837918,-2500.0,-8.1069345403489841,-8.059904585261739,-11.089923322396102,-0.91665135332865533,-1.1101715713800315,-0.085087277621839763,8.9713246059009784,-8.539331839995759,2.3907334089651706,-2.3907334089651706,8.539331839995759,17.270834189792367,0.0
709640.0783812654,3970767.5119837918,-2500.0,-7.5070793700923302,-9.0036651473500893,-15.237442411218309,-0.99110752381007039,-1.5160490052144169,-0.11367461898336076,10.683093299769789,-10.93473428599016,1.9845342290542094,-1.9845342290542094,10.93473428599016,20.606181203320983,0.0
714640.0783812654,3970767.5119837918,-2500.0,-6.0802301765644007,-9.0048232594796929,-19.893591553176567,-0.96623391915850443,-1.9715447450935801,-0.14591040973619873,12.292441231712884,-13.059341077601424,0.67538251997519527,-0.67538251997519527,13.059341077601424,23.784875927532909,0.0
719640.0783812654,3970767.5119837918,-2500.0,-3.9652068342138662,-7.4776830473420093,-24.184518365483086,-0.78934745949140206,-2.3981006137525327,-0.17695418623084228,13.474886203299999,-14.157323481334672,-1.8149988912556454,1.8149988912556454,14.157323481334672,26.20374737586528,0.0
724640.0783812654,3970767.5119837918,-2500.0,-1.712622431329609,-4.1340529238025727,-26.655937239048257,-0.43733954057890151,-2.6663401874437054,-0.19870721475639944,13.828825731235641,-13.3597392133969,-5.3683358622569166,5.3683358622569166,13.3597392133969,27.118186610765559,0.0
729640.0783812654,3970767.5119837918,-2500.0,-0.17189112416663244,0.55870170700275412,-25.67840373345291,0.043669235478734143,-2.6307633542295981,-0.20175352729105422,13.013623113610157,-10.160939318945083,-9.1589817521823988,9.1589817521823988,10.160939318945083,25.913824549175313,0.0
734640.0783812654,3970767.5119837918,-2500.0,-0.00035614169006229369,5.2063961670830334,-20.373205910921996,0.52462119387053607,-2.2078609040633927,-0.17996747443530864,11.558599673432354,-4.9864811535328482,-11.714767191333118,11.714767191333118,4.9864811535328482,22.543189390673486,0.0
739640.0783812654,3970767.5119837918,-2500.0,-1.0807607138480588,8.0404893556444517,-11.513680768884646,0.84178792943481118,-1.4532192417437733,-0.13537589632211691,9.6732314188865285,0.69510482101169035,-11.625338617982891,11.625338617982891,-0.69510482101169035,17.94470573827644,0.0
744640.0783812654,3970767.5119837918,-2500.0,-2.4675018279434937,8.0018230181790901,-1.4665854289573488,0.89083602339082879,-0.56136996464213373,-0.078812612135169838,8.0741466445589669,5.0784033378453435,-8.5202736470977101,8.5202736470977101,-5.0784033378453435,14.132603497423819,0.0
749640.0783812654,3970767.5119837918,-2500.0,-3.0606452114700025,5.4205428095624191,7.0506332168630399,0.68922830605536367,0.23290217539924055,-0.024659301992427402,7.4516809379013971,7.0744352568564093,-3.4099217514956699,3.4099217514956699,-7.0744352568564093,13.057264390254694,0.0
754640.0783812654,3970767.5119837918,-2500.0,-2.3718155565133512,1.6504658918469175,12.382964463523123,0.35089512963301667,0.77373042871648445,0.016317618020440985,7.5992651996735097,6.7833203534280528,1.9854867500463342,-1.9854867500463342,-6.7833203534280528,14.089279801877558,0.0
759640.0783812654,3970767.5119837918,-2500.0,-0.68272576165935583,-1.8876666359899972,14.400209735939059,0.0060556575250380372,1.0311287845793609,0.04052363793750121,7.8194034673502308,5.1011821523657961,6.2503168760734003,-6.2503168760734003,-5.1011821523657961,15.198320781782218,0.0
764640.0783812654,3970767.5119837918,-2500.0,1.3551353938684783,-4.3742700110305792,13.978271426992782,-0.26084960356024617,1.0659509160157803,0.050237931770139847,7.7567223076671628,3.0165649110498109,8.7949188561059888,-8.7949188561059888,-3.0165649110498109,15.444539969581465,0.0
769640.0783812654,3970767.5119837918,-2500.0,3.1714947382124019,-5.6555963405427239,12.230475549371411,-0.42357986136116987,0.96796092060503203,0.050222817885976261,7.5242036201779854,1.1797272944177086,9.7421076074909223,-9.7421076074909223,-1.1797272944177086,14.811800322715685,0.0
774640.0783812654,3970767.5119837918,-2500.0,4.4722678886334819,-5.9703599922742185,10.032632200784679,-0.49458019617420118,0.81335848589518078,0.04504104996549553,6.962324999159021,-0.15074196301044918,9.550545537431173,-9.550545537431173,0.15074196301044918,13.59371409819687,0.0
779640.0783812654,3970767.5119837918,-2500.0,5.2100678457192169,-5.6677350554000547,7.9034554744824987,-0.50095021639797899,0.650857846062464,0.037926133891172657,6.2266534674536045,-0.97334178005845207,8.7075738678950323,-8.7075738678950323,0.97334178005845207,12.096666170757857,0.0
784640.0783812654,3970767.5119837918,-2500.0,5.475283492490834,-5.0496806632764581,6.0750789937799432,-0.46916854177500056,0.50495415609835559,0.030739945748934669,5.4453243964035982,-1.3970558400397803,7.5864511729062993,-7.5864511729062993,1.3970558400397803,10.544739905085631,0.0
789640.0783812654,3970767.5119837918,-2500.0,5.4024798128806211,-4.3230006017776121,4.6060106139782437,-0.41910842864142239,0.38433233775420955,0.024351960038924952,4.6951633615205646,-1.5494290316274721,6.4224660304766257,-6.4224660304766257,1.5494290316274721,9.0724969812659033,0.0
794640.0783812654,3970767.5119837918,-2500.0,5.1178111238022588,-3.6077515689011892,3.470398695100835,-0.36350889783706164,0.28927298642590554,0.019043022176744192,4.014794256800835,-1.5367144470566727,5.3409336589233343,-5.3409336589233343,1.5367144470566727,7.7463989575727359,0.0
799640.0783812654,3970767.5119837918,-2500.0,4.7191453701427752,-2.962620212102355,2.6118768745777454,-0.30954227726782985,0.21647055727090916,0.014797301377070859,3.4184923287344242,-1.4345763164442094,4.3950684090903875,-4.3950684090903875,1.4345763164442094,6.5891979877094728,0.0
804640.0783812654,3970767.5119837918,-2500.0,4.2741687988738928,-2.4088699548687034,1.9705151218242665,-0.26067697059765355,0.16164417162606853,0.011476625104510401,2.9067091384246733,-1.2918144380974601,3.5968166763939644,-3.5968166763939644,1.2918144380974601,5.598911115023518,0.0
809640.0783812654,3970767.5119837918,-2500.0,3.8257090599299595,-1.9475405255288154,1.493830521325664,-0.21816916933178448,0.12073644505655672,0.0089113495495647971,2.4729762446019441,-1.1375227523562539,2.9374198462315753,-2.9374198462315753,1.1375227523562539,4.7613612692490461,0.0
814640.0783812654,3970767.5119837918,-2500.0,3.3985505403182956,-1.5701753344306031,1.1397496648442393,-0.18207508715435938,0.090344890314098897,0.0069414677913944333,2.1080177853033031,-0.98770393788729693,2.3995614145741544,-2.3995614145741544,0.98770393788729693,4.057649110737251,0.0
819640.0783812654,3970767.5119837918,-2500.0,3.0053903984590566,-1.2648790380253983,0.87609275287855937,-0.15187292190413376,0.06778850204513398,0.005431487664721393,1.8020056632779473,-0.85023063287358525,1.9638714915988014,-1.9638714915988014,0.85023063287358525,3.4682265530233476,0.0
824640.0783812654,3970767.5119837918,-2500.0,2.6513130979116641,-1.0194322759757828,0.6788830785239105,-0.12681705954143058,0.051027103863608432,0.0042728568702144884,1.545680558357293,-0.72820069723690906,1.6120472219671755,-1.6120472219671755,0.72820069723690906,2.9748926160080167,0.0
649640.0783812654,3975767.5119837918,-2500.0,-1.6007954124731534,-0.039692508700265298,0.018925127553928001,-0.072258628145529413,0.0041087753548777993,-0.0021248267894707282,0.81329790172266925,0.20310120226806858,-0.22600520265261007,0.22600520265261007,-0.20310120226806858,1.6156372565699204,0.0
654640.0783812654,3975767.5119837918,-2500.0,-1.9656023565806271,-0.14271354898348615,-0.019290614211015505,-0.093793690447737291,-0.00062971149362970832,-0.0029540339627607735,0.99240321550125088,0.17343430544374622,-0.20536585297203247,0.20536585297203247,-0.17343430544374622,1.9767869865544141,0.0
659640.0783812654,3975767.5119837918,-2500.0,-2.4190889778533569,-0.29476097747130287,-0.084322715477585769,-0.12241249925070091,-0.0087096839267372748,-0.0041426340926662315,1.2323151837156563,0.11444835992718674,-0.16355874327701633,0.16355874327701633,-0.11444835992718674,2.4393848059564744,0.0
664640.0783812654,3975767.5119837918,-2500.0,-2.9819125388380097,-0.51665997662385221,-0.19219981828287042,-0.16059603033893821,-0.0220665356022933,-0.0058623044919159685,1.5430689873642156,0.0094465068928411763,-0.090294596212939365,0.090294596212939365,-0.0094465068928411763,3.0359007740717434,0.0
669640.0783812654,3975767.5119837918,-2500.0,-3.6773344779155868,-0.8375373835847254,-0.36845612609318806,-0.21166638561434634,-0.043736335293834347,-0.0083727627797267768,1.9465915551505901,-0.1669806547307166,0.02871881006179075,-0.02871881006179075,0.1669806547307166,3.8097718049236398,0.0
674640.0783812654,3975767.5119837918,-2500.0,-4.5291273014916751,-1.2973958738283802,-0.65372920428444015,-0.27998066762569301,-0.078472202895432205,-0.01206785832521191,2.4728689289120052,-0.45314643268405363,0.21261735529657044,-0.21261735529657044,0.45314643268405363,4.8187635547734011,0.0
679640.0783812654,3975767.5119837918,-2500.0,-5.5566445099559738,-1.949456919200776,-1.1123809148565234,-0.37104143564165865,-0.13367124762090241,-0.017543685143990805,3.1612449625405383,-0.90594884047351409,0.48547208573858791,-0.48547208573858791,0.90594884047351409,6.1387017188108954,0.0
684640.0783812654,3975767.5119837918,-2500.0,-6.7648462810342824,-2.8606224755999876,-1.8451902748605193,-0.49132316843186874,-0.22070136099520676,-0.025694304084647592,4.0619391569906345,-1.6077462109445655,0.87413263975100941,-0.87413263975100941,1.6077462109445655,7.8666816746999686,0.0
689640.0783812654,3975767.5119837918,-2500.0,-8.1261747499650809,-4.1062259200683195,-3.0064643775541589,-0.64739223292795578,-0.35662424587543934,-0.037833787470351335,5.2360734409782159,-2.672603760457696,1.4007020254180538,-1.4007020254180538,2.672603760457696,10.121506670925504,0.0
694640.0783812654,3975767.5119837918,-2500.0,-9.5511438397898019,-5.7513177297562033,-4.8229317970876249,-0.84352894878964135,-0.56597787714765424,-0.055819111437450566,6.7515896907027031,-4.2464004725637929,2.0639037620336529,-2.0639037620336529,4.2464004725637929,13.036481699756052,0.0
699640.0783812654,3975767.5119837918,-2500.0,-10.847995312605438,-7.8051327993065698,-7.603364406179268,-1.076596150881266,-0.88140808113799618,-0.082087996843573471,8.6701499195731095,-6.487806630598854,2.8006547522760634,-2.8006547522760634,6.487806630598854,16.735265367339323,0.0
704640.0783812654,3975767.5119837918,-2500.0,-11.684394273846747,-10.131666989228044,-11.709116931880107,-1.3267566086291069,-1.3401020867083626,-0.11939945942047402,11.017125686149402,-9.5052726922470168,3.4198282634096007,-3.4198282634096007,9.5052726922470168,21.275716949737429,0.0
709640.0783812654,3975767.5119837918,-2500.0,-11.593191991723526,-12.310846613548724,-17.424532711575946,-1.5441563778416159,-1.9701137170161438,-0.16987253634591437,13.725409171365742,-13.215388563984657,3.5163038546894256,-3.5163038546894256,13.215388563984657,26.543891271349572,0.0
714640.0783812654,3975767.5119837918,-2500.0,-10.105764759700424,-13.50152544276369,-24.641788800870934,-1.6375227448046741,-2.7588475309670515,-0.23279744099232977,16.551153318078466,-17.107663183166753,2.4268219357616045,-2.4268219357616045,17.107663183166753,32.094187917216559,0.0
719640.0783812654,3975767.5119837918,-2500.0,-7.0978195531204493,-12.487479103000641,-32.337353035338872,-1.4826212295914463,-3.6027158169893538,-0.30113824270916023,18.989040290447996,-20.008309337897654,-0.61184197979730826,0.61184197979730826,20.008309337897654,36.988086956293202,0.0
724640.0783812654,3975767.5119837918,-2500.0,-3.2617266560021987,-8.2136698853649612,-38.111210810471398,-0.97825961884554602,-4.2646765965191058,-0.35845617249840733,20.273740880917263,-20.16154607942326,-5.8935937212419045,5.8935937212419045,20.16154607942326,39.798486127810513,0.0
729640.0783812654,3975767.5119837918,-2500.0,-0.21443808700435385,-0.90252020641221098,-38.554813838523053,-0.15417832091863229,-4.4101004533547874,-0.38087304936719601,19.604596356992808,-16.073445768847606,-12.349534808283638,12.349534808283638,16.073445768847606,39.044754237004362,0.0
734640.0783812654,3975767.5119837918,-2500.0,0.41271195660658805,7.0572692430530601,-31.169262388816932,0.74716296931725679,-3.784624023615573,-0.34850249598585264,17.524131747907798,-8.0014538103294317,-17.204942622521301,17.204942622521301,8.0014538103294317,34.176306671436194,0.0
739640.0783812654,3975767.5119837918,-2500.0,-1.4428549070346375,11.979947361720333,-16.915329181269858,1.3538400712603307,-2.4515889483379683,-0.2617541512976479,14.427547107752899,1.3120598625400461,-17.360760706696738,17.360760706696738,-1.3120598625400461,26.704942248949958,0.0
744640.0783812654,3975767.5119837918,-2500.0,-3.847988910858565,11.567969568813584,-0.55495427896961624,1.4174842858180527,-0.83729562891702125,-0.1465307759422235,11.783343159519847,8.1463590768270002,-11.928795667700118,11.928795667700118,-8.1463590768270002,20.541192186234397,0.0
749640.0783812654,3975767.5119837918,-2500.0,-4.5502915792531464,6.7245842112794714,12.417805061659324,0.99518692481294158,0.53287659162746093,-0.039026621379035134,10.891452435693076,10.477455333814655,-3.189576495934173,3.189576495934173,-10.477455333814655,19.266639489878745,0.0
754640.0783812654,3975767.5119837918,-2500.0,-2.8637259870124931,0.43346650908029982,19.244014021539275,0.36402774772772106,1.3574820109994568,0.036113868929623302,11.130439387414174,8.977707742306178,5.2741517273322689,-5.2741517273322689,-8.977707742306178,20.965253023791952,0.0
759640.0783812654,3975767.5119837918,-2500.0,0.26953071464757938,-4.6859603652630062,20.50136560474078,-0.20507883482418673,1.6431608084328135,0.074321674658914663,11.227251954087857,5.7093375840995693,11.044536270365072,-11.044536270365072,-5.7093375840995693,22.077487733037579,0.0
764640.0783812654,3975767.5119837918,-2500.0,3.482258144802473,-7.5990193222849856,18.37575437181933,-0.58011972712244431,1.5683764250797241,0.084481482199062471,10.87867458661081,2.4467456210687581,13.642865822106984,-13.642865822106984,-2.4467456210687581,21.577539352874243,0.0
769640.0783812654,3975767.5119837918,-2500.0,5.897910972545203,-8.5309698020664744,14.935818485727294,-0.75637825233371037,1.3245658212645048,0.078683148920752122,10.112463209766004,0.033349853283867859,13.813473693392053,-13.813473693392053,-0.033349853283867859,19.835647528271895,0.0
774640.0783812654,3975767.5119837918,-2500.0,7.2756964222592497,-8.1794438861296648,11.458863450314894,-0.78831885786073641,1.0418759653150165,0.066324003997961956,8.9676026967268108,-1.4136819940541159,12.590027758991912,-12.590027758991912,1.4136819940541159,17.477491506167429,0.0
779640.0783812654,3975767.5119837918,-2500.0,7.7619502021823639,-7.1966235980200235,8.5046623649389819,-0.73705514427229801,0.78551349968244466,0.052886581019488059,7.7188571387489082,-2.1030930395709477,10.793061940047913,-10.793061940047913,2.1030930395709477,14.985390133497578,0.0
784640.0783812654,3975767.5119837918,-2500.0,7.6301877868117707,-6.0191899959130408,6.2039089460409205,-0.64846284811567134,0.57777407492633348,0.04087545039128393,6.526776539351399,-2.3019817897351706,8.9215644138709642,-8.9215644138709642,2.3019817897351706,12.639714511481886,0.0
789640.0783812654,3975767.5119837918,-2500.0,7.1361788146925216,-4.8832417029115813,4.494583420047003,-0.55052929578432164,0.41929594657371339,0.031073548288194329,5.4654982486824819,-2.2258607251281051,7.2201254910249437,-7.2201254910249437,2.2258607251281051,10.56723980524942,0.0
794640.0783812654,3975767.5119837918,-2500.0,6.4688323086656281,-3.8905964440399812,3.2561335940172995,-0.45774256715663869,0.30240444916850473,0.023449862822316897,4.5572495660013441,-2.0183487268684823,5.7768639322654316,-5.7768639322654316,2.0183487268684823,8.801730977610724,0.0
799640.0783812654,3975767.5119837918,-2500.0,5.7497451521188285,-3.068197043889763,2.369424837886025,-0.37620793563119531,0.21775472054645886,0.017671766493075863,3.7973908196473287,-1.7644198553738395,4.5987377323629994,-4.5987377323629994,1.7644198553738395,7.3290746008461536,0.0
804640.0783812654,3975767.5119837918,-2500.0,5.0490448422583416,-2.4072473035363031,1.7368229450479471,-0.30746297835447689,0.15700168832250647,0.013349323134635766,3.1696182185570372,-1.5095600812947936,3.657514861777579,-3.657514861777579,1.5095600812947936,6.1148810350070892,0.0
809640.0783812654,3975767.5119837918,-2500.0,4.4024470732655727,-1.885211228369581,1.2847387448668244,-0.25085057115613069,0.11353420946673606,0.010132695127236947,2.6541846519094956,-1.2753594822889243,2.9141234876794755,-2.9141234876794755,1.2753594822889243,5.1193835472367404,0.0
814640.0783812654,3975767.5119837918,-2500.0,3.8245951353002092,-1.4767810809175062,0.96001612219157606,-0.20483993197236267,0.082415014388792562,0.0077397053876661617,2.2318829699174576,-1.0700198493653663,2.3300090773125413,-2.3300090773125413,1.0700198493653663,4.3045808523533591,0.0
819640.0783812654,3975767.5119837918,-2500.0,3.3181538924102534,-1.1586570350394183,0.72508736999115997,-0.1676975081740065,0.060070735459364422,0.0059543803317681646,1.8856943090491347,-0.89477263574303456,1.8715665694669934,-1.8715665694669934,0.89477263574303456,3.6371083492546981,0.0
824640.0783812654,3975767.5119837918,-2500.0,2.8795322330032906,-0.91117581914320722,0.55366814275152398,-0.13779280409376835,0.043957466332976397,0.0046159529420414722,1.6012481071532187,-0.74755371235838353,1.5112251478356133,-1.5112251478356133,0.74755371235838353,3.0889487390862342,0.0
649640.0783812654,3980767.5119837918,-2500.0,-1.4492754895541067,0.15221390175179483,0.10238422963331918,-0.0650781275724754,0.014674050773187786,-0.0018662780884266565,0.7924114257200473,0.33583308978039311,-0.34911663330331139,0.34911663330331139,-0.33583308978039311,1.529579493192553,0.0
654640.0783812654,3980767.5119837918,-2500.0,-1.8196111535201609,0.092218821811229049,0.094898773221018681,-0.086435207677935458,0.013047826519140498,-0.0026628383259993593,0.96415721930056664,0.34665465303909115,-0.35895026224826099,0.35895026224826099,-0.34665465303909115,1.8805639207059388,0.0
659640.0783812654,3980767.5119837918,-2500.0,-2.2935105911536215,-0.0084249441983328763,0.072310518565026599,-0.11560317363085955,0.008998911716658729,-0.0038360273394097274,1.1864668310664446,0.34047426024224958,-0.35408747828583809,0.35408747828583809,-0.34047426024224958,2.3373717880264033,0.0
664640.0783812654,3980767.5119837918,-2500.0,-2.9014886140869982,-0.17078903243445542,0.022892290160981522,-0.15573118510541437,0.00078521045896018339,-0.0055845317650938765,1.4777345049248796,0.30371943217711916,-0.32434765654729647,0.32434765654729647,-0.30371943217711916,2.9376525772752728,0.0
669640.0783812654,3980767.5119837918,-2500.0,-3.6821234758887216,-0.42650281553727193,-0.07349046609883722,-0.2113054083623376,-0.014509293435440291,-0.0082223771070823026,1.8754306917556349,0.21400086463132004,-0.25409819656667781,0.25409819656667781,-0.21400086463132004,3.7339411007390773,0.0
674640.0783812654,3980767.5119837918,-2500.0,-4.6825173972269676,-0.82274948128303949,-0.25144682853580763,-0.28868413806684756,-0.041772198975307227,-0.012250743899241995,2.4270729392005612,0.034634074911750988,-0.11982181782597889,0.11982181782597889,-0.034634074911750988,4.7997391964351701,0.0
679640.0783812654,3980767.5119837918,-2500.0,-5.9565069142821478,-1.4290039338041136,-0.5704895840687868,-0.39675622930089671,-0.089197214713652689,-0.018475018001352483,3.1731885731011804,-0.29398852731275027,0.11280434575626822,-0.11280434575626822,0.29398852731275027,6.2377347215288657,0.0
684640.0783812654,3980767.5119837918,-2500.0,-7.5575723925482512,-2.3450283700056538,-1.1326924750572853,-0.54759622022891086,-0.17047763486805692,-0.02819284476182736,4.1866609896955866,-0.86745160908713825,0.49140987323893093,-0.49140987323893093,0.86745160908713825,8.1902091415698717,0.0
689640.0783812654,3980767.5119837918,-2500.0,-9.5206537176181261,-3.7074169960814309,-2.1115946762379201,-0.75669247975745713,-0.3082776724562547,-0.043485305923400795,5.5671438758514995,-1.835533455353628,1.0761301286173048,-1.0761301286173048,1.835533455353628,10.85042187752174,0.0
694640.0783812654,3980767.5119837918,-2500.0,-11.823123768285669,-5.6863062882554321,-3.7963032533752412,-1.0416434882754391,-0.53931234597908961,-0.067633498594102476,7.4440337354779365,-3.4233019956266815,1.9280926472552289,-1.9280926472552289,3.4233019956266815,14.470385727441611,0.0
699640.0783812654,3980767.5119837918,-2500.0,-14.311997479570923,-8.4514435503575829,-6.6489533519300217,-1.4168553662324981,-0.92056005635794069,-0.10561488127804332,9.9713470181229251,-5.943139653794173,3.0708490421484846,-3.0708490421484846,5.943139653794173,19.352644242572524,0.0
704640.0783812654,3980767.5119837918,-2500.0,-16.59080993935024,-12.064920894143834,-11.350114673993078,-1.8796347941228992,-1.5332911455834302,-0.16440446871845066,13.299264941687651,-9.7615945705777261,4.3951665431888962,-4.3951665431888962,9.7615945705777261,25.798156383901031,0.0
709640.0783812654,3980767.5119837918,-2500.0,-17.899544322519009,-16.235750865876984,-18.741379572835573,-2.3815547988342622,-2.4743394496305986,-0.25223981559266084,17.495184870436507,-15.138898470005479,5.4725223016502866,-5.4725223016502866,15.138898470005479,33.958407816148878,0.0
714640.0783812654,3980767.5119837918,-2500.0,-17.134285841239429,-19.905090495396003,-29.446914266433815,-2.7844389808761849,-3.8110197100527872,-0.37501688471324168,22.378937940860638,-21.8121434939899,5.2973861748359585,-5.2973861748359585,21.8121434939899,43.523480604488689,0.0
719640.0783812654,3980767.5119837918,-2500.0,-13.327723104989397,-20.87156247418222,-42.852289204615026,-2.8276523542376619,-5.4678833387926797,-0.5273818426744814,27.267527134276371,-28.277167628776933,2.2054227118730587,-2.2054227118730587,28.277167628776933,53.235511831578719,0.0
724640.0783812654,3980767.5119837918,-2500.0,-6.84805601930824,-16.24383429497944,-55.47982795046871,-2.1909785002428976,-7.0555454936735842,-0.67921357332196808,30.764400314314891,-31.243870923541344,-5.3626904464478216,5.3626904464478216,31.243870923541344,60.485001297958149,0.0
729640.0783812654,3980767.5119837918,-2500.0,-0.56589645191879223,-4.8065590565206895,-60.330527505005598,-0.75567891522319131,-7.807815835717788,-0.76962167006391835,31.000223244299686,-26.698799036222802,-16.647749113893539,16.647749113893539,26.698799036222802,61.754232344925974,0.0
734640.0783812654,3980767.5119837918,-2500.0,1.3837278480124806,9.6252556188482092,-50.39156067532096,1.0482606710082942,-6.944541008795996,-0.73209259831506168,28.096609014618871,-13.64095264559082,-26.432573277765378,26.432573277765378,13.64095264559082,54.786158121550628,0.0
739640.0783812654,3980767.5119837918,-2500.0,-1.9987400384132588,18.825384694724825,-26.07481887695473,2.3101283100118568,-4.4323362620418152,-0.55165442958525901,22.687813303963232,2.6394537036075647,-27.365671772550261,27.365671772550261,-2.6394537036075647,41.889425820389668,0.0
744640.0783812654,3980767.5119837918,-2500.0,-6.4217306255314641,17.303330929882556,2.215232696336813,2.3729279309283076,-1.2891478043102753,-0.29552790256213396,18.017777671572912,13.758192197215475,-17.099869597920815,17.099869597920815,-13.758192197215475,31.293922059928878,0.0
749640.0783812654,3980767.5119837918,-2500.0,-6.9032447148073075,7.7163673585439136,22.45435003207481,1.4316475821623684,1.1962396440017455,-0.065000711391943966,16.698695223069258,15.797981365675803,-1.3141747990532613,1.3141747990532613,-15.797981365675803,29.949029066599564,0.0
754640.0783812654,3980767.5119837918,-2500.0,-2.8380704847657823,-2.9360787978046017,30.314312468092968,0.21309713476440578,2.435639704786952,0.07957334782955125,16.958248407559328,11.424003161836673,12.087478650563131,-12.087478650563131,-11.424003161836673,32.475548108238691,0.0
759640.0783812654,3980767.5119837918,-2500.0,2.9480900295079611,-9.9497647803290885,28.963792180215023,-0.7131633985350404,2.634163228481242,0.13864847014629195,16.526728178789828,5.3926011560830229,19.273502867902565,-19.273502867902565,-5.3926011560830229,32.81973532010052,0.0
764640.0783812654,3980767.5119837918,-2500.0,7.7563078945340989,-12.640031647934949,23.511239068511678,-1.1874572317731138,2.2821644113831683,0.1429985005631427,15.411321879430991,0.63709733299097415,20.850100904677717,-20.850100904677717,-0.63709733299097415,30.418640488182895,0.0
769640.0783812654,3980767.5119837918,-2500.0,10.549516889462566,-12.384647733804703,17.477337104455515,-1.3060273119882135,1.767016492776988,0.12277989766217087,13.554861768907392,-2.1402142318215169,19.111797907875225,-19.111797907875225,2.1402142318215169,26.524870572411285,0.0
774640.0783812654,3980767.5119837918,-2500.0,11.513733466592171,-10.732047610284585,12.395060139064277,-1.2225754121167267,1.286488880586141,0.096483237303329375,11.438055548733603,-3.3429826922341999,16.058384907045166,-16.058384907045166,3.3429826922341999,22.274928444732769,0.0
779640.0783812654,3980767.5119837918,-2500.0,11.254637563619081,-8.7028405198807075,8.5952672685526696,-1.0550110056553677,0.90597570242028402,0.072443382749090138,9.4312578933572393,-3.5875306193438803,12.864070102492342,-12.864070102492342,3.5875306193438803,18.313818333608541,0.0
784640.0783812654,3980767.5119837918,-2500.0,10.339266480937379,-6.8010709258703912,5.9166663741152696,-0.87117053911489795,0.6275292406596269,0.053196989609189303,7.6884926059189338,-3.3513672686886213,10.046659179030469,-10.046659179030469,3.3513672686886213,14.902796235560633,0.0
789640.0783812654,3980767.5119837918,-2500.0,9.1595553750222525,-5.2088736579703374,4.0809343145294346,-0.70254143860954144,0.43183680263735946,0.038726190045476935,6.2429166705567098,-2.9254309292868212,7.7523141830138451,-7.7523141830138451,2.9254309292868212,12.087097193079215,0.0
794640.0783812654,3980767.5119837918,-2500.0,7.9442290593811098,-3.9494142462847539,2.8365178932236983,-0.55997971824885595,0.29700059435148751,0.028175678190724883,5.0724858577642866,-2.4625077008550762,5.9587032533760969,-5.9587032533760969,2.4625077008550762,9.8142080079697251,0.0
799640.0783812654,3980767.5119837918,-2500.0,6.8088435635352376,-2.9826016238410613,1.9935680462600691,-0.44440612973627386,0.2048364476062747,0.020587785093062201,4.1359423207344506,-2.0323174193981397,4.5851725849666352,-4.5851725849666352,2.0323174193981397,7.9991296176991868,0.0
804640.0783812654,3980767.5119837918,-2500.0,5.8010992428692516,-2.2517872128047935,1.4194950145250675,-0.35274561027731971,0.14190670487366958,0.01515154865458913,3.3898426343073318,-1.6602718348858989,3.5429081829003595,-3.5429081829003595,1.6602718348858989,6.5550935418733696,0.0
809640.0783812654,3980767.5119837918,-2500.0,4.9319579266536682,-1.703165372776315,1.0250014197301471,-0.28082464884179092,0.098808610903022537,0.011249134647364184,2.7953966376088011,-1.3503554824263344,2.7538392123925202,-2.7538392123925202,1.3503554824263344,5.405634344380438,0.0
814640.0783812654,3980767.5119837918,-2500.0,4.1944436969554868,-1.2920463625189633,0.75088599772942255,-0.22461786871578429,0.069135020511451803,0.0084324497260962698,2.3204138116404174,-1.0973750727227423,2.1553567970699437,-2.1553567970699437,1.0973750727227423,4.4877453641115226,0.0
819640.0783812654,3980767.5119837918,-2500.0,3.5741190004034253,-0.98355208272417138,0.55807032928453171,-0.18068667210123407,0.048571075036729972,0.0063841042529973555,1.9391518080427519,-0.89305224228204305,1.6994438918148898,-1.6994438918148898,0.89305224228204305,3.7512617010863742,0.0
824640.0783812654,3980767.5119837918,-2500.0,3.054535036799412,-0.75131663952910044,0.42069920053307736,-0.14625766031288459,0.034220652499435601,0.0048815764529549621,1.6314164890756786,-0.7288256955261776,1.3500958086414281,-1.3500958086414281,0.7288256955261776,3.1569459950754188,0.0
829640.0783812654,3980767.5119837918,-2500.0,2.6198455205750029,-0.57573318628114001,0.32155824578013487,-0.11915969254620395,0.024136694207189582,0.0037692143563149696,1.381513099585868,-0.5969920042532213,1.0806012748295162,-1.0806012748295162,0.5969920042532213,2.6743664100734654,0.0
644640.0783812654,3985767.5119837918,-2500.0,-0.93996666455286793,0.34377928443499584,0.14464795888504497,-0.039529466911961415,0.023081313765559316,-0.0010052104431580342,0.64329278726277117,0.40066107863202111,-0.4243847012299386,0.4243847012299386,-0.40066107863202111,1.1834123272662178,0.0
649640.0783812654,3985767.5119837918,-2500.0,-1.2070027565293731,0.35179583660823388,0.16393528734562557,-0.053643558469881392,0.025499921737079517,-0.0014749452139655801,0.77207785321768829,0.4502275156098336,-0.47016146657449592,0.47016146657449592,-0.4502275156098336,1.4359418681142559,0.0
654640.0783812654,3985767.5119837918,-2500.0,-1.5565029211605239,0.34481867207618244,0.18320077822749431,-0.073282856609701449,0.027501300120606476,-0.0021792727909474641,0.93789023561696239,0.50196060868986336,-0.51616216291057038,0.51616216291057038,-0.50196060868986336,1.7645135902030293,0.0
659640.0783812654,3985767.5119837918,-2500.0,-2.0169026095818579,0.31188666200433579,0.1994969841559617,-0.10088047496057084,0.028405543465244491,-0.003248773060213081,1.1542903836689327,0.55188578015579404,-0.55819702425285611,0.55819702425285611,-0.55188578015579404,2.1974845829849263,0.0
664640.0783812654,3985767.5119837918,-2500.0,-2.6271731115131707,0.23523151938199474,0.20683496476804805,-0.14006114892192517,0.026950069008584227,-0.0048953894215664701,1.4407146939038458,0.59209990741972163,-0.58869592587795483,0.58869592587795483,-0.59209990741972163,2.7755031766597131,0.0
669640.0783812654,3985767.5119837918,-2500.0,-3.4405956986998314,0.086056507870231072,0.19345189355579334,-0.19627040492701084,0.02081716247501865,-0.0074686877242461733,1.825349151618445,0.60762067960285848,-0.59444186672377608,0.59444186672377608,-0.60762067960285848,3.5574709379104013,0.0
674640.0783812654,3985767.5119837918,-2500.0,-4.5293595308096899,-0.18229912596018663,0.13661602185728636,-0.27773934154081603,0.0057691274144080016,-0.011554550060427061,2.3495422815754519,0.57077164083458742,-0.55291356811452508,0.55291356811452508,-0.57077164083458742,4.6295937508884162,0.0
679640.0783812654,3985767.5119837918,-2500.0,-5.989272285935896,-0.64527478068419275,-0.0073015329245104217,-0.39693495548111063,-0.025943765176469732,-0.01815003509806299,3.0750927626651663,0.43120869156995378,-0.42656985711521067,0.42656985711521067,-0.43120869156995378,6.1190707054609943,0.0
684640.0783812654,3985767.5119837918,-2500.0,-7.9421917627600989,-1.4239588437110531,-0.32183182858243292,-0.57264267377580225,-0.088516773148020519,-0.028974739020435604,4.1275354909472028,0.098390809643013263,-0.15447014734222395,0.15447014734222395,-0.098390809643013263,8.2144730903258036,0.0
689640.0783812654,3985767.5119837918,-2500.0,-10.52980871791207,-2.7093679739780616,-0.9665691393967667,-0.83265886279337187,-0.20795400328206201,-0.047022285382870829,5.6641352405468517,-0.58846212167180745,0.3583578800386199,-0.3583578800386199,0.58846212167180745,11.194940192983411,0.0
694640.0783812654,3985767.5119837918,-2500.0,-13.883812956603604,-4.7918125463334658,-2.2445135700825323,-1.2163779483446411,-0.43163184470034394,-0.077515159449793494,7.8691873665433949,-1.9090785419745102,1.2493167717884424,-1.2493167717884424,1.9090785419745102,15.468469934597811,0.0
699640.0783812654,3985767.5119837918,-2500.0,-18.041273407983915,-8.0788970626402445,-4.7210217276279138,-1.7744489206451675,-0.84435912054486939,-0.12946145544140233,11.037326380035784,-4.3316740877804492,2.6874768951456116,-2.6874768951456116,4.3316740877804492,21.61163659068157,0.0
704640.0783812654,3985767.5119837918,-2500.0,-22.751727885526801,-13.044999611331978,-9.4091349279390659,-2.5573234335737709,-1.5917483015741787,-0.21784744973771208,15.551913269996357,-8.5810431581051265,4.7951071062571824,-4.7951071062571824,8.5810431581051265,30.378889082617683,0.0
709640.0783812654,3985767.5119837918,-2500.0,-27.12207857830548,-19.962391727189278,-17.969948342436982,-3.573739200722887,-2.9019422013144598,-0.36556126167985836,21.82180821531631,-15.59900944257965,7.3907327883804514,-7.3907327883804514,15.59900944257965,42.589476015584893,0.0
714640.0783812654,3985767.5119837918,-2500.0,-29.18214974165549,-28.131785987699075,-32.619456390414811,-4.688153464566077,-5.0635965577035877,-0.60113214658320258,30.045604617738093,-26.086828045085014,9.3866853169508531,-9.3866853169508531,26.086828045085014,58.685431694483803,0.0
719640.0783812654,3985767.5119837918,-2500.0,-25.980945528793448,-34.429983951302766,-54.813582970771023,-5.4489949672394724,-8.2466294363790471,-0.94217641856891576,39.642846723789653,-39.059604453351611,7.8891835135330997,-7.8891835135330997,39.059604453351611,77.650250524173558,0.0
724640.0783812654,3985767.5119837918,-2500.0,-15.699022891748013,-32.267715227844988,-81.284374378125051,-5.0006834216362623,-12.012362585745448,-1.3513458422740023,48.357608094348777,-49.317137258371247,-1.7551807558602448,1.7551807558602448,49.317137258371247,95.288084330680235,0.0
729640.0783812654,3985767.5119837918,-2500.0,-2.2840619777475859,-15.084216075134881,-98.695248805024463,-2.5555058305153495,-14.698675816023664,-1.6802122156216879,51.923887932183085,-46.860623015017438,-21.680213236954206,21.680213236954206,46.860623015017438,103.46035578132513,0.0
734640.0783812654,3985767.5119837918,-2500.0,3.6968688122139182,12.794042435502938,-87.24723555188298,1.3278742836541533,-13.858004557787194,-1.6980190532453772,48.351186244456365,-25.093599577868719,-42.823975541932228,42.823975541932228,25.093599577868719,94.243232517961573,0.0
739640.0783812654,3985767.5119837918,-2500.0,-2.92268043443682,31.658259911849235,-42.615198950655376,4.2421530113051347,-8.744974377333623,-1.295550848811343,38.15384963125333,5.7930852551901921,-46.201996594863957,46.201996594863957,-5.7930852551901921,70.234436191143004,0.0
744640.0783812654,3985767.5119837918,-2500.0,-11.619304143151483,26.714075735472786,10.046995738388906,4.2105296354383679,-2.0468158800048699,-0.66173353757441644,29.196772600544598,24.68175928431171,-24.81245594696275,24.81245594696275,-24.68175928431171,50.58425116371518,0.0
749640.0783812654,3985767.5119837918,-2500.0,-10.358317351801071,6.6079950402760481,41.839906412491437,1.95766474456493,2.7062671550314259,-0.11856995803081863,27.138544935501933,23.857163471912216,5.4058543120654505,-5.4058543120654505,-23.857163471912216,49.593105971919201,0.0
754640.0783812654,3985767.5119837918,-2500.0,-0.58325267067754549,-11.217953287694845,47.849631272289628,-0.44958526356340034,4.4379955461568192,0.17504788857845593,26.927885727626062,12.92880621580737,26.125160051353681,-26.125160051353681,-12.92880621580737,52.410054434394894,0.0
759640.0783812654,3985767.5119837918,-2500.0,9.7102439502954336,-19.38659374002992,39.738815413927973,-1.8633961626124418,4.1828999668856373,0.26062840896077422,24.948767703362901,2.594441434617762,32.99076564357852,-32.99076564357852,-2.594441434617762,49.650735506240743,0.0
764640.0783812654,3985767.5119837918,-2500.0,15.994759035494699,-19.935506617298415,28.4746343861515,-2.2978270227319166,3.2169712945412625,0.2407006458106829,21.803929587207282,-3.3905049032684804,30.874825978874227,-30.874825978874227,3.3905049032684804,42.891798070932815,0.0
769640.0783812654,3985767.5119837918,-2500.0,18.110217273877563,-16.958644339053567,18.996304347357828,-2.1698651084893781,2.2445074429152081,0.18834991740401813,17.938453423418704,-5.6961807520401457,25.294690615603905,-25.294690615603905,5.6961807520401457,35.069702779587182,0.0
774640.0783812654,3985767.5119837918,-2500.0,17.543569334413004,-13.175805863460953,12.292027928115074,-1.8261832999597269,1.4932360495378156,0.13690063365161453,14.303762768748316,-5.9316661383444984,19.41401683175517,-19.41401683175517,5.9316661383444984,27.868595936309358,0.0
779640.0783812654,3985767.5119837918,-2500.0,15.703314814649149,-9.7808889341149268,7.8953528397511414,-1.4532683731036677,0.97269712320009338,0.096333377117219857,11.253850498259656,-5.2811787195884179,14.448447017704154,-14.448447017704154,5.2811787195884179,21.882759725031072,0.0
784640.0783812654,3985767.5119837918,-2500.0,13.476596236764141,-7.1029724699898074,5.1006438146369195,-1.125970842599529,0.62945291403641435,0.06705051380247587,8.8284381203237619,-4.3807351654140945,10.625438149296521,-10.625438149296521,4.3807351654140945,17.146530149056129,0.0
789640.0783812654,3985767.5119837918,-2500.0,11.313226296917907,-5.1120642369333309,3.3386932988425277,-0.86294395224246856,0.40779984370034517,0.04670502250938683,6.9471645047254604,-3.5104770794827762,7.8036897374207896,-7.8036897374207896,3.5104770794827762,13.48387754717106,0.0
794640.0783812654,3985767.5119837918,-2500.0,9.3976793250513158,-3.6725437361749909,2.2230000573444304,-0.66010662612700644,0.26549991028385228,0.032768033688475584,5.5020012719748586,-2.7676432521197682,5.7578711357802703,-5.7578711357802703,2.7676432521197682,10.675615980659391,0.0
799640.0783812654,3985767.5119837918,-2500.0,7.7777856190831907,-2.6437727669030777,1.5085353137707016,-0.50658942070818347,0.17393800551927474,0.023235270836778316,4.3931537235790792,-2.1682833048267045,4.2819003220909337,-4.2819003220909337,2.1682833048267045,8.5235320435669095,0.0
804640.0783812654,3985767.5119837918,-2500.0,6.4398994558863505,-1.9106112048766424,1.0441249429831612,-0.39117640465893688,0.11463929794972427,0.016679524690793618,3.5392600934890659,-1.6976879024205713,3.2146431686622483,-3.2146431686622483,1.6976879024205713,6.8675817764534957,0.0
809640.0783812654,3985767.5119837918,-2500.0,5.3476230224878343,-1.3870017351531767,0.73715070878002475,-0.30440234644486142,0.075908239274434089,0.012129437185578872,2.8775324741749553,-1.332804245390343,2.4380746280909569,-2.4380746280909569,1.332804245390343,5.5849253609294101,0.0
814640.0783812654,3985767.5119837918,-2500.0,4.4599493926185367,-1.0112338241835519,0.53065916580868899,-0.23889938626527629,0.050379467617292686,0.00893591013379752,2.3607346498843551,-1.0511389917086269,1.8682348775016069,-1.8682348775016069,1.0511389917086269,4.5834630461805634,0.0
819640.0783812654,3985767.5119837918,-2500.0,3.7388517249755671,-0.73987922547784202,0.38929249485250994,-0.18914394970831355,0.033402587454021429,0.006667286329058557,1.9537079705499005,-0.83365703674817082,1.446092940079367,-1.446092940079367,0.83365703674817082,3.7948006785269226,0.0
824640.0783812654,3985767.5119837918,-2500.0,3.1518244693577184,-0.54258816474174731,0.29081884757245863,-0.15106677737819282,0.022021156920543156,0.0050356684085882527,1.6303510146607829,-0.66522433012695692,1.1302409834259977,-1.1302409834259977,0.66522433012695692,3.1682450241216311,0.0
829640.0783812654,3985767.5119837918,-2500.0,2.6721830615774391,-0.39815860552171084,0.22105759427799754,-0.1216902077349286,0.014338373990550723,0.0038477586529526214,1.3712462312607461,-0.53417060735627253,0.89154597202183583,-0.89154597202183583,0.53417060735627253,2.6661278741499639,0.0
644640.0783812654,3990767.5119837918,-2500.0,-0.64973656301151117,0.49097181635374859,0.16599186064370092,-0.026562260318595945,0.030594562101230887,-0.00059833550381990178,0.6394024772716016,0.4584030255742646,-0.50193304029477659,0.50193304029477659,-0.4584030255742646,1.1337360859489967,0.0
649640.0783812654,3990767.5119837918,-2500.0,-0.87001528347103274,0.54238994605027868,0.19763760077781797,-0.037777706512309508,0.035714653442699737,-0.00094642742321835317,0.76249721346183463,0.53298200225138403,-0.57516538876388301,0.57516538876388301,-0.53298200225138403,1.363073043712518,0.0
654640.0783812654,3990767.5119837918,-2500.0,-1.1668831022353454,0.59335674898221391,0.23587024371968859,-0.053887798607219498,0.041527755935383527,-0.001490282017613228,0.92067653339884226,0.62051202141725526,-0.65866941093458475,0.65866941093458475,-0.62051202141725526,1.6616861135106697,0.0
659640.0783812654,3990767.5119837918,-2500.0,-1.5703561660142793,0.63817895871732788,0.28145461179366849,-0.077283752386611657,0.047861091236781103,-0.0023500222468452628,1.1272579915884127,0.72199804643243037,-0.75209282667387123,0.75209282667387123,-0.72199804643243037,2.0568916559607784,0.0
664640.0783812654,3990767.5119837918,-2500.0,-2.1236745240495436,0.66618588337757778,0.33433768223898575,-0.11167721391546818,0.054203594538760794,-0.0037280108545921283,1.4017940591600246,0.83694120662068228,-0.85309607493987638,0.85309607493987638,-0.83694120662068228,2.5889733876384402,0.0
669640.0783812654,3990767.5119837918,-2500.0,-2.8896314523171087,0.65784242446870556,0.39229964809984136,-0.16291576516155004,0.059343126481266772,-0.0059727254359260374,1.7734922655377467,0.96133737830789945,-0.95537679418589827,0.95537679418589827,-0.96133737830789945,3.3182901573175823,0.0
674640.0783812654,3990767.5119837918,-2500.0,-3.9599400599669297,0.57777492634581684,0.44796164645509418,-0.24034883199135249,0.060633034998381047,-0.0096969203811503989,2.2867547032545641,1.083591531098929,-1.0449928819340681,1.0449928819340681,-1.083591531098929,4.3367658703255545,0.0
679640.0783812654,3990767.5119837918,-2500.0,-5.4687462966768372,0.36219399823314136,0.48219329537093769,-0.35913072365448656,0.052496812620710528,-0.016002964785587194,3.0102665029820788,1.1762230677837746,-1.0935864489857157,1.0935864489857157,-1.1762230677837746,5.7866995382300788,0.0
684640.0783812654,3990767.5119837918,-2500.0,-7.6109851091002456,-0.10378525040426702,0.44957317159867316,-0.54409944717756542,0.02334688907293522,-0.026919923301410052,4.0520446580217397,1.1790599159169037,-1.0460937052114625,1.0460937052114625,-1.1790599159169037,7.8918266007172271,0.0
689640.0783812654,3990767.5119837918,-2500.0,-10.663831109188864,-1.0265894880823696,0.24618496020443728,-0.83620063782909604,-0.050822938284513376,-0.046266736779656134,5.584406884844916,0.96530046078727427,-0.79915522083753532,0.79915522083753532,-0.96530046078727427,11.008652382570709,0.0
694640.0783812654,3990767.5119837918,-2500.0,-15.000918779925977,-2.7738665509911185,-0.36183896819237121,-1.3026085897317476,-0.21981241979115115,-0.081371515602171832,7.8850817691825874,0.27378209710310036,-0.16577489062616829,0.16577489062616829,-0.27378209710310036,15.710042393044791,0.0
699640.0783812654,3990767.5119837918,-2500.0,-21.063911720650598,-5.9842259253376291,-1.8955111189327107,-2.050668887486772,-0.58686037550264736,-0.14647400523215487,11.515400318893587,-1.4217944494025756,1.1729922322023689,-1.1729922322023689,1.4217944494025756,22.91494665609105,0.0
704640.0783812654,3990767.5119837918,-2500.0,-29.192112886591957,-11.700186542009568,-5.4971205729115988,-3.2397601845833406,-1.3635537760231018,-0.26919879454749501,17.226252816725513,-5.1448896452449553,3.6981534162793075,-3.6981534162793075,5.1448896452449553,34.064768653779879,0.0
709640.0783812654,3990767.5119837918,-2500.0,-39.079886457057945,-21.375403074525625,-13.575108288732851,-5.063035685391549,-2.9673321423195937,-0.50151440858966057,26.030238480057253,-12.740759955063929,7.9199035705631928,-7.9199035705631928,12.740759955063929,51.272735631256388,0.0
714640.0783812654,3990767.5119837918,-2500.0,-48.498621647231786,-36.17658088170942,-30.739161157179204,-7.6098533605310807,-6.1437610167402861,-0.93248046332013346,39.211137311402332,-26.978000175953646,13.620320958129881,-13.620320958129881,26.978000175953646,77.112834435501171,0.0
719640.0783812654,3990767.5119837918,-2500.0,-51.405723272718539,-54.115925337641123,-63.838809352070243,-10.419699661335162,-11.91465297956754,-1.6804264801358191,57.433917535809265,-50.043108292449134,17.528762026900456,-17.528762026900456,50.043108292449134,113.0602188275159,0.0
724640.0783812654,3990767.5119837918,-2500.0,-38.659167688620521,-63.809054868934027,-116.1349752003735,-11.658776251092501,-20.657705557447066,-2.7933140080361172,78.304884842779387,-77.293185533822594,9.524394473534592,-9.524394473534592,77.293185533822594,154.82372629332522,0.0
729640.0783812654,3990767.5119837918,-2500.0,-9.867069235188886,-42.744747656925661,-168.1371035441654,-8.1227389913612065,-29.477897324110558,-3.9793627013506674,92.929629070795826,-87.063285888681392,-24.226851711808493,24.226851711808493,87.063285888681392,185.20807940904066,0.0
734640.0783812654,3990767.5119837918,-2500.0,9.3882081091099092,14.56896729707876,-164.51179026897037,0.85306557115706316,-30.642727116349121,-4.4300125691404251,91.111588884586553,-50.885705098337191,-73.602893419095707,73.602893419095707,50.885705098337191,177.4402487243824,0.0
739640.0783812654,3990767.5119837918,-2500.0,-4.6759523008682544,58.151265729209427,-74.629917480102293,8.5259238370416934,-19.283656038362082,-3.488361057126097,69.971755578885805,14.328063266810808,-85.21247233345602,85.21247233345602,-14.328063266810808,128.28252318200509,0.0
744640.0783812654,3990767.5119837918,-2500.0,-23.000197093456325,41.68910255630766,32.588320174674813,7.9459957610264116,-3.3286326666007615,-1.7023813146888107,50.924002487751821,47.353428246826546,-34.745353898717376,34.745353898717376,-47.353428246826546,88.297032548468977,0.0
749640.0783812654,3990767.5119837918,-2500.0,-13.668317690712437,-2.7305918465597383,79.861766042880191,2.1364026102685778,6.2050121393041646,-0.2614679167148582,47.277500909370296,34.283526793735419,26.075164008980906,-26.075164008980906,-34.283526793735419,88.460409070348632,0.0
754640.0783812654,3990767.5119837918,-2500.0,9.367449848783755,-29.992266005868032,73.512586820747188,-2.5635331875171383,8.0400596761819898,0.37753541341344832,44.397772837215591,9.533084130495098,54.285753756973186,-54.285753756973186,-9.533084130495098,87.660294877616849,0.0
759640.0783812654,3990767.5119837918,-2500.0,25.512525728189065,-34.75529962162107,50.706718376527618,-4.3095880574124692,6.3735841592429923,0.48371177487592171,38.087738065526629,-5.5749835849549747,54.099998445954796,-54.099998445954796,5.5749835849549747,75.452949311176383,0.0
764640.0783812654,3990767.5119837918,-2500.0,30.819889298390908,-28.917570081668021,31.027839059590974,-4.1922736352344527,4.231685113722671,0.39453516346063566,30.314601202366582,-10.631089840667162,42.927115146563423,-42.927115146563423,10.631089840667162,59.558348635213044,0.0
769640.0783812654,3990767.5119837918,-2500.0,29.392984103223114,-21.103372269057072,18.168167878593458,-3.415072610584704,2.6075527523617614,0.27841846082243055,23.073193969297609,-10.561426086381442,30.984093670166249,-30.984093670166249,10.561426086381442,45.147446254261943,0.0
774640.0783812654,3990767.5119837918,-2500.0,25.290211429857333,-14.548951232292326,10.572748954523082,-2.5834468819611471,1.5617503427115902,0.18608138396451054,17.290448962569911,-8.7730423102040511,21.539919415657032,-21.539919415657032,8.7730423102040511,33.759556969858437,0.0
779640.0783812654,3990767.5119837918,-2500.0,20.741238078936515,-9.8046337907163075,6.2330171148521609,-1.896844334248142,0.92948911183939664,0.12242631286182623,12.954139517188157,-6.7826397614361795,14.82783560110494,-14.82783560110494,6.7826397614361795,25.263808772447643,0.0
784640.0783812654,3990767.5119837918,-2500.0,16.65519643721883,-6.5671537334644032,3.757870490289458,-1.3811695252901937,0.55526978471266708,0.080760150052616844,9.7790448515175132,-5.0901476545180255,10.247932018247388,-10.247932018247388,5.0901476545180255,19.060887531475416,0.0
789640.0783812654,3990767.5119837918,-2500.0,13.280276080972072,-4.4067887289828258,2.3270359992992904,-1.0083591391440616,0.33415988276284792,0.053893904446684231,7.4657911127736947,-3.7819445884220739,7.1589054100597229,-7.1589054100597229,3.7819445884220739,14.549351463990817,0.0
794640.0783812654,3990767.5119837918,-2500.0,10.595010754785168,-2.9724201850263374,1.4825269972322808,-0.74228042047941556,0.2025447493912976,0.036533224508480636,5.772890779298721,-2.80983031880164,5.0701565262421919,-5.0701565262421919,2.80983031880164,11.251076039799248,0.0
799640.0783812654,3990767.5119837918,-2500.0,8.4920099237730966,-2.0167265153974641,0.97196514476684681,-0.55243985157543718,0.12331725222146639,0.025196114898823972,4.5225337139323827,-2.0982377225724327,3.6442855879013591,-3.6442855879013591,2.0982377225724327,8.8164584097467529,0.0
804640.0783812654,3990767.5119837918,-2500.0,6.852736096665736,-1.3751049962086042,0.65544749931086232,-0.41615856345800917,0.075042741909326749,0.017684230474451348,3.5884373885926002,-1.5789143961903371,2.6583664451568594,-2.6583664451568594,1.5789143961903371,6.9981947901373127,0.0
809640.0783812654,3990767.5119837918,-2500.0,5.5732250942942487,-0.94031747014774059,0.45423868684865842,-0.31739634574021386,0.045292022660297103,0.012625582678998132,2.8820065185034696,-1.198672299514157,1.9669240658377205,-1.9669240658377205,1.198672299514157,5.6232216484675632,0.0
814640.0783812654,3990767.5119837918,-2500.0,4.5698559314712579,-0.64283461507129724,0.32315584067710185,-0.24502937125647306,0.026782157217294593,0.0091618341941367299,2.3411181289212135,-0.91842906107908096,1.4749427931225401,-1.4749427931225401,0.91842906107908096,4.5703907196508489,0.0
819640.0783812654,3990767.5119837918,-2500.0,3.7779326856313005,-0.43741718549471337,0.23571214268415655,-0.19138190746904635,0.015187792546736269,0.0067509570753660382,1.9219687707480813,-0.71017491553676826,1.11988987093776,-1.11988987093776,0.71017491553676826,3.7543781253009509,0.0
824640.0783812654,3990767.5119837918,-2500.0,3.1482717464847045,-0.29439880830471038,0.17603885033081498,-0.15114351888786817,0.0079024063332613307,0.0050462109673070823,1.5934009394405586,-0.55401652358017017,0.86015358004852494,-0.86015358004852494,0.55401652358017017,3.114541575960887,0.0
829640.0783812654,3990767.5119837918,-2500.0,2.6437289915132922,-0.19413007998596477,0.13442193432880689,-0.12061525807317401,0.0033322172973992291,0.003822560233408814,1.3330220444914347,-0.43583576324173656,0.66769062554111203,-0.66769062554111203,0.43583576324173656,2.6073221763245962,0.0
644640.0783812654,3995767.5119837918,-2500.0,-0.29357928335695699,0.61300198268678652,0.16494434280454795,-0.010718493836094059,0.036784720735697621,-6.196272937894655e-05,0.65557950521950148,0.48136464846307847,-0.55210731784457634,0.55210731784457634,-0.48136464846307847,1.1373346054544673,0.0
649640.0783812654,3995767.5119837918,-2500.0,-0.44324944656463028,0.70458872226446345,0.20107847953205793,-0.017715726761381525,0.044315710862386011,-0.00029396353979211753,0.77617707470645425,0.57206391869022433,-0.64816883042701212,0.64816883042701212,-0.57206391869022433,1.3498623777251708,0.0
654640.0783812654,3995767.5119837918,-2500.0,-0.65360027239632634,0.81104031381767117,0.24775755880081349,-0.028404220149489422,0.053671866509746993,-0.00060191789191165433,0.92972574969132415,0.68432798714715781,-0.76432516120354699,0.76432516120354699,-0.68432798714715781,1.6231725691058567,0.0
659640.0783812654,3995767.5119837918,-2500.0,-0.95165941737646831,0.93335654462974693,0.30815300164261605,-0.044723512342584308,0.065234025851264851,-0.0011397887406518067,1.1285549820325278,0.82375813376725382,-0.90495958584351277,0.90495958584351277,-0.82375813376725382,1.9812543484178105,0.0
664640.0783812654,3995767.5119837918,-2500.0,-1.3780003918266179,1.0707696233967103,0.38677348059417255,-0.069910157489510585,0.079410412203822098,-0.00206215834999265,1.3909879720018328,0.9973130294717869,-1.0747051251533848,1.0747051251533848,-0.9973130294717869,2.4602105781507095,0.0
669640.0783812654,3995767.5119837918,-2500.0,-1.9946301623101712,1.2184715571598526,0.48937896867653746,-0.10929727320317865,0.09646580243184473,-0.0036646354317854428,1.7448597136970134,1.2130150635406585,-1.2777687138794631,1.2777687138794631,-1.2130150635406585,3.1155163272764077,0.0
674640.0783812654,3995767.5119837918,-2500.0,-2.89776441146432,1.3629104837754507,0.62277479991862883,-0.17187029859024544,0.11614539301432347,-0.0064916800128081683,2.2335274230734963,1.4788611180319768,-1.515961713323279,1.515961713323279,-1.4788611180319768,4.0344116969597419,0.0
679640.0783812654,3995767.5119837918,-2500.0,-4.2389562319271148,1.4720981808347631,0.79334439996224415,-0.27310878553618789,0.13675862359443161,-0.011580104122238574,2.9263333484952545,1.7994562733263786,-1.7841307895741418,1.7841307895741418,-1.7994562733263786,5.357464341281859,0.0
684640.0783812654,3995767.5119837918,-2500.0,-6.2601125760031779,1.475466809239933,1.0019414793772909,-0.44030316306982697,0.15296328973187825,-0.020966705455658149,3.9372648607043059,2.1670140781204479,-2.0599020971614719,2.0599020971614719,-2.1670140781204479,7.3169772838016147,0.0
689640.0783812654,3995767.5119837918,-2500.0,-9.3508629253421844,1.2216047924132025,1.2285474466053754,-0.72267662888143114,0.15039646940557513,-0.038786386186761425,5.4590256721912711,2.5385150707333697,-2.2811171249526891,2.2811171249526891,-2.5385150707333697,10.306988444585258,0.0
694640.0783812654,3995767.5119837918,-2500.0,-14.138567311257368,0.38899717454887217,1.3884304946052957,-1.2108294061545377,0.092507965719991814,-0.07372865712625204,7.8265075780889921,2.7788975084059144,-2.2970742383784506,2.2970742383784506,-2.7788975084059144,15.013346776668758,0.0
699640.0783812654,3995767.5119837918,-2500.0,-21.612520568375562,-1.701518568381192,1.2088006570804528,-2.0737189059058072,-0.11219478705674206,-0.14468508882538181,11.636407008412368,2.521129067231576,-1.7665077758301952,1.7665077758301952,-2.521129067231576,22.657901111685661,0.0
704640.0783812654,3995767.5119837918,-2500.0,-33.227359832424114,-6.4667925797979766,-0.11619288454245177,-3.6251472276155527,-0.69226957213299078,-0.29393092879071203,17.970949068723911,0.82699581022423074,0.039427541175537817,-0.039427541175537817,-0.82699581022423074,35.451612952929665,0.0
709640.0783812654,3995767.5119837918,-2500.0,-50.700234069243962,-16.74230371647824,-4.8734540130843573,-6.4221023402623514,-2.2160308212147788,-0.61744004603136404,28.802793075208594,-4.595861089249401,4.5347120295432779,-4.5347120295432779,4.595861089249401,57.381387362105436,0.0
714640.0783812654,3995767.5119837918,-2500.0,-74.478262365501877,-37.526369257511071,-19.264608725271891,-11.307411224591043,-6.0531854595171612,-1.3285499292184415,47.869865494986129,-18.943073561381087,13.850240594535796,-13.850240594535796,18.943073561381087,95.282454150048153,0.0
719640.0783812654,3995767.5119837918,-2500.0,-98.316261602081923,-74.373330506180423,-58.357543203587618,-18.907946838869638,-15.16184253427571,-2.8531365177954706,80.062078333239043,-51.89790280479523,28.466394685972439,-28.466394685972439,51.89790280479523,158.90775920028813,0.0
724640.0783812654,3995767.5119837918,-2500.0,-98.761993889537649,-119.86751584974917,-148.39157431021732,-27.112207030156092,-34.017257023334551,-5.7840539220585496,127.76747260602279,-111.63610111578114,35.82279052255749,-35.82279052255749,111.63610111578114,253.97608042210692,0.0
729640.0783812654,3995767.5119837918,-2500.0,-43.449069129823371,-118.86820350210429,-289.90498455628364,-26.11065828458899,-61.884512447128664,-10.034859282586542,178.10411508748291,-168.33712874838474,-9.5313262421649654,9.5313262421649654,168.33712874838474,354.98659809440068,0.0
734640.0783812654,3995767.5119837918,-2500.0,23.562882101892594,2.4488765638507943,-344.05051936226755,-4.6811797390213359,-76.236930129168925,-13.048992496083031,192.7839186857384,-117.21872405227052,-132.96511088680919,132.96511088680919,117.21872405227052,374.8879384693081,0.0
739640.0783812654,3995767.5119837918,-2500.0,-8.8764355237793175,120.02569610654058,-140.10135693048321,18.965105042162257,-48.860368526467447,-11.097319010581023,143.64975350761776,41.783614565439052,-175.9541467711889,175.9541467711889,-41.783614565439052,261.52057797357901,0.0
744640.0783812654,3995767.5119837918,-2500.0,-48.986828936226239,59.310877742111238,101.44789298582855,15.702363323679945,-5.5347759483241035,-5.3034282736144256,97.817355426379692,96.397330640300979,-36.684239397476304,36.684239397476304,-96.397330640300979,171.32506925078573,0.0
749640.0783812654,3995767.5119837918,-2500.0,-6.026357266005574,-39.636354997175957,150.99684328818844,-0.16024620721561017,14.024759769328124,-0.81377753921053952,88.861240380769942,38.668156708967189,85.732478671711561,-85.732478671711561,-38.668156708967189,170.78712233811677,0.0
754640.0783812654,3995767.5119837918,-2500.0,42.658305921659043,-67.361580983730235,102.37815883017635,-8.3619371381555556,13.727096196748418,0.75415211449852915,74.758957256100643,-8.8026738872976225,105.55653705803738,-105.55653705803738,8.8026738872976225,149.03939782924286,0.0
759640.0783812654,3995767.5119837918,-2500.0,58.633425649576822,-54.681580058743783,54.953514665746965,-8.9882310446309202,8.7320883179697102,0.85280553421867278,56.728191463951731,-22.432017716544994,80.525184236623332,-80.525184236623332,22.432017716544994,112.1644009988246,0.0
764640.0783812654,3995767.5119837918,-2500.0,54.260627279211789,-36.142832649021962,27.517143411631903,-7.0296386974696983,4.8402203479762811,0.60870784039895809,40.322600323269306,-20.632956949277467,52.881646177487056,-52.881646177487056,20.632956949277467,79.349523390220739,0.0
769640.0783812654,3995767.5119837918,-2500.0,43.806561578501586,-22.24270188504536,13.752792440415062,-4.9513477568896294,2.569929149250187,0.38512689924370824,28.177137272075836,-15.433421609613417,33.200840374963015,-33.200840374963015,15.433421609613417,55.328534756326313,0.0
774640.0783812654,3995767.5119837918,-2500.0,33.591890432695337,-13.409678227954464,7.0600783534593621,-3.3763335189303723,1.3557706833521295,0.23642538414798026,19.813798942379901,-10.788358545825172,20.787367847702861,-20.787367847702861,10.788358545825172,38.867914883508632,0.0
779640.0783812654,3995767.5119837918,-2500.0,25.357705121263283,-8.0821096445779581,3.7665053482096216,-2.2970829173246594,0.71960477761081387,0.14571579117507383,14.15794676428483,-7.3991611550674055,13.20795007470568,-13.20795007470568,7.3991611550674055,27.763500628241708,0.0
784640.0783812654,3995767.5119837918,-2500.0,19.153503797133467,-4.9034021335405438,2.0971988550724645,-1.5798810884272347,0.38456395551124561,0.091420115193867668,10.315307910834578,-5.0808894650337848,8.5729694863872226,-8.5729694863872226,5.0808894650337848,20.229030104816466,0.0
789640.0783812654,3995767.5119837918,-2500.0,14.585307559618879,-2.9953551495797086,1.2201406223753479,-1.1045192411600675,0.20556791823197956,0.058688524482583292,7.6670601288666083,-3.5239432820467611,5.6941679217735386,-5.6941679217735386,3.5239432820467611,15.04003921536356,0.0
794640.0783812654,3995767.5119837918,-2500.0,11.234119441881781,-1.8355938571940547,0.74163723013190264,-0.78638275864756479,0.10841021060458621,0.03860097301665362,5.8088237424806417,-2.4773748925858809,3.8682410659007314,-3.8682410659007314,2.4773748925858809,11.400074764710681,0.0
799640.0783812654,3995767.5119837918,-2500.0,8.7624999897574884,-1.1205840697174734,0.47063549980835978,-0.57024233051555329,0.054965189426906647,0.025999108725545648,4.4800035297771199,-1.7672162791613235,2.683793026825843,-2.683793026825843,1.7672162791613235,8.797232597624582,0.0
804640.0783812654,3995767.5119837918,-2500.0,6.9219671693075213,-0.67382179751453131,0.31147556014421052,-0.42086705551313508,0.025327407155542145,0.017909081302094912,3.511959696575782,-1.2789631376664845,1.8982496943078142,-1.8982496943078142,1.2789631376664845,6.9007839011058314,0.0
809640.0783812654,3995767.5119837918,-2500.0,5.5355567055944208,-0.39151789625614725,0.214661410679126,-0.31581248042775406,0.008891385257353961,0.012596601033779273,2.7942143432704638,-0.93838136432905239,1.3662052002265743,-1.3662052002265743,0.93838136432905239,5.4942907776620542,0.0
814640.0783812654,3995767.5119837918,-2500.0,4.478519146199968,-0.21168485372287102,0.15373913353165472,-0.2406565420861366,-0.00011302975697452049,0.0090319853837522793,2.2532442761773912,-0.69730575389967209,0.99874777442740448,-0.99874777442740448,0.69730575389967209,4.4338095451498001,0.0
819640.0783812654,3995767.5119837918,-2500.0,3.6628427272913773,-0.096665416150400363,0.11412296050959306,-0.18600868365020715,-0.0048881271271827981,0.0065913194619502272,1.8392813266811436,-0.52422464943034064,0.74036277276386642,-0.74036277276386642,0.52422464943034064,3.6219437706421242,0.0
824640.0783812654,3995767.5119837918,-2500.0,3.026042373617893,-0.023190740870608864,0.087529831548014261,-0.14566074651213701,-0.0072429013844136523,0.0048885015412806036,1.518058044795642,-0.39827633513245592,0.55566484736609545,-0.55566484736609545,0.39827633513245592,2.991646721041203,0.0
829640.0783812654,3995767.5119837918,-2500.0,2.5233494170984021,0.023352310779901013,0.069122804441361735,-0.11544279521300106,-0.0082147339645508109,0.0036796323872858119,1.2655851301668586,-0.30546333746119653,0.42164698243240467,-0.42164698243240467,0.30546333746119653,2.4959853772073139,0.0
834640.0783812654,3995767.5119837918,-2500.0,2.1223519439319021,0.052279807350834699,0.056001796724603557,-0.092509382138281596,-0.0084055765217804744,0.0028075261101809883,1.064801047875253,-0.23626266132060272,0.32306711444212899,-0.32306711444212899,0.23626266132060272,2.1015794068926477,0.0
644640.0783812654,4000767.5119837918,-2500.0,0.11563284146939415,0.69612849045366754,0.14333617851269143,0.0075855873927312602,0.040929289418432761,0.00045305310886204506,0.69746385883089856,0.46401782261013774,-0.56417785923533492,0.56417785923533492,-0.46401782261013774,1.2149928363149785,0.0
649640.0783812654,4000767.5119837918,-2500.0,0.057942889460075531,0.81878000581604249,0.1766111581316869,0.0058117640570986093,0.050313670676276484,0.00047382553296992328,0.82245278988340176,0.55901651200482005,-0.67341153248307872,0.67341153248307872,-0.55901651200482005,1.4293713392831364,0.0
654640.0783812654,4000767.5119837918,-2500.0,-0.034764472414622827,0.96959610979194621,0.22049772837533677,0.0022668012040355334,0.062420571182175359,0.00045283190640639281,0.97993253919640155,0.67987630376858199,-0.81027366195570805,0.81027366195570805,-0.67987630376858199,1.6998422425987503,0.0
659640.0783812654,4000767.5119837918,-2500.0,-0.18109195550118479,1.1561743738128167,0.27927612461442053,-0.0042753197833308582,0.078190760878694532,0.00034316080115837338,1.1814585564454636,0.83536867076841093,-0.98325308820056545,0.98325308820056545,-0.83536867076841093,2.0469353440648304,0.0
664640.0783812654,4000767.5119837918,-2500.0,-0.41043619997967423,1.3881438118123799,0.35930400197226803,-0.015921113954933851,0.098923832332777281,5.8075764832600494e-05,1.4439882683096843,1.037778876009686,-1.2037684856882849,1.2037684856882849,-1.037778876009686,2.5011956197879148,0.0
669640.0783812654,4000767.5119837918,-2500.0,-0.77010976625618133,1.6773382802443746,0.47018692204099027,-0.03636085356855849,0.12639269119040575,-0.00056526814607851144,1.7930891152517932,1.304468382822481,-1.4871362338397944,1.4871362338397944,-1.304468382822481,3.1093976761367181,0.0
674640.0783812654,4000767.5119837918,-2500.0,-1.3379473948858878,2.0373663668722188,0.62643904470047063,-0.072167289207290514,0.16304205648939665,-0.0019491723207559312,2.2685330052260193,1.659973579704578,-1.8537138504109616,1.8537138504109616,-1.659973579704578,3.9455349663947108,0.0
679640.0783812654,4000767.5119837918,-2500.0,-2.2446882881441912,2.4811556014168046,0.85075915870696783,-0.13550258091058079,0.21189276988162736,-0.0047506872587358643,2.9342623429095633,2.1391204211855266,-2.3295037616527603,2.3295037616527603,-2.1391204211855266,5.1306611723755076,0.0
684640.0783812654,4000767.5119837918,-2500.0,-3.7158998444176237,3.0134991836402842,1.1779355674441534,-0.24934886459684408,0.27630689962993987,-0.010561759309326539,3.8971560895219861,2.7899814264127718,-2.945265305757431,2.945265305757431,-2.7899814264127718,6.8705846691603885,0.0
689640.0783812654,4000767.5119837918,-2500.0,-6.1510097029571948,3.6097364790260635,1.6606251706126842,-0.45878936558009337,0.35810470769900477,-0.022826206574822427,5.3434379787444657,3.6750255075510458,-3.729274331739195,3.729274331739195,-3.6750255075510458,9.5295284661047965,0.0
694640.0783812654,4000767.5119837918,-2500.0,-10.276772289373273,4.1579271550317651,2.372450915053038,-0.85556575324180417,0.45110145391220735,-0.049504404418426351,7.6127767939919355,4.8608011901197496,-4.6816730536827755,4.6816730536827755,-4.8608011901197496,13.780580261257086,0.0
699640.0783812654,4000767.5119837918,-2500.0,-17.448120871233552,4.3020831349818582,3.3900700965256969,-1.6338445404399236,0.51968083878034765,-0.10993222532033009,11.355782657330698,6.3642326267092013,-5.6949687957967559,5.6949687957967559,-6.3642326267092013,20.925792904020408,0.0
704640.0783812654,4000767.5119837918,-2500.0,-30.228027144845772,3.0132047407809415,4.6729214922353997,-3.2204083104230401,0.42864922204501321,-0.25369726336698462,17.883294239269169,7.9459366796644169,-6.3214371023322453,6.3214371023322453,-7.9459366796644169,33.605157906804585,0.0
709640.0783812654,4000767.5119837918,-2500.0,-53.397030471269716,-2.5889056611553087,5.5015024595773747,-6.5794744385014123,-0.28960833606942271,-0.61493044929358742,29.966667537924337,8.3784214268319683,-5.1215932522903582,5.1215932522903582,-8.3784214268319683,57.414513635709504,0.0
714640.0783812654,4000767.5119837918,-2500.0,-95.016428435793898,-20.348859032766484,2.0802627632250594,-13.874775622905453,-3.2152894317035412,-1.5708318900595546,53.67303760316323,2.9639552495691124,1.987406678723894,-1.987406678723894,-2.9639552495691124,104.58183097378587,0.0
719640.0783812654,4000767.5119837918,-2500.0,-163.34837479794379,-69.757422588983516,-22.059086928564792,-29.427086383344051,-13.537828095133479,-4.1697263358591306,102.14841660259823,-24.120187616019642,24.512288956510567,-24.512288956510567,24.120187616019642,201.38579824318947,0.0
724640.0783812654,4000767.5119837918,-2500.0,-239.13998484107671,-183.11962093360788,-127.53983824104256,-57.767340143165562,-46.166018063208668,-10.870075159795567,199.2667090740978,-115.45190340777313,71.207793868070183,-71.207793868070183,115.45190340777313,395.08261939489648,0.0
729640.0783812654,4000767.5119837918,-2500.0,-194.25612755372268,-315.28976880618444,-448.59724816697747,-83.040649572139628,-124.92703257110564,-24.242677416300836,356.80215927500365,-308.63320100928627,72.008882953081297,-72.008882953081297,308.63320100928627,708.91878524725246,0.0
734640.0783812654,4000767.5119837918,-2500.0,51.463086480775388,-98.185644055143356,-804.58316531679293,-39.841483032706499,-208.17574519384354,-38.604465543864123,468.38882761039798,-321.27270316696729,-229.20887363256477,229.20887363256477,321.27270316696729,909.68130402490112,0.0
739640.0783812654,4000767.5119837918,-2500.0,-23.789889341514819,288.4862131089539,-262.11352293751344,44.002502533544302,-143.69158966751488,-41.106609531595652,339.80656813559506,152.3674461179873,-413.91368790383291,413.91368790383291,-152.3674461179873,608.60036511974465,0.0
744640.0783812654,4000767.5119837918,-2500.0,-94.501885836482245,27.498845522246917,322.891366420184,29.799819611248694,-11.423592729464797,-21.635916869542182,216.07387703646057,191.57022412089265,46.366988322585584,-46.366988322585584,-191.57022412089265,392.98467574607508,0.0
749640.0783812654,4000767.5119837918,-2500.0,71.149134419334231,-150.68163604258652,250.51100048607654,-12.425917065889314,27.84090550273303,-3.6224892397264181,177.16850241505202,-4.2788213702036444,237.02278530665004,-237.02278530665004,4.2788213702036444,349.39387126238859,0.0
754640.0783812654,4000767.5119837918,-2500.0,132.4703164995569,-119.6179441113015,107.32775703795157,-21.402610729383742,19.357944013619026,1.2184263345574902,122.91551088115678,-56.074578781079083,173.3497610586179,-173.3497610586179,56.074578781079083,244.91419191808987,0.0
759640.0783812654,4000767.5119837918,-2500.0,114.448669023961,-66.226803478866572,40.548951570908969,-16.171146306150359,9.3229295700161092,1.3388830071481237,78.261370748909414,-45.026573384439544,96.846851014741262,-96.846851014741262,45.026573384439544,155.239969619763,0.0
764640.0783812654,4000767.5119837918,-2500.0,82.755145992024296,-33.623950283024257,15.423643577196431,-10.296177131145404,4.1154870081631101,0.83997943336019087,49.185874897127661,-28.44963780498124,51.568560966523478,-51.568560966523478,28.44963780498124,97.410010179717347,0.0
769640.0783812654,4000767.5119837918,-2500.0,57.234960850246942,-16.862473734146413,6.1467176994485966,-6.3345173714770242,1.7886896124406548,0.47862965811190217,31.607423246152951,-17.09566475853234,27.940390897283766,-27.940390897283766,17.09566475853234,62.567676113287952,0.0
774640.0783812654,4000767.5119837918,-2500.0,39.596028583559502,-8.501806923293552,2.5932592330462172,-3.9373073146051731,0.77262700399729944,0.271884737276814,20.983455553518848,-10.31074824230164,15.699967923048588,-15.699967923048588,10.31074824230164,41.540717268888699,0.0
779640.0783812654,4000767.5119837918,-2500.0,27.84179381913631,-4.286944423328408,1.1616976893605666,-2.5098251896176547,0.32387760943601024,0.1583258963894861,14.405752264163949,-6.3504305855535668,9.1777858826275676,-9.1777858826275676,6.3504305855535668,28.529815550937197,0.0
784640.0783812654,4000767.5119837918,-2500.0,19.998837972498762,-2.1169845970459247,0.55509300771129566,-1.6473277896343241,0.1226717278054386,0.095277885033308043,10.204104830195865,-4.012636021972499,5.5680175330735029,-5.5680175330735029,4.012636021972499,20.219848148028866,0.0
789640.0783812654,4000767.5119837918,-2500.0,14.685536145640022,-0.97752822609810142,0.28571876860328976,-1.1129757900801782,0.032087131063507135,0.059305770654592374,7.4335805887757038,-2.60071029946225,3.4913276422586002,-3.4913276422586002,2.60071029946225,14.739478536848127,0.0
794640.0783812654,4000767.5119837918,-2500.0,11.013227767151712,-0.37150569244865111,0.16075959229917833,-0.772574720610268,-0.0078560861495242072,0.038116474329755873,5.5512814756134583,-1.7255420951178548,2.2525997049776909,-2.2525997049776909,1.7255420951178548,11.014850750001667,0.0
799640.0783812654,4000767.5119837918,-2500.0,8.4211203767927323,-0.048799807146846563,0.10023427861019277,-0.54967978724189059,-0.024218401602557647,0.025229256721642945,4.2371086404707237,-1.1689670237614751,1.4891824714972979,-1.4891824714972979,1.1689670237614751,8.4132173939658994,0.0
804640.0783812654,4000767.5119837918,-2500.0,6.5536463769663094,0.12014215943140547,0.069500608566653937,-0.39989543861558252,-0.029554750147002727,0.017150122982574092,3.2968153753542118,-0.80638440892933216,1.0048465072889632,-1.0048465072889632,0.80638440892933216,6.5507256887640821,0.0
809640.0783812654,4000767.5119837918,-2500.0,5.182114239436463,0.20429977560356782,0.05297967339707068,-0.29680546697459154,-0.029822782967589848,0.011941361309961849,2.6091106494179246,-0.56492868135223384,0.68960776682013281,-0.68960776682013281,0.56492868135223384,5.1877124448471292,0.0
814640.0783812654,4000767.5119837918,-2500.0,4.1567613778348891,0.24131129960876035,0.043437767218957091,-0.22428659548651778,-0.02789024901420905,0.0084960914227096423,2.0961796097474896,-0.40091704564119146,0.47976758700941879,-0.47976758700941879,0.40091704564119146,4.1704099229064706,0.0
819640.0783812654,4000767.5119837918,-2500.0,3.3776229341658981,0.25214074284925003,0.03742471168729198,-0.17224942532687609,-0.025141305087619949,0.0061635464074175283,1.7068294221022147,-0.28751758862303051,0.33731020986765853,-0.33731020986765853,0.28751758862303051,3.397638978240463,0.0
824640.0783812654,4000767.5119837918,-2500.0,2.7766990998225194,0.24865426312024791,0.033257708029128641,-0.13422896801159531,-0.022234199261335262,0.0045505711104703644,1.4065938841656256,-0.20786514707716594,0.23892042776258168,-0.23892042776258168,0.20786514707716594,2.8012627994695936,0.0
829640.0783812654,4000767.5119837918,-2500.0,2.3068861519221642,0.23764255963821648,0.030100314855330115,-0.1059898024078459,-0.019467935525470947,0.0034135191176870635,1.1717705688125664,-0.1511292941372179,0.16994136703358739,-0.16994136703358739,0.1511292941372179,2.3344135293785189,0.0
834640.0783812654,4000767.5119837918,-2500.0,1.9349908766690043,0.22301075519693486,0.027529700477787689,-0.084699485609715977,-0.016963493292164018,0.002597784042068966,0.98573759314587328,-0.11021572020852086,0.1209508665823302,-0.1209508665823302,0.11021572020852086,1.9642232768922445,0.0
644640.0783812654,4005767.5119837918,-2500.0,0.55854961944037285,0.72904489136144979,0.10760047022153417,0.027331492352983308,0.04253831322631433,0.0010545987987306128,0.76450983235013126,0.4053109615720718,-0.52934562863619472,0.52934562863619472,-0.4053109615720718,1.3656291021097786,0.0
649640.0783812654,4005767.5119837918,-2500.0,0.60789355180748017,0.86837670654192012,0.13163450726488857,0.031613166757875039,0.052860531948916295,0.0013048301402172494,0.90221386900593836,0.49102628350386968,-0.63816139934727212,0.63816139934727212,-0.49102628350386968,1.6060804424423798,0.0
654640.0783812654,4005767.5119837918,-2500.0,0.6557410195418687,1.0442350085361194,0.16345282739177827,0.03645391967231159,0.066454915561691072,0.0016203709308685776,1.0751506519041441,0.6015554946991144,-0.77724182700047684,0.77724182700047684,-0.6015554946991144,1.9070189581804307,0.0
659640.0783812654,4005767.5119837918,-2500.0,0.69650927907697291,1.2689347990247888,0.2064004408403963,0.041720543309438488,0.084621485957406969,0.0020151196020088175,1.2953909176012433,0.74617995492567513,-0.95734535975985491,0.95734535975985491,-0.74617995492567513,2.2889827121643682,0.0
664640.0783812654,4005767.5119837918,-2500.0,0.71987336736083862,1.5598977041356001,0.26563285204357945,0.047011867510520139,0.10928800039787261,0.00249915659983432,1.5803532257378161,0.93850568394683775,-1.1939359970208201,1.1939359970208201,-0.93850568394683775,2.7816190003494725,0.0
669640.0783812654,4005767.5119837918,-2500.0,0.70688520450438197,1.9421558560080896,0.34931124955271342,0.051356169027045949,0.14336831721727147,0.0030665388476372943,1.9558014108559567,1.1989085221294449,-1.5096393775231234,1.5096393775231234,-1.1989085221294449,3.4288535288132413,0.0
674640.0783812654,4005767.5119837918,-2500.0,0.62261079804741148,2.4522388470729011,0.47074019567353115,0.052569981036385931,0.19135550145776542,0.0036626511416982498,2.4609376698266101,1.5586208276301692,-1.9381813110764585,1.9381813110764585,-1.5586208276301692,4.2977586184344867,0.0
679640.0783812654,4005767.5119837918,-2500.0,0.4017354746649005,3.1442244652569267,0.65232054297400022,0.045862716169713179,0.26031674202858363,0.00410059110569767,3.1573997889160874,2.0667386650044426,-2.530796713579921,2.530796713579921,-2.0667386650044426,5.4944148723996564,0.0
684640.0783812654,4005767.5119837918,-2500.0,-0.080577035503500163,4.0990373002816645,0.93312390353183594,0.020697238128220784,0.36157154593286517,0.0038415323322653688,4.1458853237781286,2.8025485768959348,-3.3667524848435488,3.3667524848435488,-2.8025485768959348,7.193674189848597,0.0
689640.0783812654,4005767.5119837918,-2500.0,-1.0700892871470196,5.4380101118548749,1.3839520216979242,-0.046571472098333046,0.51347721873574159,0.0013996008614485316,5.5985055736391054,3.8977251405225153,-4.5705453547072512,4.5705453547072512,-3.8977251405225153,9.6981582987663977,0.0
694640.0783812654,4005767.5119837918,-2500.0,-3.0689058561487266,7.3394039370325723,2.1383861723747342,-0.21083222850099068,0.74571473010200229,-0.0073436378750972786,7.825663349370001,5.5769339840139365,-6.3389191679139723,6.3389191679139723,-5.5769339840139365,13.562771747221312,0.0
699640.0783812654,4005767.5119837918,-2500.0,-7.1496642331178766,10.043995508121348,3.4587586042810905,-0.60556317228990164,1.1040640481719162,-0.034167513072892425,11.424292757820687,8.2316137724040512,-8.9773805887373666,8.9773805887373666,-8.2316137724040512,19.876802071798181,0.0
704640.0783812654,4005767.5119837918,-2500.0,-15.725606393476804,13.778801598722193,5.8768141217898568,-1.5746801463713331,1.6456620636456258,-0.11489001156689289,17.633907934855799,12.543955581072707,-12.920059784774891,12.920059784774891,-12.543955581072707,30.955764605520692,0.0
709640.0783812654,4005767.5119837918,-2500.0,-34.540366354183405,18.274786431820811,10.470820439693265,-4.0666312227831645,2.3655925512385712,-0.36630680295461293,29.272737701271549,19.623254505351799,-18.570163716549036,18.570163716549036,-19.623254505351799,52.191592379295379,0.0
714640.0783812654,4005767.5119837918,-2500.0,-77.983618874144312,20.399407723117896,19.155874739490653,-10.888129236500674,2.7285859665979286,-1.2020527439942656,53.448393907049351,30.641275569632597,-25.13060862964867,25.13060862964867,-30.641275569632597,97.464684832368931,0.0
719640.0783812654,4005767.5119837918,-2500.0,-182.52040821604055,3.043263716646738,32.428588524213311,-30.744308573705535,-1.0139582734148345,-4.1781639834124444,110.12235807228359,42.176546950685619,-24.458191842919771,24.458191842919771,-42.176546950685619,206.25481092250146,0.0
724640.0783812654,4005767.5119837918,-2500.0,-424.62539952098405,-113.64781096618286,19.050988032686138,-88.433291707944733,-30.380918764293913,-14.64179689520058,259.60235105649451,12.469479571939608,25.535499589421221,-25.535499589421221,-12.469479571939608,498.00910057894964,0.0
729640.0783812654,4005767.5119837918,-2500.0,-763.93867717885939,-585.76570430063475,-334.59168629844771,-208.5555484355427,-177.60045137983451,-35.274338266210819,660.39294395452498,-316.0399077548164,234.61994694278616,-234.61994694278616,316.0399077548164,1287.2129227335424,0.0
734640.0783812654,4005767.5119837918,-2500.0,-88.511939356926533,-785.88956463316435,-2025.306058433938,-182.65717789400733,-468.53385541137754,32.156428365756916,1300.9168954263823,-1148.1470921084413,-94.669670306921489,94.669670306921489,1148.1470921084413,2571.1810861801505,0.0
739640.0783812654,4005767.5119837918,-2500.0,-123.34242555895598,835.14564674865005,-158.1992139705529,18.722120450845747,-426.23512974155858,-92.511334878780019,937.71891647487303,738.96543389530018,-1041.3056507993435,1041.3056507993435,-738.96543389530018,1625.3386383658139,0.0
744640.0783812654,4005767.5119837918,-2500.0,112.50892020520899,-437.77655841443664,913.01821428686412,46.697063506604074,-64.568209901495592,-121.40127008167775,621.29931976449689,179.49549716411266,660.60203655206715,-660.60203655206715,-179.49549716411266,1215.2243998693639,0.0
749640.0783812654,4005767.5119837918,-2500.0,412.86088255519974,-324.56522913730424,226.64594254587209,-45.464791289796032,32.286807050054293,-16.37099414527037,341.80150077048035,-178.04803194518709,452.09526217734947,-452.09526217734947,178.04803194518709,681.42706069909286,0.0
754640.0783812654,4005767.5119837918,-2500.0,288.68926226054191,-119.84371742451626,41.500698789493462,-40.058771928037736,15.380263967991908,1.2365638908083052,174.95167707164421,-107.64393074239968,179.35404394356652,-179.35404394356652,107.64393074239968,348.26361156132208,0.0
759640.0783812654,4005767.5119837918,-2500.0,169.49110639028811,-40.600944849708554,6.0620571858475278,-22.591595540837382,4.8803526508477377,1.7082283359585335,92.762873536301399,-50.393404048156711,70.433828940435816,-70.433828940435816,50.393404048156711,184.35687218044595,0.0
764640.0783812654,4005767.5119837918,-2500.0,99.733266459287407,-13.22711564726205,-0.24930790346685966,-12.12533066193375,1.3003846787706876,0.9653915410710936,52.464887866938717,-23.696164920280943,29.711175019626971,-29.711175019626971,23.696164920280943,104.15159907731855,0.0
769640.0783812654,4005767.5119837918,-2500.0,61.13363048718351,-3.6211834979700299,-1.0282958487420775,-6.7146752787845303,0.19206704986741338,0.50602989429737677,31.675695038903051,-11.702967606305128,13.51341073134814,-13.51341073134814,11.702967606305128,62.815545598172321,0.0
774640.0783812654,4005767.5119837918,-2500.0,39.252085441918958,-0.20182236862519562,-0.83584269640483821,-3.9027278647155694,-0.12519893322864953,0.27135015298967724,20.25222841700581,-6.0875868782062295,6.5398549592329225,-6.5398549592329225,6.0875868782062295,40.121638382916629,0.0
779640.0783812654,4005767.5119837918,-2500.0,26.31166385645917,0.96466201058292866,-0.56098207058793625,-2.3808815732893325,-0.19274247512601883,0.15194945465646292,13.589052040703713,-3.3107865325680366,3.3123566564056959,-3.3123566564056959,3.3107865325680366,26.896058681510031,0.0
784640.0783812654,4005767.5119837918,-2500.0,18.316487976652763,1.2837695710329331,-0.35277533848187648,-1.5175866517944621,-0.18441198071440884,0.089035425379459437,9.4933464264410752,-1.8644379872262917,1.7253302336083893,-1.7253302336083893,1.8644379872262917,18.77348481242748,0.0
789640.0783812654,4005767.5119837918,-2500.0,13.172916087966016,1.2844607396535355,-0.21386997271150293,-1.0052666723185844,-0.1567548968806991,0.054419081342419885,6.8599308304387483,-1.0761455083176934,0.90600558454095781,-0.90600558454095781,1.0761455083176934,13.555124846252033,0.0
794640.0783812654,4005767.5119837918,-2500.0,9.7426862005730328,1.1735715831416722,-0.12482467767823054,-0.68855048396437457,-0.12781969957649977,0.034542577602082999,5.1003258575138082,-0.62980818236921965,0.46676443761195813,-0.46676443761195813,0.62980818236921965,10.070935430501091,0.0
799640.0783812654,4005767.5119837918,-2500.0,7.381624369481135,1.0332605309167839,-0.068519783262317724,-0.4855245715494787,-0.10274456203252008,0.022671204767433034,3.8851749190345064,-0.3690543712834915,0.22475766821682652,-0.22475766821682652,0.3690543712834915,7.6665071137233394,0.0
804640.0783812654,4005767.5119837918,-2500.0,5.7108418514518453,0.89548913717672785,-0.033121298779499431,-0.35114640501996414,-0.082374761647282704,0.015324796650687617,3.0218198304251143,-0.21287210421920266,0.089144393151601484,-0.089144393151601484,0.21287210421920266,5.9592917104471121,0.0
809640.0783812654,4005767.5119837918,-2500.0,4.4994288717300917,0.77153903231494192,-0.010989365531541333,-0.25965856881946797,-0.066235240763469164,0.010632059502821539,2.3930932689866409,-0.11753772012615213,0.012753416833384185,-0.012753416833384185,0.11753772012615213,4.7167854482528488,0.0
814640.0783812654,4005767.5119837918,-2500.0,3.6020625827554884,0.66417113924161841,0.0027084154063460658,-0.19579708435553089,-0.053553573151282903,0.0075483959979190255,1.9252546179674139,-0.058589009908188008,-0.029848675366655822,0.029848675366655822,0.058589009908188008,3.7927478692942818,0.0
819640.0783812654,4005767.5119837918,-2500.0,2.9246006656448951,0.57276694185864874,0.011020802254351078,-0.15022061401888562,-0.043593243448539806,0.005470186281328733,1.5704684717683828,-0.021902882461936987,-0.052818246058088367,0.052818246058088367,0.021902882461936987,3.0923674285134686,0.0
824640.0783812654,4005767.5119837918,-2500.0,2.4044513268811705,0.49552504192441904,0.015880514743393796,-0.11704436256729389,-0.035742494072616961,0.0040375227778624003,1.2968601897420464,0.00090138924059024461,-0.064247885613310476,0.064247885613310476,-0.00090138924059024461,2.5525016226417963,0.0
829640.0783812654,4005767.5119837918,-2500.0,1.9990154411109233,0.43038787253321026,0.018522104113730193,-0.092463016048280597,-0.029519903208327081,0.0030295561350220232,1.082676437284013,0.014917229565010168,-0.068866817508165978,0.068866817508165978,-0.014917229565010168,2.1300799115328042,0.0
834640.0783812654,4005767.5119837918,-2500.0,1.6786836605085051,0.37541228461452614,0.019740704602631973,-0.07395728803654901,-0.024555293886106232,0.0023072435927037841,0.9127503612307708,0.023304984910379408,-0.069487859907926053,0.069487859907926053,-0.023304984910379408,1.7950871435407074,0.0
644640.0783812654,4010767.5119837918,-2500.0,1.0103693855679843,0.70499768699804355,0.066101917964967269,0.047471053062564314,0.041269103235792026,0.0016658722413935964,0.85016066157493486,0.30863522296052187,-0.44331477792257928,0.44331477792257928,-0.30863522296052187,1.5683026019807838,0.0
649640.0783812654,4010767.5119837918,-2500.0,1.1728155406189347,0.84305378148521115,0.077829408727752417,0.058109786443131868,0.051440284791481494,0.0021547288492774395,1.007384368553542,0.37217092557392961,-0.53546915384810545,0.53546915384810545,-0.37217092557392961,1.8541498313729086,0.0
654640.0783812654,4010767.5119837918,-2500.0,1.3711056108161406,1.0189073363886498,0.092733801075354089,0.071856651031199092,0.064928392462989121,0.0028241790219753742,1.2056131219309996,0.45396226341293067,-0.65406925610571454,0.65406925610571454,-0.45396226341293067,2.2135740001433848,0.0
659640.0783812654,4010767.5119837918,-2500.0,1.6153044443582676,1.2461827862340318,0.11204118498775052,0.089844433851862721,0.083111437579756628,0.0037558402861867981,1.4590352825427444,0.5609121980995373,-0.80902002072420909,0.80902002072420909,-0.5609121980995373,2.6717336568675383,0.0
664640.0783812654,4010767.5119837918,-2500.0,1.9188463767690602,1.5447387004888473,0.1376151448150684,0.11370304586137589,0.10807864101235985,0.005075370462445686,1.7881160315413456,0.70323944430494845,-1.0149068343778258,1.0149068343778258,-0.70323944430494845,3.2647996206864551,0.0
669640.0783812654,4010767.5119837918,-2500.0,2.2997630636566266,1.94420367286236,0.1723842573271987,0.1458126969967749,0.14307864349471006,0.006980323628963463,2.22306422792379,0.89645639757515638,-1.2937251225557298,1.2937251225557298,-0.89645639757515638,4.0459804939148389,0.0
674640.0783812654,4010767.5119837918,-2500.0,2.7822827730392699,2.4899573871383986,0.22112735047813739,0.18969867143169164,0.19330808557518497,0.0097878246918507994,2.8096518392216541,1.1647904968753384,-1.6795455793668912,1.6795455793668912,-1.1647904968753384,5.0956038936629717,0.0
679640.0783812654,4010767.5119837918,-2500.0,3.3986965434644585,3.2535958094877575,0.29198358864783175,0.25064328334510722,0.2673495727404272,0.01401757083236257,3.6193289506463859,1.5473254943580863,-2.226766941709585,2.226766941709585,-1.5473254943580863,6.5385810190263873,0.0
684640.0783812654,4010767.5119837918,-2500.0,4.1908261308993024,4.351950463201895,0.39950919676619578,0.33660429371627626,0.37989934947639858,0.020536728185286259,4.7675156216005572,2.1094991799703542,-3.0252932847796461,3.0252932847796461,-2.1094991799703542,8.5758851068574753,0.0
689640.0783812654,4010767.5119837918,-2500.0,5.2085903043476831,5.9831638946760455,0.57123611149498543,0.45945230516993424,0.55717528798598115,0.030805931008894939,6.4482238717885503,2.9656931153420105,-4.2296991282384235,4.2296991282384235,-2.9656931153420105,11.543944628758394,0.0
694640.0783812654,4010767.5119837918,-2500.0,6.4971940665009171,8.4984989148525347,0.86271871133576861,0.63602258058030037,0.84817283057386339,0.047252287970331978,9.0031548621266033,4.3261633957006795,-6.1181430546204174,6.1181430546204174,-4.3261633957006795,16.032848796107988,0.0
699640.0783812654,4010767.5119837918,-2500.0,8.0445037006430109,12.553213333434048,1.3948337030632028,0.8860266419067111,1.3493469355913217,0.073576599296220208,13.0684554649091,6.6010939811166027,-9.2183121513298509,9.2183121513298509,-6.6010939811166027,23.136909715979144,0.0
704640.0783812654,4010767.5119837918,-2500.0,9.5894780294880597,19.442890212607836,2.455019997500429,1.2128420117624554,2.2615844461446115,0.11337809786728914,19.910360296544592,10.649629374818595,-14.594398726509741,14.594398726509741,-10.649629374818595,35.027493678129041,0.0
709640.0783812654,4010767.5119837918,-2500.0,9.9207085157960933,31.899896504058393,4.8031024247702767,1.5017861791139793,4.0264219706483324,0.15701723732153394,32.264511296055787,18.432201020709698,-24.54812203949966,24.54812203949966,-18.432201020709698,56.389407970611373,0.0
714640.0783812654,4010767.5119837918,-2500.0,4.1315093449476912,56.067735831872085,10.719547966788681,1.0109106031235606,7.6372479578602297,0.094299751913662092,56.677366250231593,34.910684462475778,-44.451672176092934,44.451672176092934,-34.910684462475778,98.463800966112203,0.0
719640.0783812654,4010767.5119837918,-2500.0,-28.356386436640246,106.19827328138061,28.156885935014383,-4.3085758821599471,14.992595454410095,-0.85722048705349652,110.99561571638151,74.293775894448231,-87.712879816511418,87.712879816511418,-74.293775894448231,192.25017868493535,0.0
724640.0783812654,4010767.5119837918,-2500.0,-183.88265109519099,209.2313544033747,89.538631999750947,-36.333680037539033,23.430356694581953,-7.680527490454244,253.10371182592752,183.06423633916651,-187.15702471746354,187.15702471746354,-183.06423633916651,441.10045165264955,0.0
729640.0783812654,4010767.5119837918,-2500.0,-996.70378283093248,277.01322522933322,323.49068433735852,-168.16080749752464,-81.531875070508335,-14.726704424612871,742.00616198521197,513.77589810331779,-370.10682495503642,370.10682495503642,-513.77589810331779,1321.2786232309754,0.0
734640.0783812654,4010767.5119837918,-2500.0,-6510.5859254826519,-4288.1295520634512,-2181.02636729298,1135.1499526793377,-917.94219412559664,2403.5684403816203,6150.8602337537613,-2031.0001752076469,1658.4760559039587,-1658.4760559039587,2031.0001752076469,11007.751215156279,0.0
739640.0783812654,4010767.5119837918,-2500.0,-1486.4400546609054,1710.1521333782885,9612.3760356670991,-2346.8410525425497,-1795.7127194407583,2060.1039925164441,6567.101696057498,7069.5880475105787,-53.635946054215765,53.635946054215765,-7069.5880475105787,11461.668962131987,0.0
744640.0783812654,4010767.5119837918,-2500.0,3165.3546109304748,-1154.9663845236535,246.77933084347967,260.79867294492453,-307.06598033672537,-536.51748915001338,2122.9438907277354,-878.74598159860011,1554.1589153499078,-1554.1589153499078,878.74598159860011,3988.2959707072205,0.0
749640.0783812654,4010767.5119837918,-2500.0,838.39403099406263,-32.593982033437541,-88.902094602725199,-63.230498221610631,-9.2905642708545564,-34.017011983937174,468.26320228082898,-179.14799804162016,144.39117558300165,-144.39117558300165,179.14799804162016,909.63513940441146,0.0
754640.0783812654,4010767.5119837918,-2500.0,323.04167082287319,32.609192779618375,-35.232638898555166,-42.296647031802998,-5.9968989227790033,0.96439036037553694,184.90330090136587,-39.289667426894155,11.712238051962114,-11.712238051962114,39.289667426894155,354.07234580451478,0.0
759640.0783812654,4010767.5119837918,-2500.0,151.65531597874005,26.89992266089271,-13.834156105552525,-20.257287883131866,-4.221219499493464,1.5844760844764298,88.396331977169297,-8.8905879978185176,-5.2016311074765147,5.2016311074765147,8.8905879978185176,168.90300478314325,0.0
764640.0783812654,4010767.5119837918,-2500.0,80.932171183579214,18.227219796886288,-5.9233138036599344,-10.01980489309153,-2.6238726343014482,0.83626001621124268,47.745546887600696,-1.3411843853750636,-6.1285669173170465,6.1285669173170465,1.3411843853750636,91.219511431627609,0.0
769640.0783812654,4010767.5119837918,-2500.0,47.448433640914551,12.229274121336763,-2.7372056726154201,-5.3302043436235973,-1.6192396479082296,0.42122225934299856,28.233531083637491,0.60464297676274237,-4.8507172717471843,4.8507172717471843,-0.60464297676274237,53.961382655273695,0.0
774640.0783812654,4010767.5119837918,-2500.0,29.885817571953989,8.4005405770513999,-1.3361130960250593,-3.040799771358059,-1.0258094281419778,0.22130420390518651,17.896444439108087,1.0182243242669504,-3.5930836091176657,3.5930836091176657,-1.0182243242669504,34.22298086052426,0.0
779640.0783812654,4010767.5119837918,-2500.0,19.908626425182788,5.9432194087776322,-0.67343596255655824,-1.8420279052781618,-0.67202923728392072,0.12279020939680141,11.979019152414262,0.99822448511822093,-2.6474518829515521,2.6474518829515521,-0.99822448511822093,22.920884202516724,0.0
784640.0783812654,4010767.5119837918,-2500.0,13.868456607318205,4.3261960564117832,-0.3416185630707938,-1.1734012702661627,-0.45500745452142477,0.071754027788646368,8.3751836716389789,0.86812658416719279,-1.9737224788734633,1.9737224788734633,-0.86812658416719279,16.035045418932373,0.0
789640.0783812654,4010767.5119837918,-2500.0,10.018154058828713,3.2311130410654334,-0.16820560488021916,-0.77961953340528867,-0.31747394849032379,0.043902415437697191,6.0670383979333833,0.72612391820902022,-1.4960283289506182,1.4960283289506182,-0.72612391820902022,11.622924238553077,0.0
794640.0783812654,4010767.5119837918,-2500.0,7.4571924043585831,2.4685928812142373,-0.074837453267360257,-0.53669424261108556,-0.22751930938574294,0.027957334971548557,4.5260029460406805,0.60012745313723759,-1.1537175497382437,1.1537175497382437,-0.60012745313723759,8.6757741330998552,0.0
799640.0783812654,4010767.5119837918,-2500.0,5.6922023645967235,1.9239300531739927,-0.023714024480980603,-0.38077551031213414,-0.16695013186244639,0.018431550784069668,3.4606968495318129,0.49551513995399804,-0.90455256466126133,0.90455256466126133,-0.49551513995399804,6.6374455468894213,0.0
804640.0783812654,4010767.5119837918,-2500.0,4.4386487779815562,1.5258596885491391,0.0043346827875059045,-0.27723500907503767,-0.12508479820993937,0.012523423962229725,2.7022102490506872,0.41073299785244322,-0.7201059889827246,0.7201059889827246,-0.41073299785244322,5.1854755653000328,0.0
809640.0783812654,4010767.5119837918,-2500.0,3.5251147483325682,1.2289088918330524,0.019444821776945533,-0.20642091353342334,-0.095460819365358857,0.0087363445805523302,2.1483438830896975,0.3425206323457009,-0.5812932069366048,0.5812932069366048,-0.3425206323457009,4.1247054403823347,0.0
814640.0783812654,4010767.5119837918,-2500.0,2.8443856368698932,1.003306234446192,0.027165083808115255,-0.15672875584180546,-0.07405448337018411,0.006237321942684379,1.7349422737513405,0.28761660310719095,-0.47518221565999608,0.47518221565999608,-0.28761660310719095,3.3325878600792969,0.0
819640.0783812654,4010767.5119837918,-2500.0,2.327185413207816,0.82908647774852784,0.030620916483039398,-0.12106257630930134,-0.058292828179824924,0.0045453324668602631,1.42042297239515,0.24324136851588535,-0.39288737436207716,0.39288737436207716,-0.24324136851588535,2.7296681942201979,0.0
824640.0783812654,4010767.5119837918,-2500.0,1.9274607723373998,0.69256194282231276,0.031613821318056297,-0.094947498929283697,-0.046489834633309815,0.0033732659330412691,1.1770694847634082,0.20716272676202821,-0.32820823388769982,0.32820823388769982,-0.20716272676202821,2.2629688668314669,0.0
829640.0783812654,4010767.5119837918,-2500.0,1.6138189965466905,0.58415748781935339,0.031200916683207947,-0.075483262745342783,-0.037515735036391398,0.0025445847497414125,0.98594565752673247,0.17763163608408861,-0.27674990210686562,0.27674990210686562,-0.17763163608408861,1.8962828303835362,0.0
834640.0783812654,4010767.5119837918,-2500.0,1.3643796132505677,0.49705047096332589,0.030010453919441429,-0.060743684751493582,-0.0305979207251427,0.0019478363884648147,0.83382733809335352,0.15329028404736034,-0.23534957727800854,0.23534957727800854,-0.15329028404736034,1.60431606962732,0.0
644640.0783812654,4015767.5119837918,-2500.0,1.4438745296254645,0.62317649290266997,0.028809663436976374,0.066796537148199359,0.037083292219773668,0.0022514101337893942,0.94484069305256102,0.18202521634829089,-0.30709519603759095,0.30709519603759095,-0.18202521634829089,1.7953420942055007,0.0
649640.0783812654,4015767.5119837918,-2500.0,1.7148650467529167,0.74112057635241557,0.029154850608008442,0.083537432649098187,0.045968977225569446,0.0029688998372655716,1.1249458358253652,0.21332970800931084,-0.36620286886180375,0.36620286886180375,-0.21332970800931084,2.1357669742403491,0.0
654640.0783812654,4015767.5119837918,-2500.0,2.0577442392445331,0.89032252397353129,0.028249792949666376,0.10584400137848288,0.057669271616278175,0.0039778231514097061,1.3533866523113487,0.25203378031349938,-0.44113792313497485,0.44113792313497485,-0.25203378031349938,2.567159002983507,0.0
659640.0783812654,4015767.5119837918,-2500.0,2.4978716358673241,1.0816976561755178,0.025179478517966609,0.13608084476314547,0.073318601035468597,0.0054253876743660008,1.6473507621780699,0.30037853261211039,-0.53745285559231826,0.53745285559231826,-0.30037853261211039,3.1217515617776495,0.0
664640.0783812654,4015767.5119837918,-2500.0,3.0720712416020177,1.3310003630193217,0.018400076560364149,0.1778655234831632,0.094618521783535928,0.0075497001597248266,2.0318319590664045,0.36142909997454303,-0.66315976123039655,0.66315976123039655,-0.36142909997454303,3.8463763626064189,0.0
669640.0783812654,4015767.5119837918,-2500.0,3.8351182432024067,1.661481750264552,0.0052606162162896295,0.23688325118923101,0.12418318541085981,0.010747679207895391,2.544053241690551,0.43942117968563843,-0.83007239650285336,0.83007239650285336,-0.43942117968563843,4.8107166945145119,0.0
674640.0783812654,4015767.5119837918,-2500.0,4.8707467177205785,2.10832451214397,-0.018895373960205793,0.32234446511173609,0.1661376670582112,0.015703639738467806,3.2409675607066761,0.54025647323680104,-1.0560343170112354,1.0560343170112354,-0.54025647323680104,6.121293969750691,0.0
679640.0783812654,4015767.5119837918,-2500.0,6.3110228596455098,2.7262842609754032,-0.062479650786190138,0.44969663134811538,0.22718946078977778,0.023643639714330547,4.2124406529168068,0.67218662850879829,-1.3687304679781067,1.3687304679781067,-0.67218662850879829,7.9460335018410344,0.0
684640.0783812654,4015767.5119837918,-2500.0,8.3718913827288617,3.6033348559448206,-0.14121602749025211,0.6458995170429418,0.31861881082513777,0.03686283124604442,5.6053841567371423,0.84666682402182447,-1.8124261631987815,1.8124261631987815,-0.84666682402182447,10.559208495731559,0.0
689640.0783812654,4015767.5119837918,-2500.0,11.421605435264601,4.8860253515702974,-0.28573668102001359,0.96022453570510291,0.46012742006329627,0.059880032997389442,7.6700519003465315,1.079091160848987,-2.4603145780408862,2.4603145780408862,-1.079091160848987,14.427613580983769,0.0
694640.0783812654,4015767.5119837918,-2500.0,16.120054420708829,6.8287331685214374,-0.55877506658622056,1.4877057272229106,0.68760864078240314,0.10212650201323084,10.853817455749503,1.3880937799713307,-3.4380129031716686,3.4380129031716686,-1.3880937799713307,20.385045777744772,0.0
699640.0783812654,4015767.5119837918,-2500.0,23.721812960254574,9.89405693263428,-1.0968451300843096,2.4236715504792992,1.0695340565699134,0.18466221276204017,16.003627749366238,1.7882738788457448,-4.9699790413888945,4.9699790413888945,-1.7882738788457448,30.008900451357295,0.0
704640.0783812654,4015767.5119837918,-2500.0,36.789412997914106,14.967899621482296,-2.2199056517926303,4.2010597334374564,1.742801086482213,0.35830662823351822,24.837352424230829,2.2564763771886809,-7.4739473245034187,7.4739473245034187,-2.2564763771886809,46.497017629803736,0.0
709640.0783812654,4015767.5119837918,-2500.0,61.040550769366043,23.840387024867191,-4.7497707496532193,7.8693748766224267,2.9914020319980583,0.75662787157271827,41.144915301030494,2.5906609868122699,-11.752259004825468,11.752259004825468,-2.5906609868122699,76.903432285778834,0.0
714640.0783812654,4015767.5119837918,-2500.0,110.73027592793301,40.283563911319284,-11.050674900772945,16.250828928437269,5.3940196534242055,1.7591827341769073,74.201199234870018,1.7968173442767821,-19.322525586603977,19.322525586603977,-1.7968173442767821,138.50107228988315,0.0
719640.0783812654,4015767.5119837918,-2500.0,226.85574383961136,71.970169546701285,-28.929523731691525,37.780059957283058,9.7585853697126339,4.4233646455551119,149.82900763848821,-4.8969469477942358,-32.31344438403206,32.31344438403206,4.8969469477942358,279.48907932494029,0.0
724640.0783812654,4015767.5119837918,-2500.0,552.67518882607328,125.82294664942366,-88.204483773784432,98.148351454644555,11.841798048513644,8.953438262196622,352.78973508870155,-43.679932579657077,-43.685590653552282,43.685590653552282,43.679932579657077,659.32852375324899,0.0
729640.0783812654,4015767.5119837918,-2500.0,1795.8733346948143,37.202625283045442,-294.40346446745406,206.50260713661132,-81.705665485036192,-84.879978837378232,1073.195287769433,-313.28782548170523,148.68053969389527,-148.68053969389527,313.28782548170523,2031.5768852834599,0.0
734640.0783812654,4015767.5119837918,-2500.0,11495.633924409769,-6792.0786319615672,2889.7278867416785,-1310.3508771178949,-1220.0459898643387,-3565.619171755915,9823.2065877681071,-4000.044952290641,8674.1822530416066,-8674.1822530416066,4000.044952290641,17868.990624673886,0.0
739640.0783812654,4015767.5119837918,-2500.0,-10971.442326888315,-11884.171970299813,-33434.666814711047,3830.6556205800221,-5299.7496600997092,2229.576214727083,22072.669634787424,-18138.209741046721,-3141.1787419598841,3141.1787419598841,18138.209741046721,39081.776123702606,0.0
744640.0783812654,4015767.5119837918,-2500.0,-1691.404627878461,899.12965719763929,594.97463612584431,-154.16977779279054,-148.10195876640776,126.99768209712566,1478.7374700925238,1185.0104094260639,-1026.2113615346054,1026.2113615346054,-1185.0104094260639,2634.1924223051951,0.0
749640.0783812654,4015767.5119837918,-2500.0,-77.650535724136489,327.35345818520057,82.778774698174459,-12.654294612283609,-39.461660959432969,3.0542412707346918,339.56293506572894,281.69471271563725,-311.77993316685149,311.77993316685149,-281.69471271563725,588.16352682069714,0.0
754640.0783812654,4015767.5119837918,-2500.0,33.122433236172519,134.15739622216398,19.714131200948003,-10.453503825485456,-19.720530886260626,1.5320029693594841,135.94104995781407,101.67541075985929,-122.55439998579843,122.55439998579843,-101.67541075985929,237.15672021428864,0.0
759640.0783812654,4015767.5119837918,-2500.0,34.619539264588674,64.363580575718615,6.5759511614114388,-6.6689487726621355,-9.3615730524912095,0.86397194975869618,66.683718220103742,44.657728249555745,-56.400230943205216,56.400230943205216,-44.657728249555745,117.48875362906077,0.0
764640.0783812654,4015767.5119837918,-2500.0,25.886987842385587,34.703331934697431,2.7994793691807525,-3.9825411012447436,-4.732128972126131,0.44674935742767491,36.975727502598126,22.488608039444525,-29.244687555670065,29.244687555670065,-22.488608039444525,65.731361136790795,0.0
769640.0783812654,4015767.5119837918,-2500.0,18.545861699304286,20.450633898688135,1.4347954500541242,-2.4172981706086314,-2.5819066496799326,0.2357931753495251,22.378634896806698,12.549653479044034,-16.636309505134999,16.636309505134999,-12.549653479044034,40.086860687148246,0.0
774640.0783812654,4015767.5119837918,-2500.0,13.388836304403933,12.910314983668327,0.84509846527401622,-1.5207666693291748,-1.5082314224638325,0.13043431350666818,14.469833762616037,7.5777256054800084,-10.175299136927023,10.175299136927023,-7.5777256054800084,26.088538525198711,0.0
779640.0783812654,4015767.5119837918,-2500.0,9.8578162598742836,8.6048532177919625,0.55103538770269045,-0.99367233437924229,-0.93304933850050942,0.075815982139199614,9.8508396715666091,4.866932147758158,-6.5919120024726912,6.5919120024726912,-4.866932147758158,17.859707740823229,0.0
784640.0783812654,4015767.5119837918,-2500.0,7.4169267422057983,5.9908622003419145,0.38662477937085149,-0.67241891620914473,-0.60540678062326303,0.046125089793462574,6.9879584132060639,3.2838074601848177,-4.4732038662114242,4.4732038662114242,-3.2838074601848177,12.730364675859919,0.0
789640.0783812654,4015767.5119837918,-2500.0,5.6968084008249962,4.3222789025703792,0.28603076365072927,-0.46940600816030559,-0.40876328073976115,0.029216592524212354,5.1260114304532411,2.3062306786951363,-3.1531038208050881,3.1531038208050881,-2.3062306786951363,9.3776652492412378,0.0
794640.0783812654,4015767.5119837918,-2500.0,4.4585594333424297,3.2120474989593006,0.22000378336797158,-0.33674723950643698,-0.28539529567366612,0.019170124681849927,3.8660201720786542,1.6741944998712897,-2.2940173923968059,2.2940173923968059,-1.6741944998712897,7.098818756395775,0.0
799640.0783812654,4015767.5119837918,-2500.0,3.5485678881128471,2.4471452013537767,0.17423859309376644,-0.24741455734827394,-0.20501905401417334,0.012970899042290807,2.9845766096321871,1.2495646082579679,-1.7141134254763797,1.7141134254763797,-1.2495646082579679,5.4983247449894499,0.0
804640.0783812654,4015767.5119837918,-2500.0,2.8668488433245263,1.9043336856033917,0.14114317607040605,-0.18562622459699027,-0.15092661421579115,0.0090156469535859537,2.3503331214567416,0.95485475326293967,-1.3102865289326306,1.3102865289326306,-0.95485475326293967,4.3426072809025058,0.0
809640.0783812654,4015767.5119837918,-2500.0,2.3471172279612436,1.5092125409905466,0.11639837709416782,-0.14186143072607882,-0.11348647582447638,0.006416438393740934,1.8827966191010803,0.74454298173427402,-1.0214425245520957,1.0214425245520957,-0.74454298173427402,3.4879392800313394,0.0
814640.0783812654,4015767.5119837918,-2500.0,1.944554062172525,1.2151907985002208,0.097398664937784776,-0.11020065419843275,-0.086929882911306877,0.0046630541053685401,1.5308563889071471,0.59080608295002013,-0.80998435264700053,0.80998435264700053,-0.59080608295002013,2.842718599436088,0.0
819640.0783812654,4015767.5119837918,-2500.0,1.6282468596772122,0.99214233238760341,0.082492153528468684,-0.086860122049748523,-0.067683204756716214,0.0034523680307617746,1.2610352224179309,0.47604170583761019,-0.6519960093775713,0.6519960093775713,-0.47604170583761019,2.346741854966377,0.0
824640.0783812654,4015767.5119837918,-2500.0,1.3764748686734642,0.82003622732716885,0.070587119749858207,-0.069360076221764683,-0.053466041255686582,0.0025988234166108961,1.0508063651379498,0.38877467304271873,-0.53181830822713294,0.53181830822713294,-0.38877467304271873,1.9593715472285742,0.0
829640.0783812654,4015767.5119837918,-2500.0,1.173706446186386,0.68522042314039577,0.060936267006216592,-0.056038040789945433,-0.042784359796754469,0.0019857102279155965,0.88464500663672663,0.32132329111833874,-0.43893234651604213,0.43893234651604213,-0.32132329111833874,1.6525206312444602,0.0
834640.0783812654,4015767.5119837918,-2500.0,1.0086542512428658,0.57818367600547127,0.053012690866928898,-0.045756272112471227,-0.034636028310394258,0.0015378144117665065,0.75162246323524062,0.26842303910551446,-0.3661094445087042,0.3661094445087042,-0.26842303910551446,1.4063644436494567,0.0
644640.0783812654,4020767.5119837918,-2500.0,1.832760333221612,0.48915358649867902,0.0053556495123796097,0.084139548611446208,0.030248906838332493,0.0027769689376228148,1.0387581354294058,0.037047366230222339,-0.12740004272540228,0.12740004272540228,-0.037047366230222339,2.0213668380989049,0.0
649640.0783812654,4020767.5119837918,-2500.0,2.1973636914303945,0.57029779551311255,-0.00083724559920253017,0.10618451606829964,0.036835767741377437,0.0036943577247309767,1.2413306772938815,0.030643868641887173,-0.13963457109255978,0.13963457109255978,-0.030643868641887173,2.4157320469638557,0.0
654640.0783812654,4020767.5119837918,-2500.0,2.6635273516161311,0.66937541997000316,-0.010551267941470455,0.13585369029680611,0.045254334923370852,0.0049972473357594756,1.4993272349041959,0.018729844804184534,-0.1514868761594837,0.1514868761594837,-0.018729844804184534,2.9180581156316294,0.0
659640.0783812654,4020767.5119837918,-2500.0,3.2685192327487993,0.79117009737870814,-0.025650971852172674,0.17649984147519177,0.056117691948480819,0.0068866604059577051,1.8327724779024408,-0.0020570335431777109,-0.16135249623944078,0.16135249623944078,0.0020570335431777109,3.5673780389539123,0.0
664640.0783812654,4020767.5119837918,-2500.0,4.0669637086350985,0.9418033445051498,-0.049091709134936386,0.23330492943360256,0.070268677548978101,0.0096914748285671145,2.2709005907441262,-0.037262392829082253,-0.16615024641515022,0.16615024641515022,0.037262392829082253,4.4206899996080873,0.0
669640.0783812654,4020767.5119837918,-2500.0,5.1408502211422773,1.1289511013590019,-0.085647359386963454,0.31449758364934183,0.088861900079289402,0.01396656172900862,2.8574194135602302,-0.09622988081499706,-0.16001210328302296,0.16001210328302296,0.09622988081499706,5.5632342432130697,0.0
674640.0783812654,4020767.5119837918,-2500.0,6.6165662763699498,1.361782310790965,-0.14319280650665711,0.4335475170132348,0.11345239826512575,0.020680804576322036,3.6594549081753365,-0.19510162211493232,-0.13169486685042298,0.13169486685042298,0.19510162211493232,7.1259602273989069,0.0
679640.0783812654,4020767.5119837918,-2500.0,8.6948774461721801,1.6499736813818224,-0.23501759487085316,0.61327412317129959,0.14603687408126426,0.03159333767957348,4.7832875914108079,-0.36259138217404407,-0.059288388693881006,0.059288388693881006,0.36259138217404407,9.3162671920097591,0.0
684640.0783812654,4020767.5119837918,-2500.0,11.705717400432185,2.0000232001583358,-0.3840940882933479,0.89387490413755044,0.18885561349750757,0.050042866439369393,6.4031523483811599,-0.65153734656534179,0.10104810378553575,-0.10104810378553575,0.65153734656534179,12.474281444230789,0.0
689640.0783812654,4020767.5119837918,-2500.0,16.212602763976214,2.4039095991508024,-0.63108628483870755,1.3493869696030252,0.24332325526884585,0.08269600791395848,8.8163612449136988,-1.1630656923203009,0.44022501431992639,-0.44022501431992639,1.1630656923203009,17.180602935592056,0.0
694640.0783812654,4020767.5119837918,-2500.0,23.221072607139526,2.8058402003053251,-1.0494088093617266,2.123320926121707,0.3060102285629499,0.14366272062555785,12.554347937531954,-2.0996959349838376,1.1555300680620877,-1.1555300680620877,2.0996959349838376,24.473411842285266,0.0
699640.0783812654,4020767.5119837918,-2500.0,34.616372450788361,3.0039558193908888,-1.7723743777905603,3.5106262049571368,0.35460693028320561,0.26487325318299082,18.619856260322301,-3.8886236500233595,2.699940781471529,-2.699940781471529,3.8886236500233595,36.312261900989704,0.0
704640.0783812654,4020767.5119837918,-2500.0,54.132142067863612,2.3479140905929641,-3.0328085124544866,6.1592144101169843,0.29838189105636842,0.52430111105130595,29.028554257720508,-7.4851389002596385,6.1876157046235036,-6.1876157046235036,7.4851389002596385,56.637051223787161,0.0
709640.0783812654,4020767.5119837918,-2500.0,89.598562717354824,-1.2514864016063552,-5.1555645576526929,11.600695836754388,-0.20618968590312506,1.1289926025309676,48.141892319067374,-15.162472564653255,14.595443724866039,-14.595443724866039,15.162472564653255,93.972906703025032,0.0
714640.0783812654,4020767.5119837918,-2500.0,158.25498175122101,-14.825571561809827,-7.9888007995067332,23.729975992672156,-2.4976117575885985,2.675499080097294,86.216660586043815,-32.636117590037394,36.682855486467581,-36.682855486467581,32.636117590037394,168.36059862738517,0.0
719640.0783812654,4020767.5119837918,-2500.0,297.94053069533624,-63.666440325303441,-5.9370876269246748,52.895625579151933,-12.153460546300806,6.9477175569106882,169.50351053547624,-74.337712240550246,100.98935658969214,-100.98935658969214,74.337712240550246,331.04294208922823,0.0
724640.0783812654,4020767.5119837918,-2500.0,570.80155987251294,-241.1850831487703,50.494115167209117,123.63522694220254,-53.340305977806793,18.114081881735459,368.45952812769525,-167.31499719911929,306.5391446978025,-306.5391446978025,167.31499719911929,719.38806057549607,0.0
729640.0783812654,4020767.5119837918,-2500.0,839.37103030552123,-791.99417579899944,520.91526003947956,244.15964780390902,-207.85235046304638,23.684945898674229,841.61064513008,-222.367003194912,920.36844458389101,-920.36844458389101,222.367003194912,1642.3190459622856,0.0
734640.0783812654,4020767.5119837918,-2500.0,-286.70314441841134,-691.66915838045247,2192.411762438488,199.99446220541341,-423.01886094718037,-105.57085381028898,1472.9541253994826,924.66085299332462,1018.1963349230382,-1018.1963349230382,-924.66085299332462,2796.7514664687515,0.0
739640.0783812654,4020767.5119837918,-2500.0,-45.636975810672844,611.34819972227899,-1523.0620824778291,66.663106333306089,-411.75994190491991,225.02442338887681,1083.2029734003886,-50.186087244175724,-1222.286736584728,1222.286736584728,50.186087244175724,2073.435556710614,1.0
744640.0783812654,4020767.5119837918,-2500.0,-717.14693522644643,-669.80840930792783,-732.41521993781544,-8.0607061290409163,-61.059754102190105,141.82405241454612,773.16601044912193,-621.49124565574641,251.89270513683127,-251.89270513683127,621.49124565574641,1452.0637082879259,0.0
749640.0783812654,4020767.5119837918,-2500.0,-462.6185733324088,-128.65176116744772,-7.1398096350314146,37.84268835880809,-0.81193433319401298,14.064895648700002,266.11293072474353,-16.555088218936497,37.374423276508615,-37.374423276508615,16.555088218936497,521.07662440937634,0.0
754640.0783812654,4020767.5119837918,-2500.0,-186.24249820694271,13.580804413352796,33.174739492318245,18.675477757054562,-6.1561684023606915,0.69256418471202164,111.88443553259452,55.25592693958292,-37.748733063962078,37.748733063962078,-55.25592693958292,209.24912691318104,0.0
759640.0783812654,4020767.5119837918,-2500.0,-72.535939963091664,28.277865784867341,19.434778277948915,6.7651905682030424,-5.297087639644551,-0.04177065472481812,54.567898691236046,40.935559961087009,-35.509778421507079,35.509778421507079,-40.935559961087009,98.321262606846091,0.0
764640.0783812654,4020767.5119837918,-2500.0,-28.801573581317985,22.562687467914266,10.161729717554485,2.2622950291038895,-3.4627389809067619,0.0020560053090372815,30.08369053492347,25.420133004919354,-24.552671283380786,24.552671283380786,-25.420133004919354,52.953316639295998,0.0
769640.0783812654,4020767.5119837918,-2500.0,-11.322130278314527,16.012122736167843,5.4890956719221213,0.66762024151221577,-2.1626522236533368,0.027685405582708995,18.226496933270575,15.713795911215801,-16.226433781966197,16.226433781966197,-15.713795911215801,31.704319672391197,0.0
774640.0783812654,4020767.5119837918,-2500.0,-4.003245152511159,11.219898495544648,3.1409195224119415,0.10824000300014627,-1.3667282019936149,0.029093285569508031,11.854897220022057,10.01340935916101,-10.832798815932531,10.832798815932531,-10.01340935916101,20.537490224831977,0.0
779640.0783812654,4020767.5119837918,-2500.0,-0.84699442046219464,7.9728195537533892,1.9053019892900671,-0.079457189240166162,-0.88787857904240797,0.023663814362008897,8.1387917710270319,6.6195803114171303,-7.41185982114665,7.41185982114665,-6.6195803114171303,14.107386438084294,0.0
784640.0783812654,4020767.5119837918,-2500.0,0.51157492426002993,5.7867427421063038,1.218821485072517,-0.13145173236924554,-0.59470227885192595,0.017791316868305679,5.8278605506463226,4.5332218813908565,-5.2113635477560933,5.2113635477560933,-4.5332218813908565,10.132387303692395,0.0
789640.0783812654,4020767.5119837918,-2500.0,1.0623046664821969,4.2941042445803701,0.81694019273026164,-0.13441708132249944,-0.41019271543871011,0.013048671687919285,4.3157589991714138,3.2047933374255386,-3.7613110065144939,3.7613110065144939,-3.2047933374255386,7.5352945237208688,0.0
794640.0783812654,4020767.5119837918,-2500.0,1.2417306384133555,3.2540779062223075,0.57019953041598181,-0.1210613700365958,-0.29061773931924212,0.0095357082584230039,3.2848574234623555,2.3301269876269091,-2.7804584901411955,2.7804584901411955,-2.3301269876269091,5.7624833001624376,0.0
799640.0783812654,4020767.5119837918,-2500.0,1.250602304318718,2.5137276903652745,0.41214271915487533,-0.10379849566002275,-0.21091221557213588,0.0070074349555545781,2.5578685018964187,1.7363615317258057,-2.0999881821560487,2.0999881821560487,-1.7363615317258057,4.5087796144683416,0.0
804640.0783812654,4020767.5119837918,-2500.0,1.1840668158650942,1.9756865057726549,0.30702015680588596,-0.087171507764401829,-0.15638287055192565,0.005199308697570613,2.0305043218617667,1.3220975097567462,-1.6167017704993298,1.6167017704993298,-1.3220975097567462,3.5959967411231037,0.0
809640.0783812654,4020767.5119837918,-2500.0,1.0879874371563028,1.5770608772547559,0.23474566802070684,-0.072627944946421871,-0.11818519565629891,0.0039014619781911216,1.6386644234051893,1.0259324193268056,-1.2660397744875815,1.2660397744875815,-1.0259324193268056,2.9150243894520771,0.0
814640.0783812654,4020767.5119837918,-2500.0,0.98446989674948338,1.2764594917549323,0.18357715003607719,-0.060414659375772874,-0.090850488276288083,0.0029621234095748941,1.3414580532868863,0.80954842618872402,-1.006633529497414,1.006633529497414,-0.80954842618872402,2.3963434589996533,0.0
819640.0783812654,4020767.5119837918,-2500.0,0.88389733471141096,1.0460987820764203,0.14639935548922117,-0.050343477681254446,-0.070909242950444401,0.0022751726780364432,1.1119560568698978,0.64835954190884604,-0.81134903620051879,0.81134903620051879,-0.64835954190884604,1.9941469574823107,0.0
824640.0783812654,4020767.5119837918,-2500.0,0.79079231484939672,0.86696423584227245,0.11875857284662016,-0.042100179730848418,-0.056106711895740055,0.0017671463365395059,0.93192846540146901,0.52618510719125011,-0.66199378654736984,0.66199378654736984,-0.52618510719125011,1.6773731409126058,0.0
829640.0783812654,4020767.5119837918,-2500.0,0.70674635049982037,0.72580003142041905,0.097784105961339907,-0.035364898580510493,-0.044944645321470918,0.001387173696972233,0.78873328782744323,0.43212730183616677,-0.54611862426971369,0.54611862426971369,-0.43212730183616677,1.424429227612011,0.0
834640.0783812654,4020767.5119837918,-2500.0,0.63191118088213571,0.61320350758107678,0.081575826982942912,-0.029854227901299029,-0.036406897615668656,0.0010998213372131064,0.67341534810933568,0.35869051010609909,-0.45504249027698462,0.45504249027698462,-0.35869051010609909,1.2199754164594572,0.0
644640.0783812654,4025767.5119837918,-2500.0,2.1549760592368403,0.31414945812895678,0.0033079214140008021,0.098518029858832665,0.021306313692649487,0.0032137089137516364,1.1236728021127373,-0.11292580363982251,0.084087655757497007,-0.084087655757497007,0.11292580363982251,2.2263035345595688,0.0
649640.0783812654,4025767.5119837918,-2500.0,2.5899823453256539,0.34658809053367151,-0.0016952173087415876,0.12463133674084784,0.024848123527264496,0.0042870356490625179,1.3451858307646209,-0.15715951307753914,0.1276831706923883,-0.1276831706923883,0.15715951307753914,2.6664855928299156,0.0
654640.0783812654,4025767.5119837918,-2500.0,3.1460259018416696,0.37936762929775514,-0.0089907520796764766,0.15979261188448304,0.028918329454595944,0.0058135644500672823,1.6275134304678618,-0.21922104660323075,0.19094933502011688,-0.19094933502011688,0.21922104660323075,3.2277717746703565,0.0
659640.0783812654,4025767.5119837918,-2500.0,3.8667693750616801,0.40932607563959944,-0.019451932951688171,0.20794770503562643,0.033446128100154758,0.0080291935108262151,1.992528409855975,-0.3074307064377923,0.28387458673006366,-0.28387458673006366,0.3074307064377923,3.9537829620606293,0.0
664640.0783812654,4025767.5119837918,-2500.0,4.8155134546993192,0.43026606051486965,-0.034208673991286458,0.27515346440889177,0.038158288012069906,0.011318523328058189,2.4720272199188331,-0.43467518321513388,0.42238486020807631,-0.42238486020807631,0.43467518321513388,4.9079492963114282,0.0
669640.0783812654,4025767.5119837918,-2500.0,6.0859001313954071,0.43029548739151136,-0.054595570781914467,0.37093748540893107,0.042336725080379736,0.016326943548258397,3.1132656740875961,-0.62134177231073462,0.63249775653499629,-0.63249775653499629,0.62134177231073462,6.1845647983984788,0.0
674640.0783812654,4025767.5119837918,-2500.0,7.8195182975646862,0.38666870624732397,-0.081827504317392052,0.51069685138764531,0.044296652729424249,0.024172649152514193,3.9882220988623875,-0.90043691753545951,0.95788792782980836,-0.95788792782980836,0.90043691753545951,7.927283022157761,0.0
679640.0783812654,4025767.5119837918,-2500.0,10.235544134730919,0.2555049438874607,-0.11587526928525535,0.72006510745274999,0.040238185283069293,0.036863529209663355,5.209571740520313,-1.3267414135616429,1.4741307552553407,-1.4741307552553407,1.3267414135616429,10.361000743005091,0.0
684640.0783812654,4025767.5119837918,-2500.0,13.681799814236143,-0.049350615432650839,-0.15206374708227388,1.0431356268718019,0.021642697216868727,0.058151336453058769,6.9591617736184164,-1.9935994353847899,2.3165153771950138,-2.3165153771950138,1.9935994353847899,13.848645858251526,0.0
689640.0783812654,4025767.5119837918,-2500.0,18.72450259674455,-0.70132153080036708,-0.171154330246096,1.5585069645132905,-0.030851403909502386,0.095364646330104108,9.5406267103495583,-3.0644002768416625,3.7365356994633334,-3.7365356994633334,3.0644002768416625,18.995948907408117,0.0
694640.0783812654,4025767.5119837918,-2500.0,26.30801742556411,-2.0605273789576057,-0.11031783229960465,2.4117336776791323,-0.16249224143076124,0.16354146478921633,13.480412050456042,-4.8324755745582912,6.2215150917660065,-6.2215150917660065,4.8324755745582912,26.85208443319706,0.0
699640.0783812654,4025767.5119837918,-2500.0,38.037178523606087,-4.9019725684481683,0.22416115541931247,3.8831348748451915,-0.48321814220014631,0.29524376816954678,19.729397365696553,-7.8343439184247048,10.758753901908888,-10.758753901908888,7.8343439184247048,39.308602125071261,0.0
704640.0783812654,4025767.5119837918,-2500.0,56.646386305397826,-10.956571274256492,1.4305532352834607,6.5324650379210425,-1.2730862880744422,0.56508760065957542,30.078995606210523,-13.050162879009616,19.44053967423795,-19.44053967423795,13.050162879009616,59.919492364087844,0.0
709640.0783812654,4025767.5119837918,-2500.0,86.597311653840251,-24.209225182436118,5.4116420774565519,11.50311857421323,-3.2829311782892967,1.1535933971042851,48.03431460917686,-22.165074644399681,36.872951763556323,-36.872951763556323,22.165074644399681,95.61639153563749,0.0
714640.0783812654,4025767.5119837918,-2500.0,133.82442683072881,-53.842655838628076,18.450931414720944,21.083366735382715,-8.6150607677112649,2.5141639062085788,80.593521358877311,-37.317363093751247,73.297793889362254,-73.297793889362254,37.317363093751247,160.17797044000199,0.0
719640.0783812654,4025767.5119837918,-2500.0,198.98217372929815,-118.92873574958676,61.58815782425269,39.14029717390725,-23.176532685419705,5.7630972377946357,141.20555166632633,-56.527969285625787,149.54668817719596,-149.54668817719596,56.527969285625787,279.82683647148446,0.0
724640.0783812654,4025767.5119837918,-2500.0,242.69816126817693,-239.78317423561211,198.39636792744278,67.413530629962708,-61.399335568563764,13.137600905836447,249.72429161256755,-47.20241548923012,288.81515299733263,-288.81515299733263,47.20241548923012,491.85572555680687,0.0
729640.0783812654,4025767.5119837918,-2500.0,113.56423689523378,-320.43514189411184,525.40960629202607,82.872803642128446,-138.29783848791834,26.110612741760747,399.53889143297937,127.24552853793148,397.04423313408438,-397.04423313408438,-127.24552853793148,774.14516496561714,0.0
734640.0783812654,4025767.5119837918,-2500.0,-170.94224939850565,32.611865838129916,657.08146105406297,24.963696841836764,-187.17063884033902,40.230171538248307,444.12196773155256,482.49208832601488,35.613076253446422,-35.613076253446422,-482.49208832601488,815.79408486375632,0.0
739640.0783812654,4025767.5119837918,-2500.0,-9.9957137067880559,261.83551322556832,-222.93214815018075,-36.095207130737087,-81.572492086272192,46.289770134232533,303.80058694597579,114.5023740244649,-349.79834289260782,349.79834289260782,-114.5023740244649,538.55317781248755,1.0
744640.0783812654,4025767.5119837918,-2500.0,-61.638909904157131,-147.97230324328706,-486.31019535482756,2.2227838934562225,22.228633617089727,21.986002041702601,278.51295018473155,-329.07820996080443,-2.991130724758392,2.991130724758392,329.07820996080443,538.5503614143754,0.0
749640.0783812654,4025767.5119837918,-2500.0,-196.47099552558402,-173.04544086015659,-180.10592945763685,27.789947929280729,24.362198445966136,3.0113313063831821,186.0262755467684,-181.67805389666461,86.919303458834747,-86.919303458834747,181.67805389666461,361.56332807997438,0.0
754640.0783812654,4025767.5119837918,-2500.0,-159.03034647978265,-72.610205202672091,-36.820729363948971,20.767884653013667,8.4350125844284509,-0.62827917408838463,98.790148155596469,-45.630160552687272,33.773645476496867,-33.773645476496867,45.630160552687272,194.91597819582279,0.0
759640.0783812654,4025767.5119837918,-2500.0,-95.18152858636887,-19.961113462654964,-1.3444518664749123,11.040791775648383,1.4042681457401114,-0.5710836722949969,51.749231361808334,-0.36451545386796402,2.6302492459804916,-2.6302492459804916,0.36451545386796402,102.20331200333521,0.0
764640.0783812654,4025767.5119837918,-2500.0,-52.794684670483441,-1.1434704349815485,4.5820182053329699,5.4037306289411182,-0.56012522731228598,-0.27911532490782892,29.034724903899939,9.4284920067865663,-6.8563993601079778,6.8563993601079778,-9.4284920067865663,55.9398386370802,0.0
769640.0783812654,4025767.5119837918,-2500.0,-29.077452294155471,4.3135913213228205,4.2957460231408229,2.628723129940473,-0.87624941943851087,-0.12118431111095064,17.389372068985235,9.5056661755335501,-8.1211988015514027,8.1211988015514027,-9.5056661755335501,32.630166300274666,0.0
774640.0783812654,4025767.5119837918,-2500.0,-16.223000273780311,5.2346318857168388,3.1574197175786498,1.298080012552705,-0.76936202933774556,-0.050518478103171317,11.093592413544322,7.6224475324781533,-7.0676555529244638,7.0676555529244638,-7.6224475324781533,20.316379078481514,0.0
779640.0783812654,4025767.5119837918,-2500.0,-9.1873401186737418,4.7800067798022248,2.2022001219162028,0.65067369782168005,-0.59629329980142998,-0.02012926010821519,7.4797567092036168,5.7582562148412118,-5.6428702789062397,5.6428702789062397,-5.7582562148412118,13.425024587536329,0.0
784640.0783812654,4025767.5119837918,-2500.0,-5.2499491712833475,4.0152549652783005,1.5311786829098031,0.32757787002393479,-0.44566109904524204,-0.0071609541620011744,5.2821937477113927,4.2951349141050086,-4.3859948920009932,4.3859948920009932,-4.2951349141050086,9.3382592911481321,0.0
789640.0783812654,4025767.5119837918,-2500.0,-2.9929208796017006,3.2768303537424961,1.0792458206758571,0.16225125371573204,-0.33088932216927724,-0.001690600885215211,3.8749810824948643,3.2177154636236511,-3.393192352176515,3.393192352176515,-3.2177154636236511,6.7800813432809868,0.0
794640.0783812654,4025767.5119837918,-2500.0,-1.6709861698483561,2.6528015718076494,0.77565650644499495,0.07598573753373275,-0.24696930091695812,0.00052504673827078331,2.9326655816623979,2.4370948088508122,-2.6374124965705334,2.6374124965705334,-2.4370948088508122,5.0992931861286621,0.0
799640.0783812654,4025767.5119837918,-2500.0,-0.88339255049772325,2.1499452141864834,0.56927279211075132,0.030483183232610036,-0.18621619852761923,0.0013216415320084069,2.2771922600894112,1.8705741865063499,-2.0678645815829237,2.0678645815829237,-1.8705741865063499,3.9473247291667648,0.0
804640.0783812654,4025767.5119837918,-2500.0,-0.40876082025189525,1.7516290107740022,0.42650175658653733,0.0065199468318214099,-0.14210666753317572,0.0015067487499050695,1.8063343518818662,1.4556824959787218,-1.638051065307397,1.638051065307397,-1.4556824959787218,3.1286778232523869,0.0
809640.0783812654,4025767.5119837918,-2500.0,-0.12145504840441011,1.4373627922026972,0.32582032965155594,-0.0058412276187771372,-0.10980540155398276,0.0014401842853145508,1.458752014132652,1.1481352709970616,-1.3115066202773256,1.3115066202773256,-1.1481352709970616,2.5287348453422669,0.0
814640.0783812654,4025767.5119837918,-2500.0,0.051653128746745491,1.1888239300985226,0.25343711118858236,-0.011873486553506118,-0.085889441808009642,0.0012826105785831295,1.1961526506589029,0.9171500161629621,-1.0611511202007686,1.0611511202007686,-0.9171500161629621,2.0774693418772805,0.0
819640.0783812654,4025767.5119837918,-2500.0,0.15411814490744749,0.9911862390525904,0.20042159830067521,-0.014437895441463343,-0.067970419039887778,0.0011045790576180074,0.99377710469832503,0.74137071099969409,-0.86726838859487065,0.86726838859487065,-0.74137071099969409,1.7304560067145436,0.0
824640.0783812654,4025767.5119837918,-2500.0,0.2124144585845075,0.83292491286377235,0.16090377595956565,-0.015114686140802896,-0.054383106018820564,0.000935479906848637,0.83511325754847632,0.60589090081386976,-0.71557059144960933,0.71557059144960933,-0.60589090081386976,1.4585379465663748,0.0
829640.0783812654,4025767.5119837918,-2500.0,0.24292210772544909,0.70522609216380461,0.13096035729230013,-0.014787964078200537,-0.043959769350134369,0.00078594940687335682,0.7088447235614892,0.50020334615121154,-0.59567602517853102,0.59567602517853102,-0.50020334615121154,1.2419904683255043,0.0
834640.0783812654,4025767.5119837918,-2500.0,0.25592932615848124,0.60138279779482962,0.10792399753509266,-0.013955911424414999,-0.035874213899504917,0.00065826180542134436,0.60702750856959298,0.416816361876443,-0.49999300346854214,0.49999300346854214,-0.416816361876443,1.0671065571627025,0.0
644640.0783812654,4030767.5119837918,-2500.0,2.3953113571290499,0.1132899269987373,0.026889535610462551,0.10925058053482151,0.010987109529038225,0.003541501011339823,1.2042758878098572,-0.25472877769269475,0.31235936472670311,-0.31235936472670311,0.25472877769269475,2.3958167898331313,0.0
649640.0783812654,4030767.5119837918,-2500.0,2.8726699515981742,0.091507108171156495,0.031983279852147335,0.13793243392583457,0.011096873070508164,0.0047173626603971286,1.4427711300156254,-0.33189540239072657,0.41452086925390774,-0.41452086925390774,0.33189540239072657,2.8688437162269489,0.0
654640.0783812654,4030767.5119837918,-2500.0,3.4786082585289329,0.051491606279503895,0.039812214996748509,0.17633477853043611,0.010322988267696773,0.0063827081907637216,1.7461268844544147,-0.43630068470288119,0.55557205271812293,-0.55557205271812293,0.43630068470288119,3.4702951931859825,0.0
659640.0783812654,4030767.5119837918,-2500.0,4.2570426542337145,-0.017656597080478221,0.052425076236317175,0.22854674097195202,0.0078959074485650191,0.0087864009592466853,2.1371048536110884,-0.57931983465123449,0.75320382037058775,-0.75320382037058775,0.57931983465123449,4.2452350221261641,0.0
664640.0783812654,4030767.5119837918,-2500.0,5.2700667407956603,-0.13365266885086111,0.073585973812301753,0.30073296939614169,0.0024375193541722605,0.012328940146047403,2.6483773969025153,-0.77786702059639579,1.0346642211816639,-1.0346642211816639,0.77786702059639579,5.258366064844747,0.0
669640.0783812654,4030767.5119837918,-2500.0,6.6067006737067091,-0.3257612780426169,0.11035846870114759,0.40237536444878375,-0.0085519157201188554,0.017671466306716958,3.3277259729477366,-1.0574608889277715,1.4428112452899715,-1.4428112452899715,1.0574608889277715,6.6043529470197901,0.0
674640.0783812654,4030767.5119837918,-2500.0,8.3962888491329881,-0.64321977175128453,0.17631708762601223,0.54837067448885668,-0.029686356631730335,0.025936092612526981,4.2464427982842485,-1.457139101783927,2.0465890546856791,-2.0465890546856791,1.457139101783927,8.4245265617514153,0.0
679640.0783812654,4030767.5119837918,-2500.0,10.829004258066727,-1.1705442854248012,0.29825405430988572,0.76264443495776202,-0.069667814214821891,0.039085570406183059,5.5131924476156469,-2.0373310400261713,2.9595821191915408,-2.9595821191915408,2.0373310400261713,10.934489878800953,0.0
684640.0783812654,4030767.5119837918,-2500.0,14.18676208442967,-2.0559052553873096,0.53063969587567705,1.0844863803982148,-0.14532850196318731,0.060665933743014107,7.2973392051340156,-2.8922540891895632,4.3736057617092126,-4.3736057617092126,2.8922540891895632,14.470677446097516,0.0
689640.0783812654,4030767.5119837918,-2500.0,18.887684776428053,-3.5645954846182462,0.98786437898695967,1.5797849419785419,-0.29016499779898502,0.097307184524307325,9.8688750546428068,-4.1683837569899911,6.6206517108586986,-6.6206517108586986,4.1683837569899911,19.570289923381814,0.0
694640.0783812654,4030767.5119837918,-2500.0,25.542045191294914,-6.1805012114628877,1.9185822358754168,2.3609167526511818,-0.57289881658779906,0.16185044009874219,13.667441160015608,-6.0877512062310259,10.288246835607172,-10.288246835607172,6.0877512062310259,27.110079411248144,0.0
699640.0783812654,4030767.5119837918,-2500.0,34.993375308102806,-10.795927747477785,3.8823896586809044,3.6208492467260358,-1.138859029368543,0.28002742653738272,19.420874664419124,-8.9604429245184214,16.432009512128367,-16.432009512128367,8.9604429245184214,38.546365544542589,0.0
704640.0783812654,4030767.5119837918,-2500.0,48.230651363165002,-19.043020916373813,8.1778307828728547,5.6853134550230067,-2.3032949694436091,0.50486300270182027,28.339613614374972,-13.113530163046789,26.943636509009607,-26.943636509009607,13.113530163046789,56.313592320761344,0.0
709640.0783812654,4030767.5119837918,-2500.0,65.780074176765524,-33.74313487286885,17.868885526937351,9.0629987997960892,-4.7569414820825289,0.9468769492034026,42.387226174457105,-18.462354594461281,45.055931442835288,-45.055931442835288,18.462354594461281,84.396011097202873,0.0
714640.0783812654,4030767.5119837918,-2500.0,85.462526656406411,-58.867416337921092,40.033966390128462,14.354062037700439,-9.9680535928923142,1.8297546382103866,64.441497301477114,-22.838822278256323,75.372785817448943,-75.372785817448943,22.838822278256323,128.72917270997701,0.0
719640.0783812654,4030767.5119837918,-2500.0,96.42892075318926,-95.846256306985893,89.088231112371204,21.458657373843714,-20.648532574129689,3.5494710770635276,98.252769688327959,-16.973105884189884,120.16973549167696,-120.16973549167696,16.973105884189884,195.49603793405223,0.0
724640.0783812654,4030767.5119837918,-2500.0,71.567805388769372,-126.85547555927357,182.22703132511904,26.809238482462572,-39.611431273742561,6.5327200661930505,142.70204657388132,24.064583781380378,161.91309130125322,-161.91309130125322,-24.064583781380378,280.73492143487954,0.0
729640.0783812654,4030767.5119837918,-2500.0,-9.3670090130106587,-86.56200830446592,287.10658856010781,19.922561640060977,-61.295841617268003,10.318018316374097,178.43599585204683,124.78978576675244,130.23339685901965,-130.23339685901965,-124.78978576675244,342.62109292768179,0.0
734640.0783812654,4030767.5119837918,-2500.0,-64.92236509812335,61.868567360697064,226.36947855903051,-4.3008752300581321,-58.944882962667137,12.188303666509144,165.73200449120284,194.74105139381123,-32.760096164061792,32.760096164061792,-194.74105139381123,300.49531393335116,0.0
739640.0783812654,4030767.5119837918,-2500.0,-7.7928814539068858,114.19537324555829,-69.564079446716306,-17.775450042048,-17.836433604887663,9.1490005385404949,122.30637077998918,51.304686829574329,-135.98907901028898,135.98907901028898,-51.304686829574329,214.87971842343106,1.0
744640.0783812654,4030767.5119837918,-2500.0,-0.064181985338079034,-13.802116372670941,-230.57454294626632,-3.0172834312643695,17.089005002821576,3.3166728091976285,119.8431389194009,-129.50616497009418,-45.06328629893062,45.06328629893062,129.50616497009418,235.37350800693667,0.0
749640.0783812654,4030767.5119837918,-2500.0,-60.525746327955005,-85.564273983618762,-163.69093669171971,11.223782303141835,20.046312411878798,-0.18069012025544881,108.38207073463829,-135.92060331738202,31.814455935030338,-31.814455935030338,135.92060331738202,209.89833315493931,0.0
754640.0783812654,4030767.5119837918,-2500.0,-83.645165106278711,-69.103495428233643,-72.957559953866465,12.688355266544271,11.352918965903287,-0.87286596905862857,75.322269674206495,-73.440223447330325,34.428462338295319,-34.428462338295319,73.440223447330325,145.8642155707434,0.0
759640.0783812654,4030767.5119837918,-2500.0,-70.657327498225811,-37.536568707011781,-25.901872104704889,9.0299679729696347,4.8211402881426642,-0.63553947616878637,46.811695940076554,-28.866937111237075,17.702634231613128,-17.702634231613128,28.866937111237075,91.178822604772932,0.0
764640.0783812654,4030767.5119837918,-2500.0,-49.854138143708091,-16.804719756456041,-7.5074599709457441,5.510525604900427,1.6706292179666695,-0.35545721654791373,28.284571404730187,-8.0493746290521067,5.7692100356847824,-5.7692100356847824,8.0493746290521067,55.623037998254368,0.0
769640.0783812654,4030767.5119837918,-2500.0,-32.880428698265519,-6.1981603983901552,-1.1944036603398389,3.1983774863818395,0.39149667814829958,-0.18397329878388938,17.309243484323552,0.0029949308169191814,0.012284755716437171,-0.012284755716437171,-0.0029949308169191814,34.401190611818244,0.0
774640.0783812654,4030767.5119837918,-2500.0,-21.246692934070492,-1.3223968312609942,0.71335046847757699,1.8414327792056981,-0.070482533528259478,-0.093641429525664954,11.159001015694214,2.6008038225296422,-2.207884518759355,2.207884518759355,-2.6008038225296422,21.922748290329988,0.0
779640.0783812654,4030767.5119837918,-2500.0,-13.724636116534507,0.74319617925089654,1.1238393600066034,1.0697045794762496,-0.20808128848993318,-0.04790501481421032,7.5138775647479807,3.1030084031277845,-2.7943050954122155,2.7943050954122155,-3.1030084031277845,14.480031424535678,0.0
784640.0783812654,4030767.5119837918,-2500.0,-8.9341511517949552,1.5079023514767798,1.0663869584275811,0.63062521700730512,-0.2252844990109491,-0.024769424385911034,5.2528454764811761,2.8802037275148855,-2.7148909986734147,2.7148909986734147,-2.8802037275148855,9.9224929362261101,0.0
789640.0783812654,4030767.5119837918,-2500.0,-5.874016808684881,1.6925845266287047,0.89218180021601667,0.37745796077465438,-0.20245765636674401,-0.012910420896209624,3.8012144061861224,2.4600742538396427,-2.4058273405905664,2.4058273405905664,-2.4600742538396427,7.0442543821233139,0.0
794640.0783812654,4030767.5119837918,-2500.0,-3.8981768612338672,1.6319293964604344,0.71430105081107909,0.22883973336452904,-0.17009283210806617,-0.00672696717424103,2.8369295952564517,2.033460689041803,-2.0498868184756036,2.0498868184756036,-2.033460689041803,5.16745453151717,0.0
799640.0783812654,4030767.5119837918,-2500.0,-2.605068681366661,1.4790066407098987,0.5637198252350929,0.13994750916107432,-0.13901324713106281,-0.0034512214996698701,2.1752224985531559,1.6605660916094775,-1.7170899167594857,1.7170899167594857,-1.6605660916094775,3.9044551983653299,0.0
804640.0783812654,4030767.5119837918,-2500.0,-1.7468850094366084,1.3023746272543482,0.44425842015463335,0.08583721004786013,-0.11243584183409477,-0.0016954257037320836,1.7072793827365542,1.3527909196041219,-1.4293611467142839,1.4293611467142839,-1.3527909196041219,3.0284326089652658,0.0
809640.0783812654,4030767.5119837918,-2500.0,-1.1697783390193628,1.1313566182261725,0.35178583609471675,0.052388147514673661,-0.090754935630584704,-0.00074957275268458978,1.3671993518299423,1.1047845304129789,-1.1891367727394724,1.1891367727394724,-1.1047845304129789,2.4033060202056808,0.0
814640.0783812654,4030767.5119837918,-2500.0,-0.77708342547306086,0.9771569978906528,0.28072702904099422,0.031448093752549394,-0.07342356326425567,-0.00024250443860439591,1.1139253437869221,0.90672858204432472,-0.99173028650909489,0.99173028650909489,-0.90672858204432472,1.9453384612497657,0.0
819640.0783812654,4030767.5119837918,-2500.0,-0.50717715339348191,0.84276190684324936,0.22606811053425072,0.018215231287007985,-0.059674905108920907,2.3850097013551367e-05,0.92115988739482391,0.74879377197995689,-0.83052096717857671,0.83052096717857671,-0.74879377197995689,1.6016929490621541,0.0
824640.0783812654,4030767.5119837918,-2500.0,-0.32017175783551327,0.72759699112933418,0.18380242241459585,0.0098058715783061311,-0.048780675729178824,0.00015717822087021373,0.77160624130735256,0.62253381777983618,-0.69900756037637757,0.69900756037637757,-0.62253381777983618,1.3382011663056408,0.0
829640.0783812654,4030767.5119837918,-2500.0,-0.1898554730612711,0.62970913564496378,0.15087598352089421,0.004456501325212729,-0.040127311674528654,0.00021695770890525645,0.65359904202897212,0.52112274429493111,-0.59151419023219054,0.59151419023219054,-0.52112274429493111,1.1322335313150258,0.0
834640.0783812654,4030767.5119837918,-2500.0,-0.098752291961242411,0.54676938881013404,0.12500638335483796,0.0010705012625514046,-0.03322365184645705,0.00023644977063284311,0.55908476283840425,0.43919530610267105,-0.50333676433242802,0.50333676433242802,-0.43919530610267105,0.9684535563010046,0.0
644640.0783812654,4035767.5119837918,-2500.0,2.5467287786668815,-0.096719073767977476,0.076437182747965904,0.11601623826665776,0.00010527188962445048,0.0037506663500705461,1.2787894164730746,-0.37723858337511385,0.54125109353697276,-0.54125109353697276,0.37723858337511385,2.5210362676270215,0.0
649640.0783812654,4035767.5119837918,-2500.0,3.0374933770548398,-0.17157365450524503,0.099837811700541013,0.14570363856762047,-0.0032231780637447943,0.0049729677366610334,1.5283589002733273,-0.47870106337230611,0.69837748996691684,-0.69837748996691684,0.47870106337230611,3.0115663981342355,0.0
654640.0783812654,4035767.5119837918,-2500.0,3.6529602405312613,-0.28105634536201363,0.13403349197394832,0.18504769205756894,-0.0087462978925689217,0.0066896070052156259,1.8437627730228716,-0.61249080042127702,0.91058756352355719,-0.91058756352355719,0.61249080042127702,3.6314062256687123,0.0
659640.0783812654,4035767.5119837918,-2500.0,4.432031636995986,-0.44186720744787999,0.18521706182379061,0.23787586582282338,-0.017813822420466731,0.0091419576872327126,2.2470302613330744,-0.79059042150656145,1.2010004186463608,-1.2010004186463608,0.79059042150656145,4.4238717729210588,0.0
664640.0783812654,4035767.5119837918,-2500.0,5.4275952441631814,-0.67964780538025105,0.26373151957157337,0.30980205386776083,-0.032668215559923774,0.0127106009185728,2.7691383249642314,-1.0299395116152699,1.6041133359505855,-1.6041133359505855,1.0299395116152699,5.4499206302881733,0.0
669640.0783812654,4035767.5119837918,-2500.0,6.7118274794586634,-1.0343007590627671,0.38724391773797762,0.40917520683577302,-0.057098861453230565,0.018008464011315485,3.4542606635079647,-1.3545483677656538,2.1722027497445922,-2.1722027497445922,1.3545483677656538,6.7965682958916025,0.0
674640.0783812654,4035767.5119837918,-2500.0,8.3831654591384854,-1.5687415919197105,0.58664731546850291,0.5485751142843539,-0.097628082428807939,0.026044733472329169,4.3662777171483542,-1.798336167439615,2.9856999072692245,-2.9856999072692245,1.798336167439615,8.5898176269095625,0.0
679640.0783812654,4035767.5119837918,-2500.0,10.574691530986907,-2.383350037302598,0.91728144721646965,0.74716812625075912,-0.16570252068861663,0.038519417094726616,5.5988076418973778,-2.4085274734564841,4.1701027821347996,-4.1701027821347996,2.4085274734564841,11.014653073351912,0.0
684640.0783812654,4035767.5119837918,-2500.0,13.462019228116992,-3.6396773455057332,1.480707127342221,1.0343625219479007,-0.28181143226652006,0.058362247091183247,7.2906333319844165,-3.2484616549106553,5.9234348207346672,-5.9234348207346672,3.2484616549106553,14.345946696138167,0.0
689640.0783812654,4035767.5119837918,-2500.0,17.264084516712543,-5.5982961281472718,2.467658380424246,1.45523920127716,-0.48332198860229636,0.090732172834165958,9.6490263465120076,-4.3957109566086459,8.5598141854939271,-8.5598141854939271,4.3957109566086459,18.995545270222319,0.0
694640.0783812654,4035767.5119837918,-2500.0,22.218081678403284,-8.6749099120682747,4.2434037977990853,2.0777474238610854,-0.83942128215584189,0.14487700487071387,12.983309065111643,-5.9231277839720082,12.5741785641007,-12.5741785641007,5.9231277839720082,25.580927249772255,0.0
699640.0783812654,4035767.5119837918,-2500.0,28.480556400470459,-13.507488163937541,7.5154690164946727,2.9992148216185126,-1.4790865147203596,0.23753285867774654,17.747110777170249,-7.8287110988643551,18.721885037490999,-18.721885037490999,7.8287110988643551,35.01416113728984,0.0
704640.0783812654,4035767.5119837918,-2500.0,35.84482234756635,-20.977009277787307,13.645995454388519,4.3411251826015294,-2.6401046852015249,0.3987563578283978,24.570851464614783,-9.8282365947977475,28.055395004591016,-28.055395004591016,9.8282365947977475,48.578819902838603,0.0
709640.0783812654,4035767.5119837918,-2500.0,43.070355120580835,-31.956748005865158,25.143960177254559,6.1961907970731751,-4.7395134289906533,0.68019963847618836,34.210248002980272,-10.824674375825031,41.68524608909572,-41.68524608909572,10.824674375825031,67.857547713743358,0.0
714640.0783812654,4035767.5119837918,-2500.0,46.644145593965561,-46.133567435481424,46.037753098207894,8.4364575998066265,-8.4100697450306985,1.1599083926310354,47.186559881845135,-7.7983836111744544,59.569159653702997,-59.569159653702997,7.7983836111744544,94.086288312129795,0.0
719640.0783812654,4035767.5119837918,-2500.0,39.712958557442946,-58.669306398436852,80.365138777416959,10.243017413084699,-14.239333516817808,1.9167528672880716,63.346625909137401,5.5358294925188147,76.93965836193037,-76.93965836193037,-5.5358294925188147,125.9640730548274,0.0
724640.0783812654,4035767.5119837918,-2500.0,15.467422254240716,-55.162782754105372,123.60058097667422,9.5176182403054579,-21.537865617636427,2.9086418245060135,79.131373074600475,36.51161012131702,78.36823813935392,-78.36823813935392,-36.51161012131702,154.9216431595874,0.0
729640.0783812654,4035767.5119837918,-2500.0,-17.931709818540764,-16.865453781986773,144.02420509661147,3.7960007569174512,-25.920890759348755,3.7292559856426872,85.082981297827629,77.709005527030882,40.970155038182888,-40.970155038182888,-77.709005527030882,161.56432611545932,0.0
734640.0783812654,4035767.5119837918,-2500.0,-27.912628271145739,41.956005279149231,87.981442470103076,-4.9563336792585506,-20.055418885205661,3.6027950801440665,73.646008326526172,85.286777075627484,-28.2968734255263,28.2968734255263,-85.286777075627484,131.6566792313609,0.0
739640.0783812654,4035767.5119837918,-2500.0,-5.6601683135504652,56.265237994943718,-33.461728660047825,-8.2552289900453548,-4.1763506391580432,2.2292146822122407,59.052771909749723,22.803230948839019,-64.717464930570912,64.717464930570912,-22.803230948839019,103.96446234222492,0.0
744640.0783812654,4035767.5119837918,-2500.0,2.2939026340209043,9.4730509679119344,-114.52574606869112,-2.8882683152394728,9.1287571718025884,0.52641737526676802,60.259549783427104,-54.914773622643153,-36.724854994161959,36.724854994161959,54.914773622643153,118.26970156451614,0.0
749640.0783812654,4035767.5119837918,-2500.0,-18.752440226579903,-34.548804083964477,-110.17932531771589,3.7461918526765965,12.101727256920595,-0.44563781314547385,61.973738323148069,-79.333917358415533,3.1671239488040115,-3.1671239488040115,79.333917358415533,120.12520597943575,0.0
754640.0783812654,4035767.5119837918,-2500.0,-38.410956609966249,-43.789110919961871,-70.148404202740835,6.3355132625654154,8.9387732420252348,-0.634083099137281,51.294607461521991,-61.181752572629833,18.30612512957536,-18.30612512957536,61.181752572629833,98.721219536762874,0.0
759640.0783812654,4035767.5119837918,-2500.0,-42.610627846304354,-33.643914042905919,-36.309460041378465,5.7856059573061067,5.1299259544055795,-0.49087109763479769,37.193528579845285,-35.62804271133038,16.030497436245312,-16.030497436245312,35.62804271133038,71.578502046696457,0.0
764640.0783812654,4035767.5119837918,-2500.0,-36.875193066926535,-20.974236993654621,-16.774962508968645,4.2670821718028202,2.5653033552778277,-0.31187039244620196,25.379846471962367,-17.53624031032394,9.6146923550201535,-9.6146923550201535,17.53624031032394,48.990680591860411,0.0
769640.0783812654,4035767.5119837918,-2500.0,-28.416076965548044,-11.648630504957435,-7.1433200970952599,2.871891479698613,1.1614583575238926,-0.18307517001404813,16.972423364923777,-7.4004730927750932,4.4881168987596114,-4.4881168987596114,7.4004730927750932,32.937832484747737,0.0
774640.0783812654,4035767.5119837918,-2500.0,-20.740053124446202,-5.9056060555611642,-2.7367410524576696,1.8622325970320581,0.46475053543213379,-0.10454635682150401,11.36652409862517,-2.3459041744772793,1.3945821810360002,-1.3945821810360002,2.3459041744772793,22.228724110579435,0.0
779640.0783812654,4035767.5119837918,-2500.0,-14.789957724076057,-2.6479761115714435,-0.81057759460425061,1.1946128697905867,0.13886407625840816,-0.059509236197447891,7.7098216676990097,-0.024556584985363505,-0.21993180456719236,0.21993180456719236,0.024556584985363505,15.22698671609227,0.0
784640.0783812654,4035767.5119837918,-2500.0,-10.471106799038123,-0.88642883505089343,-0.0098204477865284044,0.76810149902275748,-0.0049704755905603951,-0.034145020591882631,5.3582887104668098,0.93791596640872144,-0.95941993224612487,0.95941993224612487,-0.93791596640872144,10.644807165014839,0.0
789640.0783812654,4035767.5119837918,-2500.0,-7.4205821916677008,0.027249937175080875,0.29229607629946902,0.49805085938527527,-0.062501726429537885,-0.019836013706220845,3.879536996417158,1.2565501437602029,-1.2297014837734548,1.2297014837734548,-1.2565501437602029,7.6116090187688235,0.0
794640.0783812654,4035767.5119837918,-2500.0,-5.2846095442522261,0.47423281441654364,0.37870177964311996,0.3264756034430577,-0.080299398040469691,-0.011675250514758101,2.8847887134411128,1.2846767461199355,-1.2653730876385636,1.2653730876385636,-1.2846767461199355,5.5703191961745073,0.0
799640.0783812654,4035767.5119837918,-2500.0,-3.7879256801389336,0.6690230799567054,0.37587745354119029,0.21643289040037142,-0.080582819816956155,-0.0069520472943155089,2.1955368695307249,1.1920870453658992,-1.1929628325283554,1.1929628325283554,-1.1920870453658992,4.1704405394088413,0.0
804640.0783812654,4035767.5119837918,-2500.0,-2.7333643007817803,0.73015468095355807,0.33984214565216897,0.14499695829427281,-0.073810705698211243,-0.0041752953697101695,1.707134914699139,1.058395864506636,-1.0778354458225299,1.0778354458225299,-1.058395864506636,3.1913168494560717,0.0
809640.0783812654,4035767.5119837918,-2500.0,-1.9844427540158858,0.72261684710085461,0.294899429891746,0.098019863366720361,-0.064810361367836217,-0.0025182043194101563,1.3535257971521284,0.9195678598214051,-0.95241061268706761,0.95241061268706761,-0.9195678598214051,2.4927678659257855,0.0
814640.0783812654,4035767.5119837918,-2500.0,-1.4478614475768208,0.68184699774216628,0.25108361077905528,0.066730370782400003,-0.055723469111426498,-0.0015159944708801388,1.0921794353848406,0.79067290529024981,-0.83184841568400458,0.83184841568400458,-0.79067290529024981,1.9845624575648848,0.0
819640.0783812654,4035767.5119837918,-2500.0,-1.0599467073770981,0.62700336252780553,0.21205759286964931,0.045637458270779432,-0.047419933753006516,-0.00090309397454017327,0.89522869096333746,0.67694637390587897,-0.72246574105616035,0.72246574105616035,-0.67694637390587897,1.607748182255309,0.0
824640.0783812654,4035767.5119837918,-2500.0,-0.77706557581392577,0.56826614265130848,0.17870687869562765,0.031261387091871047,-0.040177824938660366,-0.00052516976279189391,0.74408881832760132,0.57914912014880937,-0.62617251212225,0.62617251212225,-0.57914912014880937,1.3232059097443825,0.0
829640.0783812654,4035767.5119837918,-2500.0,-0.56910317569953905,0.51086122780521737,0.15077527135595234,0.021367615999000701,-0.034010474294679974,-0.00029102062711520147,0.62614416808898765,0.49614949149663784,-0.54278181247015111,0.54278181247015111,-0.49614949149663784,1.1045696355517789,0.0
644640.0783812654,4040767.5119837918,-2500.0,2.6102913896619473,-0.2999516689834108,0.14866485050109157,0.11885283951482697,-0.010554385221029505,0.0038419653585367447,1.326667213388621,-0.47265240658945984,0.75563769626429533,-0.75563769626429533,0.47265240658945984,2.5980192325325495,0.0
649640.0783812654,4040767.5119837918,-2500.0,3.088194881335157,-0.42102563335013654,0.19633727907746626,0.14810438644998306,-0.016991718386820554,0.0050581935792465118,1.5787030393606309,-0.58784217514705017,0.95882056842630381,-0.95882056842630381,0.58784217514705017,3.090475463903184,0.0
654640.0783812654,4040767.5119837918,-2500.0,3.6778168542898149,-0.58865309706923463,0.26439835922898924,0.18633572649454005,-0.026671535599229853,0.0067465274477469337,1.8942970522702236,-0.7358215878910086,1.2281743326747208,-1.2281743326747208,0.7358215878910086,3.7071712051290469,0.0
659640.0783812654,4040767.5119837918,-2500.0,4.409639905653119,-0.82244509010251465,0.36334419407165336,0.23682307907781544,-0.041320756040496336,0.009125071134105326,2.2933353733567525,-0.92695223479733979,1.5891422570989753,-1.5891422570989753,0.92695223479733979,4.4870793392151782,0.0
664640.0783812654,4040767.5119837918,-2500.0,5.3227731483696141,-1.1511108972743609,0.50990703717772612,0.30419855901670617,-0.063678593428177971,0.012528783645082503,2.8030268524216826,-1.1748461023689671,2.0783274348392484,-2.0783274348392484,1.1748461023689671,5.4835959319953016,0.0
669640.0783812654,4040767.5119837918,-2500.0,6.466713563094145,-1.6169484778941552,0.73121885130525055,0.39504743496969957,-0.09814927003108552,0.01748033775642167,3.4609001266187778,-1.4970048770884037,2.7488144923358706,-2.7488144923358706,1.4970048770884037,6.7704962986833275,0.0
674640.0783812654,4040767.5119837918,-2500.0,7.902387882360042,-2.2824902031049565,1.0720133580719897,0.51874896907687262,-0.15190871651870802,0.024807993234953332,4.3190404496927357,-1.9149605918184442,3.6780097387711179,-3.6780097387711179,1.9149605918184442,8.4504008720826818,0.0
679640.0783812654,4040767.5119837918,-2500.0,9.7007142920509235,-3.2400077144924131,1.6071883785165537,0.68860092047150456,-0.23679114418311578,0.035843038437191353,5.4499441002295592,-2.4527924573564381,4.9788575144068581,-4.9788575144068581,2.4527924573564381,10.666568609947134,0.0
684640.0783812654,4040767.5119837918,-2500.0,11.934703693109869,-4.6241089538886913,2.4637474730862761,0.92315610631245371,-0.37249796552930375,0.05275018629401803,6.9542121377905186,-3.1313408911407699,6.8148592265821737,-6.8148592265821737,3.1313408911407699,13.618606244159693,0.0
689640.0783812654,4040767.5119837918,-2500.0,14.656645454909816,-6.6254831592448005,3.8586669190480118,1.247331422503654,-0.59196607346121899,0.079072489548310365,8.9695429025724884,-3.9520588198042286,9.4171297460745542,-9.4171297460745542,3.9520588198042286,17.581339933174313,0.0
694640.0783812654,4040767.5119837918,-2500.0,17.843751129137164,-9.4969036438974328,6.1618044671308674,1.691835691355333,-0.94995268062353599,0.12059254113076438,11.678093306639378,-4.8575919443810385,13.094546932148656,-13.094546932148656,4.8575919443810385,22.921712972911415,0.0
699640.0783812654,4040767.5119837918,-2500.0,21.283546411818886,-13.523758188866427,9.9907624464495157,2.2869800193720646,-1.53532392603699,0.18655966511617289,15.302874432403529,-5.644143833217198,18.208229101245379,-18.208229101245379,5.644143833217198,30.096589573931467,0.0
704640.0783812654,4040767.5119837918,-2500.0,24.363046817270671,-18.887588328337067,16.319326281272961,3.0417071745370539,-2.4837419974331141,0.29098978633377137,20.068692038223386,-5.7868328183632887,25.034466334424472,-25.034466334424472,5.7868328183632887,39.585632739631535,0.0
709640.0783812654,4040767.5119837918,-2500.0,25.765925745448005,-25.273183095641517,26.478576198178558,3.8906535811735927,-3.9738822168978292,0.45254001428143559,26.072919722143872,-4.1538531153618248,33.352244646815315,-33.352244646815315,4.1538531153618248,51.655620124909447,0.0
714640.0783812654,4040767.5119837918,-2500.0,23.29558148908411,-31.022217572138871,41.638819047998147,4.5911912227645466,-6.1551895409858641,0.68839863076701358,32.970925102209272,1.2530778046480719,41.517607561065617,-41.517607561065617,-1.2530778046480719,65.774449000411863,0.0
719640.0783812654,4040767.5119837918,-2500.0,14.610007743794624,-31.991161003521974,60.85494512607292,4.6032065809710918,-8.9013605751056364,0.99297592751643426,40.121162516725732,12.817426867418853,45.09301946344501,-45.09301946344501,-12.817426867418853,79.53182326878887,0.0
724640.0783812654,4040767.5119837918,-2500.0,0.15040977805431596,-21.910071290608318,76.974681895584268,3.1739360003887609,-11.327329359735348,1.2952737364938756,45.055981822709796,30.409037039941754,36.740593851956035,-36.740593851956035,-30.409037039941754,87.582113538924062,0.0
729640.0783812654,4040767.5119837918,-2500.0,-12.840992163191034,1.5965480823436893,74.006705248465252,0.071740979858300039,-11.503991066070759,1.4274180623914272,44.345382794431707,45.617946845420377,11.858416012665057,-11.858416012665057,-45.617946845420377,83.136149004162661,0.0
734640.0783812654,4040767.5119837918,-2500.0,-13.751006566137054,26.472964532613897,37.807120173737708,-3.2434886578823172,-7.659201294408458,1.2062009368462612,37.654398580119079,41.523588121619539,-19.782385942972187,19.782385942972187,-41.523588121619539,66.489075733989637,0.0
739640.0783812654,4040767.5119837918,-2500.0,-3.983254656840292,30.872254932273353,-19.591079593260094,-4.159602378925281,-0.87766073432450464,0.65200884743044463,32.246275767202874,11.109392765882916,-35.295265459159623,35.295265459159623,-11.109392765882916,57.017035726742428,0.0
744640.0783812654,4040767.5119837918,-2500.0,0.77614176935647261,11.02254099606381,-62.030602123848368,-1.9952487220981769,4.8614570056649349,0.056644364491899427,33.731269827123135,-25.946960945602754,-25.449739295813416,25.449739295813416,25.946960945602754,65.934429858880904,0.0
749640.0783812654,4040767.5119837918,-2500.0,-6.5458177585863204,-12.772619762579332,-69.962444063345544,1.0724515074181544,6.912480593801396,-0.30021154651365956,36.747829154733729,-44.910259654168826,-5.9325055565471523,5.9325055565471523,44.910259654168826,71.365036477368108,0.0
754640.0783812654,4040767.5119837918,-2500.0,-17.532068729028069,-24.357046149283409,-55.003038715527978,2.9474952986471359,6.0361912768277151,-0.38738983192349186,33.975399012069381,-42.898571626093918,6.780694006511844,-6.780694006511844,42.898571626093918,65.235024694933173,0.0
759640.0783812654,4040767.5119837918,-2500.0,-23.855079395790018,-24.090177696462241,-35.544031496989653,3.3383214709674967,4.1865016633616952,-0.32829816044643395,27.60453385291801,-31.354753602435665,10.127080055704861,-10.127080055704861,31.354753602435665,52.840968945309164,0.0
764640.0783812654,4040767.5119837918,-2500.0,-24.376666033291887,-18.632377885324299,-20.52607291647832,2.8978918619371465,2.5480923834967402,-0.23355056249039707,20.835412336997315,-19.640261003253194,8.484624150484386,-8.484624150484386,19.640261003253194,39.886337897040832,0.0
769640.0783812654,4040767.5119837918,-2500.0,-21.48430473494858,-12.675405547316752,-11.092034210192292,2.2221723334461392,1.4302681765370446,-0.15263905029360933,15.149979929765212,-11.098410413035854,5.6151494730769507,-5.6151494730769507,11.098410413035854,29.05690408799428,0.0
774640.0783812654,4040767.5119837918,-2500.0,-17.475699673647959,-7.9775049013044486,-5.7320209294599405,1.6018444264105036,0.75605340593279358,-0.095897108562571914,10.852817777838752,-5.7336518258946567,3.1509993438200299,-3.1509993438200299,5.7336518258946567,20.885474138606689,0.0
779640.0783812654,4040767.5119837918,-2500.0,-13.612941437658755,-4.7387502897780456,-2.8393947429223911,1.1211626069497111,0.37527113183742161,-0.059366325154340913,7.7620036916737343,-2.6284987761315688,1.4498441410187204,-1.4498441410187204,2.6284987761315688,15.010309701209829,0.0
784640.0783812654,4040767.5119837918,-2500.0,-10.370802681460738,-2.652882798414955,-1.3216357382205071,0.77566578805192354,0.16857383494832678,-0.036710198797331652,5.5851092887980434,-0.92544596929494771,0.40211553939940764,-0.40211553939940764,0.92544596929494771,10.870581714356186,0.0
789640.0783812654,4040767.5119837918,-2500.0,-7.8220049001663439,-1.3608231523725389,-0.54082401484019782,0.53575998160284721,0.059810425036334623,-0.022840555766111569,4.0605114858654998,-0.035800898616050791,-0.19148768965526458,0.19148768965526458,0.035800898616050791,7.9676094470316681,0.0
794640.0783812654,4040767.5119837918,-2500.0,-5.8823419628416458,-0.58159316778511871,-0.1480769816522263,0.37148150884545617,0.0046256772625948798,-0.014349738940384289,2.991083714352071,0.39950677432138332,-0.49856836665267062,0.49856836665267062,-0.39950677432138332,5.924130050750728,0.0
799640.0783812654,4040767.5119837918,-2500.0,-4.4286358050309387,-0.12316553583766347,0.042114602912750841,0.25930680568010439,-0.021748766028577626,-0.0091154645083458309,2.2538925508068228,0.58772259113515424,-0.63498480279497138,0.63498480279497138,-0.58772259113515424,4.4732365483681589,0.0
804640.0783812654,4040767.5119837918,-2500.0,-3.3453153371961362,0.1380564240828504,0.12736814195312299,0.18245483295031686,-0.032873174089253075,-0.0058546748204089585,1.7492949752393656,0.64515391374017506,-0.67422922674128694,0.67422922674128694,-0.64515391374017506,3.4314615186574109,0.0
809640.0783812654,4040767.5119837918,-2500.0,-2.5381510671456105,0.27938904754174504,0.15892888603219768,0.1294500836913561,-0.036101233059743464,-0.0037986697083067684,1.3819654273758273,0.6360284494789612,-0.6608169988434025,0.6608169988434025,-0.6360284494789612,2.6739835250167112,0.0
814640.0783812654,4040767.5119837918,-2500.0,-1.9349305112789366,0.34855515289353917,0.16369818925525795,0.092584506637635344,-0.035396265288831143,-0.002486127806384437,1.1089758662871667,0.59536671930207152,-0.62091642282248705,0.62091642282248705,-0.59536671930207152,2.1159033332839097,0.0
819640.0783812654,4040767.5119837918,-2500.0,-1.4819516487716986,0.37483578030012199,0.15577462679174753,0.066708706392551567,-0.032878087379871294,-0.0016380352023842709,0.90291666819656879,0.54197182962431678,-0.5695281720225458,0.5695281720225458,-0.54197182962431678,1.6991838906273213,0.0
824640.0783812654,4040767.5119837918,-2500.0,-1.1398338364903682,0.37614624252063861,0.14249479816821173,0.04837734159204804,-0.0296649433200303,-0.0010838407795258226,0.74506786802819769,0.48569097495870239,-0.5150067266280145,0.5150067266280145,-0.48569097495870239,1.38383007200729,0.0
829640.0783812654,4040767.5119837918,-2500.0,-0.87985019621021676,0.36342165934763526,0.12761005705834438,0.035272651477847992,-0.026331295007509605,-0.00071800182700763914,0.62242489613272589,0.43145186111836636,-0.46181213000344551,0.46181213000344551,-0.43145186111836636,1.1420145500269481,0.0
649640.0783812654,4045767.5119837918,-2500.0,3.0379016022343976,-0.63970119465240527,0.31234964359319678,0.14573443686182339,-0.029301489582156993,0.004991075765747012,1.594760234539901,-0.65528141519134819,1.1800165377295215,-1.1800165377295215,0.65528141519134819,3.1072123648817005,0.0
654640.0783812654,4045767.5119837918,-2500.0,3.5748239509202402,-0.84918052958894996,0.41692277495637692,0.18124327149087446,-0.042212565698716863,0.00658687752399768,1.9002101713668016,-0.80283156748941376,1.4881072170544318,-1.4881072170544318,0.80283156748941376,3.7018551277578582,0.0
659640.0783812654,4045767.5119837918,-2500.0,4.2254495283795075,-1.1311803101746338,0.56525322441539916,0.22720640066261533,-0.060938306533908332,0.0087977941299578685,2.2811953814682608,-0.98692854160420362,1.8921655020953345,-1.8921655020953345,0.98692854160420362,4.4438869358023041,0.0
664640.0783812654,4045767.5119837918,-2500.0,5.0141209937676159,-1.5129233557324249,0.77869600220104396,0.28709954258908615,-0.088334546223885271,0.011899629866475872,2.7599787587859157,-1.2159470574379165,2.4261976675326511,-2.4261976675326511,1.2159470574379165,5.3769888147397955,0.0
669640.0783812654,4045767.5119837918,-2500.0,5.9678482896060512,-2.032126026190741,1.0902618073819588,0.36558086400183609,-0.12878138124179594,0.016306915480690368,3.3660129448555201,-1.4986456915730306,3.1369555849348325,-3.1369555849348325,1.4986456915730306,6.5591041660025384,0.0
674640.0783812654,4045767.5119837918,-2500.0,7.1135080787341476,-2.7404731393619595,1.5514170906514244,0.46880092463723921,-0.18903804084980025,0.022647591447627295,4.138109252929179,-1.8421505140864571,4.0882044641856066,-4.0882044641856066,1.8421505140864571,8.066861567050994,0.0
679640.0783812654,4045767.5119837918,-2500.0,8.4712063042187378,-3.7071547947947869,2.242803787114664,0.60463870276664389,-0.27956205854299848,0.031876971409581248,5.1268361055560518,-2.2472711574378117,5.3652932041792791,-5.3652932041792791,2.2472711574378117,10.000597791013941,0.0
684640.0783812654,4045767.5119837918,-2500.0,10.040418859211526,-5.020582799841157,3.2906452755873867,0.78259675329855483,-0.41647665834885494,0.045446489512941203,6.3965095672472874,-2.69853790850143,7.0781290962717662,-7.0781290962717662,2.69853790850143,12.488859116710179,0.0
689640.0783812654,4045767.5119837918,-2500.0,11.773461162160023,-6.7833494800585372,4.8902692556496996,1.0127302384164714,-0.6242982768911669,0.065536762951937069,8.0250770310112234,-3.1443567054843049,9.3574226801728315,-9.3574226801728315,3.1443567054843049,15.689280965728985,0.0
694640.0783812654,4045767.5119837918,-2500.0,13.529026697085371,-9.0890909841194674,7.3350636898782886,1.3022878364902173,-0.93912024628689406,0.095332521961834268,10.09795193276539,-3.4601782750640595,12.332153529742248,-12.332153529742248,3.4601782750640595,19.778522145133188,0.0
699640.0783812654,4045767.5119837918,-2500.0,15.000722123011293,-11.95840956543562,11.037878562600557,1.6476021603797246,-1.4105907311024632,0.13921151910270893,12.687589486204491,-3.3869573671728501,16.063362389975318,-16.063362389975318,3.3869573671728501,24.91582910907217,0.0
704640.0783812654,4045767.5119837918,-2500.0,15.632738358592235,-15.196351175220435,16.500736213205169,2.0175860428797008,-2.0975246608637077,0.20245135968757683,15.80382368531154,-2.4475379608399574,20.391524649580454,-20.391524649580454,2.4475379608399574,31.151864947499107,0.0
709640.0783812654,4045767.5119837918,-2500.0,14.5901861972205,-18.136087340876827,24.121426775258698,2.3263766117324387,-3.0449129191169075,0.28951762238782508,19.29359262009655,0.11063895056335404,24.650329657849888,-24.650329657849888,-0.11063895056335404,38.242127841410316,0.0
714640.0783812654,4045767.5119837918,-2500.0,10.966415430201195,-19.322608070512342,33.63272800241446,2.4035247855324795,-4.221334619265404,0.39931774510946133,22.67951517508644,5.1763478711722755,27.279310048226463,-27.279310048226463,-5.1763478711722755,45.341170675736464,0.0
719640.0783812654,4045767.5119837918,-2500.0,4.5066655337097377,-16.499649872502324,43.01092730387991,2.0024936097863395,-5.4027144450944817,0.51622524578791762,25.692043882094097,13.085651270425664,25.678755326464724,-25.678755326464724,-13.085651270425664,50.680015740176451,0.0
724640.0783812654,4045767.5119837918,-2500.0,-3.1895972230185872,-7.7568630465883883,47.355784894852746,0.93297499416619389,-6.0588734097341286,0.60057899307225138,26.822268773865471,22.128430776219759,17.209470746933469,-17.209470746933469,-22.128430776219759,51.680490758405362,0.0
729640.0783812654,4045767.5119837918,-2500.0,-8.3060114423183347,5.621078177950813,39.881788514280906,-0.64254716399606171,-5.4587736894665451,0.59375705442838222,25.1122635608289,27.256359086366487,2.1221834711583778,-2.1221834711583778,-27.256359086366487,46.45247539983049,0.0
734640.0783812654,4045767.5119837918,-2500.0,-7.5786967997493333,17.024045918832464,17.495242468448009,-2.0041888168518245,-3.230748430555364,0.45605900558192364,21.419454629455259,22.161047030927001,-13.618351218526847,13.618351218526847,-22.161047030927001,37.478189593733305,0.0
739640.0783812654,4045767.5119837918,-2500.0,-2.8274976307940336,18.438143967656043,-12.670859006110863,-2.2791235937651386,-0.026871926144003334,0.21830750121145479,19.264680346374703,5.9101449799190098,-21.183810190418281,21.183810190418281,-5.9101449799190098,34.229088374430923,0.0
744640.0783812654,4045767.5119837918,-2500.0,-0.11401633293265537,8.9391232997566483,-36.380524750544154,-1.305956668612775,2.7230282326664068,-0.021711534090360727,20.436598546823774,-13.505838740782103,-17.371695314591499,17.371695314591499,13.505838740782103,39.82085783327765,0.0
749640.0783812654,4045767.5119837918,-2500.0,-2.7470022597393853,-4.0380282813924033,-44.800422708370199,0.18040554579176676,4.00843316752088,-0.17602813806497772,22.86612181166581,-26.101926511161693,-7.5886971751353283,7.5886971751353283,26.101926511161693,44.502085345826664,0.0
754640.0783812654,4045767.5119837918,-2500.0,-8.4035460067686412,-12.931493145984559,-40.255395378781373,1.3363847899585402,3.9028652415545779,-0.22636761399983674,22.687403209154699,-28.630951673371399,0.93233628351672593,-0.93233628351672593,28.630951673371399,43.526890521776778,0.0
759640.0783812654,4045767.5119837918,-2500.0,-13.21220838921724,-15.723632845569773,-30.187341833597916,1.8461788842499325,3.0848006754754906,-0.20770731880257526,20.005786849234788,-24.365904659271528,5.1826872193199147,-5.1826872193199147,24.365904659271528,38.190265110625546,0.0
764640.0783812654,4045767.5119837918,-2500.0,-15.373669750852953,-14.347346169481796,-20.249821397257424,1.844466450534135,2.1508568955766671,-0.16231182830482563,16.348689231182941,-17.853667872242607,5.9299375598057091,-5.9299375598057091,17.853667872242607,31.160213488400565,0.0
769640.0783812654,4045767.5119837918,-2500.0,-15.155483008137148,-11.306420124498651,-12.678415900912904,1.5852398785025841,1.3850142376044934,-0.11618100245083102,12.762325933564517,-11.873711729183633,4.9449457234958816,-4.9449457234958816,11.873711729183633,24.32821949476217,0.0
774640.0783812654,4045767.5119837918,-2500.0,-13.55164987536004,-8.1708283130063002,-7.6040296325782597,1.2561840130914836,0.84553434917872283,-0.079262619877724025,9.7157626969457365,-7.3682749296034862,3.5032211748631203,-3.5032211748631203,7.3682749296034862,18.544995215630745,0.0
779640.0783812654,4045767.5119837918,-2500.0,-11.429136998307719,-5.5819578978834157,-4.4319894699252744,0.95166828914324741,0.49564650281251804,-0.05277772837815576,7.3121370045786653,-4.3086892230863052,2.2036310535768475,-2.2036310535768475,4.3086892230863052,13.989579533032613,0.0
784640.0783812654,4045767.5119837918,-2500.0,-9.3091117655214557,-3.6581972798570708,-2.5239132387648211,0.70386669689734171,0.27936391972400104,-0.034799143172416301,5.4882404253265289,-2.3545359298744959,1.2227485065127564,-1.2227485065127564,2.3545359298744959,10.535244701368603,0.0
789640.0783812654,4045767.5119837918,-2500.0,-7.4313738439949573,-2.3088754222716812,-1.4003314633695201,0.51468545295023227,0.14961091713958782,-0.022921189717623251,4.1307245828958301,-1.155916439002284,0.55023047243782819,-0.55023047243782819,1.155916439002284,7.9644536389820182,0.0
794640.0783812654,4045767.5119837918,-2500.0,-5.8684806977705497,-1.3943822244345463,-0.74695112723598556,0.37495244425574248,0.073428882742241797,-0.015160463750474373,3.1280903426864475,-0.44389849643248513,0.11841297174669077,-0.11841297174669077,0.44389849643248513,6.065007750348399,0.0
799640.0783812654,4045767.5119837918,-2500.0,-4.6113513699597659,-0.78828944326369477,-0.3705865456048939,0.27341152110227251,0.029594579948625362,-0.010098494160288298,2.3881198935916848,-0.034726530831815955,-0.14325772858545208,0.14325772858545208,0.034726530831815955,4.6619601902065604,0.0
804640.0783812654,4045767.5119837918,-2500.0,-3.6189454353634511,-0.39336975126115886,-0.15616609075147814,0.20010680884253548,0.0050091817357263875,-0.0067841243677750802,1.8402491395664562,0.19002799109194402,-0.29127960491790106,0.29127960491790106,-0.19002799109194402,3.6214438160994855,0.0
809640.0783812654,4045767.5119837918,-2500.0,-2.8430280204730458,-0.1402149369349239,-0.036118120037393404,0.14722571234593923,-0.0082367021545167625,-0.0045987264168882176,1.433389690463553,0.30434092253667194,-0.36624339124075206,0.36624339124075206,-0.30434092253667194,2.8447177726235799,0.0
814640.0783812654,4045767.5119837918,-2500.0,-2.2388107828969588,0.018869481366139116,0.029041004618600454,0.10897184110400845,-0.014866555872424999,-0.0031450728207724531,1.1396895164967422,0.35362110549202241,-0.39570975622026361,0.39570975622026361,-0.35362110549202241,2.2602102164083875,0.0
819640.0783812654,4045767.5119837918,-2500.0,-1.7685444076742549,0.11600060063878752,0.062380841920266418,0.081164165791652795,-0.017685738208057949,-0.0021688788215937392,0.92579548338796958,0.3654501172331393,-0.39777566948766668,0.39777566948766668,-0.3654501172331393,1.8164079558209385,0.0
824640.0783812654,4045767.5119837918,-2500.0,-1.4019180567621903,0.17257983535903157,0.077408311223735371,0.06082725528907873,-0.018354911480372032,-0.0015069068280308064,0.76155574253565073,0.35645152546772801,-0.38405861011068115,0.38405861011068115,-0.35645152546772801,1.4762637717431353,0.0
829640.0783812654,4045767.5119837918,-2500.0,-1.1152199025384137,0.20279505699641309,0.082049520887904834,0.045854532883660877,-0.017853679825924541,-0.0010537004948790677,0.63350662508985012,0.33656415975097098,-0.36188247503487359,0.36188247503487359,-0.33656415975097098,1.2130560388376133,0.0
649640.0783812654,4050767.5119837918,-2500.0,2.9058038704345619,-0.81638437005400555,0.43714127437066214,0.13948185476552186,-0.039535361317626312,0.0047987477162571993,1.5799567697443979,-0.68212923851648721,1.3520479524697628,-1.3520479524697628,0.68212923851648721,3.067739870754008,0.0
654640.0783812654,4050767.5119837918,-2500.0,3.3730545923062372,-1.0497261559191675,0.57613504030296625,0.17119007473063894,-0.054605114090995388,0.0062567323056523169,1.8671480591759961,-0.81728097721554505,1.6792808627254558,-1.6792808627254558,0.81728097721554505,3.6254740843068105,0.0
659640.0783812654,4050767.5119837918,-2500.0,3.9235987028074266,-1.3542070049021666,0.76863414980145706,0.21130803419532154,-0.075766246537258844,0.0082391318708828609,2.2198373435070926,-0.97910399028143369,2.0987322103250352,-2.0987322103250352,0.97910399028143369,4.3108961836883637,0.0
664640.0783812654,4050767.5119837918,-2500.0,4.5687442345141873,-1.7523533486939702,1.0380422851018214,0.26219337952537025,-0.10568395210963581,0.010959934589521561,2.6550205475869242,-1.1703824301721477,2.638544998262339,-2.638544998262339,1.1703824301721477,5.1574263195432293,0.0
669640.0783812654,4050767.5119837918,-2500.0,5.3171940719855666,-2.2730881257038518,1.4187918200983771,0.32676103488880331,-0.14825066655000405,0.01472731316857436,3.194045752474878,-1.3914838131083238,3.3348942583834251,-3.3348942583834251,1.3914838131083238,6.2072205919041634,0.0
674640.0783812654,4050767.5119837918,-2500.0,6.1707307040052317,-2.9522760482212895,1.9615083365665162,0.40845536780285802,-0.20913717229268664,0.019984653618550036,3.8632430311571242,-1.6372773651836696,4.2329698515993233,-4.2329698515993233,1.6372773651836696,7.5125825180718495,0.0
679640.0783812654,4050767.5119837918,-2500.0,7.1165676776442011,-3.8315941198975483,2.7400991895394964,0.51100503276672626,-0.29653166973999739,0.027365415701805344,4.6940252872232637,-1.8914993943252554,5.386304760172254,-5.386304760172254,1.8914993943252554,9.1364712474689416,0.0
684640.0783812654,4050767.5119837918,-2500.0,8.1146315707983625,-4.953354465206588,3.8605708097240887,0.63770830309264459,-0.42202911137821314,0.037759470487272309,5.7216209863332974,-2.1169557494040627,6.85192245603535,-6.85192245603535,2.1169557494040627,11.150555768011953,0.0
689640.0783812654,4050767.5119837918,-2500.0,9.0780808757579869,-6.3467643497869739,5.4696139662258298,0.7897984665877632,-0.60144111369243825,0.052375241925252239,6.9808101606037036,-2.2395830454918597,8.6763909739629987,-8.6763909739629987,2.2395830454918597,13.627774130036707,0.0
694640.0783812654,4050767.5119837918,-2500.0,9.8472161778858602,-7.9980188879976604,7.7564436839645472,0.96318312695759556,-0.85482765481569467,0.07275053115979932,8.4957654483732963,-2.1251899272124462,10.864252358924411,-10.864252358924411,2.1251899272124462,16.623946551532061,0.0
699640.0783812654,4050767.5119837918,-2500.0,10.163510535606212,-9.7940020056823691,10.931429819100218,1.1427126028258026,-1.2040732749874379,0.10059855755017941,10.259454429649233,-1.5523577301825879,13.31661541565509,-13.31661541565509,1.5523577301825879,20.139850574287692,0.0
704640.0783812654,4050767.5119837918,-2500.0,9.6664874607778497,-11.43316434317177,15.147390768848865,1.2937207580900727,-1.664683267397461,0.13726385803619284,12.197089396263882,-0.19908011398458569,15.729666279478234,-15.729666279478234,0.19908011398458569,24.053306399474675,0.0
709640.0783812654,4050767.5119837918,-2500.0,7.9638855706379745,-12.322896867278441,20.309366579141354,1.3533261561049903,-2.2267920466496518,0.18244640723784838,14.111405803651902,2.3086335277804952,17.466446861453456,-17.466446861453456,-2.3086335277804952,28.01711889741339,0.0
714640.0783812654,4050767.5119837918,-2500.0,4.847547315480492,-11.555091824969089,25.730020649658321,1.2308530859345022,-2.8219375592724543,0.23193609007965571,15.727855034461934,6.1960056407256374,17.488412095849977,-17.488412095849977,-6.1960056407256374,31.349041003597268,0.0
719640.0783812654,4050767.5119837918,-2500.0,0.67269179022894721,-8.1674735302969292,29.720204495614414,0.83657267066760588,-3.2849819190324503,0.27489844456356982,16.842788102756035,11.102958855855567,14.56284590172964,-14.56284590172964,-11.102958855855567,33.01616108676258,0.0
724640.0783812654,4050767.5119837918,-2500.0,-3.3286077056550543,-1.9105722319307246,29.550762881437134,0.15653343428149341,-3.3518648934622868,0.29324493842301108,16.739774316459666,15.540543088542551,8.0156850925322463,-8.0156850925322463,-15.540543088542551,31.934557350662757,0.0
729640.0783812654,4050767.5119837918,-2500.0,-5.3878526024209732,5.7147008661347316,22.55227115477869,-0.65249335221571048,-2.7614402415738422,0.2675324421734161,15.263890339936655,16.879589270787079,-1.1012053460412599,1.1012053460412599,-16.879589270787079,27.870218062392016,0.0
734640.0783812654,4050767.5119837918,-2500.0,-4.562475601278936,11.343453138495201,8.4940759653737903,-1.2578079258116486,-1.4721944051839746,0.19074594736734801,13.213470360505561,12.745365201856849,-9.5606911122387181,9.5606911122387181,-12.745365201856849,22.984257012049159,0.0
739640.0783812654,4050767.5119837918,-2500.0,-2.0498783973063808,11.765888100417644,-8.7126258185196317,-1.3402802755705481,0.17752061328933846,0.080263477926785412,12.32130532231826,3.3815893994859056,-13.641947881899958,13.641947881899958,-3.3815893994859056,21.998051450614003,0.0
744640.0783812654,4050767.5119837918,-2500.0,-0.46916439387588171,6.764790751684302,-22.796137231955733,-0.85982723146608298,1.6129272695998773,-0.027924727654738673,13.171594805769264,-7.6165579232534508,-12.073929560221123,12.073929560221123,7.6165579232534508,25.609561653323826,0.0
749640.0783812654,4050767.5119837918,-2500.0,-1.4315306886396937,-0.59851552643964578,-29.501787267732105,-0.096067706018151219,2.4080698281986619,-0.10214538829838563,14.908700352054371,-15.801677854296226,-6.9529330389010511,6.9529330389010511,15.801677854296226,29.077852509718234,0.0
754640.0783812654,4050767.5119837918,-2500.0,-4.3340522505450307,-6.7168004991063697,-28.948161317248875,0.59258963252876318,2.5203966497652592,-0.13272263161667602,15.482907584017047,-19.029930701518996,-1.5694092745511163,1.5694092745511163,19.029930701518996,29.704788052577069,0.0
759640.0783812654,4050767.5119837918,-2500.0,-7.4726986120878403,-9.8662043224273788,-24.093639623341911,1.0065194916658264,2.1862058607741215,-0.12963960613831507,14.478144568491823,-18.026299037802097,2.0391201647984811,-2.0391201647984811,18.026299037802097,27.597616601773819,0.0
764640.0783812654,4050767.5119837918,-2500.0,-9.5872942428661361,-10.30816067306627,-18.017397611541661,1.1392608445040071,1.6846483010869491,-0.10923022308225187,12.580356001452445,-14.781399470713533,3.5834214972575342,-3.5834214972575342,14.781399470713533,23.916182694718529,0.0
769640.0783812654,4050767.5119837918,-2500.0,-10.348299513461654,-9.1332523484013457,-12.557253094431063,1.0817964620780409,1.2002005615976978,-0.08432142793755143,10.410311883333316,-11.020396812459541,3.6928231471376778,-3.6928231471376778,11.020396812459541,19.773279027743847,0.0
774640.0783812654,4050767.5119837918,-2500.0,-10.029584134840848,-7.3428359559949516,-8.3587772078967664,0.93237575749788149,0.81065572338869774,-0.061736458281577214,8.3532567578927885,-7.6897872702271464,3.1008853176670588,-3.1008853176670588,7.6897872702271464,15.869039527978636,0.0
779640.0783812654,4050767.5119837918,-2500.0,-9.0733191204197574,-5.5467822215224203,-5.400184816171409,0.75879037332840793,0.52722426444841741,-0.043818761421975973,6.5831727821838735,-5.1058175734983617,2.3087996326868847,-2.3087996326868847,5.1058175734983617,12.518737501735478,0.0
784640.0783812654,4050767.5119837918,-2500.0,-7.8515836667486951,-4.0151161142640657,-3.4194312704814442,0.59668993646745339,0.33292547552496055,-0.030584783656375764,5.1412133462256735,-3.2490105913570342,1.570108284779995,-1.570108284779995,3.2490105913570342,9.7934797923333576,0.0
789640.0783812654,4050767.5119837918,-2500.0,-6.6038914350378617,-2.8152252486896643,-2.1327285288047197,0.45994951539214524,0.20456624050732616,-0.02119117141120087,4.0029164210721122,-1.9773440546190779,0.97647243592456889,-0.97647243592456889,1.9773440546190779,7.6437947098427959,0.0
794640.0783812654,4050767.5119837918,-2500.0,-5.4563991506832599,-1.9207483848138751,-1.3113620955000114,0.350761426308007,0.12177662282136108,-0.014664318496077196,3.1197905855610668,-1.1342054428339234,0.53761897049689444,-0.53761897049689444,1.1342054428339234,5.9765399767954168,0.0
799640.0783812654,4050767.5119837918,-2500.0,-4.4603414436552624,-1.2741908305074319,-0.79227492663687904,0.266229361966561,0.069272798429417304,-0.010174510700152836,2.4404190297058688,-0.58868321039733185,0.23085206536995576,-0.23085206536995576,0.58868321039733185,4.6939223024563566,0.0
804640.0783812654,4050767.5119837918,-2500.0,-3.624660625675276,-0.81620525280436562,-0.46622314827964656,0.20189844747522731,0.036439442022025897,-0.0070949364966778877,1.9192460024769009,-0.24337206144649626,0.025807995026291733,-0.025807995026291733,0.24337206144649626,3.7096494789530894,0.0
809640.0783812654,4050767.5119837918,-2500.0,-2.9376723187897018,-0.49644209800797917,-0.26240455288013936,0.1533659459122918,0.016206714249859352,-0.0049792020177374316,1.5190832035557054,-0.030047204761548332,-0.10532388993831639,0.10532388993831639,0.030047204761548332,2.9534255969555514,0.0
814640.0783812654,4050767.5119837918,-2500.0,-2.3796342647803335,-0.27579644490521488,-0.135717974574423,0.11687559968832119,0.0039752528038931251,-0.0035191645587619464,1.2108614686031784,0.097477698077721844,-0.18473045652036962,0.18473045652036962,-0.097477698077721844,2.370337121284678,0.0
819640.0783812654,4050767.5119837918,-2500.0,-1.9293068474870159,-0.12528667835192758,-0.057662949049847721,0.089438055582698947,-0.0032085690856043553,-0.0025053827811581763,0.9724581572712,0.16985444796808258,-0.22892268701409024,0.22892268701409024,-0.16985444796808258,1.918449165199994,0.0
824640.0783812654,4050767.5119837918,-2500.0,-1.566993140233369,-0.023995358034770611,-0.010274367589065808,0.068760788125366887,-0.0072284860895760221,-0.0017964228731025909,0.78799441366150536,0.2071852471718087,-0.24970195288676522,0.24970195288676522,-0.2071852471718087,1.5661134093508458,0.0
654640.0783812654,4055767.5119837918,-2500.0,3.1036726410682713,-1.1862280712052211,0.727872433448018,0.15771073269777197,-0.063552859537359771,0.0058064363597078953,1.8024070587233356,-0.78786288639953428,1.7992845051006277,-1.7992845051006277,0.78786288639953428,3.4913373527508931,0.0
659640.0783812654,4055767.5119837918,-2500.0,3.5486130784621293,-1.490444640110907,0.95451236549486507,0.19145163949397553,-0.085623206794141885,0.0075304651976926748,2.1203144524711348,-0.91810871479216627,2.210012580123732,-2.210012580123732,0.91810871479216627,4.1083975608942263,0.0
664640.0783812654,4055767.5119837918,-2500.0,4.0499585889401661,-1.8748939940440541,1.2630698296279559,0.232997348363572,-0.11587094791344653,0.0098418952952074763,2.5048928550805041,-1.0621080102375866,2.7239469974049531,-2.7239469974049531,1.0621080102375866,4.8557965406998385,0.0
669640.0783812654,4055767.5119837918,-2500.0,4.6038795285431391,-2.3583909452692056,1.6854758027380903,0.28388700709219222,-0.15745471658681431,0.01295651999309036,2.9703115255970332,-1.2138334329278231,3.3654392614070114,-3.3654392614070114,1.2138334329278231,5.7617412800374286,0.0
674640.0783812654,4055767.5119837918,-2500.0,5.1971363895634193,-2.9608463364902073,2.2657707390557316,0.34559848940066684,-0.2146955169956393,0.017167261379243126,3.5325316431091891,-1.3601017806330167,4.1611602027803336,-4.1611602027803336,1.3601017806330167,6.8583548829491709,0.0
679640.0783812654,4055767.5119837918,-2500.0,5.800900844750517,-3.6996272180921386,3.06337141810925,0.41913952813022282,-0.29336756437158584,0.022863412365740479,4.2082089324408303,-1.4756853540383272,5.1364799454117902,-5.1364799454117902,1.4756853540383272,8.179803696087248,0.0
684640.0783812654,4055767.5119837918,-2500.0,6.3622337517097716,-4.5818800096506509,4.1552943189829623,0.5042593096338045,-0.400874317583017,0.030543189107244403,5.0121284039494061,-1.5161399870548915,6.3074739779491651,-6.3074739779491651,1.5161399870548915,9.7577167277955716,0.0
689640.0783812654,4055767.5119837918,-2500.0,6.793908536577197,-5.5901625005894129,5.6342672770152191,0.59806525589479598,-0.54602121368382506,0.040802289652647254,5.952086659179443,-1.4084338547058333,7.6654790858742405,-7.6654790858742405,1.4084338547058333,11.611857956256719,0.0
694640.0783812654,4055767.5119837918,-2500.0,6.9657952850201763,-6.6584169120597627,7.5962751565716564,0.6928382370664572,-0.73779941145089589,0.054262835311393504,7.0197154384280749,-1.0414250164996073,9.1504364862498857,-9.1504364862498857,1.0414250164996073,13.733209146815311,0.0
699640.0783812654,4055767.5119837918,-2500.0,6.7061166125432843,-7.6373667769908824,10.105933437453128,0.77307822989051511,-0.98216343840002751,0.071381300060104944,8.175661111128294,-0.26296798612004491,10.610755333113858,-10.610755333113858,0.26296798612004491,16.056473791604702,0.0
704640.0783812654,4055767.5119837918,-2500.0,5.8285941649056729,-8.2567520999601172,13.123182182256411,0.81260529093929679,-1.2754178178061402,0.092050717907401408,9.3287694982708587,1.1006998254174771,11.755219777558292,-11.755219777558292,-1.1006998254174771,18.421389355278514,0.0
709640.0783812654,4055767.5119837918,-2500.0,4.2072121414635175,-8.1118050691581232,16.378601641469736,0.77427380876165086,-1.5932655348780107,0.11493414440595918,10.313697569413208,3.1764251265871772,12.122798300020165,-12.122798300020165,-3.1764251265871772,20.530862145494705,0.0
714640.0783812654,4055767.5119837918,-2500.0,1.9085500489866427,-6.7325577071472065,19.216894908215711,0.61732400185114611,-1.8774337259685669,0.13662739216460151,11.055994840173003,5.8989352655537184,11.130908549464614,-11.130908549464614,-5.8989352655537184,21.933697792942187,0.0
719640.0783812654,4055767.5119837918,-2500.0,-0.66378139464697994,-3.8100157584505774,20.512037017332673,0.31814383028096599,-2.0288158008141703,0.15115015727586106,11.352359921481629,8.8041011180621087,8.2881959185648579,-8.2881959185648579,-8.8041011180621087,22.091245860743285,0.0
724640.0783812654,4055767.5119837918,-2500.0,-2.7592455270562781,0.42135295803237482,18.869321171674567,-0.096771731887334608,-1.9249411593181189,0.1507931437644961,10.921191437621058,10.895696064180095,3.5993894051779201,-3.5993894051779201,-10.895696064180095,20.615532049159061,0.0
729640.0783812654,4055767.5119837918,-2500.0,-3.5934058027074385,4.875256279591496,13.307276569451627,-0.52603732613265008,-1.477123227068075,0.1292844292188437,9.8408305425632392,10.858300908358366,-2.0351453125710988,2.0351453125710988,-10.858300908358366,17.755440808161808,0.0
734640.0783812654,4055767.5119837918,-2500.0,-2.9434220668130666,7.8358978977738012,4.2129263483238288,-0.8144445837320563,-0.71014387394058487,0.086513309913721345,8.6779347498062016,7.7870516809049111,-6.8914867570225784,6.8914867570225784,-7.7870516809049111,15.047169776830858,0.0
739640.0783812654,4055767.5119837918,-2500.0,-1.5213401089671663,7.9119434232004808,-6.2562286437657111,-0.835138186847593,0.20194393575683306,0.031223859849690921,8.3108760070425074,2.0522233132728318,-9.2705070387076614,9.2705070387076614,-2.0522233132728318,14.906109461508175,0.0
744640.0783812654,4055767.5119837918,-2500.0,-0.56670286387859692,5.0708459110860939,-15.07586274223492,-0.57886271282397905,1.0052360506285476,-0.02206591385441966,8.9195947455372959,-4.5860304870741739,-8.6106455854525183,8.6106455854525183,4.5860304870741739,17.317382995183682,0.0
749640.0783812654,4055767.5119837918,-2500.0,-0.90682196857116804,0.70069439486955365,-20.062658935161043,-0.16327945178789646,1.5044585920230844,-0.060652409608402583,10.133082821358396,-9.9748656930662953,-5.8070927564848063,5.8070927564848063,9.9748656930662953,19.804400125707872,0.0
754640.0783812654,4055767.5119837918,-2500.0,-2.428200747056934,-3.4020699964090007,-20.896836017465247,0.2496631754340648,1.6533705005353749,-0.079542106988742728,10.842179520923894,-12.8230450020953,-2.4340296182508823,2.4340296182508823,12.8230450020953,20.81089483607262,0.0
759640.0783812654,4055767.5119837918,-2500.0,-4.3843197941912075,-6.090619927405581,-18.747174446861596,0.54668904379987138,1.5341759420020156,-0.081468590494953599,10.57653157675273,-13.128111480675283,0.27948238772067047,-0.27948238772067047,13.128111480675283,20.145768691734215,0.0
764640.0783812654,4055767.5119837918,-2500.0,-6.0316549873105423,-7.1572313985455471,-15.206113536274092,0.69555655237822023,1.2748357460985653,-0.072846870086829052,9.6336563454600395,-11.706912234623305,1.8740097265975368,-1.8740097265975368,11.706912234623305,18.285289745734893,0.0
769640.0783812654,4055767.5119837918,-2500.0,-6.9924603545697002,-6.9914982331062809,-11.504616876886493,0.7215620125233182,0.98177863168703161,-0.059827211366348179,8.356905685793933,-9.512538101623452,2.4738281506356774,-2.4738281506356774,9.512538101623452,15.83663001788287,0.0
774640.0783812654,4055767.5119837918,-2500.0,-7.2471078393037773,-6.1349157232503213,-8.2974433421692542,0.66999343945145662,0.71675529975722696,-0.046503068780581566,7.0105759106236256,-7.2390619837770736,2.4261789341076607,-2.4261789341076607,7.2390619837770736,13.278344228950775,0.0
779640.0783812654,4055767.5119837918,-2500.0,-6.9664563051873829,-5.0241718083003999,-5.7929480458669262,0.58150337155401732,0.50367842566906729,-0.034892600245602083,5.7532617598189164,-5.2507001801135154,2.0583030040336334,-2.0583030040336334,5.2507001801135154,10.899168373477192,0.0
784640.0783812654,4055767.5119837918,-2500.0,-6.3627095683758181,-3.9258124154582559,-3.9567419060059072,0.4835953806082085,0.34409536420275155,-0.025617197721488162,4.658060518003281,-3.6690455418577375,1.591521898958232,-1.591521898958232,3.6690455418577375,8.8313865552846504,0.0
789640.0783812654,4055767.5119837918,-2500.0,-5.6123786266346869,-2.966517953153661,-2.6623970428665551,0.39141145127758598,0.22984925104445608,-0.018576021926230531,3.7435695678682861,-2.4829543102219085,1.1453646257936536,-1.1453646257936536,2.4829543102219085,7.1070522274871335,0.0
794640.0783812654,4055767.5119837918,-2500.0,-4.8352973762020124,-2.1852721488454518,-1.7720263299389214,0.31151158267231227,0.15043909268523289,-0.013391126867619256,2.9995062944190867,-1.6273713027982797,0.7699371866494984,-0.7699371866494984,1.6273713027982797,5.7051608945464878,0.0
799640.0783812654,4055767.5119837918,-2500.0,-4.1010121245254361,-1.5758505410042525,-1.1685848802390324,0.24548267643359989,0.096327878661545963,-0.0096395957403200266,2.4033979006204742,-1.0265862401477952,0.47653297018917939,-0.47653297018917939,1.0265862401477952,4.5825040795460001,0.0
804640.0783812654,4055767.5119837918,-2500.0,-3.4431493106295008,-1.113532119607251,-0.76318097175241861,0.19245616825085476,0.059970538796956095,-0.0069499417969899717,1.9298905192468649,-0.61308924023385547,0.25832895838750258,-0.25832895838750258,0.61308924023385547,3.6908752019085171,0.0
809640.0783812654,4055767.5119837918,-2500.0,-2.872862288609991,-0.76932735380796435,-0.49220056120158528,0.15059637973035048,0.035809981413899378,-0.0050285115706585667,1.5552321728323903,-0.33321117243967469,0.10209611346023112,-0.10209611346023112,0.33321117243967469,2.9853236549041009,0.0
814640.0783812654,4055767.5119837918,-2500.0,-2.3887231410615404,-0.51643250874335866,-0.31163235408438988,0.11787623575415154,0.01991755009628865,-0.0036557168958876642,1.2590065604243177,-0.14683117603770174,-0.0060547287582338183,0.0060547287582338183,0.14683117603770174,2.4273098973227207,0.0
819640.0783812654,4055767.5119837918,-2500.0,-1.9831317312104624,-0.33248937924847627,-0.19160778702982323,0.092429255093656446,0.0095825367336322045,-0.0026723314249917068,1.0244662787468164,-0.025017782186462487,-0.078305253069011066,0.078305253069011066,0.025017782186462487,1.9852681380960262,0.0
824640.0783812654,4055767.5119837918,-2500.0,-1.6461149064398386,-0.19984629382083646,-0.11206624028781666,0.072674885073997789,0.0029614377624027403,-0.0019649200355711218,0.83824218566840802,0.052638282262423584,-0.12446251040960493,0.12446251040960493,-0.052638282262423584,1.6340181286885436,0.0
654640.0783812654,4060767.5119837918,-2500.0,2.7957637212570643,-1.261726362479634,0.86112152983552537,0.14224850888550417,-0.069145142977713445,0.0052838573849603885,1.7138261164274906,-0.72570252685128378,1.8526460115790637,-1.8526460115790637,0.72570252685128378,3.3139018556839832,0.0
659640.0783812654,4060767.5119837918,-2500.0,3.1396624584597501,-1.5481601479883462,1.109521322165921,0.16969994071836964,-0.090871223706524742,0.0067449584939126761,1.9938689790632018,-0.82069182745785274,2.2362684232740353,-2.2362684232740353,0.82069182745785274,3.8571941720064129,0.0
664640.0783812654,4060767.5119837918,-2500.0,3.5097412711510527,-1.8978165741197264,1.4385311912140879,0.20243106993320609,-0.11978070598233923,0.00865686093366436,2.3256582799437711,-0.91585939027241348,2.7023687561312117,-2.7023687561312117,0.91585939027241348,4.5019020908231333,0.0
669640.0783812654,4060767.5119837918,-2500.0,3.8951718427940065,-2.3202473498894092,1.8749707610815278,0.24101547769722939,-0.15823986195024678,0.011162225268033107,2.7175839767854568,-1.0013557389833874,3.2644712642035163,-3.2644712642035163,1.0013557389833874,5.2650062607830135,0.0
674640.0783812654,4060767.5119837918,-2500.0,4.2761233148569353,-2.8222575316975749,2.4532453896170776,0.28567944254825145,-0.20926259780018003,0.01444203296533577,3.1778058160692315,-1.0603162737228555,3.9338903960961993,-3.9338903960961993,1.0603162737228555,6.1634332970717898,0.0
679640.0783812654,4060767.5119837918,-2500.0,4.6198717967545129,-3.403641440411056,3.2156326659899483,0.33591378384026488,-0.27652253827931733,0.018716852637470315,3.712756756557579,-1.0655017743907633,4.7152034052335985,-4.7152034052335985,1.0655017743907633,7.2113539681951853,0.0
684640.0783812654,4060767.5119837918,-2500.0,4.8765990238856256,-4.0500092037908484,4.2102569860875683,0.38985411669212899,-0.36416426950172115,0.0242370934901368,4.3244851822070647,-0.97530519467998378,5.5984149602177826,-5.5984149602177826,0.97530519467998378,8.4153208181790191,0.0
689640.0783812654,4060767.5119837918,-2500.0,4.9763898023751052,-4.7218106262490194,5.4840799005061882,0.4433786861890211,-0.47619457739965737,0.031250484809963813,5.0062970445747821,-0.7301922031890058,6.5465849176003239,-6.5465849176003239,0.7301922031890058,9.7662313584352791,0.0
694640.0783812654,4060767.5119837918,-2500.0,4.8307089532639065,-5.3396325406240148,7.0665912386091732,0.48896852344095998,-0.6151095623159506,0.039927969508292221,5.7362021748042986,-0.25236206326371313,7.4784780306159337,-7.4784780306159337,0.25236206326371313,11.227188042478028,0.0
699640.0783812654,4060767.5119837918,-2500.0,4.3440425356842827,-5.768813086214525,8.9385745442904145,0.51463016158352348,-0.77932573528719784,0.050223858340187416,6.4681560216621277,0.54570721563800273,8.2486143032421779,-8.2486143032421779,-0.54570721563800273,12.717267090453856,0.0
704640.0783812654,4060767.5119837918,-2500.0,3.4430536505122076,-5.8127148731930474,10.981754676537813,0.50368316212294251,-0.95912471721903814,0.061653537506279513,7.1225604482691613,1.7347620395309846,8.633549810659451,-8.633549810659451,-1.7347620395309846,14.094007869638638,0.0
709640.0783812654,4060767.5119837918,-2500.0,2.1275731872778065,-5.2335024825952372,12.914363964087665,0.43691458533753025,-1.1315751344181946,0.073009249453780151,7.5842816195136438,3.3146151422741879,8.3437715503400014,-8.3437715503400014,-3.3146151422741879,15.143346862477191,0.0
714640.0783812654,4060767.5119837918,-2500.0,0.5333730575447938,-3.8260504763922603,14.240934116497957,0.29899407237239417,-1.2567012669508673,0.082129143065643492,7.9048674796217036,5.1326437878915501,7.0902095819859552,-7.0902095819859552,-5.1326437878915501,15.595139566486772,0.0
719640.0783812654,4060767.5119837918,-2500.0,-1.0323982766311552,-1.5577418903694267,14.280001852028398,0.089831214640996554,-1.2798056015244945,0.08597433080909149,7.8705524379061478,6.8059673878225713,4.7263825491384495,-4.7263825491384495,-6.8059673878225713,15.192530454031534,0.0
724640.0783812654,4060767.5119837918,-2500.0,-2.1493190373145832,1.2676571889690575,12.351133742547788,-0.1627826955130815,-1.1460302505080708,0.081342322086484203,7.4145914131903936,7.7255218308547811,1.4366058905884995,-1.4366058905884995,-7.7255218308547811,13.84680093309764,0.0
729640.0783812654,4060767.5119837918,-2500.0,-2.4768389704064799,3.9503424420408546,8.1381579544202047,-0.39933280550580524,-0.82825517805450666,0.066313477161498074,6.6620119024592643,7.2369855647363952,-2.1511800044690905,2.1511800044690905,-7.2369855647363952,11.895472453505203,0.0
734640.0783812654,4060767.5119837918,-2500.0,-2.0055601981822662,5.5929295974661262,2.0648587700284882,-0.54505493659453441,-0.35603356323198015,0.041854957048468616,5.9871072845146296,4.9981713708942994,-5.0982015650280648,5.0982015650280648,-4.9981713708942994,10.370173610108175,0.0
739640.0783812654,4060767.5119837918,-2500.0,-1.1546277406805696,5.5494557801929716,-4.6444072060054893,-0.54566723779901738,0.17874271024188193,0.012348474833864196,5.8488664890812716,1.3065261045670491,-6.5722338056322398,6.5722338056322398,-1.3065261045670491,10.535244054086823,0.0
744640.0783812654,4060767.5119837918,-2500.0,-0.55627142799082785,3.8332201904140524,-10.419737389864151,-0.39996193047058676,0.6547214335844489,-0.015853134133399029,6.2880857248095987,-2.9138282674471201,-6.3026731655311492,6.3026731655311492,2.9138282674471201,12.19659913044868,0.0
749640.0783812654,4060767.5119837918,-2500.0,-0.65807303839859888,1.1258329535379028,-14.074876282578634,-0.16180200502360301,0.9757807273439717,-0.037184747760892395,7.1394803935339173,-6.5453131096475206,-4.7035341351221645,4.7035341351221645,6.5453131096475206,13.980841564886736,0.0
754640.0783812654,4060767.5119837918,-2500.0,-1.4784539753625294,-1.6342922834632772,-15.278663321666222,0.091133337974531894,1.108707172505131,-0.049041800862140161,7.7905550383198641,-8.8181903756907918,-2.5677674757339024,2.5677674757339024,8.8181903756907918,14.964642623831857,0.0
759640.0783812654,4060767.5119837918,-2500.0,-2.6876246153375956,-3.7315664840328147,-14.4827377205409,0.29584295650311171,1.0811662459588587,-0.05204624880588412,7.8366900545898694,-9.5638805264343887,-0.61743507217279348,0.61743507217279348,9.5638805264343887,14.923170146277501,0.0
764640.0783812654,4060767.5119837918,-2500.0,-3.8709924571779122,-4.8895383928977862,-12.497312786236577,0.42357503010453856,0.95183561091235591,-0.048761724816425475,7.4014140876649499,-9.0918538157854876,0.75867063280191704,-0.75867063280191704,9.0918538157854876,14.034728870046381,0.0
769640.0783812654,4060767.5119837918,-2500.0,-4.7392363028428601,-5.1960920414333884,-10.082735125487753,0.47638098924161226,0.77928566349570183,-0.042117800158351364,6.6686487557175598,-7.8983399442366817,1.5019135623941704,-1.5019135623941704,7.8983399442366817,12.618072022724043,0.0
774640.0783812654,4060767.5119837918,-2500.0,-5.1878884595208614,-4.9103338683008486,-7.7514969390449346,0.47279873835376607,0.60528404068852348,-0.034425094636283356,5.8061029587237716,-6.4317552933989699,1.7435200845302385,-1.7435200845302385,6.4317552933989699,10.974770786484815,0.0
779640.0783812654,4060767.5119837918,-2500.0,-5.2512263607207066,-4.3035606588228967,-5.7583588866077449,0.43476116175385254,0.45234502975173912,-0.027098972683339009,4.934419377745348,-4.9932642008213222,1.666847632688665,-1.666847632688665,4.9932642008213222,9.324206035729917,0.0
784640.0783812654,4060767.5119837918,-2500.0,-5.0287307156148051,-3.5824029157165849,-4.1760035081351612,0.38041336034958528,0.32850976862182951,-0.0208026116347294,4.1253773105590685,-3.7381491788293149,1.4294006913027955,-1.4294006913027955,3.7381491788293149,7.7971034344611025,0.0
789640.0783812654,4060767.5119837918,-2500.0,-4.629532931652431,-2.8748178080241642,-2.9782545503068958,0.32203486729663139,0.23341336438543628,-0.015713861931128042,3.4128838866149445,-2.7184668866108623,1.1384257778813531,-1.1384257778813531,2.7184668866108623,6.4547381098567094,0.0
794640.0783812654,4060767.5119837918,-2500.0,-4.1443147903824071,-2.2454715408992376,-2.0994372103177477,0.26668159594615864,0.16292859515514047,-0.011756556996491899,2.8061918861132873,-1.9279540536857214,0.85518727995374999,-0.85518727995374999,1.9279540536857214,5.3130413056164345,0.0
799640.0783812654,4060767.5119837918,-2500.0,-3.6373032137349388,-1.7175961879830357,-1.4675522036295263,0.21768936843155248,0.11193376444801402,-0.0087528885653655533,2.30069492433595,-1.3344590043092948,0.60840907179463444,-0.60840907179463444,1.3344590043092948,4.3624889290476299,0.0
804640.0783812654,4060767.5119837918,-2500.0,-3.1485875260680967,-1.2912154561438687,-1.019036966838772,0.17610120919978606,0.075654981259375212,-0.006506620331979943,1.8852699873184691,-0.89894130879850997,0.40718044495497685,-0.40718044495497685,0.89894130879850997,3.5816694223949122,0.0
809640.0783812654,4060767.5119837918,-2500.0,-2.6999733540098072,-0.95541379479405264,-0.70319602463911846,0.14171606975821183,0.050155772080232516,-0.0048408503444037545,1.5466834356383294,-0.58476296532998595,0.25029042268673313,-0.25029042268673313,0.58476296532998595,2.9454240998511056,0.0
814640.0783812654,4060767.5119837918,-2500.0,-2.3009159233982088,-0.6955317742693643,-0.48182016245180864,0.11375802376054135,0.032398793244005679,-0.0036104247964125766,1.2719484737543256,-0.36121834234769318,0.13202097887746506,-0.13202097887746506,0.36121834234769318,2.4291908742767436,0.0
819640.0783812654,4060767.5119837918,-2500.0,-1.9532529725902597,-0.49689872366475119,-0.32706539189345146,0.091260980595743696,0.020131488394311919,-0.0027023585735652823,1.049412998917933,-0.20412001170783711,0.045350978423559479,-0.045350978423559479,0.20412001170783711,2.0109945590107241,0.0
659640.0783812654,4065767.5119837918,-2500.0,2.7275737961641648,-1.5410417579037734,1.2264183801976833,0.14769247686093462,-0.092206166592859296,0.0059416113767921481,1.8507907269709092,-0.70272765632573708,2.1929634875312947,-2.1929634875312947,0.70272765632573708,3.576385140213564,0.0
664640.0783812654,4065767.5119837918,-2500.0,2.9858619914844109,-1.8438101350407838,1.5584665197495138,0.172643821951146,-0.1186746712567128,0.0074884214785700077,2.1312194633748551,-0.75315179695217571,2.5988696690171569,-2.5988696690171569,0.75315179695217571,4.1215805404094787,0.0
669640.0783812654,4065767.5119837918,-2500.0,3.2350964872188412,-2.194609204222552,1.9854847207899831,0.20085056058798109,-0.15278621265277118,0.0094591778003759817,2.454334004567714,-0.78218769364419805,3.0711285329249942,-3.0711285329249942,0.78218769364419805,4.7513633500080266,0.0
674640.0783812654,4065767.5119837918,-2500.0,3.4546142191450513,-2.5910976317186831,2.5316258256770485,0.23185522924928201,-0.1964582015944569,0.011957673906682023,2.8229272915520629,-0.77272321868551908,3.6100534942086644,-3.6100534942086644,0.77272321868551908,5.4721731019042119,0.0
679640.0783812654,4065767.5119837918,-2500.0,3.6147827638049637,-3.0225727709463013,3.2231260066294825,0.26447861851822208,-0.25176058473448376,0.015096699576073116,3.2370532493052249,-0.70006021549301067,4.2072256779340131,-4.2072256779340131,0.70006021549301067,6.2856287567525584,0.0
684640.0783812654,4065767.5119837918,-2500.0,3.6759329338141327,-3.4646491272814295,4.0843358102945979,0.29642065291367253,-0.32060387347601599,0.01898280747273267,3.6918375786321445,-0.53052442304347203,4.8394058628840888,-4.8394058628840888,0.53052442304347203,7.1844918368531836,0.0
689640.0783812654,4065767.5119837918,-2500.0,3.5894288807162167,-3.8725253076581301,5.1295703639674786,0.32378263105206723,-0.40411233608351577,0.023685322797529197,4.1743638781764263,-0.22168678185372981,5.4604592744184348,-5.4604592744184348,0.22168678185372981,8.1469070925015608,0.0
694640.0783812654,4065767.5119837918,-2500.0,3.3030868606650183,-4.1741682971549166,6.3486744767951615,0.34062906751040589,-0.5015333539093868,0.029182329001713362,4.6596725224533699,0.27356214359574471,5.9923675058483283,-5.9923675058483283,-0.27356214359574471,9.1290061029153815,0.0
699640.0783812654,4065767.5119837918,-2500.0,2.7736904217860761,-4.2669551298537405,7.6847839012207055,0.33887039416592596,-0.60858507533700079,0.035278190338324793,5.106435865357617,0.99569421148855453,6.3186813944653721,-6.3186813944653721,-0.99569421148855453,10.056971921080713,0.0
704640.0783812654,4065767.5119837918,-2500.0,1.9884460850734393,-4.024533237998499,9.005771192195251,0.30896928371785687,-0.71537131880994387,0.041498071973210336,5.4540103280171648,1.9562799061894394,6.2873463255070563,-6.2873463255070563,-1.9562799061894394,10.821648819693852,0.0
709640.0783812654,4065767.5119837918,-2500.0,0.99299260806622569,-3.3233777841896237,10.078136115545631,0.24213177516417198,-0.80451810110067934,0.046989535561237791,5.6624025340518296,3.1037723665765657,5.7334541271301909,-5.7334541271301909,-3.1037723665765657,11.281909379217337,0.0
714640.0783812654,4065767.5119837918,-2500.0,-0.085401355898342163,-2.0963923100535249,10.563814451675407,0.13442550436013556,-0.85100426913605176,0.050500927343335,5.7569642555015408,4.2850398455895613,4.53193643645315,-4.53193643645315,-4.2850398455895613,11.286648377785664,0.0
719640.0783812654,4065767.5119837918,-2500.0,-1.0418244365954692,-0.40723449664484046,10.070545548915998,-0.0077745233023060112,-0.8258336907202154,0.050540388397591576,5.6054640022752302,5.2257361985137436,2.6782868866287797,-2.6782868866287797,-5.2257361985137436,10.727673116799052,0.0
724640.0783812654,4065767.5119837918,-2500.0,-1.6489068927262409,1.4885427778942568,8.2788472282705552,-0.16357396562040427,-0.70511055864166705,0.045797371695849021,5.2137781831056751,5.5661231469676151,0.36770319018567044,-0.36770319018567044,-5.5661231469676151,9.6346669904623958,0.0
729640.0783812654,4065767.5119837918,-2500.0,-1.7626692494034975,3.1553402381991553,5.1246472171008124,-0.29885499828577888,-0.48300501998364342,0.035770187502972534,4.6969415466579632,4.9787841617621815,-1.9878593789710532,1.9878593789710532,-4.9787841617621815,8.3138096865739399,0.0
734640.0783812654,4065767.5119837918,-2500.0,-1.4275562670364623,4.1082197446806372,0.9449419934498946,-0.3761899507109937,-0.18219123718974573,0.021312143174486133,4.2971752140645094,3.3414505452162837,-3.861830933579002,3.861830933579002,-3.3414505452162837,7.4462793308298876,0.0
739640.0783812654,4065767.5119837918,-2500.0,-0.89430674797321019,4.0290409451600286,-3.5414941903332249,-0.3708202346013339,0.14706782723582465,0.0046756389132641615,4.2609329943557697,0.86516078588778456,-4.8211309655688268,4.8211309655688268,-0.86516078588778456,7.7053532146365873,0.0
744640.0783812654,4065767.5119837918,-2500.0,-0.50608859639332182,2.9388195882430712,-7.4685405466027293,-0.28346867338423498,0.44280887826050908,-0.011156567473345477,4.5825750382933217,-1.9357470730860102,-4.7257182709681089,4.7257182709681089,1.9357470730860102,8.8829004065842003,0.0
749640.0783812654,4065767.5119837918,-2500.0,-0.51687794565741818,1.195254086400048,-10.158562737820692,-0.14060172965654638,0.65476763319071385,-0.02356093629827493,5.1880897162304302,-4.4459203823155038,-3.7802351480997087,3.7802351480997087,4.4459203823155038,10.17807545181047,0.0
754640.0783812654,4065767.5119837918,-2500.0,-0.97215281050278568,-0.68829529506386822,-11.352465201971487,0.018422960459806799,0.76120074065281962,-0.031144299728433501,5.7346015290345544,-6.199741572021976,-2.4039140468741755,2.4039140468741755,6.199741572021976,11.025647093275099,0.0
759640.0783812654,4065767.5119837918,-2500.0,-1.7253739650815787,-2.2705064527673282,-11.212456583530223,0.15822899369780105,0.77033379742991492,-0.033939778336614219,5.8996884347061229,-7.0239598319291492,-1.022739076268973,1.022739076268973,7.0239598319291492,11.235364367415078,0.0
764640.0783812654,4065767.5119837918,-2500.0,-2.5492132168844877,-3.3166163865960412,-10.149375670176978,0.25816296239334097,0.70925152800225166,-0.032985047658847827,5.7300302829676264,-7.0168507020353168,0.080196784509796171,-0.080196784509796171,7.0168507020353168,10.859397159814856,0.0
769640.0783812654,4065767.5119837918,-2500.0,-3.2481997697621257,-3.8010954881614887,-8.6167700819618247,0.31353435575007077,0.60965170543118619,-0.029682754476696493,5.3224154114293825,-6.4266656922482746,0.80006467346411014,-0.80006467346411014,6.4266656922482746,10.060524418993371,0.0
774640.0783812654,4065767.5119837918,-2500.0,-3.7143767150870479,-3.830963067365353,-6.9760480626786654,0.33060631570903531,0.49790012957243773,-0.02530312377776096,4.7792927082792254,-5.5250248729125815,1.1636432158623258,-1.1636432158623258,5.5250248729125815,9.0211284698380751,0.0
779640.0783812654,4065767.5119837918,-2500.0,-3.9258219866788262,-3.5593730802777457,-5.4530748254647943,0.32027628660296353,0.39129288143740959,-0.020754696230276808,4.1851920749004705,-4.5298593646089405,1.2601943669526201,-1.2601943669526201,4.5298593646089405,7.8943364579797173,0.0
784640.0783812654,4065767.5119837918,-2500.0,-3.9167697310334244,-3.1277149055583577,-4.154820957581963,0.29346560135327771,0.2986976135982537,-0.016567519298599055,3.599053290319469,-3.5816836293721339,1.188490024919689,-1.188490024919689,3.5816836293721339,6.7875269547287882,0.0
789640.0783812654,4065767.5119837918,-2500.0,-3.7453665749862468,-2.640978503812641,-3.1077557456376241,0.25886271003750694,0.22299696408643246,-0.012979577136239841,3.0560373991335701,-2.7525813832253698,1.029680447794427,-1.029680447794427,2.7525813832253698,5.7647172455371836,0.0
794640.0783812654,4065767.5119837918,-2500.0,-3.4712030239028908,-2.1654318287810979,-2.2941728611841552,0.22240060944786977,0.16359999776442577,-0.010043120846728537,2.5731821788111131,-2.0668575719369278,0.83978095419960475,-0.83978095419960475,2.0668575719369278,4.8566556662926335,0.0
799640.0783812654,4065767.5119837918,-2500.0,-3.143980060526173,-1.7363915472262872,-1.677809323166086,0.18762263843595434,0.1183093741942465,-0.0077114471543769615,2.1554532500747987,-1.5209269666294147,0.65236313262751522,-0.65236313262751522,1.5209269666294147,4.071891094338091,0.0
804640.0783812654,4065767.5119837918,-2500.0,-2.8001324609397606,-1.3681537466534772,-1.2187697383218827,0.15632918267815718,0.084465730830580496,-0.0058964548774608477,1.8006859709957472,-1.0978694500216508,0.48460514820118911,-0.48460514820118911,1.0978694500216508,3.4058796371051301,0.0
809640.0783812654,4065767.5119837918,-2500.0,-2.4637233352853478,-1.0624406741972621,-0.88074699541684498,0.12919090989855267,0.059539288155336954,-0.0045015826635043882,1.5030642430061603,-0.77642316795460453,0.34317998592865728,-0.34317998592865728,0.77642316795460453,2.8474097149745035,0.0
814640.0783812654,4065767.5119837918,-2500.0,-2.1490097651237869,-0.81440484119087631,-0.63364057124417106,0.10621893479724208,0.041374177544438458,-0.0034378121036118428,1.2553369760594906,-0.53579236095840499,0.22874761258749515,-0.22874761258749515,0.53579236095840499,2.3826954796162054,0.0
819640.0783812654,4065767.5119837918,-2500.0,-1.8632210755231442,-0.61641920563258967,-0.45380011380669993,0.087083381927869727,0.028243311799926226,-0.0026298821957277054,1.0501012618558361,-0.35778288535274205,0.13894928883763319,-0.13894928883763319,0.35778288535274205,1.9977418047332793,0.0
659640.0783812654,4070767.5119837918,-2500.0,2.3341452388843429,-1.4847643094283087,1.3033516451316725,0.12660250823860408,-0.090468156292506333,0.005163514980985268,1.6997669463024059,-0.57743143673162711,2.0973499700827531,-2.0973499700827531,0.57743143673162711,3.2821037572070981,0.0
664640.0783812654,4070767.5119837918,-2500.0,2.5024006124302658,-1.7360717767001375,1.6242214265687207,0.14502983766416999,-0.11389825856833831,0.0063923167271118736,1.9326476253273259,-0.59039544509230146,2.4387198900880129,-2.4387198900880129,0.59039544509230146,3.7353940360546773,0.0
669640.0783812654,4070767.5119837918,-2500.0,2.6476769786177408,-2.0145872835132872,2.0245118018710788,0.16491138690552992,-0.14318002713039454,0.0079147696214563017,2.1942580574895771,-0.57555692393611513,2.821248492881101,-2.821248492881101,0.57555692393611513,4.2462272783963355,0.0
674640.0783812654,4070767.5119837918,-2500.0,2.7516968446207994,-2.3126036168581967,2.5191472322062403,0.18549749978795399,-0.17940114903593751,0.0097847879929727974,2.4840282189386538,-0.5177097099673198,3.2384520090164965,-3.2384520090164965,0.5177097099673198,4.8144282332066624,0.0
679640.0783812654,4070767.5119837918,-2500.0,2.7908889609007961,-2.6146399918524827,3.1213872346548435,0.20545230260103395,-0.22352605875149567,0.012051263714165879,2.7985023539952669,-0.39690753273043367,3.675341676495524,-3.675341676495524,0.39690753273043367,5.4346223072041475,0.0
684640.0783812654,4070767.5119837918,-2500.0,2.7370871714230001,-2.8941571720256398,3.8385388373170652,0.22263892054222775,-0.2760922007101288,0.014744242397868583,3.1297669894013507,-0.18874303405004844,4.1044236470012141,-4.1044236470012141,0.18874303405004844,6.0933322686101281,0.0
689640.0783812654,4070767.5119837918,-2500.0,2.5602278538280352,-3.1103198137088524,4.664822790265247,0.23392724589124114,-0.33671161355006235,0.017852283305686875,3.4634943193685039,0.13358116030284606,4.4813612495810302,-4.4813612495810302,-0.13358116030284606,6.7653693300637956,0.0
694640.0783812654,4070767.5119837918,-2500.0,2.2341626074439529,-3.206267831562176,5.5707967846493398,0.23513228063671962,-0.40334191857087454,0.021289155915723883,3.7768383178868636,0.5940089365900092,4.7416880103835144,-4.7416880103835144,-0.5940089365900092,7.4099839159289616,0.0
699640.0783812654,4070767.5119837918,-2500.0,1.746398844093547,-3.1115562234928262,6.4898305230107596,0.22126819911389875,-0.47136709380598485,0.02485128526888199,4.0368142158660421,1.2036958512409763,4.8012918064786385,-4.8012918064786385,-1.2036958512409763,7.9679796292535459,0.0
704640.0783812654,4070767.5119837918,-2500.0,1.1111917081868636,-2.7525266326639648,7.3046438219030323,0.18736595531500405,-0.5326983640202988,0.028175170402943275,4.2008795682827138,1.9456760571308569,4.5648140788061209,-4.5648140788061209,-1.9456760571308569,8.3621297649840631,0.0
709640.0783812654,4070767.5119837918,-2500.0,0.38240231349989179,-2.0741429492943873,7.8410746849903985,0.13006555748814824,-0.57537779088401431,0.030715333319886299,4.289201863552992,2.7561472947643804,3.9464416537358114,-3.9464416537358114,-2.7561472947643804,8.5046300399564814,0.0
714640.0783812654,4070767.5119837918,-2500.0,-0.34167921178212085,-1.0731774523392112,7.8807186013226014,0.049925347198719189,-0.58445070516970976,0.03177698709838625,4.2710043308890091,3.5095827504174664,2.9046234246545244,-2.9046234246545244,-3.5095827504174664,8.316486333199423,0.0
719640.0783812654,4070767.5119837918,-2500.0,-0.93206394977956075,0.16605846711971045,7.2046651902829995,-0.046200352806264972,-0.54489306200681376,0.030639032837637158,4.0930414370301307,4.0210002175178996,1.4838981566122484,-1.4838981566122484,-4.0210002175178996,7.7640041040671131,0.0
724640.0783812654,4070767.5119837918,-2500.0,-1.2678170132495354,1.4537991541711142,5.6707002848810282,-0.14410777365858538,-0.4467247567650976,0.026777111310335961,3.7806709383218342,4.0802723411650188,-0.15548886825545383,0.15548886825545383,-4.0802723411650188,6.9165033531906923,0.0
729640.0783812654,4070767.5119837918,-2500.0,-1.2914820589055269,2.5200912443896755,3.3029733900395182,-0.22417842026150167,-0.29093345117910702,0.020132087776302394,3.4259755881432667,3.5223091815080765,-1.7475792013435441,1.7475792013435441,-3.5223091815080765,6.0216670557668062,0.0
734640.0783812654,4070767.5119837918,-2500.0,-1.0527582347855216,3.0938577697065535,0.34685280467577756,-0.26693199535019607,-0.093162271718099016,0.011294997325470926,3.1853620872511845,2.3112763977177258,-2.9873613068194951,2.9873613068194951,-2.3112763977177258,5.5278859509645768,0.0
739640.0783812654,4070767.5119837918,-2500.0,-0.70535246208497659,3.0102732428028642,-2.7611784107820236,-0.26043708400517795,0.11806984208397821,0.0014637612805093688,3.1942188447247339,0.59195775761598068,-3.6373485179386984,3.6373485179386984,-0.59195775761598068,5.7973821259179346,0.0
744640.0783812654,4070767.5119837918,-2500.0,-0.44553692516505899,2.2881677027201999,-5.5182479837363863,-0.20568568454535849,0.30930358357785392,-0.0078735416014146346,3.4337106299100335,-1.3349358980454888,-3.6206274373210552,3.6206274373210552,1.3349358980454888,6.6532057564032803,0.0
749640.0783812654,4070767.5119837918,-2500.0,-0.42368251293993431,1.1260657376565266,-7.5200143580586154,-0.11648626069119204,0.45285987629587693,-0.015401149409692665,3.8714803291438842,-3.1132179084052116,-3.0441784159002245,3.0441784159002245,3.1132179084052116,7.6080184578954038,0.0
754640.0783812654,4070767.5119837918,-2500.0,-0.68309398333831362,-0.1830014154337456,-8.5788325926146722,-0.013785852575647982,0.53481637387410164,-0.020350908483832985,4.3150702589917787,-4.4547014554495119,-2.1396083393538312,2.1396083393538312,4.4547014554495119,8.3050518973743621,0.0
759640.0783812654,4070767.5119837918,-2500.0,-1.1591560940973806,-1.3646597320153246,-8.7406611671608267,0.082132206385101686,0.55660156821034457,-0.022619377945888537,4.5133970403149384,-5.2193452820046726,-1.1623416000161426,1.1623416000161426,5.2193452820046726,8.5979145917486708,0.0
764640.0783812654,4070767.5119837918,-2500.0,-1.7273185774403341,-2.2427188486595142,-8.2135494985996278,0.15742380477772669,0.53077254663885431,-0.022626999856451026,4.4797887452744751,-5.4215404891619929,-0.30774449702573348,0.30774449702573348,5.4215404891619929,8.4878181479682588,0.0
769640.0783812654,4070767.5119837918,-2500.0,-2.2621048897157894,-2.7586027055345461,-7.2642454395163387,0.20646575275632381,0.47443894437655743,-0.021052365338572281,4.264375447071262,-5.1804552434843663,0.32324324780502156,-0.32324324780502156,5.1804552434843663,8.0552227853332088,0.0
774640.0783812654,4070767.5119837918,-2500.0,-2.6761732340278037,-2.9443809814538846,-6.1351942061278555,0.2303509186738549,0.40372565547420158,-0.018587811509000012,3.9285233904151537,-4.6544887337726326,0.71358609709179377,-0.71358609709179377,4.6544887337726326,7.407869870533653,0.0
779640.0783812654,4070767.5119837918,-2500.0,-2.931135666423264,-2.8792374714918214,-5.0031324767877372,0.23401817417332621,0.33080080010159935,-0.015792230181737636,3.5289878517721824,-3.9908006501704687,0.89843266937206323,-0.89843266937206323,3.9908006501704687,6.6479761365176557,0.0
784640.0783812654,4070767.5119837918,-2500.0,-3.0286384017389238,-2.6523268278552052,-3.9734273143438581,0.22361852165952359,0.2632455513424638,-0.013043542457672586,3.1102689505971082,-3.3001761946733659,0.93356405263930697,-0.93356405263930697,3.3001761946733659,5.8564462115292937,0.0
789640.0783812654,4070767.5119837918,-2500.0,-2.9942358396502566,-2.3407455701126496,-3.0939313263696726,0.20481990800743199,0.20479078812986609,-0.010555107076253598,2.702970416611965,-2.6525676071496935,0.87413216130088078,-0.87413216130088078,2.6525676071496935,5.0890755804682177,0.0
794640.0783812654,4070767.5119837918,-2500.0,-2.8627288833617048,-2.0011938705015191,-2.3742730356066124,0.18204870232671466,0.15650844677306935,-0.00841865088917065,2.3254950195253525,-2.0838975384689742,0.76448702542357516,-0.76448702542357516,2.0838975384689742,4.3793506468235881,0.0
799640.0783812654,4070767.5119837918,-2500.0,-2.668367771618485,-1.6701945874694151,-1.8027603984869061,0.15836602444421641,0.11791552869388756,-0.006648691851616052,1.9869818819835472,-1.6063479933956273,0.63574022647325079,-0.63574022647325079,1.6063479933956273,3.7437444373536239,0.0
804640.0783812654,4070767.5119837918,-2500.0,-2.4398947578635224,-1.3681348903079198,-1.3583253735059668,0.1356646396500675,0.087786906789880881,-0.005217738494964738,1.690267784538791,-1.2178120005361053,0.50732344577774824,-0.50732344577774824,1.2178120005361053,3.1871438526480023,0.0
809640.0783812654,4070767.5119837918,-2500.0,-2.198981641292892,-1.1040844895241122,-1.0177311861302727,0.11496556216844069,0.064666227125716069,-0.0040799837708258646,1.4342973105478012,-0.90890053020812722,0.38989917462683077,-0.38989917462683077,0.90890053020812722,2.7072904214914177,0.0
814640.0783812654,4070767.5119837918,-2500.0,-1.9606028549452725,-0.87997967374292752,-0.75932139624388562,0.096701289265440374,0.047145747947654706,-0.0031853580947320535,1.2158858402535753,-0.66748120255947307,0.28823356470700789,-0.28823356470700789,0.66748120255947307,2.2980350988136991,0.0
664640.0783812654,4075767.5119837918,-2500.0,2.0721159978365664,-1.5952456431385575,1.6419187973075067,0.12034979088822383,-0.10668932854782832,0.005400506587642585,1.7381086054816717,-0.43862477694929514,2.2443354999676486,-2.2443354999676486,0.43862477694929514,3.358468903432354,0.0
669640.0783812654,4075767.5119837918,-2500.0,2.1420139655928789,-1.8071510331523886,2.0045327215038991,0.13381763456902954,-0.13118138345589719,0.0065596378769773624,1.9466310928019996,-0.3926042253526465,2.5440513910006004,-2.5440513910006004,0.3926042253526465,3.7667244489741538,0.0
674640.0783812654,4075767.5119837918,-2500.0,2.1681011425229935,-2.0201249135484312,2.4378638204975194,0.14677366662622232,-0.16048681594198944,0.0079399247752189109,2.1707639237889502,-0.30430363936179838,2.8552318034654123,-2.8552318034654123,0.30430363936179838,4.2078983881483367,0.0
679640.0783812654,4075767.5119837918,-2500.0,2.1333252231203574,-2.2177846693097303,2.9457984530380208,0.1579904113214963,-0.19487567232699407,0.009555144999585076,2.4054806195150933,-0.15903752157163531,3.1608124212232998,-3.1608124212232998,0.15903752157163531,4.6733860786913732,0.0
684640.0783812654,4075767.5119837918,-2500.0,2.0195719523244664,-2.3758343450244488,3.5248517322085058,0.16572711983191252,-0.23413458016845731,0.011398967125284732,2.642156863486842,0.059163731454203727,3.4343530218975018,-3.4343530218975018,-0.059163731454203727,5.1480198220257281,0.0
689640.0783812654,4075767.5119837918,-2500.0,1.8105482770661216,-2.4611416042649186,4.1588155747489184,0.1676971805857935,-0.277222825611318,0.013430458949198211,2.8674870478051555,0.36495544204122976,3.638307409611591,-3.638307409611591,-0.36495544204122976,5.6080908750578358,0.0
694640.0783812654,4075767.5119837918,-2500.0,1.4965024305828465,-2.4326534070853452,4.8119657285755553,0.16116682668209567,-0.3218408511774915,0.015555738421928015,3.0625929387768074,0.76692661141916019,3.7239360609356318,-3.7239360609356318,-0.76692661141916019,6.0197675225080234,0.0
699640.0783812654,4075767.5119837918,-2500.0,1.0806544737022057,-2.2457484210665424,5.4219613968474691,0.14328460826183717,-0.36398535293588996,0.017608699418319933,3.2028591938136182,1.2602982515757837,3.6346071070838351,-3.6346071070838351,-1.2602982515757837,6.3388662597667436,0.0
704640.0783812654,4075767.5119837918,-2500.0,0.58611995398725902,-1.8616860361452716,5.8951514708431736,0.11173768305552725,-0.39766269427671147,0.019337739887673386,3.263429217468564,1.8176065188400514,3.3145086034091271,-3.3145086034091271,-1.8176065188400514,6.5134944414863893,0.0
709640.0783812654,4075767.5119837918,-2500.0,0.060465390135340261,-1.2627847507741936,6.1089023172214381,0.065756854748512492,-0.41504643695689519,0.020409993872697228,3.2918903762479901,2.3797592989258156,2.7240546961165606,-2.7240546961165606,-2.3797592989258156,6.4916180371527661,0.0
714640.0783812654,4075767.5119837918,-2500.0,-0.42648794616101487,-0.47113406276509273,5.9266188923506427,0.0073079873270769265,-0.4074237592308621,0.020447519028917713,3.2257315329996277,2.8523838109443096,1.8606666709649125,-1.8606666709649125,-2.8523838109443096,6.2358907579753948,0.0
719640.0783812654,4075767.5119837918,-2500.0,-0.79580604821735479,0.43587958696336671,5.2292014983641426,-0.057972640547871865,-0.36715120290889186,0.019105174290745652,3.0574951720632648,3.1141927387618877,0.77896419930281935,-0.77896419930281935,-3.1141927387618877,5.7479914329329924,0.0
724640.0783812654,4075767.5119837918,-2500.0,-0.98390129686405392,1.3240193837286154,3.9597246100327599,-0.1207779113216314,-0.29041530324120857,0.0161837128698573,2.8161611478349413,3.042520637261616,-0.40049809036877093,0.40049809036877093,-3.042520637261616,5.1040599538938718,0.0
729640.0783812654,4075767.5119837918,-2500.0,-0.97104632910977251,2.0245740571237993,2.1669793043662997,-0.1696651773741219,-0.17992477607503954,0.011744542744869177,2.5715655634877512,2.5538470558540203,-1.505616833869345,1.505616833869345,-2.5538470558540203,4.4954685803196144,0.0
734640.0783812654,4075767.5119837918,-2500.0,-0.79927722567810322,2.3809997910321705,0.024646544872989881,-0.19411326832672016,-0.046133579353741162,0.006170442683603122,2.4252083987869462,1.6454811191799634,-2.3540435494490053,2.3540435494490053,-1.6454811191799634,4.2179229088722572,0.0
739640.0783812654,4075767.5119837918,-2500.0,-0.56534026927910341,2.3041031894490405,-2.1936588760228615,-0.1880931508229805,0.094200720775459129,0.00012145609454082781,2.452820559275632,0.41634300326395635,-2.8094966078216554,2.8094966078216554,-0.41634300326395635,4.4666937713692585,0.0
744640.0783812654,4075767.5119837918,-2500.0,-0.38659829389797878,1.8087023566618052,-4.1830469021069572,-0.1524547475397578,0.22212627897002746,-0.0056200359663472598,2.6341126312713783,-0.95021866108985031,-2.8275600290707361,2.8275600290707361,0.95021866108985031,5.1025965048612543,0.0
749640.0783812654,4075767.5119837918,-2500.0,-0.35548603014459662,1.0103567386496117,-5.6929102624750429,-0.094781216126236495,0.32170671291478126,-0.010358384021537305,2.955948282294631,-2.2390214185013342,-2.4668891017622245,2.4668891017622245,2.2390214185013342,5.8180066579413197,0.0
754640.0783812654,4075767.5119837918,-2500.0,-0.50671695795673843,0.082881653335297192,-6.5904669164708993,-0.026720567920964996,0.38400840423676952,-0.013656647186096941,3.3117962534742262,-3.2671581566025276,-1.8605791750834693,1.8605791750834693,3.2671581566025276,6.3812158017243412,0.0
759640.0783812654,4075767.5119837918,-2500.0,-0.81281497374605005,-0.80037439661167642,-6.8765640865295135,0.039804345592658441,0.40826988516088891,-0.015402924337852206,3.5066831724259759,-3.9297326448324919,-1.1650163767393169,1.1650163767393169,3.9297326448324919,6.6833247314395825,0.0
764640.0783812654,4075767.5119837918,-2500.0,-1.205182928114267,-1.513122613739148,-6.6558659650482062,0.095720853034242437,0.40028607477839689,-0.015763913937544213,3.5400218629117184,-4.2108575402862822,-0.51258211198002779,0.51258211198002779,4.2108575402862822,6.7070562549833985,0.0
769640.0783812654,4075767.5119837918,-2500.0,-1.6049592813004714,-1.9948977733508706,-6.0845587422591514,0.13621270207358366,0.36932489621398207,-0.015071713065511567,3.4371599747684889,-4.1641615461385681,0.013948382094220335,-0.013948382094220335,4.1641615461385681,6.4900176440260431,0.0
774640.0783812654,4075767.5119837918,-2500.0,-1.9478902717450215,-2.2439992622621467,-5.3212952582818662,0.16044707205605499,0.32511765598902559,-0.013704020129474276,3.2344406719524734,-3.8795376265578438,0.38323144068558412,-0.38323144068558412,3.8795376265578438,6.0948062751675547,0.0
779640.0783812654,4075767.5119837918,-2500.0,-2.1959652074514264,-2.2968388634432726,-4.4960480715426066,0.17034180232904506,0.27585780210823418,-0.011997890118339676,2.969093649181278,-3.4524169189848841,0.60220853325482615,-0.60220853325482615,3.4524169189848841,5.5879466793163139,0.0
784640.0783812654,4075767.5119837918,-2500.0,-2.3371430428861846,-2.2060296018479111,-3.6985722848152789,0.16915479877394363,0.22737469654695597,-0.010208025741938336,2.6732225961843517,-2.9640349273516682,0.69877265481270245,-0.69877265481270245,2.9640349273516682,5.0275949657487979,0.0
789640.0783812654,4075767.5119837918,-2500.0,-2.3784792982004395,-2.0242337950508715,-2.980640271651585,0.16037819318701491,0.18317283731491293,-0.0085005958634549808,2.3713138612834657,-2.4733615160481062,0.70736339287982086,-0.70736339287982086,2.4733615160481062,4.4583509620210693,0.0
794640.0783812654,4075767.5119837918,-2500.0,-2.3377093395048352,-1.7953714311514717,-2.3647896963144883,0.14708276122670691,0.1449104294314662,-0.0069671063098023164,2.0801288585115416,-2.0172521633416038,0.65998571891996016,-0.65998571891996016,2.0172521633416038,3.91077778397585,0.0
799640.0783812654,4075767.5119837918,-2500.0,-2.2362676961719368,-1.5517000225254693,-1.8542455050190227,0.13164838199212162,0.11298665930782915,-0.0056449571325521315,1.8098510944821149,-1.6147087770707933,0.58213669119330425,-0.58213669119330425,1.6147087770707933,3.4033927332522453,0.0
804640.0783812654,4075767.5119837918,-2500.0,-2.0947307197465879,-1.3144239383099949,-1.4412627365539397,0.11574451289124528,0.087056133817509637,-0.0045371320391424108,1.5656615004074104,-1.272212818774511,0.49200471168762561,-0.49200471168762561,1.272212818774511,2.9455241652065802,0.0
809640.0783812654,4075767.5119837918,-2500.0,-1.9304795494558555,-1.0958634858208884,-1.1130566542169955,0.10043544153684955,0.066406749664204734,-0.0036274162818343567,1.3492606353127767,-0.98848558561804856,0.40136015048982993,-0.40136015048982993,0.98848558561804856,2.5401039398026999,0.0
669640.0783812654,4080767.5119837918,-2500.0,1.7173578675440357,-1.5922532872831547,1.9396231610325034,0.10758360887892363,-0.11814318500425652,0.0053990846331999579,1.7170667799667252,-0.23820058561088109,2.2612542658612425,-2.2612542658612425,0.23820058561088109,3.3231192401384022,0.0
674640.0783812654,4080767.5119837918,-2500.0,1.6941376165531787,-1.735811263620413,2.3091872404011404,0.11514695088946915,-0.14138828600304287,0.0064067264029061648,1.8878877836410504,-0.13382466820120609,2.4845801470033231,-2.4845801470033231,0.13382466820120609,3.6610968955212053,0.0
679640.0783812654,4080767.5119837918,-2500.0,1.6184228880975289,-1.8536062889108178,2.7266165873385844,0.12056787406098746,-0.16769119898129153,0.0075460958325698447,2.0602138232982652,0.018846146670939978,2.687389769359191,-2.687389769359191,-0.018846146670939978,4.0054613343059993,0.0
684640.0783812654,4080767.5119837918,-2500.0,1.4797660087513405,-1.9254869453125472,3.1825177061238561,0.122537364581317,-0.19649123452711253,0.0087965164848162192,2.2259474822795702,0.22907246378111124,2.8468531010441152,-2.8468531010441152,-0.22907246378111124,4.3417948998570317,0.0
689640.0783812654,4080767.5119837918,-2500.0,1.2710317202706747,-1.9265636406548017,3.6567135658489089,0.11949099407782371,-0.22657669787953685,0.010111890838146616,2.3737933815034404,0.50306183003819749,2.9335476110347551,-2.9335476110347551,-0.50306183003819749,4.6498750421841306,0.0
694640.0783812654,4080767.5119837918,-2500.0,0.9917089444170839,-1.8291515272195114,4.1143774095008281,0.10975084165329027,-0.25585697517406475,0.011411629453259405,2.4890590092265223,0.8402962801728564,2.9128214639388426,-2.9128214639388426,-0.8402962801728564,4.9033758499581124,0.0
699640.0783812654,4080767.5119837918,-2500.0,0.65167451669616283,-1.6070952506809422,4.5029947195652191,0.091812566467255788,-0.28118649761893,0.012573285410055549,2.5542379831427624,1.2287310477875213,2.7486490906088581,-2.7486490906088581,-1.2287310477875213,5.0708236794712818,0.0
704640.0783812654,4080767.5119837918,-2500.0,0.2743012495868003,-1.2429697149527048,4.7520787782453615,0.064800237713666262,-0.29835309412013228,0.013431351723777482,2.5715244940769191,1.6397001786575505,2.4107451488922562,-2.4107451488922562,-1.6397001786575505,5.1187131314355137,0.0
709640.0783812654,4080767.5119837918,-2500.0,-0.10293235909442656,-0.7376882385619814,4.7782222624192503,0.029051095907272517,-0.3023792590046992,0.013787646771208343,2.5596078574809438,2.024408061961207,1.8848579500172276,-1.8848579500172276,-2.024408061961207,5.0178629875801128,0.0
714640.0783812654,4080767.5119837918,-2500.0,-0.43248587972969244,-0.12031166606847317,4.4978529236135554,-0.013310804702786734,-0.28826984846519677,0.013438717479935145,2.4777764647151632,2.314907777300236,1.1844482482836627,-1.1844482482836627,-2.314907777300236,4.7541334496735921,0.0
719640.0783812654,4080767.5119837918,-2500.0,-0.66675669533360749,0.54620669581837111,3.8480891563078536,-0.058070058081996175,-0.25222492464152535,0.012221428401280911,2.3315425690930196,2.4326246031646304,0.35968995329477593,-0.35968995329477593,-2.4326246031646304,4.344577849197039,0.0
724640.0783812654,4080767.5119837918,-2500.0,-0.77280313023111047,1.1686552877500223,2.8119921596768385,-0.09919445457043341,-0.19310313728329553,0.010069417887724884,2.1476416824947306,2.305681489267164,-0.50187246565462162,0.50187246565462162,-2.305681489267164,3.8595154492690469,0.0
729640.0783812654,4080767.5119837918,-2500.0,-0.74692211763516991,1.6400983084293796,1.4395258021605271,-0.12988293287729666,-0.11364075628927099,0.0070622629776544831,1.9778132772463408,1.8920905007566184,-1.2876891682581788,1.2876891682581788,-1.8920905007566184,3.4437796312779407,0.0
734640.0783812654,4080767.5119837918,-2500.0,-0.62169985753866575,1.8673499290877817,-0.14705358989129783,-0.14425516323685725,-0.02078717444147329,0.0034434970360439584,1.8884392894224069,1.2007573517461572,-1.8854454865438071,1.8854454865438071,-1.2007573517461572,3.2930356181469929,0.0
739640.0783812654,4080767.5119837918,-2500.0,-0.45962805198697054,1.8002989626261969,-1.7711594744373724,-0.1391373869068093,0.075287232988933209,-0.0004106073918731212,1.9224341606621971,0.29977305207231608,-2.2137760837893792,2.2137760837893792,-0.29977305207231608,3.5116356083707077,0.0
744640.0783812654,4080767.5119837918,-2500.0,-0.33361887052034722,1.4501033991950565,-3.2409445672758426,-0.11517689427848887,0.16339643169789347,-0.0040695173658614713,2.0618297122744309,-0.69495798382925944,-2.2459094714084693,2.2459094714084693,0.69495798382925944,3.9934377074930638,0.0
749640.0783812654,4080767.5119837918,-2500.0,-0.3024072048463049,0.88684084320653367,-4.3958423401863964,-0.076726230104077059,0.23400320626500282,-0.0071483021071009987,2.3022625892569653,-1.648550198328198,-2.0153485342948181,2.0153485342948181,1.648550198328198,4.5379957560249888,0.0
754640.0783812654,4080767.5119837918,-2500.0,-0.39224781123133257,0.21722549574435229,-5.1421566668722392,-0.030519869788378663,0.28130699406104631,-0.0093908059594417573,2.5872010316286342,-2.4419941455017256,-1.6013160461043441,1.6013160461043441,2.4419941455017256,4.9908421647302772,0.0
759640.0783812654,4080767.5119837918,-2500.0,-0.59259315919244993,-0.44710067838365297,-5.4649913040207663,0.016250888772796818,0.30401809106541267,-0.010706920606630938,2.7643946771783998,-2.9988355584589188,-1.1017135244801324,1.1017135244801324,2.9988355584589188,5.2717935305591119,0.0
764640.0783812654,4080767.5119837918,-2500.0,-0.86543020227321332,-1.017076803345742,-5.4159719926096717,0.05765831802588469,0.30475039917986041,-0.011158295523194462,2.8279856954343359,-3.294870608298595,-0.60602585786232033,0.60602585786232033,3.294870608298595,5.3587814493840646,0.0
769640.0783812654,4080767.5119837918,-2500.0,-1.1615403049971251,-1.4406015917744519,-5.0864970176230271,0.090000749576183411,0.28855043717658885,-0.010908982244786609,2.7902209925573458,-3.3511774776290881,-0.17782992392469921,0.17782992392469921,3.3511774776290881,5.2673996505587857,0.0
774640.0783812654,4080767.5119837918,-2500.0,-1.435717410836798,-1.7027691310054935,-4.5791658526492309,0.11191096854796068,0.26126905540525053,-0.010166248545967729,2.6724329972872378,-3.2174543102992716,0.15022890810072487,-0.15022890810072487,3.2174543102992716,5.0334119338243575,0.0
779640.0783812654,4080767.5119837918,-2500.0,-1.656055215570523,-1.8167329491775495,-3.9864073702701579,0.12386625972855363,0.22830154053815779,-0.0091318059465378826,2.4987243934241943,-2.9539828290912267,0.37191038082466465,-0.37191038082466465,2.9539828290912267,4.6994423664238107,0.0
784640.0783812654,4080767.5119837918,-2500.0,-1.8065406254230467,-1.8114607271263137,-3.3793338547249578,0.12746566482495295,0.19389363411372035,-0.0079723809379407314,2.2916569496555166,-2.6178227499465812,0.4984583091194752,-0.4984583091194752,2.6178227499465812,4.3061582458743928,0.0
789640.0783812654,4080767.5119837918,-2500.0,-1.8848824761244132,-1.7209862379062342,-2.8053305188400861,0.12476002682701655,0.16095094693419293,-0.0068088425954736945,2.0699211236906834,-2.2551043538283038,0.54961768585736603,-0.54961768585736603,2.2551043538283038,3.8875244154062831,0.0
794640.0783812654,4080767.5119837918,-2500.0,-1.8981966913017956,-1.5771822274309961,-2.2910269012514051,0.11777432740742909,0.13117243865129538,-0.0057181350553697514,1.8475605739637218,-1.8986055416340866,0.54689132863552525,-0.54689132863552525,1.8986055416340866,3.4691433735756183,0.0
799640.0783812654,4080767.5119837918,-2500.0,-1.8585763808052083,-1.4060935770050291,-1.8474793744323512,0.10824140235537809,0.10532867926174014,-0.0047416659107730177,1.6341919300903986,-1.5687255480681803,0.50954895614007822,-0.50954895614007822,1.5687255480681803,3.0685473298474313,0.0
804640.0783812654,4080767.5119837918,-2500.0,-1.7796111575464777,-1.2269110751384587,-1.4754477963064949,0.097502196667265464,0.083559792879993947,-0.0038953814367710306,1.4357248548429724,-1.276038873340321,0.45290211959754978,-0.45290211959754978,1.276038873340321,2.696474234939545,0.0
674640.0783812654,4085767.5119837918,-2500.0,1.3153732389096149,-1.4727504864189085,2.1515156190610747,0.089742325189231156,-0.12316830351332402,0.0051519544527102844,1.6367414575676906,-0.0030680995340637285,2.1409290482736774,-2.1409290482736774,0.0030680995340637285,3.1761611689181799,0.0
679640.0783812654,4085767.5119837918,-2500.0,1.2206404431823932,-1.532067857452696,2.4872457761794848,0.091472289988637143,-0.1429784064521826,0.005949011952821979,1.7611225881098131,0.14578677510169613,2.2662014724359576,-2.2662014724359576,-0.14578677510169613,3.4273057582570097,0.0
684640.0783812654,4085767.5119837918,-2500.0,1.077949683832933,-1.5457138765807521,2.8385009771937306,0.090124651787319543,-0.16378513439983736,0.0067901063328242662,1.8745090146049885,0.33804702950174592,2.3450519645135901,-2.3450519645135901,-0.33804702950174592,3.6613239832991527,0.0
689640.0783812654,4085767.5119837918,-2500.0,0.88572051108844263,-1.4960628729678813,3.1849601345078309,0.084684435467611202,-0.18444410045306445,0.0076340010010390695,1.9678170732434359,0.57456481038560436,2.3556451569277677,-2.3556451569277677,-0.57456481038560436,3.8619497227317927,0.0
694640.0783812654,4085767.5119837918,-2500.0,0.6480064101577796,-1.3655738785280271,3.4960063298674622,0.074184145181758976,-0.20323275104578237,0.008418169023773658,2.0300605188097376,0.85006909756082372,2.2745131163934111,-2.2745131163934111,-0.85006909756082372,4.0095536520785391,0.0
699640.0783812654,4085767.5119837918,-2500.0,0.37644746427518605,-1.1403443110695983,3.7299683789348546,0.057918427508365428,-0.21781050180107264,0.0090570335350190108,2.049601474544251,1.1502757642420929,2.0799769055380017,-2.0799769055380017,-1.1502757642420929,4.0824836885379296,0.0
704640.0783812654,4085767.5119837918,-2500.0,0.091286101274045961,-0.81509580006920412,3.8356895274939644,0.035734413424338481,-0.22530801396412645,0.0094446885627769567,2.0491971048464368,1.4494231945642631,1.7573379486965142,-1.7573379486965142,-1.4494231945642631,4.0599221346639007,0.0
709640.0783812654,4085767.5119837918,-2500.0,-0.17960039735970368,-0.3988739035752869,3.7577097424421506,0.0083525418571916248,-0.22261465346717554,0.009464685333536383,2.0156034885244778,1.7094884525014711,1.3053318932764777,-1.3053318932764777,-1.7094884525014711,3.9268220223039463,0.0
714640.0783812654,4085767.5119837918,-2500.0,-0.40457674937730947,0.080193467780914338,3.4458248738563522,-0.022378738479552955,-0.20690387457770365,0.0090082738917691037,1.9335013519688407,1.8826415950368487,0.7423554750216077,-0.7423554750216077,-1.8826415950368487,3.6814942383915668,0.0
719640.0783812654,4085767.5119837918,-2500.0,-0.55518444361711361,0.57355068252307095,2.8683576989744601,-0.053433244690710431,-0.17635885516527228,0.0080001841803354536,1.8113871877893915,1.9181682252142727,0.10998176712751029,-0.10998176712751029,-1.9181682252142727,3.3464137891677006,0.0
724640.0783812654,4085767.5119837918,-2500.0,-0.61480970521894496,1.0167568976384733,2.0262635899796275,-0.080896596841312271,-0.13094263754897661,0.0064266705475085877,1.6719699839823223,1.7737549911925066,-0.52904979889287806,0.52904979889287806,-1.7737549911925066,2.9821010128693435,0.0
729640.0783812654,4085767.5119837918,-2500.0,-0.58611443060665991,1.3409077077914069,0.96307751579177592,-0.10064282476765603,-0.072944917953166918,0.0043565708068766381,1.5532042672769477,1.4287903067780585,-1.1000816401168574,1.1000816401168574,-1.4287903067780585,2.69710011502444,0.0
734640.0783812654,4085767.5119837918,-2500.0,-0.49353981940891806,1.4889665004612984,-0.23476435283419511,-0.10928096572826008,-0.0070131595353617382,0.0019450382701806737,1.4988791602467897,0.89513275978580231,-1.5319990683354694,1.5319990683354694,-0.89513275978580231,2.6213143499365024,0.0
739640.0783812654,4085767.5119837918,-2500.0,-0.37844959518158128,1.4318521156839947,-1.4502449940241042,-0.10508017357321697,0.060495236044973845,-0.00058649829276211899,1.5334918681037928,0.22022980947789739,-1.7745065994942779,1.7745065994942779,-0.22022980947789739,2.8091322180633247,0.0
744640.0783812654,4085767.5119837918,-2500.0,-0.28766686948151543,1.1778465246843117,-2.5587028425917264,-0.088513610923835556,0.12273711225559532,-0.0029914909825921967,1.6422347696283677,-0.52031306797750387,-1.810860709447403,1.810860709447403,0.52031306797750387,3.1805372138645946,0.0
749640.0783812654,4085767.5119837918,-2500.0,-0.25962334028127576,0.77098190549382983,-3.4542161664870785,-0.062177347458079464,0.17380853045417874,-0.0050483330055979096,1.824568049931538,-1.2391846011613978,-1.6608878204759465,1.6608878204759465,1.2391846011613978,3.6012443447692548,0.0
754640.0783812654,4085767.5119837918,-2500.0,-0.3137693255871723,0.27882743030614021,-4.0702728934782435,-0.03010247607058977,0.20988373082325848,-0.0066025244150583742,2.0534080928470786,-1.85710307703769,-1.3732479663463413,1.3732479663463413,1.85710307703769,3.9658101202811489,0.0
759640.0783812654,4085767.5119837918,-2500.0,-0.44719733327549033,-0.22526568755109919,-4.3881796460974005,0.0032630638420907214,0.22971147083322596,-0.0075878065240133517,2.2087809176912727,-2.3187560191225085,-1.0105954696440036,1.0105954696440036,2.3187560191225085,4.2151701516877091,0.0
764640.0783812654,4085767.5119837918,-2500.0,-0.63876226924406443,-0.67865077275153773,-4.432251093310934,0.034022397414194633,0.23440232802998623,-0.0080227425573364073,2.2833412844221606,-2.6001323653317048,-0.63374529958627801,0.63374529958627801,2.6001323653317048,4.3279440492030865,0.0
769640.0783812654,4085767.5119837918,-2500.0,-0.85774699924047837,-1.0395627938253997,-4.2559540992235068,0.059455891764063136,0.22671485796991578,-0.0079887514685381637,2.2824559905600932,-2.7066232560632111,-0.29010429694074369,0.29010429694074369,2.7066232560632111,4.308646119312515,0.0
774640.0783812654,4085767.5119837918,-2500.0,-1.0730323377109343,-1.2895582760257345,-3.9253173517812967,0.078210044872767365,0.21017108629213244,-0.0076004679984492934,2.21851307928375,-2.6647848332489206,-0.0086493165815684225,0.0086493165815684225,2.6647848332489206,4.1772404716127296,0.0
779640.0783812654,4085767.5119837918,-2500.0,-1.259756005038003,-1.4299260934790445,-3.5048691357340496,0.09013095876002819,0.18828619035700939,-0.0069785278947631108,2.1069926753079837,-2.5119506474300368,0.19927194863494435,-0.19927194863494435,2.5119506474300368,3.9607326691776277,0.0
784640.0783812654,4085767.5119837918,-2500.0,-1.4023683202989441,-1.4751376120285755,-3.0487054692869475,0.095908470083507419,0.16406175028913958,-0.0062304726426316839,1.9635070559326324,-2.2871089046956548,0.33567045483275504,-0.33567045483275504,2.2871089046956548,3.6870825190643997,0.0
789640.0783812654,4085767.5119837918,-2500.0,-1.4945865325655598,-1.4460973426284531,-2.59677665571864,0.096688456150786597,0.13975801347821218,-0.0054410070974386495,1.8019259354809714,-2.0247581085116066,0.41062847078035691,-0.41062847078035691,2.0247581085116066,3.3814101210042997,0.0
794640.0783812654,4085767.5119837918,-2500.0,-1.5374813022583602,-1.3648367091403657,-2.1750352411646756,0.093753282947976455,0.11687954288694108,-0.0046698619156299113,1.6334661941800099,-1.7519089481173857,0.43766317626645168,-0.43766317626645168,1.7519089481173857,3.0641353026147433,0.0
799640.0783812654,4085767.5119837918,-2500.0,-1.5369126302782052,-1.2511714121863178,-1.79773317440969,0.088308161400898907,0.096285069068440476,-0.0039543448433617782,1.4664914473398287,-1.4875140780123832,0.43046330423097978,-0.43046330423097978,1.4875140780123832,2.7505113380907633,0.0
679640.0783812654,4090767.5119837918,-2500.0,0.91622164032058884,-1.2556318146795666,2.2444048249559096,0.069074524865542844,-0.12114859588719754,0.0046896864137845181,1.5045361130807828,0.23173155241563936,1.9001079292737559,-1.9001079292737559,-0.23173155241563936,2.9315219711434879,0.0
684640.0783812654,4090767.5119837918,-2500.0,0.78093705551128756,-1.2319390373630086,2.5097211465067373,0.065980914383529057,-0.13596972628797482,0.005251032980488117,1.5798112843752241,0.40154970135586709,1.9239869451667888,-1.9239869451667888,-0.40154970135586709,3.0907801623721523,0.0
689640.0783812654,4090767.5119837918,-2500.0,0.61183108362376448,-1.1544915003920395,2.7568316491070388,0.059676749150658438,-0.14990837785198599,0.0057867563877410499,1.6352597665819797,0.60058075817811063,1.8876179803648123,-1.8876179803648123,-0.60058075817811063,3.2163544517012324,0.0
694640.0783812654,4090767.5119837918,-2500.0,0.41473926886780754,-1.0129276420752986,2.9603797102662774,0.049646746311137642,-0.16162151817787751,0.0062508914009702828,1.6629250602610415,0.82155494818492492,1.775798427271811,-1.775798427271811,-0.82155494818492492,3.2940611276724354,0.0
699640.0783812654,4090767.5119837918,-2500.0,0.20071500310684406,-0.80101581684757472,3.0885134471829945,0.035633832963426669,-0.16942395081495465,0.0065853913261095338,1.6588116767458274,1.0505636828502118,1.5763388673453549,-1.5763388673453549,-1.0505636828502118,3.3094523871227532,0.0
704640.0783812654,4090767.5119837918,-2500.0,-0.013976364506350451,-0.51989644820110636,3.1049793269977153,0.01781451937387123,-0.17139858648970135,0.0067235748422273681,1.6489947608152253,1.2660954136528704,1.2836079320834626,-1.2836079320834626,-1.2660954136528704,3.250186509666722,0.0
709640.0783812654,4090767.5119837918,-2500.0,-0.20925603424491857,-0.18127933802704077,2.9734990429234003,-0.0030343454002945583,-0.16562453785081641,0.006597517605424718,1.6065910852188849,1.4394591811686577,0.90239593421333975,-0.90239593421333975,-1.4394591811686577,3.1097302662076833,0.0
714640.0783812654,4090767.5119837918,-2500.0,-0.36434296583553333,0.19050163699578376,2.6645042375628694,-0.025436893043033908,-0.15052597512653693,0.0061495651450060706,1.5310003565976555,1.5373669372082666,0.45104703811479496,-0.45104703811479496,-1.5373669372082666,2.8927154657772585,0.0
719640.0783812654,4090767.5119837918,-2500.0,-0.46234925250620346,0.55892971561658999,2.163398528105541,-0.047258697459123887,-0.12529871383069299,0.005346679983773089,1.4311251827378568,1.5270680193873383,-0.037570493226294688,0.037570493226294688,-1.5270680193873383,2.6222597265403893,0.0
724640.0783812654,4090767.5119837918,-2500.0,-0.49533182089421823,0.87932527138311367,1.4783836838828344,-0.06594092826117022,-0.090314325063593173,0.0041943607372174341,1.3255074256822732,1.3835707000672364,-0.51859720870094561,0.51859720870094561,-1.3835707000672364,2.3486826475448841,0.0
729640.0783812654,4090767.5119837918,-2500.0,-0.46806217042672654,1.1065220297797411,0.64504670035107281,-0.078928374005002216,-0.047359688124233093,0.002745601699797083,1.2418976573722476,1.0973277100491405,-0.94172888132180899,0.94172888132180899,-1.0973277100491405,2.1529519039970055,0.0
734640.0783812654,4090767.5119837918,-2500.0,-0.39866722005736882,1.2047123131947177,-0.27495032913312895,-0.084209199517585653,0.00042268034267508556,0.0011002064725062956,1.2094283863160897,0.67983969676724954,-1.2607824528920111,1.2607824528920111,-0.67983969676724954,2.1215398317793408,0.0
739640.0783812654,4090767.5119837918,-2500.0,-0.31515264203864207,1.1565390306343029,-1.202190517677493,-0.080810150883333404,0.048950965767328034,-0.00060765045828385926,1.2420899005514658,0.16463685341627932,-1.4437000961968995,1.4437000961968995,-0.16463685341627932,2.2812967992828286,0.0
744640.0783812654,4090767.5119837918,-2500.0,-0.24847164061540991,0.96813958835061642,-2.0533616624289897,-0.069072545551314438,0.09390529588184765,-0.0022317434994151026,1.3280539710123724,-0.39758804937475278,-1.4796682586170526,1.4796682586170526,0.39758804937475278,2.5720319714336508,0.0
749640.0783812654,4090767.5119837918,-2500.0,-0.22443437191231005,0.66805270426060426,-2.7567652003930165,-0.050597797993975097,0.13152034565639872,-0.0036399728001530848,1.4682550756432817,-0.94870491871924334,-1.3807880270982233,1.3807880270982233,0.94870491871924334,2.9015565680580209,0.0
754640.0783812654,4090767.5119837918,-2500.0,-0.2573796877816566,0.30026027186379928,-3.2647160549216552,-0.027874714526583591,0.15922974071802248,-0.0047366605876822364,1.6530269534996889,-1.434726271671098,-1.1777982765332444,1.1777982765332444,1.434726271671098,3.1963330725369796,0.0
759640.0783812654,4090767.5119837918,-2500.0,-0.34771935949952459,-0.08608772108472347,-3.5593314297115959,-0.0037209736280706955,0.17598223398543625,-0.0054747439771530987,1.7868545119619057,-1.8155615477255855,-0.91165263984990996,0.91165263984990996,1.8155615477255855,3.4126125576597586,0.0
764640.0783812654,4090767.5119837918,-2500.0,-0.48370620567814054,-0.44673385969721957,-3.6508915315740005,0.019274203024580026,0.18218180371928774,-0.0058557751526395977,1.8624841148798745,-2.070260473377227,-0.62406765244142381,0.62406765244142381,2.070260473377227,3.5316063387335115,0.0
769640.0783812654,4090767.5119837918,-2500.0,-0.64610882193222885,-0.74929443526237238,-3.5705898913217187,0.039150431408085481,0.17933658520474219,-0.0059200196202290195,1.8817234182162348,-2.197053996373989,-0.34994956742832395,0.34994956742832395,2.197053996373989,3.5524724931211256,0.0
774640.0783812654,4090767.5119837918,-2500.0,-0.813718163800073,-0.97598070783636703,-3.3608627116682044,0.05474996367939669,0.16957398357268186,-0.0057313943725420327,1.8516451507315579,-2.2093653969813367,-0.11327705409394917,0.11327705409394917,2.2093653969813367,3.4859318368680623,0.0
779640.0783812654,4090767.5119837918,-2500.0,-0.96789418743381128,-1.1225588204158499,-3.0663187804981558,0.065684437921987443,0.15517518602345262,-0.0053622817017395779,1.7821328334309676,-2.1298951673732058,0.073534982518039804,-0.073534982518039804,2.1298951673732058,3.3489177852008609,0.0
784640.0783812654,4090767.5119837918,-2500.0,-1.0952353142775606,-1.1950068800642808,-2.7271362647387209,0.072167969345611926,0.13822759048486447,-0.0048816132575953131,1.6838892816271485,-1.9847768072223713,0.2078095933007168,-0.2078095933007168,1.9847768072223713,3.1604415394676044,0.0
789640.0783812654,4090767.5119837918,-2500.0,-1.188340867699706,-1.2054447056504953,-2.3754587878181699,0.074800194514170484,0.12042698055420435,-0.0043475432909485297,1.5670295887710715,-1.7990705608706903,0.29364638263763887,-0.29364638263763887,1.7990705608706903,2.9387434111527782,0.0
794640.0783812654,4090767.5119837918,-2500.0,-1.2451806609818878,-1.168479893374057,-2.0343586902352779,0.074362958612403982,0.10301168857905117,-0.0038044145292770231,1.440250723551201,-1.5940229782739324,0.33891095076533784,-0.33891095076533784,1.5940229782739324,2.6996191144865818,0.0
689640.0783812654,4095767.5119837918,-2500.0,0.41770192059178646,-0.88613945878226952,2.377084012474965,0.041761747354864598,-0.12185832784909208,0.0044083748562330233,1.3632318525232847,0.59687178493512949,1.5114926359179242,-1.5114926359179242,-0.59687178493512949,2.6879917442585342,0.0
694640.0783812654,4095767.5119837918,-2500.0,0.25683885464444761,-0.74626987607546358,2.5032358893829492,0.032744685798858683,-0.12885741393081329,0.0046750012562736479,1.3689057458574236,0.77179485175790674,1.387520050618205,-1.387520050618205,-0.77179485175790674,2.7203183463868719,0.0
699640.0783812654,4095767.5119837918,-2500.0,0.089314676040484556,-0.55503845610142122,2.5603628904677294,0.021011805014799396,-0.1324584266359837,0.0048341926908492981,1.3586921450627496,0.94478641708698696,1.1967928461356192,-1.1967928461356192,-0.94478641708698696,2.7018761690890014,0.0
704640.0783812654,4095767.5119837918,-2500.0,-0.07233854267517173,-0.31661940800731564,2.5231965937400518,0.0068630508737365587,-0.13139672176177225,0.0048443252367187297,1.3395535495639956,1.0986117340280375,0.93868082057858526,-0.93868082057858526,-1.0986117340280375,2.6258539834351624,0.0
709640.0783812654,4095767.5119837918,-2500.0,-0.21392953401828788,-0.042733382696397114,2.3683326659513315,-0.008999554377009094,-0.1244977559190836,0.0046659976094465209,1.2953840275482549,1.2120150763155997,0.6203081643604702,-0.6203081643604702,-1.2120150763155997,2.4907050353361067,0.0
714640.0783812654,4095767.5119837918,-2500.0,-0.32191293927818854,0.24666851597903666,2.0788169559648217,-0.025445260384164555,-0.11090190984854163,0.0042690693274507058,1.2287611640064295,1.2619446642434782,0.25799916239181964,-0.25799916239181964,-1.2619446642434782,2.3039531219796268,0.0
719640.0783812654,4095767.5119837918,-2500.0,-0.3863627072114415,0.52443202602194317,1.6492278058623673,-0.040977441813926284,-0.090313160979416301,0.0036405582550325371,1.1479651262887682,1.2271970393275939,-0.12284265206541456,0.12284265206541456,-1.2271970393275939,2.0872081927404382,0.0
724640.0783812654,4095767.5119837918,-2500.0,-0.40390344453306481,0.75936825596101654,1.089992601229278,-0.053905810465970865,-0.063210624501212578,0.0027916237333700279,1.0678262127193776,1.0930102166148707,-0.49003099110201437,0.49003099110201437,-1.0930102166148707,1.8815394820788742,0.0
729640.0783812654,4095767.5119837918,-2500.0,-0.3796011474867973,0.92136444970877751,0.42937862881221928,-0.06261593374545471,-0.030947975094181016,0.0017612122784836969,1.0086366788310397,0.85554877548976072,-0.80912561563823793,0.80912561563823793,-0.85554877548976072,1.747210358239665,0.0
734640.0783812654,4095767.5119837918,-2500.0,-0.32688495833229075,0.987416117668241,-0.28813733809907505,-0.065883034220584516,0.0043216326509055714,0.0006143931163590838,0.98993301858689486,0.52485228230745862,-1.0494318362476853,1.0494318362476853,-0.52485228230745862,1.7418716666821845,0.0
739640.0783812654,4095767.5119837918,-2500.0,-0.26511488343564238,0.94690887940459434,-1.0074809054087892,-0.063145199595340915,0.039913053320890755,-0.00056532764709904028,1.0196354342153606,0.12496079566599871,-1.1899527278135777,1.1899527278135777,-0.12496079566599871,1.8772684307928482,0.0
744640.0783812654,4095767.5119837918,-2500.0,-0.21528219255307496,0.80441053292262177,-1.6715794487347446,-0.054648343151280337,0.07302263147749459,-0.0016884867680059322,1.0884216239522269,-0.30930213062996792,-1.2235047008213111,1.2235047008213111,0.30930213062996792,2.1080002495179007,0.0
749640.0783812654,4095767.5119837918,-2500.0,-0.19512797027513892,0.57893047335538539,-2.2307758285377219,-0.041410104804396941,0.10118470899603528,-0.002673886877650166,1.1976074612761887,-0.73826072235779483,-1.1576770934145335,1.1576770934145335,0.73826072235779483,2.3693903066040929,0.0
754640.0783812654,4095767.5119837918,-2500.0,-0.21525005239403314,0.2998164230552432,-2.6504850027485665,-0.025010301364869515,0.12264821364219203,-0.0034608092561822612,1.3477631121566656,-1.1244005359567948,-1.0123829481071327,1.0123829481071327,1.1244005359567948,2.6091482278683302,0.0
759640.0783812654,4095767.5119837918,-2500.0,-0.27736446541441684,0.00062765477521251425,-2.9151583456336096,-0.0072743056027208897,0.13657909831971174,-0.0040162202237584571,1.4620584890676274,-1.4384770468869497,-0.81492996093067793,0.81492996093067793,1.4384770468869497,2.7946079554589125,0.0
764640.0783812654,4095767.5119837918,-2500.0,-0.37500854980409543,-0.28712262578759079,-3.0279589544483358,0.010055418174035654,0.14305704298471514,-0.0043356274906518879,1.53392018359639,-1.6631864533426288,-0.59425658948191862,0.59425658948191862,1.6631864533426288,2.9099722743944794,0.0
769640.0783812654,4095767.5119837918,-2500.0,-0.49609086100343158,-0.53870471860800095,-3.0069432490401216,0.025574709717560311,0.14290124418305228,-0.0044386318926586954,1.5633699225115623,-1.7938477279842922,-0.37597130019594949,0.37597130019594949,1.7938477279842922,2.9520163648082423,0.0
774640.0783812654,4095767.5119837918,-2500.0,-0.62620702455966382,-0.7385414895786363,-2.8793863860093913,0.038354084330481368,0.13740169768226987,-0.0043610967212534954,1.554328217398226,-1.836545219957453,-0.17922841149396151,0.17922841149396151,1.836545219957453,2.9260931950057181,0.0
779640.0783812654,4095767.5119837918,-2500.0,-0.75167181605277167,-0.88026010344499872,-2.6759794356145612,0.047955082397220378,0.12803861520104048,-0.0041466953657736056,1.5130667939280016,-1.8047882277371299,-0.015669763745178922,0.015669763745178922,1.8047882277371299,2.8426881971464057,0.0
784640.0783812654,4095767.5119837918,-2500.0,-0.86160485204921533,-0.96509534471344383,-2.4261427409299139,0.054357899009149245,0.11625121028505506,-0.0038395336365300574,1.4468793841422256,-1.7158330162883226,0.10997279179309183,-0.10997279179309183,1.7158330162883226,2.7146235348634109,0.0
789640.0783812654,4095767.5119837918,-2500.0,-0.9488848400829053,-0.99951543339384163,-2.155010881829154,0.057843538536577518,0.10328483875391171,-0.0034791183783805576,1.3630619127380956,-1.5875232500073269,0.19830668019201347,-0.19830668019201347,1.5875232500073269,2.5549842800987759,0.0
699640.0783812654,4100767.5119837918,-2500.0,0.019528142921165569,-0.37703142804316858,2.1272010902068086,0.011452833731692647,-0.10414170238743289,0.0035825836297057869,1.1222100866247204,0.84147085155271295,0.91013251671887918,-0.91013251671887918,-0.84147085155271295,2.2216065392988797,0.0
704640.0783812654,4100767.5119837918,-2500.0,-0.10249059890621026,-0.17700931221107125,2.0595208300783621,0.00027847534449364583,-0.10151871789353747,0.0035309585163469702,1.0981417490445107,0.95012655691667713,0.68628671580714118,-0.68628671580714118,-0.95012655691667713,2.140380677252065,0.0
709640.0783812654,4100767.5119837918,-2500.0,-0.20585371531120786,0.044127313503403612,1.8987617946883821,-0.011818481651273489,-0.094512371375367485,0.0033450873417602395,1.0558277027344729,1.022227990530256,0.42155992262841235,-0.42155992262841235,-1.022227990530256,2.0164191015687152,0.0
714640.0783812654,4100767.5119837918,-2500.0,-0.28178067000876067,0.27047596913990324,1.6356064126563332,-0.023989458221862048,-0.082670530783736706,0.0030095866000776029,0.99852667153821906,1.0418327236607474,0.12970997105228171,-0.12970997105228171,-1.0418327236607474,1.8582591416924774,0.0
719640.0783812654,4100767.5119837918,-2500.0,-0.32452657626951675,0.48191756527206864,1.2694099273375012,-0.035184443581148223,-0.06594400272155479,0.0025207894443775303,0.93352482226863909,0.99517149249560122,-0.16983119362122751,0.16983119362122751,-0.99517149249560122,1.6851688672592771,0.0
724640.0783812654,4100767.5119837918,-2500.0,-0.33307945484937823,0.65648770493707831,0.81056067336914417,-0.044273457223968804,-0.044796684674799511,0.0018902261956225287,0.87255283608990253,0.87357039152991212,-0.45381772735918491,0.45381772735918491,-0.87357039152991212,1.5303142249973862,0.0
729640.0783812654,4100767.5119837918,-2500.0,-0.31208547072510701,0.77377864962267451,0.28122991349641119,-0.05021683783677422,-0.020241822131272603,0.0011459872068880362,0.83047757728458582,0.67609636894024372,-0.69829817587267784,0.69829817587267784,-0.67609636894024372,1.4385015227350888,0.0
734640.0783812654,4100767.5119837918,-2500.0,-0.271533489976369,0.81869856964938637,-0.28612019206955119,-0.052251328128541996,0.0062245732141458978,0.00033113314149217475,0.82049452851852922,0.41111803716453116,-0.88243587118180788,0.88243587118180788,-0.41111803716453116,1.4481704447662938,0.0
739640.0783812654,4100767.5119837918,-2500.0,-0.2250642262622026,0.78461855140833303,-0.8525429700777668,-0.050045039629398921,0.03279681596355466,-0.00050108303508077882,0.84698675413660529,0.09611749212397297,-0.9921402497127072,0.9921402497127072,-0.09611749212397297,1.5629094673987778,0.0
744640.0783812654,4100767.5119837918,-2500.0,-0.18723939935999215,0.67496323438456929,-1.3780744293219582,-0.043775995791753008,0.057609916674847696,-0.0012943855521746104,0.90264107480218614,-0.24446198761565391,-1.0225192643696239,1.0225192643696239,0.24446198761565391,1.7482921029012231,0.0
749640.0783812654,4100767.5119837918,-2500.0,-0.17051002596920417,0.50270466747221387,-1.8276114796569551,-0.034108134094191139,0.079010769529938671,-0.0019974766177545925,0.98867421525626975,-0.58293570870690592,-0.97844769103181084,0.97844769103181084,0.58293570870690592,1.9580547094584069,0.0
754640.0783812654,4100767.5119837918,-2500.0,-0.18275824474858246,0.28786833619356395,-2.1757648708106054,-0.022069607709591176,0.095784744768097813,-0.0025709692013615934,1.1115394455333671,-0.89274692384341181,-0.87312103344986158,0.87312103344986158,0.89274692384341181,2.1543554004821766,0.0
759640.0783812654,4100767.5119837918,-2500.0,-0.22607681568208618,0.053779056710421928,-2.4095856132547295,-0.00886785400127728,0.10728675403395078,-0.0029916782202839779,1.2088314538681129,-1.1523781174989418,-0.72509064893741648,0.72509064893741648,1.1523781174989418,2.3125807722084448,0.0
764640.0783812654,4100767.5119837918,-2500.0,-0.29699446448465511,-0.17690681717485143,-2.5287417873682814,0.0043084416419448858,0.11345607658206114,-0.0032536093319389045,1.274807261661022,-1.3479032123247272,-0.5546728893938806,0.5546728893938806,1.3479032123247272,2.4197305156008264,0.0
769640.0783812654,4100767.5119837918,-2500.0,-0.38787940081053401,-0.38541333866900301,-2.5435118228131119,0.016453063474830238,0.11473002124550569,-0.003365912532899174,1.308647721763885,-1.4737939932930659,-0.38068171844675747,0.38068171844675747,1.4737939932930659,2.4717206297587069,0.0
774640.0783812654,4100767.5119837918,-2500.0,-0.48894763821402631,-0.55872670085861342,-2.4714259352882095,0.026842613729440957,0.11189321253958398,-0.0033488121320881161,1.3124106342635038,-1.5321209190387508,-0.21813942295035593,0.21813942295035593,1.5321209190387508,2.4708225313818621,0.0
779640.0783812654,4100767.5119837918,-2500.0,-0.59026363560463657,-0.6900532514290687,-2.3335601554238927,0.035067126559946052,0.10590797915494927,-0.0032288075290875526,1.2900426061847017,-1.5306837298423448,-0.077213552060785728,0.077213552060785728,1.5306837298423448,2.4234123664472533,0.0
709640.0783812654,4105767.5119837918,-2500.0,-0.19179994597762448,0.097124915089837588,1.532142051740812,-0.012830163118888733,-0.072425510706797105,0.0024287153896472894,0.86935316965548981,0.86454757271083005,0.28076030020211329,-0.28076030020211329,-0.86454757271083005,1.6490578486991601,0.0
714640.0783812654,4105767.5119837918,-2500.0,-0.24568688766846611,0.27516996084721135,1.2970715400129194,-0.021915274144671884,-0.062294897462136747,0.0021518177727970602,0.82077086129047561,0.86526520522705852,0.044541276156163212,-0.044541276156163212,-0.86526520522705852,1.5163807770812445,0.0
719640.0783812654,4105767.5119837918,-2500.0,-0.27421577256079366,0.43766138651140113,0.98549865202589426,-0.030081912681551477,-0.048711818875924164,0.0017719810248430956,0.76859875462969918,0.81397993024383286,-0.19319880387751626,0.19319880387751626,-0.81397993024383286,1.3783539724887448,0.0
724640.0783812654,4105767.5119837918,-2500.0,-0.27755327289189474,0.56897839415120599,0.60684584705352473,-0.036565127586607439,-0.032081581847915791,0.0012992913185862086,0.72206143388715782,0.705664017813041,-0.41553213423530078,0.41553213423530078,-0.705664017813041,1.2615908773945868,0.0
729640.0783812654,4105767.5119837918,-2500.0,-0.25970083351796724,0.65507370709475521,0.17842776196276419,-0.040683275001209052,-0.013160263790344824,0.00075389381069553712,0.6920820865175743,0.54080292818996245,-0.60554886840145961,0.60554886840145961,-0.54080292818996245,1.199387475630417,0.0
734640.0783812654,4105767.5119837918,-2500.0,-0.22813789351414018,0.68585632147344777,-0.27577873904757888,-0.041950509779905928,0.0069980900953509513,0.00016472197341560062,0.68762856685284124,0.32622051303006994,-0.74882829460789924,0.74882829460789924,-0.32622051303006994,1.2173296187818319,0.0
739640.0783812654,4105767.5119837918,-2500.0,-0.19264447929695627,0.65711083413205529,-0.72773964363198407,-0.040166967354850688,0.027154676878459242,-0.00043349752924217859,0.7110147664318307,0.074803837620014746,-0.83570626595455921,0.83570626595455921,-0.074803837620014746,1.3147468552967088,0.0
744640.0783812654,4105767.5119837918,-2500.0,-0.16352847065001358,0.57142686785969032,-1.1489177171919667,-0.035462486810770223,0.046041265507536643,-0.00100447645946309,0.75650256687120088,-0.19595626208941108,-0.86277665941784121,0.86277665941784121,0.19595626208941108,1.4653578287590405,0.0
749640.0783812654,4105767.5119837918,-2500.0,-0.14969346721478785,0.43784990477092534,-1.5140380664157156,-0.028280577411781391,0.062525850830527113,-0.001515007579558407,0.8250284343649954,-0.46635705343921785,-0.83323797944193956,0.83323797944193956,0.46635705343921785,1.6354892108956414,0.0
754640.0783812654,4105767.5119837918,-2500.0,-0.15704956479852014,0.27032342652688457,-1.804238239538045,-0.019305622171530288,0.075752671099711538,-0.0019390015071290771,0.92625999293592387,-0.71727643641747274,-0.75601566194573777,0.75601566194573777,0.71727643641747274,1.7973157673839597,0.0
759640.0783812654,4105767.5119837918,-2500.0,-0.18765547036390404,0.08533014103006703,-2.0089510824520724,-0.0093518407607372216,0.085227858399895037,-0.0022601247369760163,1.0090527429480647,-0.93272647263530883,-0.64393073389110178,0.64393073389110178,0.93272647263530883,1.9321092887068814,0.0
764640.0783812654,4105767.5119837918,-2500.0,-0.23973832581093563,-0.10066922000991446,-2.1262531405291449,0.00075858362552922581,0.090838414840578918,-0.0024726135677645656,1.068464751793101,-1.1016364052457084,-0.51142307302459167,0.51142307302459167,1.1016364052457084,2.0292850712210844,0.0
769640.0783812654,4105767.5119837918,-2500.0,-0.30846922816031053,-0.27342561581692354,-2.1618072087202633,0.010301526883495891,0.09280931704528661,-0.00258037267301691,1.1033338129539061,-1.2185864493860656,-0.37237427359682518,0.37237427359682518,1.2185864493860656,2.0846555759444318,0.0
729640.0783812654,4110767.5119837918,-2500.0,-0.21845110583494656,0.55875316438509337,0.10656409848888231,-0.03327177507471793,-0.0084243688438346651,0.00049975212723253701,0.58294677128509054,0.43734858898267542,-0.52768850061396799,0.52768850061396799,-0.43734858898267542,1.0112177028507576,0.0
734640.0783812654,4110767.5119837918,-2500.0,-0.1936147454038209,0.57993579502833537,-0.26116211460492461,-0.034054958191476872,0.0071379967102304168,6.6946967404331371e-05,0.58198053616578327,0.26187329019073141,-0.64071918591402488,0.64071918591402488,-0.26187329019073141,1.0333279181444213,0.0
739640.0783812654,4110767.5119837918,-2500.0,-0.16613184850746546,0.55560160762952493,-0.62610101397392615,-0.032606533193049465,0.022647889010636184,-0.00037040783394200118,0.60251739663484016,0.058823085648620543,-0.71040250236329716,0.71040250236329716,-0.058823085648620543,1.1162891282186949,0.0
744640.0783812654,4110767.5119837918,-2500.0,-0.14343280224151714,0.48772668138109787,-0.9675137683012206,-0.029022047235895115,0.037225628724580052,-0.00078838540983749972,0.64004221339739886,-0.15906762811704733,-0.73431948999313201,0.73431948999313201,0.15906762811704733,1.2398884805791941,0.0
749640.0783812654,4110767.5119837918,-2500.0,-0.13199321055672675,0.38274185471124056,-1.2668975994499723,-0.02360409312590175,0.050081138245399809,-0.0011650080790970093,0.69517250473528758,-0.37752576671130711,-0.71460890833348489,0.71460890833348489,0.37752576671130711,1.3792285142715508,0.0
709640.0783812654,3920767.5119837918,-7500.0,-0.17154962788068906,-0.2944996120932824,-2.4558030865819584,-0.040871152024291237,-0.33684413258464529,-0.03366710282926566,1.2757105417517691,-1.1163754729070978,-0.62029649516957563,0.62029649516957563,1.1163754729070978,2.4814063383068099,0.0
714640.0783812654,3920767.5119837918,-7500.0,-0.099274798994830313,-0.093975594669232887,-2.4219278716659676,-0.011047793880111871,-0.33421095831538344,-0.03361228540569447,1.2419462760996132,-0.9847035209697661,-0.78297858803584419,0.78297858803584419,0.9847035209697661,2.4317671338000388,0.0
719640.0783812654,3920767.5119837918,-7500.0,-0.050691745053769471,0.11858890578584755,-2.3011865647912013,0.02037542790590044,-0.32048964485553161,-0.032568567085572722,1.1819928529785253,-0.80781515580594776,-0.93064839771549701,0.93064839771549701,0.80781515580594776,2.3361116836897291,0.0
724640.0783812654,3920767.5119837918,-7500.0,-0.030404622856991019,0.32709919783703084,-2.0893870953234552,0.051217064494773944,-0.29509962433797976,-0.030475660126561346,1.1022847199039747,-0.59365598294868771,-1.0476895645528588,1.0476895645528588,0.59365598294868771,2.1975816585724397,0.0
729640.0783812654,3920767.5119837918,-7500.0,-0.039214973825199131,0.51375157565025886,-1.7904518768592714,0.079075003317275475,-0.25846373334781308,-0.027359151080008748,1.0344098860812849,-0.35500967329329303,-1.1190623663185375,1.1190623663185375,0.35500967329329303,2.0245307413460192,0.0
734640.0783812654,3920767.5119837918,-7500.0,-0.07353249066620629,0.66147582605361821,-1.4170541411992537,0.10164020155101043,-0.2120914070548113,-0.023338844121332577,0.95949372144209388,-0.10828066258547686,-1.1326897354611423,1.1326897354611423,0.10828066258547686,1.8312829847869405,0.0
739640.0783812654,3920767.5119837918,-7500.0,-0.12566369174709627,0.75656460846114626,-0.98978707157423096,0.11703421419596399,-0.1584846461078443,-0.018622186965265148,0.88534110650708631,0.1285498256052976,-1.0816600174871134,1.0816600174871134,-0.1285498256052976,1.6383764395171143,0.0
744640.0783812654,3920767.5119837918,-7500.0,-0.18500600832531472,0.79088358160697825,-0.53487117901534365,0.12409549680504482,-0.10086618419844723,-0.013482476370895764,0.82163931222942121,0.33841089181991202,-0.96569068127168034,0.96569068127168034,-0.33841089181991202,1.4714100810967876,0.0
749640.0783812654,3920767.5119837918,-7500.0,-0.23989892584700823,0.76311412479013918,-0.080808036846394607,0.12254611957797046,-0.042777034025251355,-0.0082254732990398594,0.7769936000919293,0.50752560653283219,-0.79144241333512433,0.79144241333512433,-0.50752560653283219,1.3563543580526112,0.0
754640.0783812654,3920767.5119837918,-7500.0,-0.27967535046838676,0.67873010541736811,0.34531029947440267,0.11300047055992585,0.012372968327130265,-0.0031512876306448367,0.75590493415895632,0.62715356066166061,-0.57157276710476179,0.57157276710476179,-0.62715356066166061,1.3095950927293583,0.0
759640.0783812654,3920767.5119837918,-7500.0,-0.29640380878049627,0.54876218918608977,0.72104671826492195,0.096820224781499709,0.061707216140012865,0.00148057696159602,0.75679785479727735,0.6943393307067276,-0.32276401003806976,0.32276401003806976,-0.6943393307067276,1.3280902405990536,0.0
764640.0783812654,3920767.5119837918,-7500.0,-0.28593387319269226,0.38772259750306737,1.0307972250973514,0.075859278468406163,0.10316087783444776,0.0054764193037670989,0.77299829711450641,0.71160149311168153,-0.063219734174362663,0.063219734174362663,-0.71160149311168153,1.39110336699493,0.0
699640.0783812654,3925767.5119837918,-7500.0,-0.46224931264281344,-0.78879187289920416,-2.6576041910876151,-0.12188763389613443,-0.38197919011392989,-0.040322662196642649,1.4905923249323252,-1.4571438271340322,-0.29051256003821091,0.29051256003821091,1.4571438271340322,2.8762398749508309,0.0
704640.0783812654,3925767.5119837918,-7500.0,-0.33903306579516862,-0.62774646321561722,-2.8146222607406899,-0.095697921238882808,-0.4052427167358294,-0.042762473904047693,1.5191523688818742,-1.4319078157929277,-0.47504491931646331,0.47504491931646331,1.4319078157929277,2.9414449719221483,0.0
709640.0783812654,3925767.5119837918,-7500.0,-0.22269133001187896,-0.42054133497527163,-2.8983514972325888,-0.062881455810669312,-0.41871044929677254,-0.044290852359980572,1.5194884981113848,-1.3477774535283356,-0.67785389407501073,0.67785389407501073,1.3477774535283356,2.9557918921192998,0.0
714640.0783812654,3925767.5119837918,-7500.0,-0.12504395695989787,-0.17643224780491626,-2.8872941979889877,-0.024822120353530097,-0.41950333217343172,-0.044634336730768845,1.4875474139005627,-1.2005833546432698,-0.88482653361969765,0.88482653361969765,1.2005833546432698,2.9123506241928503,0.0
719640.0783812654,3925767.5119837918,-7500.0,-0.056886606689106015,0.088703958283801024,-2.7647068158893604,0.016191642214955157,-0.40535838254018708,-0.04357287330439491,1.421208632238532,-0.99237129978594052,-1.0771960521003896,1.0771960521003896,0.99237129978594052,2.8081767530791675,0.0
724640.0783812654,3925767.5119837918,-7500.0,-0.025720456322546222,0.35335606245029744,-2.5223195780752126,0.057107608548055896,-0.37510906396320326,-0.04098375262743089,1.3262989899945514,-0.73255737383046116,-1.233367266337799,1.233367266337799,0.73255737383046116,2.6460573685912161,0.0
729640.0783812654,3925767.5119837918,-7500.0,-0.033725093723180506,0.59283942545300639,-2.1633533540882603,0.094444222898418126,-0.3290768878349849,-0.036878308894860004,1.2442001948120918,-0.43783579440985798,-1.3319058078045907,1.3319058078045907,0.43783579440985798,2.4361077511315838,0.0
734640.0783812654,3925767.5119837918,-7500.0,-0.076628554792879708,0.78294978630814804,-1.7038753608033939,0.12478107023069444,-0.26925368066462019,-0.031420486790520001,1.1512693878463758,-0.1305472233665731,-1.355208778970812,1.355208778970812,0.1305472233665731,2.1969923315989712,0.0
739640.0783812654,3925767.5119837918,-7500.0,-0.1439751614961737,0.90406166554782597,-1.171814198893355,0.14530825708763895,-0.19918816478093851,-0.02491925789365898,1.0583830956542153,0.16435612772661756,-1.2930122049604451,1.2930122049604451,-0.16435612772661756,1.9563617838668543,0.0
744640.0783812654,3925767.5119837918,-7500.0,-0.2208956329183461,0.94463929224718801,-0.60355830529847487,0.154301343739393,-0.12356506649837368,-0.017793292761649364,0.97885719203333288,0.42313702693348298,-1.1447690594824294,1.1447690594824294,-0.42313702693348298,1.7491891933260513,0.0
749640.0783812654,3925767.5119837918,-7500.0,-0.29098192994409172,0.90319735721918981,-0.038793433858235013,0.15139657724154573,-0.04755566374672815,-0.010514231075825548,0.92439872840024573,0.62696320493322544,-0.92016389566485501,0.92016389566485501,-0.62696320493322544,1.6107061286951092,0.0
754640.0783812654,3925767.5119837918,-7500.0,-0.33948170736170491,0.78818872550992214,0.48520741557900393,0.13759597677697169,0.023910751122754471,-0.0035414169662078641,0.90062423529274449,0.76453684348142448,-0.63756564838075336,0.63756564838075336,-0.76453684348142448,1.5614606163324365,0.0
759640.0783812654,3925767.5119837918,-7500.0,-0.35593559174749245,0.61593495092719464,0.93848901998825951,0.11501282777286356,0.086785186119420737,0.0027369018169987693,0.90442228522068557,0.83307838630519315,-0.32084594690855778,0.32084594690855778,-0.83307838630519315,1.5938359320996145,0.0
764640.0783812654,3925767.5119837918,-7500.0,-0.33561931760732311,0.40728119587815192,1.3014893425938823,0.086441075598533243,0.13831529932838416,0.0080438276990559034,0.92595379338873718,0.83760405558926831,0.0045568965337468015,-0.0045568965337468015,-0.83760405558926831,1.6772175391579975,0.0
769640.0783812654,3925767.5119837918,-7500.0,-0.2795941467620558,0.18392859850607737,1.5658880460675566,0.054869754649194698,0.17718389620346156,0.012229821676166238,0.95359457884936372,0.78892074876618268,0.31533772965254642,-0.31533772965254642,-0.78892074876618268,1.7768267987075026,0.0
774640.0783812654,3925767.5119837918,-7500.0,-0.1936042275196721,-0.034688366002077711,1.7334749321459511,0.023056097314836373,0.20339380444627969,0.015265853318777679,0.97784396830743692,0.70102427557915148,0.59302610168337788,-0.59302610168337788,-0.70102427557915148,1.866564581407465,0.0
689640.0783812654,3930767.5119837918,-7500.0,-0.87578456174731978,-1.1796107867565135,-2.4649523193626077,-0.19869998100702249,-0.37532332783577355,-0.042575145330064443,1.5830575131792148,-1.5607883717271083,0.060405099439888699,-0.060405099439888699,1.5607883717271083,3.0429088561225148,0.0
694640.0783812654,3930767.5119837918,-7500.0,-0.75154130671512376,-1.1272398635642564,-2.7761485382874977,-0.18736072322130129,-0.42223619199466544,-0.047597891325327893,1.680398529510454,-1.6629495176044702,-0.0786740560995981,0.0786740560995981,1.6629495176044702,3.2360394251237614,0.0
699640.0783812654,3930767.5119837918,-7500.0,-0.6058102359236035,-1.0150068108071342,-3.0613784710901886,-0.16667056628042032,-0.46550970332763042,-0.052271715512854276,1.7581291990646188,-1.7200507126910012,-0.26043429434422904,0.26043429434422904,1.7200507126910012,3.3940570739784643,0.0
704640.0783812654,3930767.5119837918,-7500.0,-0.44911538257182271,-0.83717238698923002,-3.2926150293873482,-0.13591292250856182,-0.50118455209089741,-0.056204662218679119,1.8084489378973283,-1.7161666812505354,-0.48205624801728186,0.48205624801728186,1.7161666812505354,3.5026644458258476,0.0
709640.0783812654,3930767.5119837918,-7500.0,-0.29588559274577075,-0.59457455708145868,-3.4381294064940193,-0.095353754190483489,-0.52479433688246113,-0.058952718037768984,1.8237046401958072,-1.637564737229662,-0.7339820401781415,0.7339820401781415,1.637564737229662,3.5480128589329478,0.0
714640.0783812654,3930767.5119837918,-7500.0,-0.16285414359671846,-0.29692656500486514,-3.4661907885632068,-0.046553361868145779,-0.53187322427955452,-0.060067753467775549,1.797428939469299,-1.4758242413362754,-0.99881682417812034,0.99881682417812034,1.4758242413362754,3.5187783764721505,0.0
719640.0783812654,3930767.5119837918,-7500.0,-0.066274170070727043,0.036049287934488909,-3.3503038265644784,0.0074901378659877381,-0.51866851897427546,-0.059165562286096929,1.7255960579788538,-1.2309837157976138,-1.2516475054474325,1.2516475054474325,1.2309837157976138,3.4087188580929668,0.0
724640.0783812654,3930767.5119837918,-7500.0,-0.018362633028229568,0.37549500902381311,-3.0751606862870249,0.062478187606757246,-0.48294785443553689,-0.056003805226545911,1.6124473742196104,-0.91380152273258664,-1.4623411693988444,1.4623411693988444,0.91380152273258664,3.2194387246614822,0.0
729640.0783812654,3930767.5119837918,-7500.0,-0.023865633050359606,0.68676195116920258,-2.6418597567377522,0.11328993134010938,-0.4247092677801208,-0.050552019712145208,1.5126208602689923,-0.54614356874791659,-1.5998984441832631,1.5998984441832631,0.54614356874791659,2.9629890712247131,0.0
734640.0783812654,3930767.5119837918,-7500.0,-0.077905635776764848,0.93493636480229647,-2.0706716946667512,0.15475922497198819,-0.34656726349409955,-0.043032294030367756,1.3960865080379328,-0.15884685201315363,-1.6381874039997981,1.6381874039997981,0.15884685201315363,2.663892453427716,0.0
739640.0783812654,3930767.5119837918,-7500.0,-0.16608889688622655,1.09135899316559,-1.4000064736896844,0.18258924150046518,-0.25363588274608018,-0.033913031635397661,1.2782385283529842,0.21285168808676891,-1.5616527289386171,1.5616527289386171,-0.21285168808676891,2.3599407834384429,0.0
744640.0783812654,3930767.5119837918,-7500.0,-0.26716785784865749,1.1393419089745547,-0.68128524823858549,0.19416182420640055,-0.15286552388098393,-0.023850601250150621,1.1776978809670144,0.53533527672493642,-1.3692791735037113,1.3692791735037113,-0.53533527672493642,2.0997519880858402,0.0
749640.0783812654,3930767.5119837918,-7500.0,-0.35761445236161316,1.0773419875187171,0.029214670063112978,0.18900467207114022,-0.051967505942623012,-0.013590161772173299,1.1106492055151704,0.78245839710591492,-1.0754571524525998,1.0754571524525998,-0.78245839710591492,1.9318846511834331,0.0
754640.0783812654,3930767.5119837918,-7500.0,-0.41671521305139569,0.91864693644932094,0.67940543531875763,0.16878321129388174,0.041798155288547925,-0.0038506291955563631,1.0840542812797569,0.93959391306931106,-0.70738391393506805,0.70738391393506805,-0.93959391306931106,1.8819748673094692,0.0
759640.0783812654,3930767.5119837918,-7500.0,-0.43063492761543459,0.68782536333391864,1.2289404304401848,0.13684206133222451,0.12265840241161499,0.0047768369024998184,1.0921676807606973,1.004883020079705,-0.29980323085792682,0.29980323085792682,-1.004883020079705,1.9343729811947736,0.0
764640.0783812654,3930767.5119837918,-7500.0,-0.39437996074084858,0.41522372081601533,1.6535522082591347,0.097461174651716331,0.18695299805441226,0.011893964988475152,1.1204265405982299,0.98768244456369803,0.11130424668085331,-0.11130424668085331,-0.98768244456369803,2.0439289999284385,0.0
769640.0783812654,3930767.5119837918,-7500.0,-0.31143937237582181,0.13121567345818311,1.945659710339801,0.05505410375291072,0.23327009987031344,0.017315017006645408,1.153051836465675,0.90506559297286926,0.49435029685669662,-0.49435029685669662,-0.90506559297286926,2.1643786238557996,0.0
774640.0783812654,3930767.5119837918,-7500.0,-0.19165918424940734,-0.13835527686090382,2.1118859854229628,0.013507784335328177,0.2621629401208973,0.021046074730863618,1.1781910682711267,0.77762978630551427,0.82587649210952307,-0.82587649210952307,-0.77762978630551427,2.2640118935571163,0.0
779640.0783812654,3930767.5119837918,-7500.0,-0.048301707439480222,-0.37479028355501354,2.1687975678062776,-0.02422431972221345,0.27561176096194479,0.023238327327639842,1.1892430881628238,0.62573841921722695,1.0919977360224089,-1.0919977360224089,-0.62573841921722695,2.3266037619065894,0.0
784640.0783812654,3930767.5119837918,-7500.0,0.10479443289433991,-0.56719149042235006,2.1382484414810659,-0.056261596691261968,0.27641154090220182,0.024131991301054159,1.1844605300811291,0.46687944156572203,1.2878651971310637,-1.2878651971310637,-0.46687944156572203,2.3471876111130516,0.0
684640.0783812654,3935767.5119837918,-7500.0,-1.2231318440312713,-1.4062870470322697,-2.3349024144830555,-0.25690858431573271,-0.37940579624644805,-0.046597564168988762,1.685761440693994,-1.5926442299233421,0.24738448710513961,-0.24738448710513961,1.5926442299233421,3.2389944447630787,0.0
689640.0783812654,3935767.5119837918,-7500.0,-1.121813316063389,-1.4377210780556464,-2.7308948165345921,-0.25841253868739011,-0.44254311372843275,-0.053791148126995585,1.8331324570746088,-1.7748474809144388,0.15009723442187972,-0.15009723442187972,1.7748474809144388,3.5266612222775575,0.0
694640.0783812654,3935767.5119837918,-7500.0,-0.98019229455776324,-1.4098305087295611,-3.1368496069309053,-0.24977566317350369,-0.50725227316612309,-0.061171853727976386,1.9690705059547395,-1.9287078991457667,0.0010247506016616281,-0.0010247506016616281,1.9287078991457667,3.7946970800425315,0.0
699640.0783812654,3935767.5119837918,-7500.0,-0.80389809187634342,-1.3067448398638155,-3.5256608885007372,-0.22864344736388378,-0.56944602970963631,-0.068309992935782229,2.0839692195810517,-2.0330655709184704,-0.20578118020932223,0.20578118020932223,2.0330655709184704,4.0253651938157571,0.0
704640.0783812654,3935767.5119837918,-7500.0,-0.60509865192557999,-1.116635216707307,-3.8607828233839152,-0.19335325255090363,-0.6236595247125154,-0.074630852888261309,2.1668799112323267,-2.064801440151685,-0.4702664228082436,0.4702664228082436,2.064801440151685,4.1985168568884976,0.0
709640.0783812654,3935767.5119837918,-7500.0,-0.40254636613212141,-0.83586683451351107,-4.0981541730660087,-0.14354951694132345,-0.66333961220122339,-0.079442896585118966,2.2064615371007168,-2.0021995138308704,-0.7832226864527897,0.7832226864527897,2.0021995138308704,4.2934688107771688,0.0
714640.0783812654,3935767.5119837918,-7500.0,-0.21982774923989604,-0.4731566984560216,-4.1909546322055702,-0.080784284754202462,-0.68153662304921636,-0.082006751460799318,2.1924605976178406,-1.8296544626607236,-1.1238302813697572,1.1238302813697572,1.8296544626607236,4.291949977446424,0.0
719640.0783812654,3935767.5119837918,-7500.0,-0.08149455669989987,-0.052346463070247734,-4.0972775308506604,-0.0089019585413062201,-0.67200642096956165,-0.081646512394502616,2.1176319967019959,-1.542922201013702,-1.4591574890043693,1.4591574890043693,1.542922201013702,4.1820017668739586,0.0
724640.0783812654,3935767.5119837918,-7500.0,-0.0075011256654242122,0.38782914678699237,-3.7896806610313711,0.066020537031907009,-0.63057490788382009,-0.07788913403359711,1.9829033688790996,-1.1534259176561097,-1.7468214910934794,1.7468214910934794,1.1534259176561097,3.9624236324828175,0.0
729640.0783812654,3935767.5119837918,-7500.0,-0.0073308327685984494,0.79813628323729369,-3.2642904184566159,0.13633771791615662,-0.55644058035968536,-0.070600198143114648,1.8609532967413285,-0.68978932475292254,-1.9412972300130966,1.9412972300130966,0.68978932475292254,3.647112535639033,0.0
734640.0783812654,3935767.5119837918,-7500.0,-0.075886794981158939,1.1272713368579612,-2.5463422330770631,0.19408063225806413,-0.45298239447503608,-0.060072713001853441,1.7130795409291222,-0.19517980334214013,-2.0030080994965953,2.0030080994965953,0.19517980334214013,3.2685273697647741,0.0
739640.0783812654,3935767.5119837918,-7500.0,-0.193089431844603,1.3324591939092574,-1.6894531326214608,0.23251661759526177,-0.32769581603476333,-0.047030074327276829,1.5614186175409159,0.27967192285750331,-1.9078424462064705,1.9078424462064705,-0.27967192285750331,2.8791810759107386,0.0
744640.0783812654,3935767.5119837918,-7500.0,-0.32793797053702839,1.3890187885452288,-0.76776331694240707,0.24757004750584957,-0.19112917112098857,-0.03252803174048792,1.432513334515209,0.68617805058168635,-1.6539482263101348,1.6539482263101348,-0.68617805058168635,2.5479846145855092,0.0
749640.0783812654,3935767.5119837918,-7500.0,-0.44598217297904291,1.2956468817674562,0.13728790428298121,0.23864048193694412,-0.055051079321296624,-0.017775724838802773,1.3491379566432187,0.98742225946505191,-1.2632319666639649,1.2632319666639649,-0.98742225946505191,2.343042246040195,0.0
754640.0783812654,3935767.5119837918,-7500.0,-0.51766682263429942,1.0736562281557109,0.95167077501011288,0.20855661387535834,0.06962576571779408,-0.0039262326565521191,1.3197850733025112,1.1645227137310157,-0.77686033030939339,0.77686033030939339,-1.1645227137310157,2.2959241972358946,0.0
759640.0783812654,3935767.5119837918,-7500.0,-0.5247093416658869,0.76072356817607201,1.6206206754322015,0.16272622833319422,0.17456460209758187,0.0081035945963358735,1.3341910503824534,1.2181019380577474,-0.24632749270179677,0.24632749270179677,-1.2181019380577474,2.3770212115720897,0.0
764640.0783812654,3935767.5119837918,-7500.0,-0.46268750426379707,0.40163715489829377,2.1146963771836562,0.10781875344248863,0.2549452239716079,0.017739589663124538,1.3707082667900377,1.1650571363981217,0.27686718675020738,-0.27686718675020738,-1.1650571363981217,2.5197769508173105,0.0
769640.0783812654,3935767.5119837918,-7500.0,-0.33968899527194935,0.039168848145686358,2.4294757008101122,0.050419659697018546,0.30952051405489756,0.024769106065635472,1.4079712136804883,1.0323921146236068,0.74984793889018309,-0.74984793889018309,-1.0323921146236068,2.6629863278549157,0.0
774640.0783812654,3935767.5119837918,-7500.0,-0.17227639038105377,-0.29252851848673878,2.5804303263478032,-0.0039903976236761599,0.3399769376708407,0.0292876674812741,1.4314570463008252,0.85042507725749028,1.143391965876869,-1.143391965876869,-0.85042507725749028,2.7688797605647655,0.0
779640.0783812654,3935767.5119837918,-7500.0,0.019428418425454893,-0.57102607612722223,2.5955179398919195,-0.051571052130079224,0.3499368142929975,0.031605326285329749,1.4343494083805401,0.64723584660978362,1.4430411341197151,-1.4430411341197151,-0.64723584660978362,2.82109465917938,0.0
784640.0783812654,3935767.5119837918,-7500.0,0.21601726550623321,-0.78557695844654896,2.5078636849560092,-0.090198841698725232,0.34393228764752903,0.03214540057631321,1.4171847075453006,0.44526240868064237,1.6472002623450197,-1.6472002623450197,-0.44526240868064237,2.8175244754663464,0.0
789640.0783812654,3935767.5119837918,-7500.0,0.40161375178016484,-0.93501527183153121,2.350032248710622,-0.11922456189322884,0.32657148943419773,0.031358714014930032,1.3929822197177739,0.26004424630608503,1.7636280451316537,-1.7636280451316537,-0.26004424630608503,2.7640886696376135,0.0
794640.0783812654,3935767.5119837918,-7500.0,0.56512249365148348,-1.0247959259895703,2.1504269453529461,-0.13907760557800689,0.30198731653706568,0.029664001148186011,1.3537328928767496,0.10056417108567028,1.8056102976689887,-1.8056102976689887,-0.10056417108567028,2.6703946454760921,0.0
674640.0783812654,3940767.5119837918,-7500.0,-1.5852917231914385,-1.3861028315888337,-1.6795192366180918,-0.2842468176435331,-0.29499567143927119,-0.04049328620166702,1.5447187861344294,-1.2723392666783033,0.39576475755774698,-0.39576475755774698,1.2723392666783033,2.967851550939911,0.0
679640.0783812654,3940767.5119837918,-7500.0,-1.5868886104212512,-1.5367480030622114,-2.0648653155173329,-0.30800205597822217,-0.36103905031453287,-0.048652991374863244,1.7324880295675407,-1.5091081911664377,0.39329098824358411,-0.39329098824358411,1.5091081911664377,3.3302099040352293,0.0
684640.0783812654,3940767.5119837918,-7500.0,-1.5424921277654924,-1.6631155789495025,-2.5081251433650951,-0.32650637952233946,-0.43661472561595549,-0.057928644880133398,1.9282616151146099,-1.7583217990586106,0.35494762600488161,-0.35494762600488161,1.7583217990586106,3.709379484317342,0.0
689640.0783812654,3940767.5119837918,-7500.0,-1.4443727665137425,-1.7453910116530433,-3.0014900277101311,-0.33640055089555204,-0.52038963667993621,-0.06816854949478228,2.125303423756455,-2.005596961095109,0.26654499715710467,-0.26654499715710467,2.005596961095109,4.0929872975378041,0.0
694640.0783812654,3940767.5119837918,-7500.0,-1.2889352699923922,-1.7600268086612953,-3.5268423926214614,-0.33380853962421969,-0.60939220123093585,-0.0790380747288357,2.3140109989930076,-2.2297408843723656,0.11346866878265338,-0.11346866878265338,2.2297408843723656,4.4633128002987421,0.0
699640.0783812654,3940767.5119837918,-7500.0,-1.0795081848745838,-1.6821842138202134,-4.0527196329529547,-0.31476116536013932,-0.6985578015754772,-0.089968982104883466,2.4817756511622009,-2.4027583342760899,-0.11644225098598304,0.11644225098598304,2.4027583342760899,4.797049864506298,0.0
704640.0783812654,3940767.5119837918,-7500.0,-0.82891622146241284,-1.4901717468690767,-4.5325613177213899,-0.27592324836490439,-0.78048005690602229,-0.10013064809037468,2.6133533905615263,-2.4916373509111001,-0.42859488588343786,0.42859488588343786,2.4916373509111001,5.0660598403681858,0.0
709640.0783812654,3940767.5119837918,-7500.0,-0.56073413295473207,-1.1718033416898557,-4.9058191056335616,-0.21559980480326962,-0.84560298849640914,-0.10844854683890598,2.6919948197112182,-2.4626199001314162,-0.81637041717597292,0.81637041717597292,2.4626199001314162,5.2396085025067451,0.0
714640.0783812654,3940767.5119837918,-7500.0,-0.30787379180506502,-0.73166284828623851,-5.1035698797989832,-0.13485516642798848,-0.88309325401163774,-0.113695937424097,2.7015051654506363,-2.2881304163794338,-1.256175205379386,1.256175205379386,2.2881304163794338,5.288452929584281,0.0
719640.0783812654,3940767.5119837918,-7500.0,-0.10748218952159987,-0.19708077698353282,-5.0594891248632665,-0.038406228285373108,-0.88251163952764,-0.11467284009286169,2.6291968228167608,-1.9554432398334949,-1.7049784655076541,1.7049784655076541,1.9554432398334949,5.1907845492196083,0.0
724640.0783812654,3940767.5119837918,-7500.0,0.0076895579351590809,0.38021221102986946,-4.7251604316108757,0.06516543168096918,-0.83612580529615066,-0.11045675284460958,2.4706212307605506,-1.4747516723501435,-2.1028085130944407,2.1028085130944407,1.4747516723501435,4.9394738051852665,0.0
729640.0783812654,3940767.5119837918,-7500.0,0.019414278482558077,0.92943747769177687,-4.0860988307729702,0.16427576587036266,-0.74132912848879084,-0.10067014546298249,2.3201487692348688,-0.88326779462972471,-2.3817446632225838,2.3817446632225838,0.88326779462972471,4.5494920891486776,0.0
734640.0783812654,3940767.5119837918,-7500.0,-0.06810603130132474,1.3736879588535333,-3.1728012574188273,0.24634907419556007,-0.60233288370038451,-0.085675983678450335,2.1300637152982831,-0.24230008923833513,-2.4805284062288462,2.4805284062288462,0.24230008923833513,4.0640405922387171,0.0
739640.0783812654,3940767.5119837918,-7500.0,-0.22648580161293538,1.6475547597935707,-2.0612973442908253,0.30054675594382224,-0.43031993912474958,-0.066613135718311248,1.9317506500112076,0.37353694577734087,-2.3608365320933618,2.3608365320933618,-0.37353694577734087,3.5574217835803239,0.0
744640.0783812654,3940767.5119837918,-7500.0,-0.40942970682152718,1.7136211568413295,-0.86091370158322822,0.32034446420758933,-0.2417094667784179,-0.045228906677888585,1.7638646000593408,0.89239971389573769,-2.0192987224499435,2.0192987224499435,-0.89239971389573769,3.1294624756105351,0.0
749640.0783812654,3940767.5119837918,-7500.0,-0.5653081446668623,1.5715420426048512,0.30780621786113482,0.3050152977178161,-0.054933034941648209,-0.023544708299772628,1.6590850291655164,1.2612015898989679,-1.490178510402431,1.490178510402431,-1.2612015898989679,2.8775343541277785,0.0
754640.0783812654,3940767.5119837918,-7500.0,-0.65123028044709619,1.2562870756409146,1.3377220954443756,0.25948419907075465,0.11323784395481705,-0.0034606445858304377,1.627423435824092,1.4558475064180449,-0.83732179368671056,0.83732179368671056,-1.4558475064180449,2.8394348600225943,0.0
759640.0783812654,3940767.5119837918,-7500.0,-0.64324009112540692,0.82680470315196286,2.1540885556561422,0.19270091117345511,0.25061986505330591,0.013574054766826858,1.6508297739744102,1.4826345681538771,-0.13853759804098753,0.13853759804098753,-1.4826345681538771,2.9613809750984426,0.0
764640.0783812654,3940767.5119837918,-7500.0,-0.53947744316856361,0.35010476760518472,2.7227862588906917,0.11524381019484965,0.35101564715854294,0.02673577067514633,1.6969952299052371,1.3716084177688825,0.53164565354819215,-0.53164565354819215,-1.3716084177688825,3.145317862485546,0.0
769640.0783812654,3940767.5119837918,-7500.0,-0.35656167395293076,-0.11337718041581205,3.047512725316047,0.037026805334576515,0.4139818696552337,0.03582764482886712,1.7371678293790072,1.165566028437039,1.1152429394273375,-1.1152429394273375,-1.165566028437039,3.3110101980977777,0.0
774640.0783812654,3940767.5119837918,-7500.0,-0.12199581862329291,-0.5191545045703071,3.1595223387343245,-0.034264474911088222,0.44344189071490969,0.041150800621876343,1.7540853691992118,0.90903203979746527,1.5771868872485264,-1.5771868872485264,-0.90903203979746527,3.4149111461305237,0.0
779640.0783812654,3940767.5119837918,-7500.0,0.13398805891521984,-0.84178987969480978,3.1048417028371347,-0.093805771671031019,0.4458427502250974,0.043316630247150358,1.741712309675008,0.64023144528928633,1.9050405164584316,-1.9050405164584316,-0.64023144528928633,3.4426909057726927,0.0
784640.0783812654,3940767.5119837918,-7500.0,0.38468365328179299,-1.0730501675624382,2.9329407946876915,-0.13949145027520585,0.42845107360600543,0.043064464151122139,1.707079908358208,0.38707589778995821,2.1042876889066848,-2.1042876889066848,-0.38707589778995821,3.3976824771145648,0.0
789640.0783812654,3940767.5119837918,-7500.0,0.61032252755019856,-1.2174048836647542,2.688896373665278,-0.17133614445100956,0.39811728896537135,0.041122559436978089,1.6629617334799875,0.1666013953160288,2.1919039468282024,-2.1919039468282024,-0.1666013953160288,3.2920155387241423,0.0
794640.0783812654,3940767.5119837918,-7500.0,0.79891574857168302,-1.2869456953655269,2.409305716832999,-0.19073258218826855,0.36057895970037718,0.038123983322890714,1.5953560436126268,-0.013422929053610311,2.1902870436965305,-2.1902870436965305,0.013422929053610311,3.1408927659758681,0.0
799640.0783812654,3940767.5119837918,-7500.0,0.94538009957766811,-1.297040569453114,2.1211679580817822,-0.19977752208695038,0.32021228429338078,0.034570271974274161,1.5094450038141056,-0.15198436568779805,2.1226418974229526,-2.1226418974229526,0.15198436568779805,2.9592658514265739,0.0
669640.0783812654,3945767.5119837918,-7500.0,-1.8322013714510863,-1.328425314293664,-1.3243550530201875,-0.30586342677730927,-0.25338957122225186,-0.039170423298044182,1.4993576120880927,-1.0599375624378846,0.42248135262771952,-0.42248135262771952,1.0599375624378846,2.8861221868152698,0.0
674640.0783812654,3945767.5119837918,-7500.0,-1.915270211410234,-1.5397157281544214,-1.686891476113662,-0.34417014788842959,-0.3207375107564101,-0.04829382515890935,1.7141874079931307,-1.3123614695282619,0.4684254072072751,-0.4684254072072751,1.3123614695282619,3.2996258064702824,0.0
679640.0783812654,3945767.5119837918,-7500.0,-1.9584493493542208,-1.7524252020296172,-2.1283995466112162,-0.38135639766843876,-0.40213122990563144,-0.059196348171844472,1.9497802301797855,-1.599854944956844,0.49311012020352785,-0.49311012020352785,1.599854944956844,3.7540954176325445,0.0
684640.0783812654,3945767.5119837918,-7500.0,-1.9469477014324232,-1.9492820699215514,-2.6539642372693377,-0.41410123148938499,-0.49833992730510313,-0.071968975178621664,2.2022587129811573,-1.9154219539126109,0.48119920230969315,-0.48119920230969315,1.9154219539126109,4.2425968313298892,0.0
689640.0783812654,3945767.5119837918,-7500.0,-1.8665529403559169,-2.1055776146044445,-3.2609215493719494,-0.43785278566865715,-0.60877489891748338,-0.086538712533734852,2.4644585522521214,-2.2444350443004026,0.41323085072208454,-0.41323085072208454,2.2444350443004026,4.7520571885989842,0.0
694640.0783812654,3945767.5119837918,-7500.0,-1.7068440296522345,-2.1892010273564328,-3.9338368636809866,-0.44689586413029897,-0.73066234146036468,-0.10257038470374281,2.7250408514867264,-2.562347298231785,0.26693993033965402,-0.26693993033965402,2.562347298231785,5.2616015098222633,0.0
699640.0783812654,3945767.5119837918,-7500.0,-1.4656176475393146,-2.1628271769803553,-4.638844508447856,-0.43478940361150531,-0.85812995200224784,-0.11935796350508691,2.9678605611621411,-2.8333543844959839,0.020594720362886232,-0.020594720362886232,2.8333543844959839,5.7413867620363455,0.0
704640.0783812654,3945767.5119837918,-7500.0,-1.1538218069461508,-1.9893573089923875,-5.3188412959788387,-0.39533926966231386,-0.98145352448191769,-0.13573362266888134,3.1719784374556981,-3.0113580074681225,-0.34105748086507592,0.34105748086507592,3.0113580074681225,6.1526829927394653,0.0
709640.0783812654,3945767.5119837918,-7500.0,-0.7993566422418964,-1.641195664445926,-5.8921334176460114,-0.32417786769087814,-1.0868791484671723,-0.15004236421776657,3.3128061909975881,-3.0448023944663563,-0.81836093662901654,0.81836093662901654,3.0448023944663563,6.4501596365988814,0.0
714640.0783812654,3945767.5119837918,-7500.0,-0.44723592956429181,-1.1125015642591229,-6.2578796783223458,-0.22078524367878022,-1.1575432256759461,-0.16024294379365064,3.3648415037945933,-2.8864451340988477,-1.3874186463071965,1.3874186463071965,2.8864451340988477,6.5872981007700639,0.0
719640.0783812654,3945767.5119837918,-7500.0,-0.15355737949157294,-0.43122533680912811,-6.3110694345139429,-0.090419955401420046,-1.1759064969101587,-0.16418435857160527,3.3061745966951719,-2.5074284446317874,-1.9933660187875051,1.9933660187875051,2.5074284446317874,6.5253577170440078,0.0
724640.0783812654,3945767.5119837918,-7500.0,0.027616451625807656,0.33458114992308652,-5.9668660447061992,0.054921654704132204,-1.1276594274673544,-0.16005682537173496,3.1266682548479761,-1.912221751990159,-2.5511372714107532,2.5511372714107532,1.912221751990159,6.2452996436459847,0.0
729640.0783812654,3945767.5119837918,-7500.0,0.061824237713593286,1.0821327313288915,-5.189034118016389,0.19744748136002091,-1.0062678883525555,-0.14692668502897999,2.9361901543667304,-1.1482983910085773,-2.9577808556380418,2.9577808556380418,1.1482983910085773,5.7607885181154517,0.0
734640.0783812654,3945767.5119837918,-7500.0,-0.050406821126623119,1.6936502177926056,-4.0120787570663898,0.3168185765152447,-0.81655037742498349,-0.12517410324765713,2.6883669220063466,-0.30399731109769501,-3.1162021385390855,3.1162021385390855,0.30399731109769501,5.1294219947050594,0.0
739640.0783812654,3945767.5119837918,-7500.0,-0.26844216606378435,2.0663804883653594,-2.5455828753270606,0.39505246621633805,-0.57549968668576301,-0.096626645271020259,2.4243490627373325,0.50830430388194636,-2.963759985163243,2.963759985163243,-0.50830430388194636,4.4584439538092289,0.0
744640.0783812654,3945767.5119837918,-7500.0,-0.52131684241044551,2.1420005036022602,-0.95488230952382558,0.42137075122825923,-0.30940997647342494,-0.064270108478126406,2.2018090144258569,1.1796212026272865,-2.4942726703333475,2.4942726703333475,-1.1796212026272865,3.8960739745100219,0.0
749640.0783812654,3945767.5119837918,-7500.0,-0.72961764524124961,1.9227811026418191,0.57703043294100975,0.39499473672567159,-0.047998684966703759,-0.031598985473523362,2.0686642577141425,1.6320906218354438,-1.7629887584613102,1.7629887584613102,-1.6320906218354438,3.5845125418539805,0.0
754640.0783812654,3945767.5119837918,-7500.0,-0.83000564357561635,1.4675872509227728,1.892067959847239,0.32474424328436002,0.18232718267748529,-0.0018392508261497692,2.0358574609994702,1.8358370470178897,-0.87162685084294322,0.87162685084294322,-1.8358370470178897,3.5663367048089292,0.0
759640.0783812654,3945767.5119837918,-7500.0,-0.79180679417329525,0.87065041514920216,2.888095201621161,0.22581060250423399,0.36358731384683657,0.022674488718404672,2.071815537079563,1.8093236320897543,0.059826795381183739,-0.059826795381183739,-1.8093236320897543,3.7458646646084293,0.0
764640.0783812654,3945767.5119837918,-7500.0,-0.62014517200663744,0.23352757733282761,3.5293816077716835,0.11527444926304703,0.48823274766218666,0.040783352011885078,2.1281790259923894,1.6056634046979319,0.92253066305034714,-0.92253066305034714,-1.6056634046979319,3.9788744679591672,0.0
769640.0783812654,3945767.5119837918,-7500.0,-0.34728002150296711,-0.35850196991475924,3.8376032472819204,0.0081482636129680871,0.55808290086591639,0.052435305465646467,2.1667289787066726,1.2927908404518575,1.6390491099087701,-1.6390491099087701,-1.2927908404518575,4.1617782346583825,0.0
774640.0783812654,3945767.5119837918,-7500.0,-0.018386599045259511,-0.84915254080042468,3.8716588522191517,-0.084954820272311687,0.58137323269095498,0.058382235355961619,2.1680352487013241,0.93565216347628577,2.1703569630139752,-2.1703569630139752,-0.93565216347628577,4.2471789926904968,0.0
779640.0783812654,3945767.5119837918,-7500.0,0.32177719597490817,-1.2126912903040767,3.7058180888328529,-0.15837274397625786,0.56936524157205293,0.059803652286297221,2.1290862147416276,0.5850967575100392,2.5116662212879866,-2.5116662212879866,-0.5850967575100392,4.2268816752530158,0.0
784640.0783812654,3945767.5119837918,-7500.0,0.63757530953897634,-1.448050041212708,3.4126601026514911,-0.21067190650817308,0.5335671511455703,0.057980988241432607,2.0699673875316518,0.27404472641808963,2.6822292920403408,-2.6822292920403408,-0.27404472641808963,4.1137847549355833,0.0
789640.0783812654,3945767.5119837918,-7500.0,0.90592981009729434,-1.5700564910986132,3.0530663958725288,-0.24334688079914343,0.48399216132055251,0.054079906376688136,1.98943811004114,0.018923841744356462,2.7140956778776677,-2.7140956778776677,-0.018923841744356462,3.9294417384504974,0.0
794640.0783812654,3945767.5119837918,-7500.0,1.1157973843329008,-1.6011742194446676,2.67250211980235,-0.2594989875689212,0.42840073190963213,0.049042613155950009,1.8808260089856059,-0.17629295289925073,2.642940419835472,-2.642940419835472,0.17629295289925073,3.6967276011535275,0.0
799640.0783812654,3945767.5119837918,-7500.0,1.265540123078732,-1.5653831211367888,2.3014856969388173,-0.26279276593950784,0.37223714354968929,0.043562397331213178,1.7546726024250698,-0.31556260757713739,2.5020508319610464,-2.5020508319610464,0.31556260757713739,3.4360514758937337,0.0
804640.0783812654,3945767.5119837918,-7500.0,1.3597273786518125,-1.4844899427686196,1.9581844894533023,-0.25677546725332523,0.31894951853012349,0.038107033841832692,1.6202241388169289,-0.40694384375296944,2.3192612697353328,-2.3192612697353328,0.40694384375296944,3.1638398854589314,0.0
664640.0783812654,3950767.5119837918,-7500.0,-1.9838037668473534,-1.1647580916281113,-0.94813254272734204,-0.30929406312552027,-0.20066623956873761,-0.036013035223532865,1.4016761842196501,-0.79055119854160294,0.37837641740877032,-0.37837641740877032,0.79055119854160294,2.7068443462676202,0.0
669640.0783812654,3950767.5119837918,-7500.0,-2.1529551230446562,-1.4078305632061019,-1.2539932440589419,-0.35940986479549525,-0.26306470378957231,-0.045442958000576461,1.6299712727795475,-1.0275903055976758,0.45790320234498766,-0.45790320234498766,1.0275903055976758,3.1458326468159901,0.0
674640.0783812654,3950767.5119837918,-7500.0,-2.3001041255772359,-1.6783094592885155,-1.6457146205584743,-0.41350540896951521,-0.34216587716732655,-0.057194980993590945,1.8905958385555666,-1.3153378432731924,0.53401179098602136,-0.53401179098602136,1.3153378432731924,3.647669311472137,0.0
679640.0783812654,3950767.5119837918,-7500.0,-2.407644330246832,-1.9668069318958734,-2.1398149024407576,-0.46933360899127602,-0.44095623624764935,-0.071661817140324158,2.1838294186390557,-1.6562246131016489,0.59481869248948183,-0.59481869248948183,1.6562246131016489,4.2133169691577201,0.0
684640.0783812654,3950767.5119837918,-7500.0,-2.4541554721094201,-2.2555631795058964,-2.7504280508755858,-0.5230603674644132,-0.56190494274041891,-0.089166110960987033,2.5071994611780624,-2.0470804234233784,0.62225215807811196,-0.62225215807811196,2.0470804234233784,4.838627628196722,0.0
689640.0783812654,3950767.5119837918,-7500.0,-2.4162081110262648,-2.5157803747534868,-3.4845151652635957,-0.5688411850043722,-0.70608688812582565,-0.10984743602423198,2.8540538973297909,-2.4754666812870485,0.59106483949695887,-0.59106483949695887,2.4754666812870485,5.5116558807725715,0.0
694640.0783812654,3950767.5119837918,-7500.0,-2.2722529306900734,-2.705841751553169,-4.3346100467806341,-0.59859419499861721,-0.87188688080726695,-0.13349620351720648,3.2119176395764564,-2.9153749031577281,0.46922060833455448,-0.46922060833455448,2.9153749031577281,6.2095669213853117,0.0
699640.0783812654,3950767.5119837918,-7500.0,-2.009054587525414,-2.7720750413299271,-5.269287168681057,-0.60226041594447299,-1.0533348674391816,-0.15934046328245813,3.5609352862846992,-3.3233400088031884,0.22103828667608205,-0.22103828667608205,3.3233400088031884,6.8957199071131408,0.0
704640.0783812654,3950767.5119837918,-7500.0,-1.6302736336046804,-2.6543320121721368,-6.2229544970303623,-0.56893016088162152,-1.2383659207890374,-0.18582173050168665,3.8729870408803677,-3.6370438915116878,-0.18533359161383234,0.18533359161383234,3.6370438915116878,7.5180579782878114,0.0
709640.0783812654,3950767.5119837918,-7500.0,-1.1651278186482197,-2.2985172366948845,-7.0888076398581994,-0.48916605926022183,-1.4076704948554759,-0.2104421215528165,4.1123698770325117,-3.7794563030474255,-0.76519974769745192,0.76519974769745192,3.7794563030474255,8.0105345160568184,0.0
714640.0783812654,3950767.5119837918,-7500.0,-0.67288462105269098,-1.6763546370377564,-7.7211612489457275,-0.35851665940895316,-1.5351814196389306,-0.22981250790774155,4.2390905559245802,-3.6715811634573821,-1.5006522497962149,1.5006522497962149,3.6715811634573821,8.2996297692421024,0.0
719640.0783812654,3950767.5119837918,-7500.0,-0.23755890819605693,-0.808481204086137,-7.9540244181350728,-0.18150019251003977,-1.5913247593057889,-0.24004385361386843,4.2155774820795138,-3.2546572830330711,-2.3251337142073019,2.3251337142073019,3.2546572830330711,8.3175337177486472,0.0
724640.0783812654,3950767.5119837918,-7500.0,0.051152980235686284,0.21862680252413455,-7.6390033689385923,0.025573838522114933,-1.5495120051550633,-0.23754774616270841,4.0207882010243967,-2.5174936471798501,-3.1184711338944036,3.1184711338944036,2.5174936471798501,8.0218462041103482,0.0
729640.0783812654,3950767.5119837918,-7500.0,0.12835160841989249,1.2546807319817455,-6.6959979796378217,0.23507909793974777,-1.3947657816146672,-0.22012106600382506,3.7790115005075422,-1.5180765262093268,-3.7222312151631698,3.7222312151631698,1.5180765262093268,7.4188714555425088,0.0
734640.0783812654,3950767.5119837918,-7500.0,-0.015686655733488108,2.1151736045372243,-5.1580009108217748,0.41324600133313721,-1.1313942733885971,-0.1879459168468989,3.4509023211900693,-0.38542951707090145,-3.9785058210948097,3.9785058210948097,0.38542951707090145,6.5849534400438303,0.0
739640.0783812654,3950767.5119837918,-7500.0,-0.32218150024429287,2.6337489143305768,-3.1855693484221574,0.5292167750345339,-0.78569261716713967,-0.14400755949732008,3.092177847644562,0.70666450849839491,-3.7816379434235663,3.7816379434235663,-0.70666450849839491,5.6782890822156977,0.0
744640.0783812654,3950767.5119837918,-7500.0,-0.6790958428170274,2.7165950703081037,-1.035985518993827,0.56453916901718415,-0.40114140042054841,-0.093594803366768009,2.7912803056706501,1.5880202538391979,-3.1201055955984076,3.1201055955984076,-1.5880202538391979,4.925207000934507,0.0
749640.0783812654,3950767.5119837918,-7500.0,-0.96066732728984383,2.3723914977378899,1.0049466109252412,0.51867206914730513,-0.027249990648352915,-0.042981810879396169,2.6201693719247476,2.1419989919749742,-2.0861196591279718,2.0861196591279718,-2.1419989919749742,4.5382797959919987,0.0
754640.0783812654,3950767.5119837918,-7500.0,-1.0717267779083857,1.7031209717992359,2.6991839595087397,0.40792441777735478,0.29329879922643154,0.0021705855855709156,2.5886407518452286,2.3340051406886664,-0.84663075618800621,0.84663075618800621,-2.3340051406886664,4.5587931429810276,0.0
759640.0783812654,3950767.5119837918,-7500.0,-0.97509945943630194,0.86287980594658875,3.9081841221376785,0.25879731504325787,0.53382911753210927,0.03803383658204703,2.6414085954619591,2.2079147696451589,0.40941145228367248,-0.40941145228367248,-2.2079147696451589,4.8181961181240913,0.0
764640.0783812654,3950767.5119837918,-7500.0,-0.69243242668158178,0.0072800515702481257,4.603920691555806,0.099349907615210495,0.68628441880746172,0.063058011920550147,2.7060628581808936,1.8575872340131012,1.5222225285734179,-1.5222225285734179,-1.8575872340131012,5.1052431025337999,0.0
769640.0783812654,3950767.5119837918,-7500.0,-0.28441329066292986,-0.74451348032882736,4.8452776217878517,-0.047677657081563088,0.75795904355713162,0.077679531482928776,2.7329620158344246,1.3907814982343694,2.3914041323070978,-2.3914041323070978,-1.3907814982343694,5.2896731457778108,0.0
774640.0783812654,3950767.5119837918,-7500.0,0.17567241859559013,-1.3252988438080591,4.7387920149265756,-0.16811870084659927,0.76527281873469533,0.083615752560155576,2.7025115334101315,0.900844353742563,2.9805918616490144,-2.9805918616490144,-0.900844353742563,5.3255582512205253,0.0
779640.0783812654,3950767.5119837918,-7500.0,0.62313295894661391,-1.7158964952788542,4.4019429733770084,-0.25626644087057365,0.72759282442906836,0.083111351129508432,2.6205800767332024,0.45269282927930155,3.3039306559159707,-3.3039306559159707,-0.45269282927930155,5.2182143775298346,0.0
784640.0783812654,3950767.5119837918,-7500.0,1.0128317530983104,-1.9309142379057584,3.9386723991103381,-0.31278915891065123,0.66285039614864805,0.078367992522916582,2.5201519521875477,0.081463243526077589,3.4056347172521466,-3.4056347172521466,-0.081463243526077589,4.9964758137974021,0.0
789640.0783812654,3950767.5119837918,-7500.0,1.3209421463900883,-2.0028366139930474,3.4282858974722354,-0.34211625285964448,0.58531863486749214,0.071225033355651321,2.382080100097721,-0.20148399418853025,3.3412977113368147,-3.3412977113368147,0.20148399418853025,4.6956641604830152,0.0
794640.0783812654,3950767.5119837918,-7500.0,1.5411694622872303,-1.969416007413836,2.9241687109715961,-0.35020980948672564,0.505081243690649,0.063050699564306548,2.2155226355512019,-0.40028459393539828,3.1649441876979112,-3.1649441876979112,0.40028459393539828,4.3486571821456756,0.0
799640.0783812654,3950767.5119837918,-7500.0,1.6790175621009795,-1.8658251453086843,2.4577813352812639,-0.34306263522274388,0.42848840733967752,0.054765598160510048,2.0352848526846317,-0.52715835818810164,2.9221462002834944,-2.9221462002834944,0.52715835818810164,3.9821312540078528,0.0
804640.0783812654,3950767.5119837918,-7500.0,1.7463941319289487,-1.7209445880301153,2.0444040085113864,-0.32588928658178928,0.35900816927722373,0.046927318541219065,1.8525198981766089,-0.59709406697180145,2.6477196494761337,-2.6477196494761337,0.59709406697180145,3.6157541585429578,0.0
809640.0783812654,3950767.5119837918,-7500.0,1.7575510001680574,-1.5564465310443103,1.6885978912264912,-0.30282273650757346,0.29810673554589517,0.03982871587418723,1.6748445976006765,-0.62465445113914631,2.3661713691172777,-2.3661713691172777,0.62465445113914631,3.26284648795543,0.0
664640.0783812654,3955767.5119837918,-7500.0,-2.2565052398127348,-1.1615861017365745,-0.82632073178220833,-0.35127815121924039,-0.19567900091778509,-0.040439354212075791,1.48787833731326,-0.69740343825251261,0.36712248884944276,-0.36712248884944276,0.69740343825251261,2.8844235621676342,0.0
669640.0783812654,3955767.5119837918,-7500.0,-2.5024194819615642,-1.4486573395221072,-1.133901992033302,-0.41716689323663203,-0.26488015996037406,-0.052097570222593925,1.7550986233109902,-0.94852684094082784,0.47084267167279403,-0.47084267167279403,0.94852684094082784,3.3988237096284144,0.0
674640.0783812654,3955767.5119837918,-7500.0,-2.7371342480362921,-1.7829963190501343,-1.5425952825147884,-0.49147614419765573,-0.35560878240540705,-0.067052569792942454,2.0675932557491246,-1.2657148703464176,0.58108664164575707,-0.58108664164575707,1.2657148703464176,4.0009985932776848,0.0
679640.0783812654,3955767.5119837918,-7500.0,-2.9393391752193638,-2.1594573150937832,-2.0785432712803082,-0.57244825825741485,-0.47305536894999944,-0.086054029342414656,2.4287354795796481,-1.6577852921468126,0.68672503092355042,-0.68672503092355042,1.6577852921468126,4.6979051080389569,0.0
684640.0783812654,3955767.5119837918,-7500.0,-3.0802541207351148,-2.5629052753231019,-2.7688379320221195,-0.65620730893381851,-0.62246744595223469,-0.10985484166611229,2.8391017335983397,-2.1286493576167409,0.76832891528092173,-0.76832891528092173,2.1286493576167409,5.4913471123928259,0.0
689640.0783812654,3955767.5119837918,-7500.0,-3.1244592613356788,-2.9632324851198018,-3.6362716094329728,-0.73585155552538739,-0.80808268611197642,-0.13906084444359856,3.2943725227243132,-2.6722052341369045,0.79542019384266804,-0.79542019384266804,2.6722052341369045,6.3740242438901298,0.0
694640.0783812654,3955767.5119837918,-7500.0,-3.0336673576552533,-3.3103093842117106,-4.6898922600887962,-0.80060435521187712,-1.0312776152164618,-0.17387241659420047,3.7825759103139043,-3.2652825240776076,0.72473890671956243,-0.72473890671956243,3.2652825240776076,7.3243374339861518,0.0
699640.0783812654,3955767.5119837918,-7500.0,-2.7749811521491567,-3.5311198397175261,-5.9104326670756349,-0.83546497592345315,-1.2877907028635101,-0.21369872924956934,4.2809387645416574,-3.8595022357548356,0.5016867547602355,-0.5016867547602355,3.8595022357548356,8.3004603808351369,0.0
704640.0783812654,3955767.5119837918,-7500.0,-2.3344193837128251,-3.5330582600954052,-7.2314475595552752,-0.82209482775345755,-1.5642179633165705,-0.25667038820829696,4.7531144334521516,-4.3747448642300846,0.068168797386836122,-0.068168797386836122,4.3747448642300846,9.2351543816039019,0.0
709640.0783812654,3955767.5119837918,-7500.0,-1.7340024580261266,-3.2185790280206459,-8.5208345864321977,-0.74184773986987451,-1.83468030214695,-0.29917031800367366,5.1482660203626907,-4.6994207970832029,-0.6198329550546271,0.6198329550546271,4.6994207970832029,10.034177644208393,0.0
714640.0783812654,3955767.5119837918,-7500.0,-1.0461439313862828,-2.5150295396946341,-9.5731146448014588,-0.58154164441252176,-2.0595628198543707,-0.33563690101738797,5.4041662655916758,-4.7045817643503147,-1.5642212719305963,1.5642212719305963,4.7045817643503147,10.582467210590458,0.0
719640.0783812654,3955767.5119837918,-7500.0,-0.39415909246415309,-1.4169521322542684,-10.127543754394631,-0.34134434190555085,-2.1890052700230984,-0.3590005323135782,5.4566477357154657,-4.2771753748770243,-2.6924986689801225,2.6924986689801225,4.2771753748770243,10.762446981178572,0.0
724640.0783812654,3955767.5119837918,-7500.0,0.072800358846769622,-0.025993929822320301,-9.9244548992138402,-0.041992741682330602,-2.1732787753738738,-0.36205216561698111,5.2629580399631033,-3.3691611019280403,-3.8376043460955911,3.8376043460955911,3.3691611019280403,10.486353839961408,0.0
729640.0783812654,3955767.5119837918,-7500.0,0.23208195275179483,1.4380378223008436,-8.7955705321696787,0.27339974340783624,-1.9792219551590562,-0.33966145201532322,4.9577497031855984,-2.0443860879478977,-4.7525057761280252,4.7525057761280252,2.0443860879478977,9.7387862887610783,0.0
734640.0783812654,3955767.5119837918,-7500.0,0.048404145175905959,2.679212796844721,-6.7558547748042903,0.54719373821159745,-1.6070095020848751,-0.29111562621768461,4.5160625884023204,-0.49338883323780536,-5.1731678588268064,5.1731678588268064,0.49338883323780536,8.6187747334177072,0.0
739640.0783812654,3955767.5119837918,-7500.0,-0.3927359850131541,3.4189518658856586,-4.0442212401083291,0.72439713027366903,-1.0980115720085064,-0.22135749394968265,4.0172069552572376,1.0070467478268808,-4.9149635158118326,4.9149635158118326,-1.0070467478268808,7.3652792626012795,0.0
744640.0783812654,3955767.5119837918,-7500.0,-0.90842646694642748,3.5008783006872495,-1.0742579271564208,0.7721120971959371,-0.52679561673581998,-0.14014344310859966,3.6011458095570763,2.1822657086643451,-3.9559116641492764,3.9559116641492764,-2.1822657086643451,6.3351892741751623,0.0
749640.0783812654,3955767.5119837918,-7500.0,-1.2928571506462732,2.9488592089518946,1.6931003114930177,0.69093016849005584,0.021034461233142884,-0.059233502664602561,3.37882168299417,2.8536370057296625,-2.4560740437091817,2.4560740437091817,-2.8536370057296625,5.8544866790292511,0.0
754640.0783812654,3955767.5119837918,-7500.0,-1.4007525944697266,1.9453866385872136,3.891937115286753,0.51212426165416436,0.47452160263646198,0.011070071406917403,3.3531085381873185,2.9879236739838921,-0.69862655466132861,0.69862655466132861,-2.9879236739838921,5.945534615236074,0.0
759640.0783812654,3955767.5119837918,-7500.0,-1.1930001566292632,0.74845613553634849,5.3389366522784938,0.28329682647127075,0.79425904238947731,0.064397743703957858,3.4267141205360416,2.6817197604463541,1.0126107010602416,-1.0126107010602416,-2.6817197604463541,6.3125175359820584,0.0
764640.0783812654,3955767.5119837918,-7500.0,-0.72806530240714162,-0.40184050546535444,6.0376519797213888,0.051246685299463884,0.97486327278066909,0.098939478321911009,3.4917100865105124,2.1012510832249203,2.4436192600203328,-2.4436192600203328,-2.1012510832249203,6.6488320746782534,0.0
769640.0783812654,3955767.5119837918,-7500.0,-0.11781206549453688,-1.3431906677890564,6.1211206843234196,-0.14992690249042087,1.0360403657829482,0.11648977607212654,3.4863765339993171,1.4164205783987445,3.4724774000000824,-3.4724774000000824,-1.4164205783987445,6.7983411531043823,0.0
774640.0783812654,3955767.5119837918,-7500.0,0.5210407489178529,-2.0049070711722186,5.7764017166250934,-0.30264752303539783,1.0095380134213401,0.12080813043407095,3.3960066905312676,0.75754230447858406,4.0825865082497668,-4.0825865082497668,-0.75754230447858406,6.7285672021848537,0.0
779640.0783812654,3955767.5119837918,-7500.0,1.0987677641038087,-2.3892252764002682,5.1848305803280041,-0.40347506214177981,0.92810356247104997,0.11612064740828325,3.2507721003848147,0.20134401800485602,4.328355397253933,-4.328355397253933,-0.20134401800485602,6.4710400901690184,0.0
784640.0783812654,3955767.5119837918,-7500.0,1.5634517538632007,-2.540992570627234,4.4900418413921646,-0.45805345253465946,0.81901132359829376,0.1061616636052258,3.0737832225093329,-0.22236948147065938,4.2966914901472872,-4.2966914901472872,0.22236948147065938,6.0799031203648237,0.0
789640.0783812654,3955767.5119837918,-7500.0,1.8969923511715687,-2.5207641006183414,3.7896456557941405,-0.47619000222853064,0.70182019543452356,0.09376737926485447,2.8503237812555966,-0.51556589386470808,4.0779332811953131,-4.0779332811953131,0.51556589386470808,5.6095736915196124,0.0
794640.0783812654,3955767.5119837918,-7500.0,2.1047699728209883,-2.3872426474541779,3.1406938173034464,-0.46836183413010746,0.5888102833663118,0.080848074240416498,2.6034733947347051,-0.69702638814213214,3.7495954372395452,-3.7495954372395452,0.69702638814213214,5.1049966173452175,0.0
799640.0783812654,3955767.5119837918,-7500.0,2.205016476161151,-2.1887516007116372,2.5702769306302247,-0.44379495623254034,0.48658715069216113,0.068547629054044212,2.3518369989428565,-0.79139391855535601,3.3704636495218252,-3.3704636495218252,0.79139391855535601,4.599059216878298,0.0
804640.0783812654,3955767.5119837918,-7500.0,2.2206975504514195,-1.9609470317816391,2.0860605415764462,-0.40972847671407792,0.39786891249918088,0.05745454401711874,2.1078637801779143,-0.8226918950174742,2.9809679763364989,-2.9809679763364989,0.8226918950174742,4.1135101718654488,0.0
809640.0783812654,3955767.5119837918,-7500.0,2.1744358593000697,-1.7278898127509486,1.6845871743942507,-0.3713839994645432,0.32298908776413121,0.047793828608754821,1.8790459828261759,-0.81129318027127861,2.6064105406837319,-2.6064105406837319,0.81129318027127861,3.6611991138767279,0.0
814640.0783812654,3955767.5119837918,-7500.0,2.0859254662280637,-1.5044292479136285,1.3569751011883173,-0.33226456625866169,0.26098558423653406,0.039574152696094114,1.6692688018287123,-0.7730516014520028,2.2608881181137086,-2.2608881181137086,0.7730516014520028,3.2484912703487177,0.0
659640.0783812654,3960767.5119837918,-7500.0,-2.2070799279882527,-0.84353606499322875,-0.45520684879112638,-0.32155842882296576,-0.12735561841308216,-0.033954508741888836,1.3033701176120684,-0.37010439674018802,0.21977441604422288,-0.21977441604422288,0.37010439674018802,2.5451936198631007,0.0
664640.0783812654,3960767.5119837918,-7500.0,-2.525209972878292,-1.1055323974982616,-0.6652962714706997,-0.39204624319492848,-0.18138386281435628,-0.044623968777502701,1.5586973752110995,-0.55882501387189687,0.32329701030730307,-0.32329701030730307,0.55882501387189687,3.0373206510196362,0.0
669640.0783812654,3960767.5119837918,-7500.0,-2.865578759161,-1.4311296320594731,-0.9588497168676654,-0.47640327817650208,-0.25546882707653362,-0.058779036228849668,1.8665145570295054,-0.81196948088123333,0.44862167299253175,-0.44862167299253175,0.81196948088123333,3.6308405451400394,0.0
674640.0783812654,3960767.5119837918,-7500.0,-3.214633542448607,-1.8281628477878908,-1.365603930333543,-0.57561836434622959,-0.3562820771144668,-0.07749891719863003,2.2355929326601971,-1.1463169581525183,0.5936160647786044,-0.5936160647786044,1.1463169581525183,4.3429515076471521,0.0
679640.0783812654,3960767.5119837918,-7500.0,-3.5493595523662345,-2.2995279326434845,-1.9229093311238465,-0.68932512777152721,-0.49203238798141041,-0.10209733646466861,2.6742326564207382,-1.5794575362462893,0.75025422458779667,-0.75025422458779667,1.5794575362462893,5.1901288866897106,0.0
684640.0783812654,3960767.5119837918,-7500.0,-3.8345322255517793,-2.8378742675936612,-2.6747446404339938,-0.81464863356047379,-0.6721661537464253,-0.13407283768831066,3.1885707789566995,-2.1265140248316796,0.90058379198518279,-0.90058379198518279,2.1265140248316796,6.1849600116546446,0.0
689640.0783812654,3960767.5119837918,-7500.0,-4.0211257326201197,-3.4177617862715284,-3.6673313974958948,-0.94458530290385079,-0.90633148171780131,-0.17494658502403368,3.7797815014550888,-2.7939379762429688,1.0114705600991449,-1.0114705600991449,2.7939379762429688,7.3308818980675579,0.0
694640.0783812654,3960767.5119837918,-7500.0,-4.048071750323321,-3.9856050957565539,-4.9386455611487285,-1.0660381308506703,-1.2020729247005442,-0.22590836180332263,4.4398698875354095,-3.5693330870041642,1.0290764882730326,-1.0290764882730326,3.5693330870041642,8.6142537153093741,0.0
699640.0783812654,3960767.5119837918,-7500.0,-3.8506901718905406,-4.4496676897564456,-6.4986296654087239,-1.1580305222176419,-1.5606602880603397,-0.28718170539273596,5.1460452749496373,-4.4071432193803952,0.87580747651163282,-0.87580747651163282,4.4071432193803952,9.9937402547393095,0.0
704640.0783812654,3960767.5119837918,-7500.0,-3.3793739708640635,-4.6758778721084164,-8.2981771983729189,-1.1913009193756579,-1.9707550893227441,-0.35706379450147091,5.8544050617680172,-5.2126529470970357,0.45517047265360233,-0.45517047265360233,5.2126529470970357,11.388408807885822,0.0
709640.0783812654,3960767.5119837918,-7500.0,-2.6295230433526395,-4.4996606198198448,-10.190242405484751,-1.1312742456439557,-2.4006981958583782,-0.43075193376857462,6.4950486600537234,-5.8317517965014263,-0.3275089431052729,0.3275089431052729,5.8317517965014263,12.66860686052051,0.0
714640.0783812654,3960767.5119837918,-7500.0,-1.6759099447698254,-3.7659663100823959,-11.897655491788305,-0.94664561708933537,-2.7923771981693113,-0.49938507929544318,6.9726431680042857,-6.0602269587656208,-1.5216449262558607,1.5216449262558607,6.0602269587656208,13.657322664466442,0.0
719640.0783812654,3960767.5119837918,-7500.0,-0.69189057694196532,-2.4022727837423816,-13.017034105731181,-0.62421095771903523,-3.0623784021228961,-0.55013223846221226,7.1781269390868729,-5.688717996774602,-3.0686171610796924,3.0686171610796924,5.688717996774602,14.152476683430812,0.0
724640.0783812654,3960767.5119837918,-7500.0,0.075594481328701918,-0.50596740838757703,-13.094254008456527,-0.18603707232429584,-3.1170964725681247,-0.56831775747085456,7.0258178203240558,-4.5881831544127376,-4.745322569233295,4.745322569233295,4.5881831544127376,13.978555550529672,0.0
729640.0783812654,3960767.5119837918,-7500.0,0.39301742873605833,1.605622373725343,-11.783110562387662,0.30107950650146781,-2.8838193816788067,-0.54194012467342956,6.6475954199877894,-2.8096745558727898,-6.1633002039105351,6.1633002039105351,2.8096745558727898,13.065348619669088,0.0
734640.0783812654,3960767.5119837918,-7500.0,0.16378801043917418,3.4465294307844609,-9.0362509905379014,0.73594488485376242,-2.3480863706550932,-0.46728175659062149,6.0424232907229332,-0.63605861711856715,-6.8678563126175751,6.8678563126175751,0.63605861711856715,11.534043912953207,0.0
739640.0783812654,3960767.5119837918,-7500.0,-0.488440873359131,4.5322238116420115,-5.213624972855559,1.0163035051466625,-1.5757620448561986,-0.35255112354352974,5.3299715370058323,1.4770715208007914,-6.5232226378282814,6.5232226378282814,-1.4770715208007914,9.7549366696839659,0.0
744640.0783812654,3960767.5119837918,-7500.0,-1.2533647921599536,4.5911933293338292,-1.0053271839059021,1.0807135757687039,-0.70016160698620722,-0.21659430488089762,4.7399431956442113,3.0694082597962953,-5.0861842491596736,5.0861842491596736,-3.0694082597962953,8.3120954346441032,0.0
749640.0783812654,3960767.5119837918,-7500.0,-1.7814632830085049,3.6833651389459088,2.8177529574100606,0.93350571508226454,0.12430539180431567,-0.082563808379738035,4.4483346611550134,3.8612502674357136,-2.8473530436455405,2.8473530436455405,-3.8612502674357136,7.7193026814892596,0.0
754640.0783812654,3960767.5119837918,-7500.0,-1.8484197058176384,2.1473343203772894,5.6819715425778927,0.63716413496836677,0.77615028858018498,0.030024395502621194,4.4362327341630854,3.84098053255717,-0.30474002449971227,0.30474002449971227,-3.84098053255717,7.9339915453058341,0.0
759640.0783812654,3960767.5119837918,-7500.0,-1.4305249064955545,0.42526153746359868,7.3601706576918966,0.279850102049849,1.1986181427681559,0.11050781761708639,4.5312877339876874,3.2149535053342828,2.0436967768987446,-2.0436967768987446,-3.2149535053342828,8.4375297064955479,0.0
764640.0783812654,3960767.5119837918,-7500.0,-0.66589994783530859,-1.1128764230628851,7.9445385079567306,-0.059569721082689354,1.3984395993276315,0.15764478696444065,4.5748565082939727,2.277980924131934,3.8611836517745397,-3.8611836517745397,-2.277980924131934,8.7931690800048994,0.0
769640.0783812654,3960767.5119837918,-7500.0,0.24299198178465695,-2.258471564063794,7.7119724169318271,-0.33150653081598741,1.4225154090724272,0.17674013920936074,4.4967317865093621,1.2935378235587525,5.0216624103158676,-5.0216624103158676,-1.2935378235587525,8.831042587790181,0.0
774640.0783812654,3960767.5119837918,-7500.0,1.1160189511663967,-2.9604568432502956,6.9817351954965998,-0.51772513320652014,1.3308181101262666,0.17583424185566804,4.2989274706088176,0.43345459449510049,5.567255841774946,-5.567255841774946,-0.43345459449510049,8.5566169540490442,0.0
779640.0783812654,3960767.5119837918,-7500.0,1.8378152473425688,-3.2717504224000793,6.0240503402683352,-0.62264340758452374,1.177444565732463,0.16278614521524035,4.0528305646599696,-0.22542561891010315,5.6306108718613768,-5.6306108718613768,0.22542561891010315,8.0484524220363909,0.0
784640.0783812654,3960767.5119837918,-7500.0,2.3602357795133488,-3.2903977169294452,5.0264660386061957,-0.66225342578605917,1.0023208618034487,0.14379762126114198,3.747921298800434,-0.67484733569749267,5.3671708391183026,-5.3671708391183026,0.67484733569749267,7.3986990697985302,0.0
789640.0783812654,3960767.5119837918,-7500.0,2.6842899356794336,-3.1180861424670434,4.0981102481449589,-0.65553653755585362,0.83056422697888632,0.12307902846670216,3.4014974960459052,-0.9437399365379846,4.9145735709424185,-4.9145735709424185,0.9437399365379846,6.686244089879569,0.0
794640.0783812654,3960767.5119837918,-7500.0,2.8382920815704629,-2.8392704618943614,3.2896240617981989,-0.61958323143676919,0.67548870383233262,0.1031270411480352,3.0457443943973455,-1.0742577872198005,4.3767393618355541,-4.3767393618355541,1.0742577872198005,5.9685987622786678,0.0
799640.0783812654,3960767.5119837918,-7500.0,2.8606762623392963,-2.5151575398524533,2.6145541571490347,-0.56767990790718403,0.54241877794402038,0.085199040180276006,2.701893081011185,-1.1077604539542918,3.8233260202534236,-3.8233260202534236,1.1077604539542918,5.2828242239274594,0.0
804640.0783812654,3960767.5119837918,-7500.0,2.7894356281519781,-2.1855987415898799,2.066164314736433,-0.50915680527452045,0.43193960861154368,0.069760124965949924,2.3821643582804466,-1.0785872965912926,3.2960561714726193,-3.2960561714726193,1.0785872965912926,4.6498017133463803,0.0
809640.0783812654,3960767.5119837918,-7500.0,2.6570225870594326,-1.8739010691143732,1.6285958884600265,-0.45002618449551751,0.34219920765660883,0.056822107742671636,2.0924056246850937,-1.0125503279293226,2.8166054066086739,-2.8166054066086739,1.0125503279293226,4.0789674742797404,0.0
814640.0783812654,3960767.5119837918,-7500.0,2.4887746711626746,-1.5918531686373429,1.2833980249714914,-0.39382660323701851,0.27034939996527529,0.046169585952488386,1.8343167685314756,-0.92771940366058914,2.3935507695840208,-2.3935507695840208,0.92771940366058914,3.5723308136056215,0.0
819640.0783812654,3960767.5119837918,-7500.0,2.3032240586529427,-1.3438634176204987,1.0128972489322137,-0.3423952511809763,0.21335649473061552,0.037496980602275791,1.6071027489944836,-0.83601249529256716,2.0276099888705161,-2.0276099888705161,0.83601249529256716,3.1274761768969719,0.0
654640.0783812654,3965767.5119837918,-7500.0,-2.0148172676560323,-0.50532695938026517,-0.17179469015949131,-0.27556110156757718,-0.065802108271844822,-0.026813492457505105,1.0961713125745856,-0.086874971722048708,0.049394910542580481,-0.049394910542580481,0.086874971722048708,2.1660593047297496,0.0
659640.0783812654,3965767.5119837918,-7500.0,-2.3651688974446268,-0.71140241340595078,-0.29136671081394461,-0.34326167378143152,-0.10265053755757121,-0.035835274284380762,1.3244122062053822,-0.2036844315233835,0.12981546778665759,-0.12981546778665759,0.2036844315233835,2.6075373029355973,0.0
664640.0783812654,3965767.5119837918,-7500.0,-2.7662591312797224,-0.98183276915486806,-0.46847723369580108,-0.4277853866767069,-0.15557382171503406,-0.048129350039746617,1.606127985102797,-0.37172661428177445,0.23727434735771277,-0.23727434735771277,0.37172661428177445,3.1521356510850729,0.0
669640.0783812654,3965767.5119837918,-7500.0,-3.2164264416816652,-1.3328761541970506,-0.72867331404905866,-0.53256493872200228,-0.23116682252838266,-0.06491645023147663,1.9536389910440226,-0.60957178299686432,0.376687541279634,-0.376687541279634,0.60957178299686432,3.8238225744565404,0.0
674640.0783812654,3965767.5119837918,-7500.0,-3.7068805786435122,-1.7818698642373441,-1.1076913040079734,-0.66093912413346878,-0.33844662194049457,-0.087838764998377311,2.3811974313437005,-0.94077583977116463,0.55110786624947605,-0.55110786624947605,0.94077583977116463,4.6503778805791338,0.0
679640.0783812654,3965767.5119837918,-7500.0,-4.2172867369175879,-2.344310452759538,-1.6541950728001791,-0.81534204243197395,-0.48940917895847003,-0.11905017981172625,2.9043438531550332,-1.3935796323137488,0.75871406173050115,-0.75871406173050115,1.3935796323137488,5.6622532854101921,0.0
684640.0783812654,3965767.5119837918,-7500.0,-4.710102927566604,-3.0279554915884792,-2.431682931165605,-0.99580967267122367,-0.69932990278467833,-0.16126034478471671,3.5383010470129097,-1.9986491129589123,0.9876079283689313,-0.9876079283689313,1.9986491129589123,6.8896033013740912,0.0
689640.0783812654,3965767.5119837918,-7500.0,-5.1245808449897963,-3.8223720997789497,-3.5173591352424665,-1.1975017953345919,-0.98628965897142817,-0.21764597051782281,4.2947372171410274,-2.7830063317425,1.2076826705806547,-1.2076826705806547,2.7830063317425,8.3562287043379211,0.0
694640.0783812654,3965767.5119837918,-7500.0,-5.3730668240461616,-4.6826071989502909,-4.9937531618205275,-1.4070426376407585,-1.3689820431822617,-0.29147277205041822,5.1760467676996553,-3.7575332313999281,1.3595442594222507,-1.3595442594222507,3.7575332313999281,10.068814821461855,0.0
699640.0783812654,3965767.5119837918,-7500.0,-5.3450570553751833,-5.5076074717887922,-6.9263399563420096,-1.5979707855838985,-1.8613599683225777,-0.38519187557307849,6.1663662405272142,-4.8953957021310828,1.3427638006978442,-1.3427638006978442,4.8953957021310828,11.999975128903259,0.0
704640.0783812654,3965767.5119837918,-7500.0,-4.9275846112730912,-6.1194224187544997,-9.3190325094289062,-1.726792057817778,-2.4624913005430971,-0.49874378864149138,7.2193323563080316,-6.1012082470833153,1.0107089590201794,-1.0107089590201794,6.1012082470833153,14.065115863805811,0.0
709640.0783812654,3965767.5119837918,-7500.0,-4.050685708316113,-6.2593625822772054,-12.043695958964994,-1.7332271920643014,-3.1410635251923997,-0.62697496618703996,8.2448133361208775,-7.1785538752476263,0.18684208038169769,-0.18684208038169769,7.1785538752476263,16.097381547472057,0.0
714640.0783812654,3965767.5119837918,-7500.0,-2.7570426754982433,-5.6291853239935383,-14.757319114698959,-1.5504913344369393,-3.817791991770036,-0.75667913951239918,9.1010808764449713,-7.8183007447996875,-1.2767815493863872,1.2767815493863872,7.8183007447996875,17.832971254152234,0.0
719640.0783812654,3965767.5119837918,-7500.0,-1.2685172829051818,-4.0054635605178843,-16.855684039978637,-1.1309815999746669,-4.3562497608146664,-0.8649333411772786,9.6046466212962081,-7.6460268688673274,-3.3870788523211854,3.3870788523211854,7.6460268688673274,18.929149130089638,0.0
724640.0783812654,3965767.5119837918,-7500.0,0.013377049512740744,-1.4190565772887005,-17.549136228473927,-0.4848285898536055,-4.5798020579993093,-0.92156557011971518,9.5855938746866745,-6.3616908847351423,-5.87333586753532,5.87333586753532,6.3616908847351423,19.041169865179871,0.0
729640.0783812654,3965767.5119837918,-7500.0,0.64052955257192801,1.6907572318973978,-16.130190556126685,0.28800445323693435,-4.3285213667188733,-0.89808951297714679,9.1384935896448773,-3.9477043841751458,-8.1254562371881995,8.1254562371881995,3.9477043841751458,17.96813188131328,0.0
734640.0783812654,3965767.5119837918,-7500.0,0.37029983037486169,4.5084133895236826,-12.374596538044171,1.0050088886655695,-3.5438424995659914,-0.7814644848227611,8.2942343538742414,-0.82081612850768781,-9.3361995588740889,9.3361995588740889,0.82081612850768781,15.835523013088535,1.0
739640.0783812654,3965767.5119837918,-7500.0,-0.62414563604599105,6.154531781663402,-6.8272061655145881,1.466750102585527,-2.3306338856358235,-0.58500351797373618,7.2450220903473586,2.241001218314453,-8.86669321627957,8.86669321627957,-2.241001218314453,13.232789117822165,0.0
744640.0783812654,3965767.5119837918,-7500.0,-1.7925776151867649,6.1351261294949122,-0.69014595282369329,1.5521748168587763,-0.93893132754479869,-0.34706897711139201,6.3842278973178752,4.4319639527741908,-6.6287948485140573,6.6287948485140573,-4.4319639527741908,11.15809617615559,0.0
749640.0783812654,3965767.5119837918,-7500.0,-2.5160821738631425,4.5978070984592128,4.693094116670415,1.2769317199546557,0.33894462529674391,-0.11588496273640558,5.9995727656800399,5.3052903661549111,-3.1781880941233593,3.1781880941233593,-5.3052903661549111,10.444401810850136,0.0
754640.0783812654,3965767.5119837918,-7500.0,-2.4480718241187001,2.196558382846733,8.4090311345816531,0.77178616005328893,1.2887805115511766,0.069932723374598951,6.0129444230103832,4.930428955860112,0.57411739773160919,-0.57411739773160919,-4.930428955860112,10.86845114878753,0.0
759640.0783812654,3965767.5119837918,-7500.0,-1.633093422165012,-0.29465855809857466,10.22457711460082,0.20510021538824988,1.8349980183572214,0.19276914217102867,6.1174348533175573,3.7442330668859745,3.8003855506281576,-3.8003855506281576,-3.7442330668859745,11.522845586216148,0.0
764640.0783812654,3965767.5119837918,-7500.0,-0.37839199617483077,-2.3157857004746885,10.451947482010924,-0.29021073910160472,2.0221848760530787,0.25506550138142886,6.0873289371074302,2.2674936462205855,6.0399755684261622,-6.0399755684261622,-2.2674936462205855,11.808721943549822,0.0
769640.0783812654,3965767.5119837918,-7500.0,0.95851707576086242,-3.6336421047857015,9.6394151903490126,-0.64733678588967347,1.9554463555999573,0.27090515010656235,5.8585770296540307,0.89366190988561733,7.2231332193551108,-7.2231332193551108,-0.89366190988561733,11.581813425977066,0.0
774640.0783812654,3965767.5119837918,-7500.0,2.115426996761995,-4.2737838115381255,8.3126879547898049,-0.85727906711101609,1.7452949515944507,0.25720097607543713,5.4829405989852935,-0.17637937880594734,7.5322130786541184,-7.5322130786541184,0.17637937880594734,10.932227069506197,0.0
779640.0783812654,3965767.5119837918,-7500.0,2.9658202144797259,-4.3923119945553548,6.8524055168627447,-0.94444171495823648,1.4778550001721169,0.22829226044732598,5.0563950282405381,-0.89771383952093009,7.2404321949519979,-7.2404321949519979,0.89771383952093009,10.017211745731393,0.0
784640.0783812654,3965767.5119837918,-7500.0,3.4917859626480321,-4.1723698355720975,5.4806346504962029,-0.94439290391139308,1.2079183424603126,0.19411563779633045,4.5564910101909764,-1.3136186745563738,6.6041643875667084,-6.6041643875667084,1.3136186745563738,8.9815121301764496,0.0
789640.0783812654,3965767.5119837918,-7500.0,3.7373718258353104,-3.7691956333028376,4.2981254547020882,-0.89049178253647476,0.96415708509942499,0.16052833723301804,4.0376981065182518,-1.4995232887311238,5.8172503874900805,-5.8172503874900805,1.4995232887311238,7.9310915141127261,0.0
794640.0783812654,3965767.5119837918,-7500.0,3.7697594518755753,-3.2932262251573907,3.3302867066312474,-0.80849266212993454,0.7576995139411965,0.13041739489599058,3.5380642656582304,-1.5303058700658312,5.0060023006670242,-5.0060023006670242,1.5303058700658312,6.9323790275399855,0.0
799640.0783812654,3965767.5119837918,-7500.0,3.6557443715202229,-2.813381709251678,2.5634672199302302,-0.71593166730740165,0.58964533797101037,0.1048159395835826,3.0783912738597543,-1.4665568128446864,4.2422280192514208,-4.2422280192514208,1.4665568128446864,6.0207668421784177,0.0
804640.0783812654,3965767.5119837918,-7500.0,3.4510498513968284,-2.367375512620816,1.9681253269618186,-0.6235734440804257,0.45626040504595367,0.083742703780941702,2.667662637555321,-1.3519041541779655,3.5600836810376615,-3.5600836810376615,1.3519041541779655,5.2104522708154635,0.0
809640.0783812654,3965767.5119837918,-7500.0,3.1975787694451756,-1.9722405461224257,1.5115192587126387,-0.53732626147624074,0.35206860919988475,0.066741692522871571,2.3075640151100498,-1.2152542812199356,2.9704701764037291,-2.9704701764037291,1.2152542812199356,4.5025963189852929,0.0
814640.0783812654,3965767.5119837918,-7500.0,2.9245627033197872,-1.6325870287306599,1.1636340005684556,-0.45992510351017829,0.27146947829659396,0.053191827093724137,1.9956931045121646,-1.0744229430534551,2.471349089203223,-2.471349089203223,1.0744229430534551,3.8911518561239977,0.0
819640.0783812654,3965767.5119837918,-7500.0,2.6511106257958663,-1.3462736966221334,0.89930865585877384,-0.39218610050796121,0.20946098309656092,0.042466307550983864,1.7276489954554393,-0.93955692383278222,2.0543843767095407,-2.0543843767095407,0.93955692383278222,3.3666626184820365,0.0
654640.0783812654,3970767.5119837918,-7500.0,-2.0542983132422803,-0.32955198034621808,-0.033462336752606625,-0.27948228269127062,-0.036847156655460164,-0.026842541635602114,1.0837362086370426,0.076270646883184273,-0.066370356147251452,0.066370356147251452,-0.076270646883184273,2.1590315159390068,0.0
659640.0783812654,3970767.5119837918,-7500.0,-2.4622754425846862,-0.51828562623606433,-0.1148174026903495,-0.35548902505379754,-0.068542900865181194,-0.036646992140016287,1.3190750081099167,-0.0070450270596098359,0.0017828239923570041,-0.0017828239923570041,0.0070450270596098359,2.6266410718911062,0.0
664640.0783812654,3970767.5119837918,-7500.0,-2.9468918177721544,-0.77795341641008897,-0.24537656872108188,-0.45331436125451341,-0.11651369520945824,-0.05037151494126562,1.6214671045343694,-0.13823516584456821,0.10104313069806495,-0.10104313069806495,0.13823516584456821,3.2149437547908337,0.0
669640.0783812654,3970767.5119837918,-7500.0,-3.5152434541991893,-1.1318546508020775,-0.45122981250450644,-0.57887462223735131,-0.18855003988886132,-0.069680282865306697,2.0039005410411281,-0.33868101910297221,0.24067089817170462,-0.24067089817170462,0.33868101910297221,3.9570264458201652,0.0
674640.0783812654,3970767.5119837918,-7500.0,-4.1686691999568266,-1.608526922695408,-0.77142764343844961,-0.73901497449381548,-0.29598212320265732,-0.096940784393932583,2.4870966832051704,-0.63782801664519706,0.43036972414793667,-0.43036972414793667,0.63782801664519706,4.8939656451270217,0.0
679640.0783812654,3970767.5119837918,-7500.0,-4.8969605909441718,-2.2403439363125512,-1.2634361835903298,-0.94090280944041205,-0.45501579477598131,-0.13547410358889339,3.0963559501496412,-1.0748401701366239,0.67776801559169519,-0.67776801559169519,1.0748401701366239,6.0751716922943633,0.0
684640.0783812654,3970767.5119837918,-7500.0,-5.6694467006280593,-3.0587621504446156,-2.0095176799348216,-1.1905048573741344,-0.68819604797933787,-0.18982311319054512,3.8604161377083415,-1.6989072611775284,0.98299416867639278,-0.98299416867639278,1.6989072611775284,7.5569270363694434,0.0
689640.0783812654,3970767.5119837918,-7500.0,-6.4227035475608956,-4.0832057581640537,-3.122196078815525,-1.4894444400890914,-1.0254671678487959,-0.26593652283115621,4.8085814807129097,-2.5657787455794647,1.3283739257261968,-1.3283739257261968,2.5657787455794647,9.3971519593680313,0.0
694640.0783812654,3970767.5119837918,-7500.0,-7.0466147906721224,-5.2993510748093708,-4.7438497431997906,-1.8293282064429754,-1.5035294555849266,-0.37102575373190566,5.964203954159264,-3.7260443979584639,1.6610626507244102,-1.6610626507244102,3.7260443979584639,11.643212431402644,0.0
699640.0783812654,3970767.5119837918,-7500.0,-7.3752021056433401,-6.6227632043871241,-7.0298176341339849,-2.1828346533863114,-2.1608751055023605,-0.51261310647558744,7.3321861989819102,-5.1982969694595198,1.8680550020898121,-1.8680550020898121,5.1982969694595198,14.308375482596148,0.0
704640.0783812654,3970767.5119837918,-7500.0,-7.1970008540890733,-7.8491267151165216,-10.096703625935373,-2.4923148161741309,-3.0242290806783956,-0.69599316465645078,8.8782823215493458,-6.919912031455155,1.7494992480619977,-1.7494992480619977,6.919912031455155,17.332672089318791,0.0
709640.0783812654,3970767.5119837918,-7500.0,-6.3091925086572163,-8.6089993403138791,-13.913467174792038,-2.6606775863569134,-4.0815443512540313,-0.91922975058092904,10.50043472232232,-8.6759325737854649,1.0115727672739481,-1.0115727672739481,8.6759325737854649,20.528582182851316,0.0
714640.0783812654,3970767.5119837918,-7500.0,-4.6376385888628846,-8.3773407858444795,-18.129360550608144,-2.5565153974742807,-5.2410729429299741,-1.1655836790742236,11.99991952196344,-10.032521605819154,-0.67628856810595472,0.67628856810595472,10.032521605819154,23.526136357396965,0.0
719640.0783812654,3970767.5119837918,-7500.0,-2.4050067901947374,-6.6206254586258488,-21.897444023164343,-2.0517971191538829,-6.2911492163112381,-1.3959223274520074,13.074994989716663,-10.34896653938852,-3.5037588604662204,3.5037588604662204,10.34896653938852,25.758614293423967,0.0
724640.0783812654,3970767.5119837918,-7500.0,-0.23396574343413717,-3.1361113411854658,-23.869212040318139,-1.1024734051153686,-6.9010380076426561,-1.5481950672361269,13.392648576982385,-8.9767458559763718,-7.2212832438723211,7.2212832438723211,8.9767458559763718,26.557764120496749,0.0
729640.0783812654,3970767.5119837918,-7500.0,1.0130219955559736,1.5353185128201712,-22.601010276154224,0.15697004340280096,-6.7159536380199079,-1.5534935475109557,12.926004027845806,-5.678552287022292,-10.891568892614281,10.891568892614281,5.678552287022292,25.417737285160683,0.0
734640.0783812654,3970767.5119837918,-7500.0,0.74213766695356642,6.0030904259745901,-17.39677631936225,1.3901656916347063,-5.5504545994574297,-1.3702482999853647,11.728360244402563,-1.0455069932134133,-13.038296669483502,13.038296669483502,1.0455069932134133,22.394141922294558,0.0
739640.0783812654,3970767.5119837918,-7500.0,-0.82872929039052412,8.5933578841850693,-9.0696958843695334,2.1868177782682778,-3.5665675253221392,-1.0179600342239452,10.127486774427027,3.5387073819403607,-12.382112194484467,12.382112194484467,-3.5387073819403607,18.45088131608243,0.0
744640.0783812654,3970767.5119837918,-7500.0,-2.6724841160675186,8.3576917885722981,0.17833716061626448,2.2932489090272967,-1.2599661491706877,-0.5795120216768036,8.8318756772339633,6.5904109003518583,-8.7353030064622672,8.7353030064622672,-6.5904109003518583,15.382898836923939,0.0
749640.0783812654,3970767.5119837918,-7500.0,-3.6405730114323931,5.6658382852724856,7.8943495473723075,1.7591527533659366,0.78445743534612677,-0.16207286674305463,8.3258977420721632,7.3871448198799401,-3.2260531287738479,3.2260531287738479,-7.3871448198799401,14.576190104470221,0.0
754640.0783812654,3970767.5119837918,-7500.0,-3.211437263527817,1.8375513551792899,12.616870060969177,0.87269720217383862,2.1790855911986542,0.15434120336147583,8.3779539753904544,6.2478033568709614,2.4080129231565452,-2.4080129231565452,-6.2478033568709614,15.337830019168987,0.0
759640.0783812654,3970767.5119837918,-7500.0,-1.6472341207596826,-1.7526690516150987,14.264916207549298,-0.035492948199982222,2.846602270540171,0.34241328840225771,8.4422495081604492,4.0970769835265815,6.788368485214419,-6.788368485214419,-4.0970769835265815,16.094235468952551,0.0
764640.0783812654,3970767.5119837918,-7500.0,0.39337943856049556,-4.3019180040235199,13.664487999118542,-0.74633755732236839,2.9368829273094272,0.41852245988307751,8.2204930318666989,1.8386314821675374,9.3667931637455393,-9.3667931637455393,-1.8386314821675374,16.088992436032953,0.0
769640.0783812654,3970767.5119837918,-7500.0,2.3061806329085628,-5.6476570932262229,11.854625427514666,-1.1868200599592373,2.6764125876152942,0.41829506579075243,7.695260296969562,0.01273836248931115,10.295297379047849,-10.295297379047849,-0.01273836248931115,15.302501479690742,0.0
774640.0783812654,3970767.5119837918,-7500.0,3.7526726161805777,-6.0147867379484712,9.6539407349813935,-1.3844082913127462,2.2616137250509074,0.3766474469489195,7.0336568274259372,-1.210962258477541,10.052666911057369,-10.052666911057369,1.210962258477541,13.991882233527457,0.0
779640.0783812654,3970767.5119837918,-7500.0,4.6474304975984841,-5.7454628049694536,7.5479852380086108,-1.4072736792526737,1.8211342113195272,0.3188909381209023,6.288666600618094,-1.8890472255225337,9.1416982817207817,-9.1416982817207817,1.8890472255225337,12.43489099510338,0.0
784640.0783812654,3970767.5119837918,-7500.0,5.0566651747631379,-5.1422329393002819,5.7525828192683068,-1.3244889680124714,1.4217259149841088,0.25997463924357783,5.5037461198368849,-2.163476801220908,7.9475323671940856,-7.9475323671940856,2.163476801220908,10.839052018401906,0.0
789640.0783812654,3970767.5119837918,-7500.0,5.1038494957562905,-4.4164997400522594,4.3188922483448726,-1.1892925183176837,1.0885032428757278,0.20711726086232221,4.7509919028505845,-2.1781831581417452,6.7135993938507799,-6.7135993938507799,2.1781831581417452,9.3308411666568123,0.0
794640.0783812654,3970767.5119837918,-7500.0,4.9129294026266788,-3.6936442824501392,3.2178183222529033,-1.0366666336702923,0.82372138039660225,0.16281976308894308,4.0676378194744878,-2.0460095196978623,5.5698373075349172,-5.5698373075349172,2.0460095196978623,7.9733046976117574,0.0
799640.0783812654,3970767.5119837918,-7500.0,4.5842593289013065,-3.0367214461924283,2.3915330678255917,-0.88684703393862696,0.61943165920933674,0.12712768477790587,3.4677259678077395,-1.8439068508322629,4.5713432508625269,-4.5713432508625269,1.8439068508322629,6.7879608495719186,0.0
804640.0783812654,3970767.5119837918,-7500.0,4.1897979252148874,-2.4699669376342204,1.7794575551031866,-0.74998687233034322,0.46457164736015794,0.099026077668125226,2.951887325200778,-1.6193713795914819,3.7301568210448712,-3.7301568210448712,1.6193713795914819,5.7724460907857615,0.0
809640.0783812654,3970767.5119837918,-7500.0,3.7768115403487688,-1.9961651767948418,1.3288818100937154,-0.63006156056211249,0.34835292058184375,0.077189196895725676,2.513919022257181,-1.3991396394280375,3.0366364863773869,-3.0366364863773869,1.3991396394280375,4.9124493019736839,0.0
814640.0783812654,3970767.5119837918,-7500.0,3.3739654950316247,-1.6077237162680655,0.99775208495482171,-0.52760045008993361,0.26156667109474518,0.0603333941326945,2.1447727071443827,-1.1966172993611266,2.4721748472217611,-2.4721748472217611,1.1966172993611266,4.1889516056837106,0.0
819640.0783812654,3970767.5119837918,-7500.0,2.9970643043059169,-1.2930562633049933,0.75405707529010524,-0.44140905420110815,0.19686207707824971,0.047353601463627278,1.8347779162859184,-1.0172339605701217,2.0160439003334902,-2.0160439003334902,1.0172339605701217,3.5822375160899971,0.0
824640.0783812654,3970767.5119837918,-7500.0,2.6535538393649758,-1.0399392297709924,0.57407239964472379,-0.36957476635041597,0.1485878067819503,0.037353614111670638,1.5747678103524685,-0.8619585203984037,1.6486907461474976,-1.6486907461474976,0.8619585203984037,3.0738931671972636,0.0
649640.0783812654,3975767.5119837918,-7500.0,-1.6469166584602046,-0.007778694956272687,0.11454770384920032,-0.21027108051757265,0.011942492036959034,-0.018553890088334909,0.89487307670756544,0.26371661276225439,-0.2303041362269522,0.2303041362269522,-0.26371661276225439,1.7376047292889008,0.0
654640.0783812654,3975767.5119837918,-7500.0,-2.0143772199756724,-0.11060859614532803,0.098180923439788473,-0.27207010402731346,-0.0018431805659326545,-0.02571358999888787,1.0810329547509379,0.24884927560491882,-0.20779472183716613,0.20779472183716613,-0.24884927560491882,2.1154897299598572,0.0
659640.0783812654,3975767.5119837918,-7500.0,-2.4678607188738813,-0.26346517281287629,0.060586158945619466,-0.35378960228827572,-0.025194328091590314,-0.035930233013574439,1.3172492253715986,0.20968839042155696,-0.16392392290829272,0.16392392290829272,-0.20968839042155696,2.5969154126359566,0.0
664640.0783812654,3975767.5119837918,-7500.0,-3.0257052333801626,-0.48738408741538403,-0.012693588934634691,-0.46219214482171977,-0.063540820174266169,-0.050635034177757325,1.6191250734937739,0.13184763159493618,-0.088961834947397858,0.088961834947397858,-0.13184763159493618,3.2141822437743008,0.0
669640.0783812654,3975767.5119837918,-7500.0,-3.7074111371778935,-0.81147239549322381,-0.14510080773678155,-0.60620321314605174,-0.12531702705407149,-0.071972911232730807,2.0083168111811922,-0.0064379480380478884,0.030123712024645054,-0.030123712024645054,0.0064379480380478884,4.0101033974467502,0.0
674640.0783812654,3975767.5119837918,-7500.0,-4.5308084773483621,-1.2751098215488956,-0.37439985717373919,-0.79731089564389579,-0.22357619617383287,-0.10316076038934731,2.5330191433187026,-0.23762837952835664,0.20989673826875083,-0.20989673826875083,0.23762837952835664,5.04097925962256,0.0
679640.0783812654,3975767.5119837918,-7500.0,-5.5061574062531573,-1.9295671815100677,-0.76081192783292195,-1.0496495468623697,-0.37835669795187182,-0.14900261517026869,3.2208925877252623,-0.60910195134300693,0.46950264285357207,-0.46950264285357207,0.60910195134300693,6.3796789347384566,0.0
684640.0783812654,3975767.5119837918,-7500.0,-6.6251166865590276,-2.8371693977022971,-1.3987665308176904,-1.3791878135670457,-0.61994705669630301,-0.21658722636420052,4.1146323910425329,-1.1876696419608217,0.82684517450046457,-0.82684517450046457,1.1876696419608217,8.1178098991421539,0.0
689640.0783812654,3975767.5119837918,-7500.0,-7.841995873702361,-4.0639490241102267,-2.4321877640479972,-1.8008687989015237,-0.99287553854445798,-0.31612170943430096,5.2700186827304032,-2.0622179304983819,1.288671601985782,-1.288671601985782,2.0622179304983819,10.364608359362851,0.0
694640.0783812654,3975767.5119837918,-7500.0,-9.0454777526042953,-5.658094907282841,-4.0700184619553106,-2.321670654858202,-1.559475304358394,-0.4616478729506045,6.7467299227730875,-3.3389701347474627,1.829220297022359,-1.829220297022359,3.3389701347474627,13.237722686879637,0.0
699640.0783812654,3975767.5119837918,-7500.0,-10.023797521544942,-7.6019733809238774,-6.5903154457457296,-2.9266221336273084,-2.3995480558807336,-0.67090546970014131,8.5943866587443676,-5.1177889610329119,2.350572648165647,-2.350572648165647,5.1177889610329119,16.837198207860549,0.0
704640.0783812654,3975767.5119837918,-7500.0,-10.440227442064868,-9.7244166417944502,-10.303927027825324,-3.5550675935450582,-3.5981586592470962,-0.9626935550028326,10.822938811543494,-7.429928879284537,2.6215906502241388,-2.6215906502241388,7.429928879284537,21.189597109278626,0.0
709640.0783812654,3975767.5119837918,-7500.0,-9.8632735617669223,-11.575794463555969,-15.422830037494144,-4.0693538175284099,-5.2074418952555739,-1.3488552741483286,13.350438011145702,-10.115485993316524,2.2126812131661651,-2.2126812131661651,10.115485993316524,26.148971365101186,0.0
714640.0783812654,3975767.5119837918,-7500.0,-7.9273589388183794,-12.326762373857584,-21.765539760986016,-4.23345465360494,-7.1665989568511366,-1.8176925350325364,15.930258208027434,-12.646785781250248,0.49691411938148633,-0.49691411938148633,12.646785781250248,31.258022795649271,0.0
719640.0783812654,3975767.5119837918,-7500.0,-4.6786275865333753,-10.866441954708948,-28.305928880652512,-3.7465372339583558,-9.1851885158115714,-2.3097532218024357,18.090110404062873,-14.002190535534735,-3.1329365718771864,3.1329365718771864,14.002190535534735,35.626989919958888,0.0
724640.0783812654,3975767.5119837918,-7500.0,-0.97495709616718085,-6.3550259550190056,-32.841148363890191,-2.3914496044233102,-10.662539182508795,-2.7001547548871132,19.190333454406591,-12.856535539365199,-8.6862037194967581,8.6862037194967581,12.856535539365199,37.984738488758239,0.0
729640.0783812654,3975767.5119837918,-7500.0,1.542319880693972,0.77137071900239218,-32.438831307663506,-0.28992066575300646,-10.806178799908258,-2.8193603522252317,18.884579335798314,-8.3650791235736506,-14.821629154465928,14.821629154465928,8.3650791235736506,37.119882491901869,0.0
734640.0783812654,3975767.5119837918,-7500.0,1.4207781815669958,8.1395473885901275,-25.165358275355345,1.933686229861765,-9.0673084227582592,-2.5372280016266462,17.166723068383114,-1.2686884100942368,-18.770737579022892,18.770737579022892,1.2686884100942368,32.770150146876325,0.0
739640.0783812654,3975767.5119837918,-7500.0,-1.1644176544860261,12.390754963829309,-12.158653159608761,3.3839806066490561,-5.6676372515355116,-1.8714468819242531,14.622691743014117,5.859632062136753,-17.819892132887418,17.819892132887418,-5.859632062136753,26.550190109292707,0.0
744640.0783812654,3975767.5119837918,-7500.0,-4.1771678852629455,11.587895162924243,2.3023105246774871,3.4901758186541727,-1.6553613923606789,-1.0135791096015134,12.607934130599078,10.121949545629317,-11.549480605270812,11.549480605270812,-10.121949545629317,21.888264387808956,0.0
749640.0783812654,3975767.5119837918,-7500.0,-5.3729836033744283,6.6962623975258646,13.500021825329259,2.4079385729921863,1.7231569207478947,-0.22013780900551416,11.956133177762412,10.361796964249535,-2.415173987031598,2.415173987031598,-10.361796964249535,21.126158457373606,0.0
754640.0783812654,3975767.5119837918,-7500.0,-4.0454377932226375,0.50467766008433523,19.152918615034444,0.80905569617632489,3.7567964752209067,0.33525840563689635,12.042101571647736,7.6249846862262292,6.1272627072839594,-6.1272627072839594,-7.6249846862262292,22.378508858786628,0.0
759640.0783812654,3975767.5119837918,-7500.0,-1.0819570685884647,-4.5508166719079979,19.852167904045725,-0.64484502937724641,4.4585805158754868,0.61920003279015312,11.913092555961869,3.8662344227406411,11.844788752292894,-11.844788752292894,-3.8662344227406411,22.989853884364106,0.0
764640.0783812654,3975767.5119837918,-7500.0,2.1587822662177327,-7.4820713739912899,17.566837559940787,-1.6189239476378028,4.2550095923482365,0.69407023300916393,11.242897986536512,0.57657569946090881,14.357188783073921,-14.357188783073921,-0.57657569946090881,22.186575976158284,0.0
769640.0783812654,3975767.5119837918,-7500.0,4.7436776240078631,-8.47690831803728,14.155578247316608,-2.0885978267513781,3.6148197829113231,0.64734019108198593,10.162671408527396,-1.6433888545790509,14.434793964223324,-14.434793964223324,1.6433888545790509,20.292352926100243,0.0
774640.0783812654,3975767.5119837918,-7500.0,6.3530537704090602,-8.1888397391605103,10.771567724873323,-2.1822416211378002,2.8659123354923648,0.54893787360450641,8.9999970073290942,-2.8240609618667749,13.114745624021662,-13.114745624021662,2.8240609618667749,17.859305105096251,0.0
779640.0783812654,3975767.5119837918,-7500.0,7.0714729565580692,-7.2487024580546189,7.9198556141165684,-2.0524024337158218,2.1786737612504989,0.44094323524307438,7.7585271485545784,-3.2475881495593475,11.221396581225019,-11.221396581225019,3.2475881495593475,15.323736203835887,0.0
784640.0783812654,3975767.5119837918,-7500.0,7.1393500890167765,-6.0909180847869804,5.7125336867294143,-1.8178420161265056,1.615220465463282,0.34333622882964965,6.5738924616729779,-3.2114087130575637,9.2596063283198777,-9.2596063283198777,3.2114087130575637,12.944622627852029,0.0
789640.0783812654,3975767.5119837918,-7500.0,6.8019626134297733,-4.9576154611433969,4.0834626233940039,-1.553470424771578,1.1807065264204382,0.26283080973117756,5.516831808370787,-2.9396944696579297,7.4787940583451018,-7.4787940583451018,2.9396944696579297,10.841112727344425,0.0
794640.0783812654,3975767.5119837918,-7500.0,6.2503572262104621,-3.9577935893678418,2.9126121204348911,-1.2995279506136288,0.8570933540676795,0.19960768298253664,4.6094234626933472,-2.5749004038345067,5.969379443902513,-5.969379443902513,2.5749004038345067,9.0453738881254449,0.0
799640.0783812654,3975767.5119837918,-7500.0,5.6133275690221298,-3.1239123530260677,2.0824539664329151,-1.0739278285459595,0.62072628559713694,0.15127682982068991,3.847888746110967,-2.1970260356677001,4.7383570721196984,-4.7383570721196984,2.1970260356677001,7.5437131029659144,0.0
804640.0783812654,3975767.5119837918,-7500.0,4.9690351952579892,-2.4506113905762361,1.4970049784823494,-0.88198314350621676,0.44980730980122979,0.11484771186382567,3.2168875529354461,-1.8456473952270041,3.756147615261336,-3.756147615261336,1.8456473952270041,6.3024912167261435,0.0
809640.0783812654,3975767.5119837918,-7500.0,4.3602379837165399,-1.9171618776117827,1.0841459428220275,-0.72269763602497994,0.32671302783874889,0.087558518804059182,2.6974409536855397,-1.536777741583319,2.981749418213143,-2.981749418213143,1.536777741583319,5.2824716283132798,0.0
814640.0783812654,3975767.5119837918,-7500.0,3.8071111991648237,-1.4990142865886389,0.79199348283821325,-0.59239027516368137,0.23808044716723098,0.067139203294602115,2.270869363239564,-1.2738441024574398,2.3746142568519102,-2.3746142568519102,1.2738441024574398,4.4458774900319149,0.0
819640.0783812654,3975767.5119837918,-7500.0,3.3164095819347961,-1.1730347090991862,0.58407506448489588,-0.48660319870625224,0.17412004331257844,0.051827897382134648,1.9204812161250497,-1.054195279669627,1.8993443183078416,-1.8993443183078416,1.054195279669627,3.759328256790583,0.0
824640.0783812654,3975767.5119837918,-7500.0,2.8874564705752075,-0.91943226551706569,0.43504322879492813,-0.40101244828044658,0.12779244799550613,0.040298284838295374,1.6320895240596629,-0.87270323704973163,1.5268746289838775,-1.5268746289838775,0.87270323704973163,3.1946400047371317,0.0
649640.0783812654,3980767.5119837918,-7500.0,-1.4983423559755258,0.19935742413785446,0.19481324958577179,-0.18916279091366692,0.04263185006632967,-0.016277770503167002,0.88286970357537109,0.39254317852690629,-0.35937034782511984,0.35937034782511984,-0.39254317852690629,1.6691182209340991,0.0
654640.0783812654,3980767.5119837918,-7500.0,-1.8732550322649859,0.14288699181111991,0.21030492432081729,-0.25037383031408095,0.037772466830479946,-0.023146215267600048,1.0693430648685027,0.4173309100752628,-0.36761784760922878,0.36761784760922878,-0.4173309100752628,2.0403194849712927,0.0
659640.0783812654,3980767.5119837918,-7500.0,-2.3496414574886675,0.045404065085163994,0.21722741950177737,-0.33352549434206119,0.025936483566897619,-0.033212634741277364,1.3087768321664257,0.42993107429878985,-0.3605632800169698,0.3605632800169698,-0.42993107429878985,2.5200416124916916,0.0
664640.0783812654,3980767.5119837918,-7500.0,-2.9556166952182146,-0.11432627889297965,0.20594888851520371,-0.44720911230648069,0.002220330882549363,-0.04813000793658944,1.6192842092759341,0.41907599133230899,-0.32828494810099385,0.32828494810099385,-0.41907599133230899,3.1457876891851608,0.0
669640.0783812654,3980767.5119837918,-7500.0,-3.7255769080257584,-0.36788657697498212,0.15921661311789401,-0.60349813171099809,-0.041493298852351673,-0.070485370168206996,2.0258808209849937,0.36612539484217682,-0.25600686945529766,0.25600686945529766,-0.36612539484217682,3.9693646334925732,0.0
674640.0783812654,3980767.5119837918,-7500.0,-4.6995024038286823,-0.76178228361328604,0.046494773716183664,-0.81921581508936725,-0.11863783668307563,-0.1043587323236565,2.5631631319816823,0.24067010988425661,-0.12234523310214621,0.12234523310214621,-0.24067010988425661,5.062390826723858,0.0
679640.0783812654,3980767.5119837918,-7500.0,-5.9193927353310887,-1.3632587956727307,-0.18572468052446403,-1.1173695385609845,-0.25139978880050129,-0.15621436363653837,3.2789072793617233,-0.0061286864488822035,0.10229963415968721,-0.10229963415968721,0.0061286864488822035,6.5234650173980615,0.0
684640.0783812654,3980767.5119837918,-7500.0,-7.4196643391679871,-2.2664121122663534,-0.63012180765811765,-1.5282890066709152,-0.47620061138516651,-0.23628923100477656,4.2511770983506967,-0.45102758796763964,0.4558145353960148,-0.4558145353960148,0.45102758796763964,8.486701917327137,0.0
689640.0783812654,3980767.5119837918,-7500.0,-9.2059773063097943,-3.5951472467354955,-1.4444479141650626,-2.0891689988389741,-0.85201855574431951,-0.36065249077938077,5.6046482798218111,-1.2105879082782021,0.97935556909696364,-0.97935556909696364,1.2105879082782021,11.129905678432998,0.0
694640.0783812654,3980767.5119837918,-7500.0,-11.214199143365496,-5.4937522757621942,-2.8893930843109343,-2.8389463668441426,-1.4717958420036612,-0.55395817271901726,7.4236542131793266,-2.4516176093559023,1.6993071720335073,-1.6993071720335073,2.4516176093559023,14.677194400671375,0.0
699640.0783812654,3980767.5119837918,-7500.0,-13.240953917147996,-8.0843759320801158,-5.3736803054425692,-3.8022229143871913,-2.4746044637263753,-0.85227510033576892,9.8370396860085343,-4.3872974956435584,2.580894770636923,-2.580894770636923,4.3872974956435584,19.38353251163247,0.0
704640.0783812654,3980767.5119837918,-7500.0,-14.848942739122231,-11.353263172058297,-9.4778357694217892,-4.9516628418005766,-4.0486118461401022,-1.3035614532599156,12.957774980740421,-7.226826346941964,3.4303862259109064,-3.4303862259109064,7.226826346941964,25.475338559641909,0.0
709640.0783812654,3980767.5119837918,-7500.0,-15.295360732086897,-14.917776697175594,-15.86941492229394,-6.1375638685841176,-6.3977104826448148,-1.959383504597735,16.804660362994518,-11.016811256002407,3.7309820730416994,-3.7309820730416994,11.016811256002407,33.003859686039952,0.0
714640.0783812654,3980767.5119837918,-7500.0,-13.634980600357897,-17.680119451852683,-24.924005841962746,-6.9921720852526441,-9.6187299696545292,-2.8456691960921128,21.155346410163308,-15.30235051863362,2.470499038701699,-2.470499038701699,15.30235051863362,41.56492898897087,0.0
719640.0783812654,3980767.5119837918,-7500.0,-9.2644670432018525,-17.611574217676562,-35.828645874379021,-6.884943238624408,-13.432903244768042,-3.8997979474411664,25.346953683207776,-18.656159663747331,-1.7674123082506377,1.7674123082506377,18.656159663747331,49.909737916893299,0.0
724640.0783812654,3980767.5119837918,-7500.0,-3.0008980260638833,-12.366426659147001,-45.340015860970176,-5.1221554957856537,-16.835546815443976,-4.8880916098293392,28.201213850499691,-18.551832190661671,-9.8950996402084623,9.8950996402084623,18.551832190661671,55.714110892866124,0.0
729640.0783812654,3980767.5119837918,-7500.0,2.1750306575072766,-1.4521172529203916,-47.62034224042111,-1.5685524016337058,-18.066717603634721,-5.3916088831394546,28.599759901336146,-12.589701788165117,-20.372479840618304,20.372479840618304,12.589701788165117,56.151361665041222,0.0
734640.0783812654,3980767.5119837918,-7500.0,2.6802208117882107,11.228622572044607,-37.487654887517749,2.6527023588330403,-15.523608882773715,-4.9980282039731527,26.14937802860101,-1.3120763020332991,-27.946396028164436,27.946396028164436,1.3120763020332991,49.862796515392816,0.0
739640.0783812654,3980767.5119837918,-7500.0,-1.7818706881006665,18.538840797061354,-16.185091284272143,5.4596057960043973,-9.3689853143729049,-3.6633426366091362,21.917754923703555,10.265431157407559,-26.481256136869565,26.481256136869565,-10.265431157407559,39.594378929560015,0.0
744640.0783812654,3980767.5119837918,-7500.0,-6.8776387907707983,16.233218097446603,7.36242818639617,5.4593114713899196,-1.9941880619776686,-1.8648166245900233,18.691821796893286,16.077386290609134,-14.991170877062148,14.991170877062148,-16.077386290609134,32.379309487622933,0.0
749640.0783812654,3980767.5119837918,-7500.0,-7.9762765811509579,6.9933913487423309,23.559714167121861,3.158559942865399,3.7513602888574327,-0.27004234626980311,17.900158926575138,14.41651395524929,0.72929593039069474,-0.72929593039069474,-14.41651395524929,32.089736824742445,0.0
754640.0783812654,3980767.5119837918,-7500.0,-4.4870743907922277,-3.0222459882802859,29.230691822829108,0.21696484285298717,6.5920257992201066,0.72926586021914774,17.910884440933582,8.4304614695647953,13.560023256655066,-13.560023256655066,-8.4304614695647953,33.85442613690747,0.0
759640.0783812654,3980767.5119837918,-7500.0,1.0010764033753969,-9.6809117860460212,27.199249355169947,-2.0484050214555536,6.9941862391330663,1.1358995003243315,17.161975588149556,2.1780916554065559,20.261318645618289,-20.261318645618289,-2.1780916554065559,33.516179620211311,0.0
764640.0783812654,3980767.5119837918,-7500.0,5.8699713458936751,-12.329120379314418,21.808365041877103,-3.2363801455506169,6.0761579672000057,1.1554181223741802,15.502518645577371,-2.1896582671834164,21.556363626301646,-21.556363626301646,2.1896582671834164,30.81566152676605,0.0
769640.0783812654,3980767.5119837918,-7500.0,8.9629510217893582,-12.173166235196344,16.061700775023009,-3.5480049748923563,4.7483388344045832,0.99574179899950344,13.472621616476648,-4.4240462415813173,19.657591183923515,-19.657591183923515,4.4240462415813173,26.840063466703704,0.0
774640.0783812654,3980767.5119837918,-7500.0,10.304763770009124,-10.632517939340055,11.273469532696817,-3.3423884953585801,3.4952250894518193,0.78925514946377473,11.398500168797808,-5.1158117114816424,16.489877101435212,-16.489877101435212,5.1158117114816424,22.58355185148352,0.0
779640.0783812654,3980767.5119837918,-7500.0,10.395279851876753,-8.680003551090385,7.7151272892542266,-2.9094376501478862,2.4882283420883895,0.59838192521704781,9.4317555926756143,-4.9366447067930439,13.197998274734939,-13.197998274734939,4.9366447067930439,18.62527728031634,0.0
784640.0783812654,3980767.5119837918,-7500.0,9.7589936285896783,-6.8174092111831257,5.223203501821593,-2.4237522999847871,1.7407223068248607,0.44354403229780404,7.7165236278649934,-4.3680489705665373,10.295118437710549,-10.295118437710549,4.3680489705665373,15.206687413487726,0.0
789640.0783812654,3980767.5119837918,-7500.0,8.7838776666552238,-5.2386763399412901,3.5304920307897873,-1.9706900422914155,1.2085166260972213,0.32565533003391239,6.2864567158177236,-3.6884387684920807,7.9290975473526881,-7.9290975473526881,3.6884387684920807,12.372100323941616,0.0
794640.0783812654,3980767.5119837918,-7500.0,7.7107697260604287,-3.9786883009136442,2.3964120034515886,-1.5823585723634019,0.83760544377826329,0.2387297193196519,5.1227581930427561,-3.034775237318871,6.0784899597468991,-6.0784899597468991,3.034775237318871,10.073276166825762,0.0
799640.0783812654,3980767.5119837918,-7500.0,6.6707776951466862,-3.0052968216132419,1.639419775404708,-1.26390220378089,0.5815509547109281,0.17559253438884129,4.1873611227114589,-2.4622380832662749,4.661661247219258,-4.661661247219258,2.4622380832662749,8.2295060197588903,0.0
804640.0783812654,3980767.5119837918,-7500.0,5.7253489537676039,-2.2663134896031316,1.1328852562124998,-1.0088749712422242,0.40521230408385528,0.12996937913362344,3.4392064405986922,-1.9842767139542694,3.5876998777696967,-3.5876998777696967,1.9842767139542694,6.7569982598381646,0.0
809640.0783812654,3980767.5119837918,-7500.0,4.8959969421496332,-1.7100721841523401,0.79181702554098898,-0.80711302637747906,0.28354864859741336,0.096974970936968968,2.841081981817259,-1.5955479353228563,2.7761346171646135,-2.7761346171646135,1.5955479353228563,5.5809846371321017,0.0
814640.0783812654,3980767.5119837918,-7500.0,4.1832880495316074,-1.2927014236348771,0.56019482666564568,-0.64832008486425996,0.19924476142915334,0.073007095183238641,2.3617658232962122,-1.2837987780670181,2.1621345425338925,-2.1621345425338925,1.2837987780670181,4.6392419736063113,0.0
819640.0783812654,3980767.5119837918,-7500.0,3.5779639400192571,-0.97947325236922744,0.40133913586137049,-0.52345439072770761,0.14049742957232059,0.055480199150168275,1.9760740263018177,-1.0354991926610022,1.6958343222605563,-1.6958343222605563,1.0354991926610022,3.8818247338817993,0.0
824640.0783812654,3980767.5119837918,-7500.0,3.067048407195295,-0.74387726899658546,0.29123055367113859,-0.42508413630618597,0.099303122235049279,0.042561446312898675,1.664112079280756,-0.83821857782802867,1.3397845594485867,-1.3397845594485867,0.83821857782802867,3.2694027438947608,0.0
829640.0783812654,3980767.5119837918,-7500.0,2.6369892772820012,-0.56606199605015084,0.2140727979266798,-0.34730818788052625,0.070234150497540643,0.032956996794113229,1.4103287860100735,-0.68141593521531174,1.066187933041346,-1.066187933041346,0.68141593521531174,2.771299631670844,0.0
644640.0783812654,3985767.5119837918,-7500.0,-0.98350383836849931,0.39976883507600225,0.21146329786717968,-0.11515950894861288,0.067204771236070646,-0.008786843781454029,0.72789365997120359,0.44178294840182314,-0.44208578705939344,0.44208578705939344,-0.44178294840182314,1.3213799023697836,0.0
649640.0783812654,3985767.5119837918,-7500.0,-1.2570744341864295,0.41457221504546782,0.24812984069954752,-0.15577329394405384,0.074010961295301769,-0.012851688740730756,0.87121071477263567,0.5007110706441239,-0.48776220279215043,0.48776220279215043,-0.5007110706441239,1.595543776591994,0.0
654640.0783812654,3985767.5119837918,-7500.0,-1.6129666963423941,0.41497336119227529,0.29000995164824384,-0.21200889160427805,0.079524578039667254,-0.018918720702657141,1.0542854116299167,0.56471439586922867,-0.53294354396519839,0.53294354396519839,-0.56471439586922867,1.9491786617476312,0.0
659640.0783812654,3985767.5119837918,-7500.0,-2.0784497151890053,0.38995650277190341,0.33595305868541159,-0.29058082955416437,0.081782663347350154,-0.028082385417049095,1.2910990211897935,0.63108043180453255,-0.57321712026343097,0.57321712026343097,-0.63108043180453255,2.4109146527352987,1.0
664640.0783812654,3985767.5119837918,-7500.0,-2.6902076236676948,0.3217219767992241,0.38246812232395239,-0.4013815685746967,0.077190979854632594,-0.042103256985929399,1.6014399775407722,0.69392502440965131,-0.6008838188121628,0.6008838188121628,-0.69392502440965131,3.0213802872926698,0.0
669640.0783812654,3985767.5119837918,-7500.0,-3.497203303031637,0.18162009950305621,0.42131900068005396,-0.55907476972593384,0.059244628453303687,-0.063854666174015362,2.0136007971638068,0.74162873627317338,-0.60295073263198573,0.60295073263198573,-0.74162873627317338,3.8387794741320929,0.0
674640.0783812654,3985767.5119837918,-7500.0,-4.563667332995097,-0.076264629975950612,0.43487007868885819,-0.7854633187328357,0.016230153054185351,-0.098092074223877432,2.5683896226447125,0.7523500144209575,-0.55808414612905322,0.55808414612905322,-0.7523500144209575,4.947169964967908,0.0
679640.0783812654,3985767.5119837918,-7500.0,-5.9710169304044003,-0.52499133505837725,0.38712826322577198,-1.1128964130134187,-0.072908192487694631,-0.15278627923251697,3.3250532969749975,0.6862733060010946,-0.43225993740522539,0.43225993740522539,-0.6862733060010946,6.4686221686605885,0.0
684640.0783812654,3985767.5119837918,-7500.0,-7.8156074913308196,-1.2792168714569674,0.2066524884092811,-1.5888381698526046,-0.24597192114058863,-0.24143130943475144,4.3698829965323451,0.47253118832526025,-0.17332361780862476,0.17332361780862476,-0.47253118832526025,8.5806004285240292,0.0
689640.0783812654,3985767.5119837918,-7500.0,-10.195188875421101,-2.514122206797575,-0.2454844579706203,-2.281041388368918,-0.57055780663145084,-0.38698557914325404,5.8286838585163192,-0.011859927042546264,0.2935785723341886,-0.2935785723341886,0.011859927042546264,11.539377614158379,0.0
694640.0783812654,3985767.5119837918,-7500.0,-13.169209190254824,-4.4836315391149117,-1.2336209183455271,-3.2806215861055681,-1.1661974324120732,-0.62835591435860849,7.8913579815063866,-0.97280528798657495,1.0626446894054566,-1.0626446894054566,0.97280528798657495,15.70748693037719,0.0
699640.0783812654,3985767.5119837918,-7500.0,-16.665921324601459,-7.5174178141468282,-3.2445842713776067,-4.6946668024977765,-2.2388529616919239,-1.0301777358464901,10.861337440603405,-2.7344898911828914,2.2163278420232158,-2.2163278420232158,2.7344898911828914,21.574243202858305,0.0
704640.0783812654,3985767.5119837918,-7500.0,-20.299104915974588,-11.938275952857856,-7.1241893601496455,-6.6074337026114325,-4.1244824803003226,-1.6946454179254988,15.032680561383454,-5.7491010604771473,3.7200150496643323,-3.7200150496643323,5.7491010604771473,29.73496319222518,0.0
709640.0783812654,3985767.5119837918,-7500.0,-23.083605860623731,-17.769464962143406,-14.182042453089732,-8.9681594311515216,-7.3110540012603371,-2.7664830469136352,20.663266694144163,-10.484134507224571,5.1579846443401571,-5.1579846443401571,10.484134507224571,40.743944227811916,0.0
714640.0783812654,3985767.5119837918,-7500.0,-23.204187142878727,-24.038415662474929,-25.969693979436972,-11.352652474365899,-12.332992359161297,-4.4020637736967094,27.773778851934381,-16.968090282016615,5.2391225944636401,-5.2391225944636401,16.968090282016615,54.677763403989076,0.0
719640.0783812654,3985767.5119837918,-7500.0,-18.443804172831914,-27.702549573857493,-43.005894994264708,-12.63453041250458,-19.30504744648049,-6.6417408370687401,35.662635579233488,-23.728390759844061,1.3114759558535116,-1.3114759558535116,23.728390759844061,70.226140159325212,0.0
724640.0783812654,3985767.5119837918,-7500.0,-8.3280835191175662,-23.390685618930206,-61.662851986114475,-10.973587581020107,-26.888655338111764,-9.1343214909566779,42.353596820994568,-26.496797119175575,-9.8626697391791129,9.8626697391791129,26.496797119175575,83.509746638217024,0.0
729640.0783812654,3985767.5119837918,-7500.0,2.454131280354551,-7.0793700780379583,-71.000350815458702,-5.0511701930921964,-31.32779085127736,-10.874380956048618,44.981490786360602,-19.192036660105572,-27.913504862953943,27.913504862953943,19.192036660105572,88.121269038159738,0.0
734640.0783812654,3985767.5119837918,-7500.0,5.0465682018493778,15.721024180834425,-57.309862801937861,3.3956825626747222,-27.919800373088851,-10.530984147397177,41.665590526101788,-0.54253273350611408,-43.093639469969155,43.093639469969155,0.54253273350611408,79.209933715108093,0.0
739640.0783812654,3985767.5119837918,-7500.0,-3.0967178324155533,28.915469028005042,-20.343980419664735,9.2039139469345539,-16.030047648210104,-7.6789798770110602,34.28708738638263,19.210322037266518,-40.539411611963857,40.539411611963857,-19.210322037266518,61.422879625104564,0.0
744640.0783812654,3985767.5119837918,-7500.0,-11.933725366684984,22.441229956394086,19.599022781648785,8.6560997087908174,-1.630632051880764,-3.6073362623870526,29.06984968405721,26.300737605871849,-17.843632916403063,17.843632916403063,-26.300737605871849,50.444786705171886,0.0
749640.0783812654,3985767.5119837918,-7500.0,-11.430122433247716,4.3830446000816181,41.907439199290195,3.526104767723961,8.2618472145363349,-0.21692300266740533,28.219762227591655,19.089930764721931,9.9950396868214462,-9.9950396868214462,-19.089930764721931,51.693853108808469,0.0
754640.0783812654,3985767.5119837918,-7500.0,-2.9083986407745179,-11.241926401671446,44.166880988633906,-1.8709861445614258,11.675872599115253,1.5963850686613676,27.597994603053738,6.8261888094847762,28.145543813638149,-28.145543813638149,-6.8261888094847762,53.131286203494291,0.0
759640.0783812654,3985767.5119837918,-7500.0,6.7120189407041426,-18.518210894865121,35.772212636444706,-5.0940914269660658,10.809486873917074,2.0942899646344553,25.104711057712652,-2.6345934489068767,33.683238833654912,-33.683238833654912,2.6345934489068767,49.569820486668497,0.0
764640.0783812654,3985767.5119837918,-7500.0,13.139233675488537,-19.07806102704048,25.319019955915007,-6.1060630794564901,8.3728929605441405,1.9071257935888166,21.369123393607499,-7.3392487027156825,31.133028898604113,-31.133028898604113,7.3392487027156825,42.724669466471795,0.0
769640.0783812654,3985767.5119837918,-7500.0,15.834927755788756,-16.382622167441063,16.692210255613215,-5.7874912253687913,5.9238748697881451,1.5025636629260872,17.639763517863393,-8.5551612519759601,25.456557934405573,-25.456557934405573,8.5551612519759601,35.062393677643954,0.0
774640.0783812654,3985767.5119837918,-7500.0,15.916544780670016,-12.851645712032667,10.629630377913168,-4.9240834445612611,4.0006355629282746,1.1053681134777136,14.14674200627414,-7.9761567355369936,19.548809960712649,-19.548809960712649,7.9761567355369936,28.022605793844967,0.0
779640.0783812654,3985767.5119837918,-7500.0,14.616693587412584,-9.6146845745934275,6.6793678400621994,-3.9660070441988653,2.6427768196349923,0.78771364146637446,11.196023558051719,-6.7401059362376756,14.553293656741282,-14.553293656741282,6.7401059362376756,22.134670310765017,0.0
784640.0783812654,3985767.5119837918,-7500.0,12.783977489016918,-7.0195796719205861,4.1939595721319849,-3.1077906573488092,1.7314608838151424,0.55471751137115421,8.8302306253608425,-5.4236401067024085,10.693806089496174,-10.693806089496174,5.4236401067024085,17.438064688852752,0.0
789640.0783812654,3985767.5119837918,-7500.0,10.887875961948456,-5.066529251396096,2.6506638411439125,-2.4058816617262382,1.1337352241111092,0.39039863144202558,6.9807557889649212,-4.2587604002661106,7.8371436220926594,-7.8371436220926594,4.2587604002661106,13.777110316555016,0.0
794640.0783812654,3985767.5119837918,-7500.0,9.1461432776097062,-3.6418199005452632,1.693257569368773,-1.8564854353670852,0.74482082236905489,0.27634786744610729,5.5501137247866268,-3.3071998360245711,5.7630710621385397,-5.7630710621385397,3.3071998360245711,10.950143825646689,0.0
799640.0783812654,3985767.5119837918,-7500.0,7.636289302624423,-2.6174586742790966,1.0957492849699311,-1.4354318093077794,0.4917005145909048,0.19744994379986991,4.4458529007696113,-2.5595830860274194,4.2667568523612749,-4.2667568523612749,2.5595830860274194,8.7704583448063431,0.0
804640.0783812654,3985767.5119837918,-7500.0,6.3666953243193536,-1.8847395850584874,0.7191697572871637,-1.1155236794637537,0.32616988478215608,0.14266352052993483,3.5912088032613729,-1.9832369089297699,3.1862275082955418,-3.1862275082955418,1.9832369089297699,7.0846176829064662,0.0
809640.0783812654,3985767.5119837918,-7500.0,5.3160196234123873,-1.3605539792402053,0.47900697876053633,-0.87283815508248885,0.21715448641895133,0.10432286713598622,2.9261058163284752,-1.5425115512313379,2.4019137720141135,-2.4019137720141135,1.5425115512313379,5.7731932440203302,0.0
814640.0783812654,3985767.5119837918,-7500.0,4.4531229673951875,-0.98437293242446311,0.32387882095907022,-0.68824513602916781,0.14478889186198329,0.077222399496306049,2.4048413065660088,-1.2061140172503644,1.8283129347804501,-1.8283129347804501,1.2061140172503644,4.7456197674618696,0.0
819640.0783812654,3985767.5119837918,-7500.0,3.7463023280954961,-0.71312538319918839,0.22236288148949532,-0.54711681950305502,0.09637153661181995,0.057853614487525108,1.993088292123874,-0.94886712631486037,1.4051171462455492,-1.4051171462455492,0.94886712631486037,3.9340118855744408,0.0
824640.0783812654,3985767.5119837918,-7500.0,3.1670565833507682,-0.51647099757914661,0.15506468201038184,-0.43850934030088057,0.063741135431814686,0.043850511961253967,1.6651718044265467,-0.7513425638768656,1.0899556518155276,-1.0899556518155276,0.7513425638768656,3.2876628447143124,0.0
829640.0783812654,3985767.5119837918,-7500.0,2.6912203833151538,-0.3730952130570433,0.10988053020010462,-0.35431417602026172,0.041613778131587502,0.033609238547185706,1.4018725352268377,-0.59885704454854316,0.85300871174390902,-0.85300871174390902,0.59885704454854316,2.7686505217522157,0.0
644640.0783812654,3990767.5119837918,-7500.0,-0.69117311287393945,0.55870815785116135,0.22112198827896379,-0.077348347138139234,0.08901235760683697,-0.0052278398476547291,0.72962383090482541,0.49295253297709507,-0.52691038058402906,0.52691038058402906,-0.49295253297709507,1.2865461801728391,0.0
649640.0783812654,3990767.5119837918,-7500.0,-0.91888540612137493,0.62008636143384988,0.26819557259054883,-0.10962371705641299,0.1035610577800084,-0.008240548404049872,0.86932159989394353,0.57508813795164671,-0.60133392096618821,0.60133392096618821,-0.57508813795164671,1.5424571828568705,0.0
654640.0783812654,3990767.5119837918,-7500.0,-1.2237211082456092,0.68248653700109985,0.32686313656689675,-0.15574150566015207,0.11994648611675172,-0.012924226462282567,1.0475503473232954,0.67237821093684813,-0.68535061496537475,0.68535061496537475,-0.67237821093684813,1.8724821410496981,0.0
659640.0783812654,3990767.5119837918,-7500.0,-1.6348423454977019,0.74036765684645178,0.39975197721994771,-0.22230612274065092,0.13760307551512332,-0.02028489594994112,1.2782729277743816,0.78672523359802582,-0.77818350415762561,0.77818350415762561,-0.78672523359802582,2.3045383600808691,0.0
664640.0783812654,3990767.5119837918,-7500.0,-2.1935799186049172,0.78323435543740538,0.48945775600863894,-0.31945377251363455,0.15498603972645891,-0.032003169038918464,1.5816694614821054,0.91906071365548225,-0.87694892018977866,0.87694892018977866,-0.91906071365548225,2.8792526242877576,0.0
669640.0783812654,3990767.5119837918,-7500.0,-2.9587478128264357,0.79185270004696795,0.59757820468025091,-0.46293888408689488,0.16856771661433359,-0.050939129331153236,1.9873721811940266,1.0677864012984193,-0.97477262788289976,0.97477262788289976,-1.0677864012984193,3.6566330086196763,0.0
674640.0783812654,3990767.5119837918,-7500.0,-4.0140519803432415,0.73160476766232196,0.72233801320023705,-0.67753793687953112,0.17085396658622795,-0.082055618787877344,2.5395824678476555,1.2255950131582927,-1.057457342323523,1.057457342323523,-1.2255950131582927,4.7266267195886753,0.0
679640.0783812654,3990767.5119837918,-7500.0,-5.4778309135307879,0.54084777318561239,0.85306601083976397,-1.0025985461746725,0.14644111006598079,-0.13413564820261026,3.305232669312129,1.3731112033490898,-1.0977120321532463,1.0977120321532463,-1.3731112033490898,6.2259494462661626,0.0
684640.0783812654,3990767.5119837918,-7500.0,-7.5141992148439476,0.11074259367011514,0.95770347046767246,-1.5009691805015413,0.064131217759558545,-0.22302580039065406,4.3870401553694025,1.4663678860498419,-1.0455189184998011,1.0455189184998011,-1.4663678860498419,8.3649320910524967,0.0
689640.0783812654,3990767.5119837918,-7500.0,-10.340987979627226,-0.74872868238879353,0.95503541971798789,-2.2728466105169556,-0.13887423327429563,-0.37781657949507563,5.9442508147426469,1.4126217070198481,-0.8131899320363426,0.8131899320363426,-1.4126217070198481,11.469866997559247,0.0
694640.0783812654,3990767.5119837918,-7500.0,-14.219873676635906,-2.3623511468366338,0.6540434311461808,-3.4753566970283063,-0.58845840527176208,-0.65259592468716754,8.2249140727594643,1.0252558834704806,-0.25592518516574447,0.25592518516574447,-1.0252558834704806,16.047465291714413,0.0
699640.0783812654,3990767.5119837918,-7500.0,-19.389763171820213,-5.2611885694061913,-0.37459735621811036,-5.343796048237679,-1.5346955472005162,-1.1482686649818994,11.614468597526102,-0.054379586419861736,0.840597645342265,-0.840597645342265,0.054379586419861736,22.874401968964218,0.0
704640.0783812654,3990767.5119837918,-7500.0,-25.853863281291417,-10.232196406698122,-3.0537947038477,-8.1922503608876731,-3.462536128872856,-2.0502700626988304,16.708959298502752,-2.4703225592125779,2.71750484513933,-2.71750484513933,2.4703225592125779,33.092756256502099,0.0
709640.0783812654,3990767.5119837918,-7500.0,-32.857969710038041,-18.176376039631457,-9.2346610903417226,-12.318404112479358,-7.2589354179645111,-3.6821272960402696,24.358001640777001,-7.2342817720920181,5.3964574102647269,-5.3964574102647269,7.2342817720920181,48.213153482905511,0.0
714640.0783812654,3990767.5119837918,-7500.0,-37.929808345947478,-29.281678279194939,-22.143190338514412,-17.62342486254358,-14.335667108291386,-6.5376671491796126,35.327193612310673,-15.460229259227207,7.8880234457171934,-7.8880234457171934,15.460229259227207,69.71117206041562,0.0
719640.0783812654,3990767.5119837918,-7500.0,-36.04857044503396,-40.615127591973234,-45.685495368039611,-22.66398060093233,-26.215405785967132,-11.13245219717335,49.508002377230682,-26.856464632739204,6.487471307260634,-6.487471307260634,26.856464632739204,97.494996543331638,0.0
724640.0783812654,3990767.5119837918,-7500.0,-21.898328973766358,-42.395968877629755,-79.220365626095685,-23.401206773150697,-42.355549716807516,-17.312898871584,64.272371277398861,-35.892098969987742,-6.5522439772777759,6.5522439772777759,35.892098969987742,126.43879938355136,0.0
729640.0783812654,3990767.5119837918,-7500.0,0.32535861479839573,-20.325177135066053,-105.38798627335477,-14.397664192856173,-55.694823797210603,-22.920032551581588,73.218313553828324,-28.939074222034392,-36.943906301406372,36.943906301406372,28.939074222034392,142.91699799968259,0.0
734640.0783812654,3990767.5119837918,-7500.0,9.4506118658949863,22.323536781092706,-88.630773621340367,3.2901501079324942,-52.459545408951477,-23.650388698443312,69.584575957391337,3.1509013544917792,-68.60924909474997,68.60924909474997,-3.1509013544917792,131.34896376097544,0.0
739640.0783812654,3990767.5119837918,-7500.0,-6.4362942922523514,47.141048834562824,-19.555941284138484,16.098670076760573,-27.595417481265955,-17.154756290319071,56.275400783027706,38.691119787867919,-62.893525330271714,62.893525330271714,-38.691119787867919,99.374273911160074,0.0
744640.0783812654,3990767.5119837918,-7500.0,-21.510292402743083,28.232007834305577,50.269551396981726,13.171684553707918,2.2042864419312944,-7.2113819198263283,48.385280433801491,43.357322524307861,-14.022112582507773,14.022112582507773,-43.357322524307861,85.185835167072426,0.0
749640.0783812654,3990767.5119837918,-7500.0,-13.664258906273485,-7.4511890172994892,74.997491299604292,1.368453920592599,18.500989308395003,0.30710212088383426,47.428280243446082,21.024342371222417,34.997922495135995,-34.997922495135995,-21.024342371222417,89.534451609286378,0.0
754640.0783812654,3990767.5119837918,-7500.0,5.6634791282794232,-28.601666061644021,63.79553782290759,-7.8848811262528535,20.423305279444666,3.4872417243298868,43.870124491588939,-1.7414450563267607,55.469059909730966,-55.469059909730966,1.7414450563267607,86.038337786459309,0.0
759640.0783812654,3990767.5119837918,-7500.0,20.275209549315992,-32.062630766537708,42.958706753185972,-11.280261718900366,15.933597242244199,3.8069728644938516,36.834114602844728,-13.095693606366957,53.011139905546507,-53.011139905546507,13.095693606366957,73.394205611117187,0.0
764640.0783812654,3990767.5119837918,-7500.0,26.152430275879794,-26.868702764466182,25.881821374314075,-10.831793501819936,10.722792463477706,3.0570578831796462,29.208636142439342,-15.436142915751912,41.819543514779937,-41.819543514779937,15.436142915751912,58.223013427329654,0.0
769640.0783812654,3990767.5119837918,-7500.0,25.996259177825372,-19.874323770025093,14.835430735327524,-8.9253309809512427,6.7424104151294966,2.1806982585862738,22.427844948522385,-13.673356733214163,30.259454835997971,-30.259454835997971,13.673356733214163,44.567642675639156,0.0
774640.0783812654,3990767.5119837918,-7500.0,23.060617566774201,-13.867261368113198,8.3565709037495566,-6.8630512620472528,4.1199991700439984,1.4814603424316888,16.968230232998042,-10.829697587825251,21.098363461849836,-21.098363461849836,10.829697587825251,33.670439422740998,0.0
779640.0783812654,3990767.5119837918,-7500.0,19.35822775732688,-9.4240979472029665,4.7040948643070131,-5.1201750435233366,2.4959342683174239,0.99053964760428848,12.823571322634756,-8.1632020262313958,14.53956282940953,-14.53956282940953,8.1632020262313958,25.4309170547305,0.0
784640.0783812654,3990767.5119837918,-7500.0,15.826529834948468,-6.3398875883031272,2.6681112765069432,-3.7813149871914109,1.5136289377488505,0.66285851022257625,9.7520711061504866,-6.0276324369272887,10.035732214458154,-10.035732214458154,6.0276324369272887,19.336539077810155,0.0
789640.0783812654,3990767.5119837918,-7500.0,12.796917106932725,-4.2560027316267455,1.529983254927145,-2.794199441043276,0.92235562858628073,0.44779883101744711,7.4905529012768532,-4.4246424207426447,6.9859993265595186,-6.9859993265595186,4.4246424207426447,14.853395938076259,0.0
794640.0783812654,3990767.5119837918,-7500.0,10.321287922044894,-2.8608566267960587,0.88763277284497433,-2.0779267790676119,0.56486647362861719,0.30669762562410374,5.820749988500614,-3.2542352920432194,4.9208441921663777,-4.9208441921663777,3.2542352920432194,11.544511266228234,0.0
799640.0783812654,3990767.5119837918,-7500.0,8.3437151143628228,-1.9268796320427546,0.52060134769363364,-1.5597613856904951,0.3468424218696104,0.21335985868445007,4.5783531167320932,-2.4079929373812319,3.512173916426748,-3.512173916426748,2.4079929373812319,9.0827943138672609,0.0
804640.0783812654,3990767.5119837918,-7500.0,6.7786804670480389,-1.2988068383585705,0.30818861900883082,-1.1834555954634376,0.21253471436928695,0.15084137681900939,3.6445721247985836,-1.7964070362229605,2.5407055799084177,-2.5407055799084177,1.7964070362229605,7.2324303675808377,0.0
809640.0783812654,3990767.5119837918,-7500.0,5.5425782983863163,-0.87366676621629258,0.18379046562526477,-0.90808895401404544,0.12899605659190461,0.10835427545937987,2.9348581708743056,-1.3523791671180005,1.8622118180597951,-1.8622118180597951,1.3523791671180005,5.8258236878207779,0.0
814640.0783812654,3990767.5119837918,-7500.0,4.5641231384133505,-0.58383284550520165,0.11019661025773833,-0.70465835429386359,0.076612446532318149,0.079037280781560873,2.3892247965940046,-1.0276481905313715,1.3820245746695774,-1.3820245746695774,1.0276481905313715,4.7441579600985788,0.0
819640.0783812654,3990767.5119837918,-7500.0,3.786046448246811,-0.3849002278354316,0.066320324402539918,-0.5527990279948064,0.043578948093009801,0.058497456835906854,1.9649647500327827,-0.78810083385964869,1.0376764533049732,-1.0376764533049732,0.78810083385964869,3.9028739135267312,0.0
824640.0783812654,3990767.5119837918,-7500.0,3.1636334397794439,-0.24756809522556769,0.04003583077801693,-0.43821923949084907,0.022701025707009059,0.043892001017262414,1.6314566114125599,-0.60975245758889907,0.78756767813125039,-0.78756767813125039,0.60975245758889907,3.2413509482119101,0.0
829640.0783812654,3990767.5119837918,-7500.0,2.6624330504131093,-0.15235392269368087,0.024270978745614812,-0.35084535863847166,0.0095369106850449973,0.033357666020083152,1.3665459651228609,-0.47571903828084289,0.60368339743998278,-0.60368339743998278,0.47571903828084289,2.7157310137156658,0.0
644640.0783812654,3995767.5119837918,-7500.0,-0.33109328836886454,0.69075906314338309,0.20432946850712078,-0.031094427280218516,0.10689922005355694,-0.00093425614263085131,0.74906287142204731,0.50800583615378736,-0.58495017031978436,0.58495017031978436,-0.50800583615378736,1.2990515870477086,0.0
649640.0783812654,3995767.5119837918,-7500.0,-0.48866155214119739,0.79523006367683136,0.25275913350721518,-0.051426099667816555,0.12840625561284116,-0.0025190374039746818,0.88795616903534969,0.60410980121668678,-0.68380514523875457,0.68380514523875457,-0.60410980121668678,1.5427812723429439,0.0
654640.0783812654,3995767.5119837918,-7500.0,-0.70822322606526933,0.91694735944192418,0.31573800603860736,-0.08206196406463917,0.15486830736008389,-0.0052248249614302291,1.0639952107108024,0.72301506260806969,-0.80241211653446232,0.80241211653446232,-0.72301506260806969,1.854020685839191,0.0
659640.0783812654,3995767.5119837918,-7500.0,-1.0163444710494323,1.0572974045319516,0.39834392544606351,-0.12853546000643523,0.18731254203389369,-0.0098256818172239337,1.2905102270698903,0.87081100811892354,-0.94451524356876781,0.94451524356876781,-0.87081100811892354,2.2580895340556726,0.0
664640.0783812654,3995767.5119837918,-7500.0,-1.4523944989184985,1.2159404637074624,0.50751475305355387,-0.1996953329029694,0.226694997879684,-0.017674611481928056,1.5869137583256538,1.0550636864798535,-1.1138730085839073,1.1138730085839073,-1.0550636864798535,2.7923260604701001,0.0
669640.0783812654,3995767.5119837918,-7500.0,-2.0754030466671134,1.3885433349922718,0.6525853866584358,-0.3099369157894083,0.2734537353165658,-0.031186272314258513,1.9820796090606978,1.2847791686568228,-1.3133397120927095,1.3133397120927095,-1.2847791686568228,3.5129495709583138,0.0
674640.0783812654,3995767.5119837918,-7500.0,-2.9748448941109316,1.5622029192828657,0.84565893657804814,-0.48310503391910048,0.32642225110332268,-0.054768557541691229,2.5199241614061521,1.5697068436934691,-1.5427945436624839,1.5427945436624839,-1.5697068436934691,4.5064611686357079,0.0
679640.0783812654,3995767.5119837918,-7500.0,-4.2875364887552347,1.7062530936705527,1.1011015339026633,-0.75943015240282974,0.38028145624841281,-0.096670943109986807,3.2688160098065024,1.9179485033404269,-1.7947179350467477,1.7947179350467477,-1.9179485033404269,5.9089474206338934,0.0
684640.0783812654,3995767.5119837918,-7500.0,-6.2236114923648032,1.7538212133454749,1.4321133633652763,-1.2080095827237705,0.41965528353067949,-0.17274890478942112,4.3377463100522791,2.3294652193675458,-2.0450593045278622,2.0450593045278622,-2.3294652193675458,7.9393439075303638,0.0
689640.0783812654,3995767.5119837918,-7500.0,-9.1044401630201719,1.5649237242904741,1.8387272718110128,-1.949374646555581,0.4054258825319193,-0.31433037471458253,5.9045518120459821,2.7799490668393587,-2.2349633925970038,2.2349633925970038,-2.7799490668393587,10.957534128551087,0.0
694640.0783812654,3995767.5119837918,-7500.0,-13.410863397564771,0.85348224985901866,2.2720027899832425,-3.1958443891395567,0.24286670366539778,-0.58501317352676518,8.2655912210231008,3.1826238837243936,-2.2358521486442191,2.2358521486442191,-3.1826238837243936,15.56634657391956,0.0
699640.0783812654,3995767.5119837918,-7500.0,-19.819713365629106,-0.95198673463761907,2.5341531784162221,-5.3203916680574457,-0.29268746439576354,-1.1169761233725091,11.922663833979875,3.3013213805693731,-1.7887749583152548,1.7887749583152548,-3.3013213805693731,22.788259566912018,0.0
704640.0783812654,3995767.5119837918,-7500.0,-29.136600532690288,-4.9496912828250954,2.0123552470929131,-8.9586263488732438,-1.7269404046592634,-2.1887779398432032,17.7298935675745,2.5643919578586969,-0.42379103860159217,0.42379103860159217,-2.5643919578586969,34.354945981709086,0.0
709640.0783812654,3995767.5119837918,-7500.0,-41.831642777085655,-13.071434724367444,-0.98772742178200246,-15.093539592742806,-5.2601705465232893,-4.3827005775509376,27.11790945624497,-0.28215545064024861,2.5399932246575383,-2.5399932246575383,0.28215545064024861,53.104872471183491,0.0
714640.0783812654,3995767.5119837918,-7500.0,-56.447053999465865,-27.977555607405815,-10.690317464169329,-24.834776195479016,-13.459869639834814,-8.8474880159599198,42.300489665373171,-7.580885038020349,7.4288745042960285,-7.4288745042960285,7.580885038020349,83.207152768112564,0.0
719640.0783812654,3995767.5119837918,-7500.0,-65.893053158175078,-50.454286279530351,-35.830094440265945,-37.905725277339364,-30.920276371067043,-17.472729381261303,65.604592919133509,-22.112500450493975,11.543463621356048,-11.543463621356048,22.112500450493975,128.87311029709031,0.0
724640.0783812654,3995767.5119837918,-7500.0,-54.213219483917385,-69.449394038417807,-86.725348040235588,-48.090043741913163,-62.0274439624514,-31.855600402060666,95.853449392249459,-41.090008915972014,2.3127075939311439,-2.3127075939311439,41.090008915972014,187.70620328541963,0.0
729640.0783812654,3995767.5119837918,-7500.0,-12.027884116471839,-48.716880253842625,-147.93881137270108,-38.763751952159851,-98.068820993731165,-48.683890370001762,121.29018434839541,-40.454055754852412,-43.892065862831124,43.892065862831124,40.454055754852412,235.18898944722812,0.0
734640.0783812654,3995767.5119837918,-7500.0,17.018586157445348,33.026646773374218,-133.25221742216041,-1.0180589157028748,-100.18948556293535,-54.66502118912436,120.68218149915712,16.380748028562472,-111.43004806544923,111.43004806544923,-16.380748028562472,224.35928165883357,0.0
739640.0783812654,3995767.5119837918,-7500.0,-16.811050068054694,80.058445771755586,10.227607463913948,28.023275335871762,-42.16032716025704,-38.956216618014842,97.754446746390272,83.572279345014778,-92.556195882654748,92.556195882654748,-83.572279345014778,169.51910994217343,0.0
744640.0783812654,3995767.5119837918,-7500.0,-37.500422019253264,20.484075816992849,129.85524100980629,14.550202464682172,21.266852392416506,-13.71715708305566,90.405220312113158,65.907039522759135,22.818742307633535,-22.818742307633535,-65.907039522759135,166.86537046400466,0.0
749640.0783812654,3995767.5119837918,-7500.0,-2.6078154788189836,-44.919008720543502,129.18550827442914,-11.518619926216719,41.331694119441408,2.6145075009801646,85.871519224108383,6.5366716439989361,98.109199228947517,-98.109199228947517,-6.5366716439989361,168.180261043575,0.0
754640.0783812654,3995767.5119837918,-7500.0,34.244350525180877,-59.818937046412159,81.143768381490105,-23.163389418531324,33.494214990925812,7.3849766989214674,70.782390780873698,-25.96308635075232,100.4094175434214,-100.4094175434214,25.96308635075232,141.03475168823653,0.0
759640.0783812654,3995767.5119837918,-7500.0,48.081683491483055,-47.867330814534292,42.278118620524857,-22.510162438306512,20.996828418113338,6.5846791867420533,53.123684685040452,-30.814665279377095,74.538120039808035,-74.538120039808035,30.814665279377095,105.97838884803933,0.0
764640.0783812654,3995767.5119837918,-7500.0,46.249584115003181,-32.155877973099209,20.428822605793414,-17.614184330819274,11.895154893770814,4.6038716201772951,38.160357411600835,-25.107787322109377,49.086535153346418,-49.086535153346418,25.107787322109377,76.04615143010426,0.0
769640.0783812654,3995767.5119837918,-7500.0,38.707634068073332,-20.14823863551306,9.6010478746486001,-12.662575531676135,6.4952422472294424,2.9579561942832782,27.068883877794981,-18.058525003453468,31.029587493951361,-31.029587493951361,18.058525003453468,53.945558488831267,0.0
774640.0783812654,3995767.5119837918,-7500.0,30.576853362030963,-12.298658656831755,4.4615498059697059,-8.8326565949787188,3.5162273621772075,1.8550734250800023,19.304362417503949,-12.413653986092822,19.503472284463154,-19.503472284463154,12.413653986092822,38.493918575299958,0.0
779640.0783812654,3995767.5119837918,-7500.0,23.630517912802311,-7.449268033544711,2.0463124033002225,-6.132907583024787,1.9072056022538479,1.1665363754923845,13.958111065201964,-8.4319838288809041,12.38515313425385,-12.38515313425385,8.4319838288809041,27.854370366648237,0.0
784640.0783812654,3995767.5119837918,-7500.0,18.178679375031138,-4.5055123540451794,0.90995652066122235,-4.2911191363992289,1.03725644585048,0.74455949736950078,10.268705078162965,-5.7461504178308145,8.0000895424763101,-8.0000895424763101,5.7461504178308145,20.505123223271923,0.0
789640.0783812654,3995767.5119837918,-7500.0,14.041140317678105,-2.7196836041088122,0.37503395886611368,-3.0428121257178931,0.56221898408133164,0.48485043115473153,7.6953620061055226,-3.9560410557694574,5.2685024586718026,-5.2685024586718026,3.9560410557694574,15.368415118433923,0.0
794640.0783812654,3995767.5119837918,-7500.0,10.93519762410258,-1.629311463906149,0.12551991681552385,-2.1917604332628904,0.29968933430655753,0.32266659250343982,5.8723322476263267,-2.7595935502648525,3.5375943730624937,-3.5375943730624937,2.7595935502648525,11.721849552988369,0.0
799640.0783812654,3995767.5119837918,-7500.0,8.6032979214400775,-0.95783244929514555,0.012608132559238447,-1.6046588346511574,0.15311267781324855,0.21944023624576556,4.5568210352483236,-1.952104901827989,2.4194671993040404,-2.4194671993040404,1.952104901827989,9.0891886069497989,0.0
804640.0783812654,3995767.5119837918,-7500.0,6.8424128464742502,-0.54102548401073447,-0.034745492596114078,-1.1937565342259782,0.070814767953485999,0.15237345346453129,3.5905698477625791,-1.4000749269072348,1.6829500418670522,-1.6829500418670522,1.4000749269072348,7.1562425620202816,0.0
809640.0783812654,3995767.5119837918,-7500.0,5.5012641233940665,-0.28088452841006573,-0.050910723625852687,-0.90172493624734162,0.024692945071411274,0.10789148192716934,2.8690600070413006,-1.0173607740900936,1.1885758887228801,-1.1885758887228801,1.0173607740900936,5.713843471999084,0.0
814640.0783812654,3995767.5119837918,-7500.0,4.4696699203253738,-0.11829442479692613,-0.052669422362158283,-0.69096483753316351,-0.00080716320047137394,0.077794509878182358,2.3219625312541137,-0.74825348081549781,0.85080514880011393,-0.85080514880011393,0.74825348081549781,4.6209145936638993,0.0
819640.0783812654,3995767.5119837918,-7500.0,3.6679485653099588,-0.017132281597290907,-0.04823320264867488,-0.53657853798096344,-0.014443681846344984,0.057041874406009691,1.9011570179094739,-0.5564158171921223,0.61621302691840496,-0.61621302691840496,0.5564158171921223,3.7808893715242924,0.0
824640.0783812654,3995767.5119837918,-7500.0,3.038425045223812,0.044976684784130194,-0.041583266055050944,-0.42187364924564658,-0.021225731263003113,0.042476441831153296,1.573191093538048,-0.41786862371183126,0.45081127859483289,-0.45081127859483289,0.41786862371183126,3.1266539722861206,0.0
829640.0783812654,3995767.5119837918,-7500.0,2.539134675907893,0.082075728149360663,-0.034595682286019468,-0.33550525411370868,-0.02405684466113658,0.032083214195593873,1.3144490833317388,-0.31658014437974402,0.33258274833443835,-0.33258274833443835,0.31658014437974402,2.6108537548457171,0.0
834640.0783812654,3995767.5119837918,-7500.0,2.1393134329643355,0.1030874475477092,-0.028097999792033979,-0.26965417798127045,-0.024637881814199517,0.024552343886394771,1.1080126257801719,-0.24168665600180533,0.24701615013418421,-0.24701615013418421,0.24168665600180533,2.1995844355241601,0.0
644640.0783812654,4000767.5119837918,-7500.0,0.083816171422191194,0.78124202043248936,0.16414814011768336,0.021956395706617907,0.11894014419909965,0.0039450525098391181,0.79120174016639555,0.4821499945988077,-0.60483757640832381,0.60483757640832381,-0.4821499945988077,1.3762821775227798,0.0
649640.0783812654,4000767.5119837918,-7500.0,0.018022750455440828,0.91913754328900854,0.20491476032548836,0.016724211344623385,0.14568090519826127,0.0041112399841905642,0.93515649466990425,0.58006612897992982,-0.71897094565244624,0.71897094565244624,-0.58006612897992982,1.6237830674793579,0.0
654640.0783812654,4000767.5119837918,-7500.0,-0.084755162724184874,1.0883591391168557,0.25917338488112074,0.0064160230127672177,0.1799635322403495,0.0039107871504532113,1.1163108343140806,0.70420604229184036,-0.8607876381311208,0.8607876381311208,-0.70420604229184036,1.9355915651612452,0.0
659640.0783812654,4000767.5119837918,-7500.0,-0.24332622068381363,1.2971394754920067,0.33244196194961134,-0.012394946331823167,0.22428496944922369,0.0029490056600962179,1.3475095112275732,0.86324218299102107,-1.038254924577761,1.038254924577761,-0.86324218299102107,2.3344052028363311,0.0
664640.0783812654,4000767.5119837918,-7500.0,-0.48691473384721107,1.5557892897259995,0.43289919960659412,-0.045516868468215066,0.28202608839912136,0.00046810184808559498,1.6472959040357091,1.0691952593721248,-1.2617987303228766,1.2617987303228766,-1.0691952593721248,2.8533437611238441,0.0
669640.0783812654,4000767.5119837918,-7500.0,-0.86164225321695986,1.8767943640817657,0.57283302339836006,-0.10296415489410563,0.35770701891942386,-0.0050024370878337266,2.043067191233999,1.3388360593973678,-1.5449192048569362,1.5449192048569362,-1.3388360593973678,3.5419572975229228,0.0
674640.0783812654,4000767.5119837918,-7500.0,-1.4415309093205613,2.2741875725866265,0.77092394455930635,-0.2023506994311329,0.45717463726450686,-0.016364960291961161,2.5763579050578302,1.6956227207775487,-1.9046624797781606,1.9046624797781606,-1.6956227207775487,4.476448352286833,0.0
679640.0783812654,4000767.5119837918,-7500.0,-2.3474923235207066,2.7609408060990623,1.0557909591714356,-0.37536263292914118,0.58740094125989517,-0.039478709534993613,3.3119587023144188,2.1721949521391579,-2.3613711283573524,2.3613711283573524,-2.1721949521391579,5.7775975211343757,0.0
684640.0783812654,4000767.5119837918,-7500.0,-3.7805447148513514,3.3413077835415463,1.4712449737238651,-0.68043496493799449,0.75493001258401293,-0.0865065169035244,4.3541727682206819,2.813019329150023,-2.9361892386601594,2.9361892386601594,-2.813019329150023,7.6432092561327929,0.0
689640.0783812654,4000767.5119837918,-7500.0,-6.0803058430043775,3.9906171509471724,2.0830646253046958,-1.2282267236829689,0.96019017705291199,-0.18352883722788432,5.8767762390164577,3.6753194085729093,-3.6424682194718474,3.6424682194718474,-3.6753194085729093,10.408727833433352,0.0
694640.0783812654,4000767.5119837918,-7500.0,-9.8271077498069186,4.6041828377448235,2.9837939163659106,-2.2339715041810138,1.179658506387137,-0.38853442303890057,8.1800824921953659,4.8219177918975245,-4.4616557716258587,4.4616557716258587,-4.8219177918975245,14.663949011662737,0.0
699640.0783812654,4000767.5119837918,-7500.0,-16.012427351985252,4.8708286113059414,4.2786391901210834,-4.1264171857950798,1.3126071727424364,-0.8355085829811294,11.802861991706665,6.286316105107443,-5.2816977410877,5.2816977410877,-6.286316105107443,21.48339031244279,0.0
704640.0783812654,4000767.5119837918,-7500.0,-26.283820686681658,3.9668761936199304,5.9857192911051369,-7.7718595133178807,1.0243683108220984,-1.8456667914607925,17.746143730518881,7.9527783929251434,-5.7520185275390876,5.7520185275390876,-7.9527783929251434,32.886171934093625,0.0
709640.0783812654,4000767.5119837918,-7500.0,-43.115862683644707,-0.14353203685762284,7.608419945175533,-14.900705849642002,-0.7102434127813797,-4.2101987303531416,27.918826422739542,9.1976924021174202,-4.9899360582302563,4.9899360582302563,-9.1976924021174202,52.733384942860425,0.0
714640.0783812654,4000767.5119837918,-7500.0,-69.043166445417199,-12.044612222497694,6.5725546090881872,-28.701195200689043,-6.8840758831385482,-9.8733087291495352,45.96837062289157,7.9580609608137793,-1.2388773720805384,1.2388773720805384,-7.9580609608137793,88.279687628342202,0.0
719640.0783812654,4000767.5119837918,-7500.0,-101.66767923003225,-39.801487372859853,-6.6308351686754659,-53.429377581125316,-25.520327051088504,-23.237359743597395,78.344152471404755,-0.95161395407871519,7.0326351716473887,-7.0326351716473887,0.95161395407871519,151.65743746005634,0.0
724640.0783812654,4000767.5119837918,-7500.0,-117.45542880416127,-85.835883826972875,-57.936541085443203,-87.049722687367066,-73.227940373864811,-51.484995597499982,132.00976981411571,-24.319334934179754,10.948016221219493,-10.948016221219493,24.319334934179754,254.73802723008518,0.0
729640.0783812654,4000767.5119837918,-7500.0,-60.214486568825365,-96.045663983437294,-170.96439964166248,-95.228768920422525,-157.21615192923076,-93.819386416818318,195.49646049426403,-41.165366137696772,-40.625417983866107,40.625417983866107,41.165366137696772,372.42947263221345,0.0
734640.0783812654,4000767.5119837918,-7500.0,26.266826821054632,58.673421075324384,-180.70096996968169,-17.865983809244614,-181.54177296943263,-112.223885287618,209.74110627368177,57.059572758622913,-183.37692910461936,183.37692910461936,-57.059572758622913,378.82682830125066,0.0
739640.0783812654,4000767.5119837918,-7500.0,-57.225167748045251,139.71706704016322,174.69791754918631,39.579675223051979,-14.749652948329041,-68.208958806942192,193.02779118931031,185.94072070733219,-92.736199729093386,92.736199729093386,-185.94072070733219,346.94558823530781,0.0
744640.0783812654,4000767.5119837918,-7500.0,-39.854524592775476,-65.102115559625148,330.02896935543225,-24.852132592120299,104.7189215231447,-14.313819582127042,213.06464971082704,52.011817453694249,199.75621003903152,-199.75621003903152,-52.011817453694249,418.90922752977497,0.0
749640.0783812654,4000767.5119837918,-7500.0,72.49608806889546,-136.07399646943944,186.06353404379536,-62.055727243169564,85.010375754014831,10.931842531919154,170.43472346801224,-64.056848051014939,232.58958471192119,-232.58958471192119,64.056848051014939,335.35182211649374,0.0
754640.0783812654,4000767.5119837918,-7500.0,106.27254943337526,-96.142567540959391,72.809421170316284,-55.36203904377637,45.449750149221046,14.228960758515274,112.35143583145585,-71.476844968711674,149.49627755104601,-149.49627755104601,71.476844968711674,222.78649443562591,0.0
759640.0783812654,4000767.5119837918,-7500.0,92.524495554743481,-53.545860977463519,25.038620166151542,-38.711858928728034,21.472836110068059,10.200142978282621,71.339968207310264,-49.546326069778644,82.528694933713552,-82.528694933713552,49.546326069778644,142.32519532785739,0.0
764640.0783812654,4000767.5119837918,-7500.0,69.598085823154506,-27.787385003414414,7.7991792731489458,-24.989502470052269,9.7721624152881201,6.1968525116579363,45.939136984760893,-30.458801261587833,44.312308029810595,-44.312308029810595,30.458801261587833,91.63526513041451,0.0
769640.0783812654,4000767.5119837918,-7500.0,50.066637689024013,-14.103483576909815,1.9028546409033289,-15.849733248789658,4.4022631539577803,3.6038729724144973,30.366206830946442,-18.23972293672858,24.123015801017889,-24.123015801017889,18.23972293672858,60.408795922504012,0.0
774640.0783812654,4000767.5119837918,-7500.0,35.781769007606393,-7.0594355789639112,-0.0019383314821768294,-10.147207883011159,1.9603461213056987,2.1031427830405751,20.646059566668622,-10.998364075548331,13.496456232625434,-13.496456232625434,10.998364075548331,40.981833990084539,0.0
779640.0783812654,4000767.5119837918,-7500.0,25.807786922166741,-3.435104309474458,-0.52750056443057625,-6.631561176128244,0.84061011834754262,1.2547926034912888,14.446170808730482,-6.7586440690771905,7.7813813917106742,-7.7813813917106742,6.7586440690771905,28.622355682889523,0.0
784640.0783812654,4000767.5119837918,-7500.0,18.903780014879089,-1.5560110896918899,-0.59210094956180381,-4.4413983599825455,0.32249866199052252,0.77042162421692517,10.386367266125653,-4.2473202875601324,4.6147966968984733,-4.6147966968984733,4.2473202875601324,20.54594486279003,0.0
789640.0783812654,4000767.5119837918,-7500.0,14.091172428797115,-0.57684810539171782,-0.51818797235771619,-3.0497235148907773,0.083118203832632145,0.48739908383843533,7.6550472407755867,-2.7290048083819252,2.8047374007566721,-2.8047374007566721,2.7290048083819252,15.122005839472969,0.0
794640.0783812654,4000767.5119837918,-7500.0,10.69025939559282,-0.069220847275436273,-0.41684801386562076,-2.1447360303810652,-0.024758192501480328,0.31738796009097775,5.7691569573791019,-1.7895767341860003,1.738984591558471,-1.738984591558471,1.7895767341860003,11.382776069373364,0.0
799640.0783812654,4000767.5119837918,-7500.0,8.2476649723664757,0.18751994516899437,-0.32361347170005894,-1.5421520370305077,-0.069828218623305724,0.21232269961621236,4.4352205063359396,-1.1947832560291922,1.0943749764103514,-1.0943749764103514,1.1947832560291922,8.7415788870578179,0.0
804640.0783812654,4000767.5119837918,-7500.0,6.4636491352621945,0.30929681667861919,-0.24728184974367609,-1.1316464821576309,-0.084876264751141656,0.14558997583182243,3.4706601565721544,-0.80992186325841564,0.69512429916486551,-0.69512429916486551,0.80992186325841564,6.8340971630910099,0.0
809640.0783812654,4000767.5119837918,-7500.0,5.1390766427451426,0.358204680558116,-0.18767895997334047,-0.84591705828908015,-0.085837019358687802,0.10210085806957679,2.7591003253581214,-0.55588522522108774,0.4427215033124966,-0.4427215033124966,0.55588522522108774,5.4284872749629445,0.0
814640.0783812654,4000767.5119837918,-7500.0,4.1401613152432732,0.36806866678846811,-0.14209438750517658,-0.6430337825584318,-0.080543922284843694,0.073077575878925327,2.2245940142801666,-0.38516277605184762,0.28037530807349148,-0.28037530807349148,0.38516277605184762,4.3736660191965564,0.0
819640.0783812654,4000767.5119837918,-7500.0,3.3757537682177339,0.35755064109576878,-0.10752507616769663,-0.4963080903956984,-0.072852206065978461,0.053280739116228763,1.8164607424146468,-0.26858045167516564,0.17447457955569634,-0.17447457955569634,0.26858045167516564,3.5689456986547556,0.0
824640.0783812654,4000767.5119837918,-7500.0,2.7828123329200216,0.33702198326490473,-0.081368319327113942,-0.38839387646907148,-0.064631619818482797,0.03950452446601227,1.5001698848004157,-0.18783963340413823,0.10464260136570384,-0.10464260136570384,0.18783963340413823,2.9458058308020965,0.0
829640.0783812654,4000767.5119837918,-7500.0,2.3170696097696188,0.31224640934130898,-0.06155707903788929,-0.30779019352967329,-0.056751281653344664,0.029740882741623741,1.2517366094093474,-0.13123202627356811,0.058252759229512993,-0.058252759229512993,0.13123202627356811,2.4567043916712081,0.0
834640.0783812654,4000767.5119837918,-7500.0,1.9469783905088114,0.28639339627134869,-0.046511670897855538,-0.24672711323533469,-0.049575549384787913,0.022704139034725523,1.054202198149129,-0.091126090038784191,0.02732450558725566,-0.02732450558725566,0.091126090038784191,2.0680599524359096,0.0
644640.0783812654,4005767.5119837918,-7500.0,0.53360057656296711,0.8181263804104314,0.10743767849966093,0.079295873188646476,0.12357141351661931,0.00918686826295129,0.85588528997545121,0.41478306621563921,-0.57757557803585269,0.57757557803585269,-0.41478306621563921,1.5184875368687054,0.0
649640.0783812654,4005767.5119837918,-7500.0,0.57502785960706893,0.9741679543642725,0.13344013273878289,0.09137339650611849,0.15298586754914853,0.011325221113504241,1.0121258336223873,0.50110413049684643,-0.69353062071748139,0.69353062071748139,-0.50110413049684643,1.7905605681212187,0.0
654640.0783812654,4005767.5119837918,-7500.0,0.61229707199945593,1.1704490492075428,0.1683306806288993,0.10490081182836368,0.19148459317718042,0.014003848272871442,1.2082837906180184,0.61177038366578596,-0.84053381739773636,0.84053381739773636,-0.61177038366578596,2.1312680202912908,0.0
659640.0783812654,4005767.5119837918,-7500.0,0.63891969345207167,1.4201113772801401,0.21601717098239642,0.11943293067990071,0.24255136096717919,0.017327359076074231,1.4577832288673997,0.75555588488082237,-1.0290439752955216,1.0290439752955216,-0.75555588488082237,2.5635494420950309,0.0
664640.0783812654,4005767.5119837918,-7500.0,0.64343723577918366,1.7414745825844828,0.28251271591597948,0.13375337786488389,0.3112719826768412,0.021360804729136994,1.7797721480210487,0.94512273304476591,-1.2737671444588674,1.2737671444588674,-0.94512273304476591,3.1201385807595794,0.0
669640.0783812654,4005767.5119837918,-7500.0,0.60564585378003544,2.1603797431217999,0.37728567609390917,0.14505241322784654,0.4051870976015875,0.026023257157092267,2.2021414294603092,1.1990772415620765,-1.5956531580615234,1.5956531580615234,-1.1990772415620765,3.8487816604120528,0.0
674640.0783812654,4005767.5119837918,-7500.0,0.48969400069016589,2.7136625863828225,0.51561817950833355,0.14723404017134414,0.53564523087256322,0.03081959839160103,2.7664804322023508,1.5452878220315509,-2.0249205949088478,2.0249205949088478,-1.5452878220315509,4.8208721875008633,0.0
679640.0783812654,4005767.5119837918,-7500.0,0.23116393985052996,3.4542234389485782,0.72283291644330139,0.12735405543077996,0.71994531415593777,0.034172027017148936,3.5364603252870914,2.0263319484080227,-2.6056246730432009,2.6056246730432009,-2.0263319484080227,6.1462182388375926,0.0
684640.0783812654,4005767.5119837918,-7500.0,-0.2877278190312042,4.4580978090760972,1.0420577552278001,0.0579206700168962,0.98465538299835809,0.03173171044085113,4.612503871874722,2.7085662427746442,-3.4024183955360803,3.4024183955360803,-2.7085662427746442,7.9992613845493388,0.0
689640.0783812654,4005767.5119837918,-7500.0,-1.2870064059586095,5.8331118751483366,1.5488074579364139,-0.12028634966190885,1.3703810874087177,0.012009994483853691,6.158440551468523,3.6973402840071063,-4.5099841555324183,4.5099841555324183,-3.6973402840071063,10.667630336555213,0.0
694640.0783812654,4005767.5119837918,-7500.0,-3.1877261019785204,7.7251053978371891,2.3787409058541917,-0.53793311793713483,1.9370303792168393,-0.05534257746923002,8.4520175968240867,5.1622924807885546,-6.0640790743851802,6.0640790743851802,-5.1622924807885546,14.646405987820867,0.0
699640.0783812654,4005767.5119837918,-7500.0,-6.8155694270860625,10.304464175937094,3.7800698007188189,-1.4923726143297822,2.7625389983323503,-0.25238077063763947,11.985153068870671,7.3774372501733865,-8.2466381976062451,8.2466381976062451,-7.3774372501733865,20.830846739141954,0.0
704640.0783812654,4005767.5119837918,-7500.0,-13.821658515147497,13.669932294756679,6.2058014483140687,-3.6835962225463019,3.9018897354932371,-0.80935162325382404,17.673103967074596,10.774859883908231,-11.254391256606478,11.254391256606478,-10.774859883908231,30.932149111773871,0.0
709640.0783812654,4005767.5119837918,-7500.0,-27.515256996955916,17.45407314552941,10.431033738261631,-8.8079000467501576,5.1647532725343472,-2.4003493331571888,27.313946473282591,15.971363650632815,-15.128241374546308,15.128241374546308,-15.971363650632815,48.418563861722532,0.0
714640.0783812654,4005767.5119837918,-7500.0,-54.211869068749131,19.442899724454559,17.415110107956579,-20.995427273415981,5.1262844116690474,-7.0623267059429109,44.651196518829074,23.550127526242793,-19.16184847041249,19.16184847041249,-23.550127526242793,80.694879179931945,0.0
719640.0783812654,4005767.5119837918,-7500.0,-103.5208852616823,11.432489621068592,26.02665460051924,-49.573136469431027,-2.9148691262164292,-20.820715399817804,77.980874929170369,32.755872487540707,-20.562176160568022,20.562176160568022,-32.755872487540707,143.86925331309035,0.0
724640.0783812654,4005767.5119837918,-7500.0,-175.96565356711415,-28.280577853871296,18.96044708520612,-108.83810330990768,-45.05450095930933,-58.080922894788401,146.13690339129101,37.20775786344926,-16.043626402289981,16.043626402289981,-37.20775786344926,270.07495104584962,0.0
729640.0783812654,4005767.5119837918,-7500.0,-193.07559742314768,-103.53397746701471,-88.645619055851483,-179.52301381520249,-190.29378585474848,-126.0614512758804,275.41334187702842,28.100033488869613,-46.291056175789393,46.291056175789393,-28.100033488869613,495.85965360803357,0.0
734640.0783812654,4005767.5119837918,-7500.0,13.958497703358042,142.47567798605249,-231.33969853232324,-48.958229427852039,-327.87384884523044,-107.97370500557138,377.71222137577001,181.40676492056645,-348.58563167490735,348.58563167490735,-181.40676492056645,660.09194901545948,0.0
739640.0783812654,4005767.5119837918,-7500.0,-258.71235239552163,245.52246399111667,895.02168654803677,-27.145362046759061,420.33046342647663,177.74568454143846,730.94322838748133,354.86168389434823,179.38313557784312,-179.38313557784312,-354.86168389434823,1315.7237192157522,0.0
744640.0783812654,4005767.5119837918,-7500.0,208.02275132269941,-444.64133230726264,641.99053664353687,-348.73291362241082,401.24096290268187,100.60670335233914,688.19277317741557,-270.67491275540607,822.2500406768188,-822.2500406768188,270.67491275540607,1299.0096072605979,0.0
749640.0783812654,4005767.5119837918,-7500.0,332.66330095067093,-232.24864106338958,124.88557743451643,-200.30650824036948,119.81094409736703,34.602444955927865,324.3473100094152,-216.68938896259044,364.71631640624025,-364.71631640624025,216.68938896259044,628.75418302563912,0.0
754640.0783812654,4005767.5119837918,-7500.0,217.30845162053643,-80.804879973395757,12.120371420809004,-98.633473287541278,35.20949028377747,22.101483414221708,153.15647585878401,-100.8516517342543,131.61862178409015,-131.61862178409015,100.8516517342543,304.37947089686458,0.0
759640.0783812654,4005767.5119837918,-7500.0,131.8093883958629,-26.632896790819455,-5.2362779340124606,-51.728667868752517,10.662812722901123,12.861970741646203,83.343871176719375,-45.863925676718473,50.29274667531184,-50.29274667531184,45.863925676718473,164.6977846059124,0.0
764640.0783812654,4005767.5119837918,-7500.0,81.751034710500718,-7.7086045591410963,-5.9627278803466366,-28.527025241381782,2.8999772801859249,6.9411097506183994,49.376141017968706,-21.712881235904284,20.488426701876996,-20.488426701876996,21.712881235904284,96.815494048051264,0.0
769640.0783812654,4005767.5119837918,-7500.0,52.544177154699973,-1.0019161854117191,-4.3753970692685815,-16.458229414540739,0.40320081510417299,3.7374618443240299,30.995488421656809,-10.75192766310937,8.671085389634456,-8.671085389634456,10.75192766310937,60.497893365749043,0.0
774640.0783812654,4005767.5119837918,-7500.0,35.023916568582003,1.2856458682729528,-2.9458139466890882,-9.9209655526306992,-0.35168738987690767,2.0714739894510679,20.406616599460072,-5.5347120377962273,3.6772357877738404,-3.6772357877738404,5.5347120377962273,39.711143564867996,0.0
779640.0783812654,4005767.5119837918,-7500.0,24.1547081333058,1.928400382800747,-1.9509847045973965,-6.2322110839381706,-0.52250521152416396,1.1934045165709724,13.987778243506819,-2.9326626410101375,1.4673381837518771,-1.4673381837518771,2.9326626410101375,27.162557080145607,0.0
784640.0783812654,4005767.5119837918,-7500.0,17.179451629396798,1.9622966741848153,-1.2987686494117168,-4.0647866885893498,-0.5041709013069805,0.71539947915839408,9.9232658630191608,-1.5798555815075721,0.46243797938762787,-0.46243797938762787,1.5798555815075721,19.239675611635654,0.0
789640.0783812654,4005767.5119837918,-7500.0,12.5574261630029,1.7868198962162982,-0.87533601506576186,-2.7415461402785626,-0.43358172810641532,0.44521198431901421,7.2502198328392176,-0.85152819526151813,0.0039268972083958409,-0.0039268972083958409,0.85152819526151813,14.040467250700251,0.0
794640.0783812654,4005767.5119837918,-7500.0,9.4033247699506148,1.557456817758573,-0.59840516786734765,-1.904776730161075,-0.35734630629042902,0.28667105909098273,5.433288466034643,-0.44836686880896071,-0.19824295948027312,0.19824295948027312,0.44836686880896071,10.512387731664315,0.0
799640.0783812654,4005767.5119837918,-7500.0,7.1929234810950735,1.3330137416327346,-0.41480132384369023,-1.3585443896370835,-0.28987809172232676,0.19031758743422575,4.1621243981613087,-0.22064549759594965,-0.27764792118154558,0.27764792118154558,0.22064549759594965,8.0473511703771337,0.0
804640.0783812654,4005767.5119837918,-7500.0,5.6064078489046221,1.1333471190778428,-0.29115896960817134,-0.99165408946531608,-0.23419528571868567,0.1298450693469666,3.2499885493645788,-0.090486619859161177,-0.29803297824084174,0.29803297824084174,0.090486619859161177,6.2804253200736753,0.0
809640.0783812654,4005767.5119837918,-7500.0,4.4430367567809697,0.96274004559485193,-0.20658010088354822,-0.73885036921399383,-0.18952184498638142,0.090770123065400554,2.5807112773728154,-0.015957837434748434,-0.29063166225254577,0.29063166225254577,0.015957837434748434,4.9850626720711579,0.0
814640.0783812654,4005767.5119837918,-7500.0,3.5734168486188014,0.8195628542608242,-0.14785388147063203,-0.56062886739065465,-0.15406348267905751,0.06484919467620523,2.0798351710607941,0.026213230502777518,-0.2709995425683478,0.2709995425683478,-0.026213230502777518,4.0163096719439721,0.0
819640.0783812654,4005767.5119837918,-7500.0,2.9120731277871497,0.7002794887475593,-0.10651270759310948,-0.4323824155716996,-0.12598207629351227,0.047241950491193653,1.6983432727731236,0.049285567588978257,-0.24691519272980531,0.24691519272980531,-0.049285567588978257,3.2788765614207107,0.0
824640.0783812654,4005767.5119837918,-7500.0,2.4012568958984941,0.60107084088921947,-0.077044423712233592,-0.33837860554737098,-0.10369478544967368,0.035023392356345773,1.4031808702119768,0.060983799234641312,-0.22221680397577165,0.22221680397577165,-0.060983799234641312,2.7085817958298275,0.0
829640.0783812654,4005767.5119837918,-7500.0,2.0011390584045587,0.51844377575923817,-0.055803601892598524,-0.26831708060474313,-0.085926556066421036,0.026378651679592378,1.1715684545226774,0.065892954177139973,-0.19871908988950493,0.19871908988950493,-0.065892954177139973,2.2612401419301094,0.0
834640.0783812654,4005767.5119837918,-7500.0,1.6837267714355431,0.44941195150928437,-0.04034193058048284,-0.21530622112203299,-0.071680112420627676,0.020154105422619594,0.98749672040525693,0.066775547924680337,-0.17719328070440171,0.17719328070440171,-0.066775547924680337,1.9058255602137175,0.0
644640.0783812654,4010767.5119837918,-7500.0,0.99292965330876637,0.79418077385726027,0.044107387188791675,0.13775942481807876,0.11986221264735014,0.014511749571658924,0.9377446597611454,0.31009167213684335,-0.49833260328893952,0.49833260328893952,-0.31009167213684335,1.7092172847641378,0.0
649640.0783812654,4010767.5119837918,-7500.0,1.1478712127908297,0.94931945288100383,0.051846387695406129,0.16799985763744671,0.14883986125241683,0.018701004567912082,1.1123527707612966,0.37233258274270253,-0.59992902159940475,0.59992902159940475,-0.37233258274270253,2.0232279250345333,0.0
654640.0783812654,4010767.5119837918,-7500.0,1.3353505888296813,1.1461901582850476,0.061858283662467227,0.20682573346914401,0.18702773649890578,0.02440480800369119,1.3322162341753487,0.45181446799318603,-0.72968398179266625,0.72968398179266625,-0.45181446799318603,2.4177275567763243,0.0
659640.0783812654,4010767.5119837918,-7500.0,1.5637924264174814,1.3993533529924556,0.075126278781545916,0.2572447373091799,0.23812522824107091,0.032288331030238926,1.6126785455082728,0.55474832911449867,-0.89763476334296499,0.89763476334296499,-0.55474832911449867,2.9197496893953776,0.0
664640.0783812654,4010767.5119837918,-7500.0,1.8440619183173403,1.7297148911486109,0.093195624208406491,0.32351271831555029,0.30765869712875915,0.043362581379021853,1.9756286740934832,0.69015009770405655,-1.1182612372021645,1.1182612372021645,-0.69015009770405655,3.5677655443573699,0.0
669640.0783812654,4010767.5119837918,-7500.0,2.1900970944653868,2.1678893704696947,0.11857123334828815,0.41171834226939535,0.40406798604705557,0.059191590383544594,2.4529212345838109,0.87138959794497883,-1.4128674175277649,1.4128674175277649,-0.87138959794497883,4.4176162759133959,0.0
674640.0783812654,4010767.5119837918,-7500.0,2.6194928412348273,2.7596854795692667,0.15545180994499971,0.53065042589765377,0.54055702648801607,0.082237221916967557,3.0919400647304878,1.1187664473653576,-1.8134783319570817,1.8134783319570817,-1.1187664473653576,5.5521373800887828,0.0
679640.0783812654,4010767.5119837918,-7500.0,3.1536262183431014,3.5752763220309247,0.21113470824308417,0.69305079872702113,0.73833242341287475,0.11643542739949993,3.9648886547887479,1.4639188519239343,-2.369376228871892,2.369376228871892,-1.4639188519239343,7.0971854237126566,0.0
684640.0783812654,4010767.5119837918,-7500.0,3.8161735499153306,4.7249275060075266,0.29881194565371405,0.91729213605059778,1.0324298894686186,0.16814695171063437,5.1847397099602484,1.9576104834527337,-3.1583500712161285,3.1583500712161285,-1.9576104834527337,9.2490718917174242,0.0
689640.0783812654,4010767.5119837918,-7500.0,4.6269359038983939,6.3866693863163562,0.44337568943436562,1.2291474611060302,1.4824775938254768,0.24764015519171659,6.9334167631485109,2.6839629845601047,-4.3065701216162955,4.3065701216162955,-2.6839629845601047,12.322890379426878,0.0
694640.0783812654,4010767.5119837918,-7500.0,5.582774771851037,8.8561232704284301,0.69403432209878224,1.661824376007079,2.1930023475157103,0.3709881728398593,9.5130208522832405,3.7874558263508931,-6.0245846987762111,6.0245846987762111,-3.7874558263508931,16.84009939336427,0.0
699640.0783812654,4010767.5119837918,-7500.0,6.6037456421040499,12.637622889951023,1.153065650546981,2.2470192538127698,3.3519185484975189,0.56048752851803285,13.441233789050212,5.5262532777535851,-8.6738499043600079,8.6738499043600079,-5.5262532777535851,23.691199047080516,0.0
704640.0783812654,4010767.5119837918,-7500.0,7.3855663828511897,18.610117495282516,2.044479684615208,2.9706850858308154,5.3003145195006924,0.83296826445999972,19.631024905831659,8.3823129509365391,-12.890812013229619,12.890812013229619,-8.3823129509365391,34.441691099440455,0.0
709640.0783812654,4010767.5119837918,-7500.0,7.0027401540078706,28.312045160466209,3.8842126667986854,3.6016047466218444,8.632132030260113,1.1250547986084074,29.720728836770739,13.301374746928724,-19.815373602987712,19.815373602987712,-13.301374746928724,51.895222895798469,0.0
714640.0783812654,4010767.5119837918,-7500.0,2.8843871067557321,44.325365704307501,7.9036691248207909,3.0922236938202166,14.145559781835171,0.92563016454173341,46.601091007478011,22.264927647957979,-31.49755866578165,31.49755866578165,-22.264927647957979,81.006491933902694,0.0
719640.0783812654,4010767.5119837918,-7500.0,-11.51049629485394,70.293576389837995,16.994496978965742,-2.2001412977355415,21.19440604600225,-2.2891465913093074,74.836313160280241,39.978079515129657,-51.73830570317363,51.73830570317363,-39.978079515129657,129.69350204910387,0.0
724640.0783812654,4010767.5119837918,-7500.0,-51.028970220261016,109.16521078123586,36.753006375641512,-21.223244939871737,15.129557356975521,-17.135208424622423,120.64719478610328,81.65041708544328,-90.749461718680152,90.749461718680152,-81.65041708544328,208.96966222055684,0.0
729640.0783812654,4010767.5119837918,-7500.0,-162.90171610592841,168.03016197947622,69.588377100796052,-66.842728596116686,-103.31993344316326,-40.166822511934839,233.99097742947072,223.64001739690849,-210.68426876494254,210.68426876494254,-223.64001739690849,413.17324905732181,0.0
734640.0783812654,4010767.5119837918,-7500.0,-253.64564915140309,477.81929294871691,-4.3335001750700064,-102.48886007470611,-763.07606797023971,45.29312967653992,905.68767101380331,828.24115247954956,-858.74989936585234,858.74989936585234,-828.24115247954956,1593.8296200470804,0.0
739640.0783812654,4010767.5119837918,-7500.0,-1167.2776142345213,510.3960578309987,1456.6652592730916,-1160.528677123614,2716.5321728681333,5037.3306414308472,4189.3688754410623,-305.96143900388444,795.34471295630965,-795.34471295630965,305.96143900388444,7487.4786258027298,0.0
744640.0783812654,4010767.5119837918,-7500.0,1426.6221656150624,-322.38033920009741,-117.92848960973105,-1441.5545837548552,317.40255377126067,689.31825764383711,1530.3239006142139,-677.16118536622048,632.35307302156093,-632.35307302156093,677.16118536622048,2939.1682142524587,0.0
749640.0783812654,4010767.5119837918,-7500.0,542.43642011051702,39.513381471954261,-88.855306361324452,-297.94753164116048,-4.7084302806633769,58.53158921080562,393.19245764293595,-98.369293984872428,26.360305473915048,-26.360305473915048,98.369293984872428,773.48344381730806,0.0
754640.0783812654,4010767.5119837918,-7500.0,219.83352653214354,45.212666226819323,-36.859763862633407,-97.864269692773036,-13.17112616412944,22.134300782060958,156.13864524751136,-13.796349721973211,-22.137882655385535,22.137882655385535,13.796349721973211,299.35530984500326,0.0
759640.0783812654,4010767.5119837918,-7500.0,110.71183406195775,30.851846172860778,-16.950055462300039,-44.126557158038068,-9.4296923073670698,11.388054212095277,79.184916208456201,0.93784260211788073,-19.578127901508445,19.578127901508445,-0.93784260211788073,149.82201286180927,0.0
764640.0783812654,4010767.5119837918,-7500.0,63.561592205266514,20.484711265712182,-8.51340481107869,-22.837255049613532,-6.1525171115609405,5.8222902101515999,45.390818265167596,3.3940588323455678,-13.795260181164515,13.795260181164515,-3.3940588323455678,85.464164494317288,0.0
769640.0783812654,4010767.5119837918,-7500.0,39.547621852373254,13.865716646275864,-4.5754070157894544,-12.806472670845961,-3.9839278448241391,3.0501594327865722,28.080761072472711,3.2796707561329375,-9.4681560037733057,9.4681560037733057,-3.2796707561329375,52.772477826854569,0.0
774640.0783812654,4010767.5119837918,-7500.0,26.050652739393911,9.6432360832192359,-2.5960637608329615,-7.6302247289618279,-2.6234040881096559,1.6684662001861612,18.375573191610215,2.6891724065536935,-6.5756756969283856,6.5756756969283856,-2.6891724065536935,34.509991929509042,0.0
779640.0783812654,4010767.5119837918,-7500.0,17.938934148990533,6.892759253445746,-1.5394027244706807,-4.7796183490530906,-1.7704193875145615,0.95649813890242463,12.57347421238655,2.111592935913051,-4.6658800346609786,4.6658800346609786,-2.111592935913051,23.611161135044682,0.0
784640.0783812654,4010767.5119837918,-7500.0,12.808075626987687,5.0541531039851408,-0.94611879259977694,-3.1236578750737598,-1.2261909707295928,0.57330820108116887,8.9247420849910917,1.643796546896068,-3.3882139244977747,3.3882139244977747,-1.643796546896068,16.763166988689086,0.0
789640.0783812654,4010767.5119837918,-7500.0,9.4250191462866653,3.7925399323043973,-0.5985007010873421,-2.1167385301702475,-0.87066185491864956,0.35774256152889816,6.5322875952906712,1.2847737660768002,-2.5156293967003247,2.5156293967003247,-1.2847737660768002,12.274624540602918,0.0
794640.0783812654,4010767.5119837918,-7500.0,7.1152355134477094,2.9051580890456359,-0.38732899765072321,-1.4797884840174833,-0.63256626302949703,0.23134373549427001,4.907226023432175,1.0131886235092062,-1.906311909180247,1.906311909180247,-1.0131886235092062,9.2260051361874016,0.0
799640.0783812654,4010767.5119837918,-7500.0,5.4905328975148526,2.2666198952814667,-0.25504940692476163,-1.0627661299103168,-0.46923804677117736,0.15438875534432472,3.7695540720686105,0.80762620945724151,-1.4715326665559487,1.4715326665559487,-0.80762620945724151,7.091442786150095,0.0
804640.0783812654,4010767.5119837918,-7500.0,4.317887934928887,1.7975306430631661,-0.17000174866723999,-0.78139201666288349,-0.35465632824935311,0.10593142731608036,2.9520062926457373,0.65095279477747403,-1.1549549625189577,1.1549549625189577,-0.65095279477747403,5.5570989102901498,0.0
809640.0783812654,4010767.5119837918,-7500.0,3.4522766881170819,1.4464101900482995,-0.11410123719980821,-0.58645313984708736,-0.27259809270829577,0.074487733533812314,2.3509596715994499,0.53038666710091964,-0.92011422154047917,0.92011422154047917,-0.53038666710091964,4.4286630142367063,0.0
814640.0783812654,4010767.5119837918,-7500.0,2.8005552335399453,1.1791094022850026,-0.076669270525185587,-0.44820357432684793,-0.21271643167724125,0.053529633429972509,1.9001418561906998,0.43661825548449296,-0.74292248609466538,0.74292248609466538,-0.43661825548449296,3.5819076265625602,0.0
819640.0783812654,4010767.5119837918,-7500.0,2.3012154131232845,0.97248543007931554,-0.05121292801262152,-0.3481012630860274,-0.16826436561826963,0.039221545227774927,1.5559598750313959,0.36290414178803515,-0.6071446111225941,0.6071446111225941,-0.36290414178803515,2.9351324961081344,0.0
824640.0783812654,4010767.5119837918,-7500.0,1.9126258497414441,0.81053983687783804,-0.033680555595595879,-0.27426481284670068,-0.13474905184374172,0.029241110094040946,1.2890144155633063,0.30434561733216214,-0.50162669646927516,0.50162669646927516,-0.30434561733216214,2.4332412300502924,0.0
829640.0783812654,4010767.5119837918,-7500.0,1.6059799394595318,0.6820081337558872,-0.021484877529679272,-0.21888971816977917,-0.10911937623643984,0.022143317862839091,1.0790310380239647,0.25735921527356864,-0.41856665881766608,0.41856665881766608,-0.25735921527356864,2.0382360808896673,0.0
834640.0783812654,4010767.5119837918,-7500.0,1.360945873052599,0.57882380819970625,-0.012939419912669227,-0.17673354330764252,-0.089265205469920339,0.017006507572279193,0.91174504090564157,0.21930025094291289,-0.35241488636214119,0.35241488636214119,-0.21930025094291289,1.7233790520291332,0.0
644640.0783812654,4015767.5119837918,-7500.0,1.433911745456395,0.70849196156712746,-0.014372901360496331,0.19387101777678553,0.10770502188708028,0.019613804370328208,1.0282576955628584,0.17679453825916297,-0.36771044773523659,0.36771044773523659,-0.17679453825916297,1.924292778893675,0.0
649640.0783812654,4015767.5119837918,-7500.0,1.6978963567306,0.84273346118985359,-0.023823055492232854,0.24155007233291567,0.13300732311740063,0.025768803542446112,1.2243630376266732,0.20557597852531545,-0.43844707324457316,0.43844707324457316,-0.20557597852531545,2.28912757108183,0.0
654640.0783812654,4015767.5119837918,-7500.0,2.0298910211950583,1.0120227364088084,-0.037401884313783565,0.30469585577305008,0.16611239894388613,0.034375431200408417,1.47247140896993,0.24060309792868778,-0.52776826841371327,0.52776826841371327,-0.24060309792868778,2.7503337875429348,0.0
659640.0783812654,4015767.5119837918,-7500.0,2.4529288232903488,1.2282219669218106,-0.057069843395011553,0.3896771156512176,0.21005439433679582,0.046641966418530488,1.7906210050430811,0.28353272153829123,-0.64196085387545321,0.64196085387545321,-0.28353272153829123,3.3412623140245614,0.0
664640.0783812654,4015767.5119837918,-7500.0,2.9999053033348018,1.508199312500085,-0.085866378133098401,0.50610702949860287,0.2693134053812371,0.064500478198783642,2.2047304245628561,0.33650899717033367,-0.7899481465917646,0.7899481465917646,-0.33650899717033367,4.1098195678261948,0.0
669640.0783812654,4015767.5119837918,-7500.0,3.7187777217010325,1.876389752126024,-0.12860660348500666,0.6688513783420752,0.3506410508965247,0.091127060130982873,2.752824955384845,0.40228955446555087,-0.98462309482185195,0.98462309482185195,-0.40228955446555087,5.1262753164265273,0.0
674640.0783812654,4015767.5119837918,-7500.0,4.6810726510131637,2.3689059011492559,-0.19310525751236846,0.90152671261352013,0.46443890764607154,0.13190629487982386,3.4919925099395361,0.48435951674870342,-1.2449745063406403,1.2449745063406403,-0.48435951674870342,6.4961208353473578,0.0
679640.0783812654,4015767.5119837918,-7500.0,5.9962035390162338,3.0402815832386363,-0.29239337561441031,1.2428000043605143,0.62711288068485371,0.19628753461055493,4.5101605190499541,0.58694727605517127,-1.5995475805138113,1.5995475805138113,-0.58694727605517127,8.3818581762315016,0.0
684640.0783812654,4015767.5119837918,-7500.0,7.8363146926132812,3.9747723771183696,-0.4488692428436466,1.758159032936059,0.86518124311229216,0.30150763389392438,5.9466577492174721,0.71470437892584771,-2.0921872200109015,2.0921872200109015,-0.71470437892584771,11.041094126584788,0.0
689640.0783812654,4015767.5119837918,-7500.0,10.480841811754908,5.3056534972711535,-0.70235614459015727,2.5628165650334167,1.2225600797713221,0.48040568341943019,8.029322905962756,0.87142458041406323,-2.791731413134396,2.791731413134396,-0.87142458041406323,14.895425646756605,0.0
694640.0783812654,4015767.5119837918,-7500.0,14.39931440606318,7.2485732554933513,-1.1263531416440486,3.8683195227250726,1.7735150959251658,0.79866501605951479,11.143866836650519,1.0561891136904145,-3.8085325911085821,3.8085325911085821,-1.0561891136904145,20.659575350584632,0.0
699640.0783812654,4015767.5119837918,-7500.0,20.410964970224541,10.158863471769751,-1.8620850966719682,6.0821139520235672,2.6448638059091443,1.3949333801931103,15.968222259792332,1.2528547921864415,-5.322411004357777,5.322411004357777,-1.2528547921864415,29.592616616022536,0.0
704640.0783812654,4015767.5119837918,-7500.0,30.0036714771691,14.624740910252502,-3.192214034226097,10.031437120268356,4.0479697288426824,2.5793140856696635,23.74154357770702,1.4030940437379193,-7.6275909968683067,7.6275909968683067,-1.4030940437379193,44.004350625559304,0.0
709640.0783812654,4015767.5119837918,-7500.0,45.991730240076755,21.587100630249683,-5.7021577363892959,17.4934940134257,6.2867623441320779,5.0863544640110128,36.816457932496292,1.3442291118481018,-11.192363289472624,11.192363289472624,-1.3442291118481018,68.305166642582961,0.0
714640.0783812654,4015767.5119837918,-7500.0,73.903463134863799,32.317232576054458,-10.610299479739869,32.514292295283695,9.4767180249921275,10.733034671720356,59.809979193889276,0.71881836949575462,-16.680370004062965,16.680370004062965,-0.71881836949575462,111.21367378244121,0.0
719640.0783812654,4015767.5119837918,-7500.0,124.96683430862532,47.249321332474324,-20.179306842138544,64.894214985004965,11.238185057051815,23.974869557980739,102.25328213030853,-0.64381320711654944,-24.712832843919813,24.712832843919813,0.64381320711654944,190.57373425839896,0.0
724640.0783812654,4015767.5119837918,-7500.0,222.6383379895862,59.432416280132045,-35.678696282081013,141.4783000917611,-8.9351168716936602,54.435730466782601,190.73383748297283,3.9458263860413005,-35.926873801330728,35.926873801330728,-3.9458263860413005,349.9352541344021,0.0
729640.0783812654,4015767.5119837918,-7500.0,386.8691005886318,42.010663000369867,-27.565239596256074,363.87149711504549,-190.59636531231277,138.59919178918619,459.48857143252565,105.66911582941006,-84.1146144233021,84.1146144233021,-105.66911582941006,801.2397919255676,0.0
734640.0783812654,4015767.5119837918,-7500.0,-419.10472086843248,488.24700757446482,358.37124293226867,328.81326311632068,-1058.7160469543999,421.08920078324019,1296.9452656743626,1263.4045159679156,-959.98293989957597,959.98293989957597,-1263.4045159679156,2249.2916735516405,0.0
739640.0783812654,4015767.5119837918,-7500.0,214.31618085305647,425.55279791794845,150.35974780115257,2453.49637894323,3073.2603949049726,-8343.5210259312571,5954.3561692632902,-2122.8289752376436,1620.6613398142722,-1620.6613398142722,2122.8289752376436,10937.565849006363,1.0
744640.0783812654,4015767.5119837918,-7500.0,-1141.7612766328,486.76325039725418,459.16013055207935,704.83645547805429,-304.17330547302674,-247.77943793192449,1148.639724477365,894.24271659841918,-651.46263881971515,651.46263881971515,-894.24271659841918,2099.9335915001561,0.0
749640.0783812654,4015767.5119837918,-7500.0,-142.19914234429237,249.99285081610347,82.808418607279449,21.971279342665174,-101.51749806068271,8.8312841187195001,293.44363384867847,284.04382366530507,-281.7539668221122,281.7539668221122,-284.04382366530507,509.2253914308539,0.0
754640.0783812654,4015767.5119837918,-7500.0,-4.242588825768304,112.93893135772491,20.386346743823712,-13.870232963757253,-40.314998202789987,8.250733011217438,121.05107353184832,107.54053835075516,-119.38121271506387,119.38121271506387,-107.54053835075516,210.17522288698686,0.0
759640.0783812654,4015767.5119837918,-7500.0,15.862325430448028,59.029219279527744,6.585805612480427,-12.242817260843804,-19.899747889188934,5.0787789761103248,63.123271836258979,50.82656125097877,-59.940203090556594,59.940203090556594,-50.82656125097877,110.42332507008277,0.0
764640.0783812654,4015767.5119837918,-7500.0,16.480211264229389,34.128246932722512,2.5520985988721363,-8.430682734629265,-10.807855271882145,2.9019336464802463,36.982310188521275,27.254672612298329,-33.427604858903713,33.427604858903713,-27.254672612298329,65.169872809255011,0.0
769640.0783812654,4015767.5119837918,-7500.0,13.670761400379284,21.163902361322631,1.1376041237520167,-5.5912173454769114,-6.2591919688059861,1.6535529546438081,23.292099238883957,15.894172910372195,-20.047221764924085,20.047221764924085,-15.894172910372195,41.302901141100129,0.0
774640.0783812654,4015767.5119837918,-7500.0,10.753114028376155,13.847332062708798,0.57339446509785319,-3.7333118148488418,-3.822910889291061,0.9664303237021723,15.471248215402507,9.8771213561346318,-12.720515138414795,12.720515138414795,-9.8771213561346318,27.580478292481722,0.0
779640.0783812654,4015767.5119837918,-7500.0,8.3718731082975211,9.4609821877770841,0.32397335726650017,-2.5432798953169087,-2.4440720421382829,0.58444897746750912,10.720487200970744,6.4587758002184357,-8.4514769091474324,8.4514769091474324,-6.4587758002184357,19.198856488446399,0.0
784640.0783812654,4015767.5119837918,-7500.0,6.5467697305085313,6.700268362445704,0.20329506490939911,-1.7738328247675441,-1.6252522053267877,0.36605969614826223,7.6918729794477594,4.4044091592105765,-5.8345743588538088,5.8345743588538088,-4.4044091592105765,13.830337707133571,0.0
789640.0783812654,4015767.5119837918,-7500.0,5.1700644113434446,4.8907557252544498,0.13976047031688116,-1.2664628423800814,-1.1180145174133198,0.23698327650969253,5.6825558263460714,3.1107406707125498,-4.1604933243908011,4.1604933243908011,-3.1107406707125498,10.253998157653371,0.0
794640.0783812654,4015767.5119837918,-7500.0,4.1305090581627955,3.6630779292579287,0.10347425808121673,-0.92427310843376054,-0.79193798748245769,0.15811404032248455,4.3037278959939762,2.2632952417753209,-3.0498339589866266,3.0498339589866266,-2.2632952417753209,7.7909381909203574,0.0
799640.0783812654,4015767.5119837918,-7500.0,3.3393009119738566,2.8050525905906363,0.081068987772838552,-0.68821604373271028,-0.57540454200649793,0.10838858134512323,3.329750870013247,1.6890934996411107,-2.2894774341125155,2.2894774341125155,-1.6890934996411107,6.0454084475342409,0.0
804640.0783812654,4015767.5119837918,-7500.0,2.7306653721522216,2.1897166744453247,0.066197544849508724,-0.52184347127431541,-0.4274556852851899,0.076122537555906811,2.6242643341818814,1.2885225386802588,-1.7545446394600306,1.7545446394600306,-1.2885225386802588,4.7773148045396274,0.0
809640.0783812654,4015767.5119837918,-7500.0,2.2570452490271848,1.7383538204280653,0.055676539520517057,-0.40222750468730389,-0.32379506206838171,0.054631425376631772,2.101917953876721,1.0018930130243922,-1.3691087737837844,1.3691087737837844,-1.0018930130243922,3.83586217261047,0.0
814640.0783812654,4015767.5119837918,-7500.0,1.8842204287878626,1.4006208114422367,0.047824872970615516,-0.31464370983363144,-0.24953116921822832,0.039975015990348542,1.7076297684950767,0.79217722879846464,-1.085485959445085,1.085485959445085,-0.79217722879846464,3.1234341802150243,0.0
819640.0783812654,4015767.5119837918,-7500.0,1.5874604446116793,1.1434152539993594,0.041709052291674369,-0.24943577506459286,-0.19526379657271034,0.029764131944200061,1.4048683089403267,0.63568888023377157,-0.87285138947509722,0.87285138947509722,-0.63568888023377157,2.5751092642598774,0.0
824640.0783812654,4015767.5119837918,-7500.0,1.3487495052495342,0.94443138589146725,0.036784553345810017,-0.20014316726098433,-0.15490068740733701,0.022511733330764148,1.1688150735335869,0.51686013107731021,-0.71076239618747272,0.71076239618747272,-0.51686013107731021,2.1466689654186779,0.0
829640.0783812654,4015767.5119837918,-7500.0,1.1548314471774708,0.78830361871939059,0.032717829121424874,-0.16236075545091694,-0.12439841879274847,0.017269701932460399,0.9822401114861129,0.42520796413086859,-0.585346299520622,0.585346299520622,-0.42520796413086859,1.8073427734486671,0.0
834640.0783812654,4015767.5119837918,-7500.0,0.99584759417198032,0.66423520629906385,0.029294600751063105,-0.13303125000519547,-0.10101507916960545,0.013420009268634608,0.83294673696471744,0.35351832829623475,-0.48699221740795351,0.48699221740795351,-0.35351832829623475,1.5353011537208536,0.0
644640.0783812654,4020767.5119837918,-7500.0,1.8295750163602669,0.56692282424093632,-0.056906027989403363,0.24426799199307608,0.087872479737222522,0.024197343365240539,1.1181837467816622,0.027003252892236915,-0.19210995066767839,0.19210995066767839,-0.027003252892236915,2.1398033214762466,0.0
649640.0783812654,4020767.5119837918,-7500.0,2.1876151660793144,0.6625156386948915,-0.077974952239733386,0.30712158149672214,0.10660507307561999,0.032073193778887198,1.3354256822647317,0.017682109510033031,-0.21786797446530132,0.21786797446530132,-0.017682109510033031,2.5552947038127232,0.0
654640.0783812654,4020767.5119837918,-7500.0,2.6428539060709273,0.77935171373479306,-0.10711974598868163,0.39121349179309406,0.1303851734948476,0.043197300124838918,1.6112021761086528,0.0020026602444791902,-0.24704344803339751,0.24704344803339751,-0.0020026602444791902,3.0828387137661779,0.0
659640.0783812654,4020767.5119837918,-7500.0,3.2296757114158643,0.92307983957240425,-0.14791284142860409,0.50561229371106609,0.16082040130635616,0.059224459004724908,1.9661029593170916,-0.023591645626031055,-0.27944763851203835,0.27944763851203835,0.023591645626031055,3.7619324646364181,0.0
664640.0783812654,4020767.5119837918,-7500.0,3.997698705081679,1.10091811891374,-0.20577165192791888,0.66415422961090276,0.20006847761049809,0.082832233726235646,2.4298251777135449,-0.064792612400033811,-0.31411913853670953,0.31411913853670953,0.064792612400033811,4.6495982826257203,0.0
669640.0783812654,4020767.5119837918,-7500.0,5.0199910810781398,1.3219198289190803,-0.28906109353852516,0.8884719461867957,0.25098905726036408,0.11847797947693593,3.0461115580673566,-0.13087069045148048,-0.34848524589604191,0.34848524589604191,0.13087069045148048,5.8299251030649435,0.0
674640.0783812654,4020767.5119837918,-7500.0,6.4065601355234874,1.5969644267657588,-0.41094412843741568,1.2133146759023916,0.3172473681612224,0.1738201250173195,3.8809097415577427,-0.23722491354209935,-0.37666736446295851,0.37666736446295851,0.23722491354209935,7.4298655544408003,0.0
679640.0783812654,4020767.5119837918,-7500.0,8.3270489391354481,1.9378462782958117,-0.59253699497886059,1.696198461797876,0.40316165492058914,0.26248921142747655,5.0362410654772454,-0.40999376399494125,-0.38599648495693584,0.38599648495693584,0.40999376399494125,9.6461512296903411,0.0
684640.0783812654,4020767.5119837918,-7500.0,11.049898971288037,2.3538081099149992,-0.86834474407301809,2.4355316352456784,0.51266636655912978,0.40972004959772812,6.6745122928199718,-0.69458571174027106,-0.34967748184888336,0.34967748184888336,0.69458571174027106,12.792609447822928,0.0
689640.0783812654,4020767.5119837918,-7500.0,15.011571706035488,2.8411666784837331,-1.2956039071195304,3.6059534442531902,0.6455315117296585,0.66433222871631181,9.0625691599846387,-1.1717829031153459,-0.21089598813119725,0.21089598813119725,1.1717829031153459,17.386196282863036,0.0
694640.0783812654,4020767.5119837918,-7500.0,20.941356310473477,3.3543955999931931,-1.9698036797597289,5.5299678441314315,0.78526534586277308,1.1255040849964286,12.654364026390114,-1.9885095567537872,0.15276536304607446,-0.15276536304607446,1.9885095567537872,24.309104434854568,0.0
699640.0783812654,4020767.5119837918,-7500.0,30.088204070255454,3.7268038296194921,-3.0473155160062282,8.8288040863356869,0.86146241412348368,2.005792772195877,18.251655954495988,-3.4160582305667928,1.0118320099838927,-1.0118320099838927,3.4160582305667928,35.125433671052974,0.0
704640.0783812654,4020767.5119837918,-7500.0,44.623309910441819,3.4513412109116435,-4.7619385985033178,14.750351275553426,0.63091462575627222,3.7871992925487796,27.326597101621193,-5.9525951054365347,2.9825801714342095,-2.9825801714342095,5.9525951054365347,52.720368418645315,0.0
709640.0783812654,4020767.5119837918,-7500.0,68.272148150952219,1.0673353710868472,-7.3411475494000067,25.889297697770036,-0.71120466653707481,7.6233836719177344,42.683140337776528,-10.452047599922711,7.5096213361548685,-7.5096213361548685,10.452047599922711,82.61653837795167,0.0
714640.0783812654,4020767.5119837918,-7500.0,106.80953687678604,-7.5393436392048079,-10.311956953500143,47.682039949627857,-5.8542175059355923,16.377431140550229,69.805377940852495,-17.950253927315821,18.011913383288544,-18.011913383288544,17.950253927315821,135.63899972907996,0.0
719640.0783812654,4020767.5119837918,-7500.0,165.33464345938444,-33.346310099089081,-8.6346510667132232,90.642336016100131,-23.941345828288448,36.964876548577855,119.4572415526909,-26.889808255807853,42.062337884148278,-42.062337884148278,26.889808255807853,232.62697017744964,0.0
724640.0783812654,4020767.5119837918,-7500.0,225.42276466370654,-98.459804229073924,25.805899204317345,167.23765636166985,-84.860937591613592,82.30576538352058,211.47770731058506,-14.506831250563764,89.743753548001322,-89.743753548001322,14.506831250563764,407.86423981250175,0.0
729640.0783812654,4020767.5119837918,-7500.0,137.90310227292693,-168.62122046126547,195.65701471921503,236.31711269630429,-254.36256967380643,149.74728450885129,360.18785448570179,151.48072075425227,101.99164222932843,-101.99164222932843,-151.48072075425227,670.61865689370688,0.0
734640.0783812654,4020767.5119837918,-7500.0,-284.23754720091966,354.32571572426633,190.17843917444517,-43.308102624353651,-219.92060557099003,47.634868816226408,483.91669021699283,497.55655455560668,-430.82012429779536,430.82012429779536,-497.55655455560668,839.71803662863908,0.0
739640.0783812654,4020767.5119837918,-7500.0,179.41206494546415,117.4186880393999,-1556.6086673006,179.43364333154247,1079.0531230668917,-500.60731841032316,1310.1994649075648,-1417.8287467475216,26.493788812683761,-26.493788812683761,1417.8287467475216,2434.4782327789526,1.0
744640.0783812654,4020767.5119837918,-7500.0,-564.79625670295081,-541.20166369274841,-464.00995760392777,506.8533355038636,430.69912477826193,-155.10365823635672,804.7817958409413,-752.0594152145195,486.83051729604034,-486.83051729604034,752.0594152145195,1530.5614474095873,0.0
749640.0783812654,4020767.5119837918,-7500.0,-379.63605674451406,-103.86090388638681,18.621900466812988,169.655219778092,45.402659398135484,-21.684485391462758,261.17953539921263,-27.469415975190678,59.298341200944485,-59.298341200944485,27.469415975190678,518.72518122029339,0.0
754640.0783812654,4020767.5119837918,-7500.0,-160.30934223545574,12.599439140924748,37.706985574391609,52.772819173874964,-7.1460618136536791,-6.021580455966685,108.26719999238122,54.695076076792077,-31.509204954650343,31.509204954650343,-54.695076076792077,203.58789509608158,0.0
759640.0783812654,4020767.5119837918,-7500.0,-67.31295499179484,26.593060200259469,22.070311591410235,17.877892072822291,-10.48834350892313,-1.7331164132408814,55.09088200891663,44.088712273925523,-34.818111234600892,34.818111234600892,-44.088712273925523,99.190670201147867,0.0
764640.0783812654,4020767.5119837918,-7500.0,-29.100253202033922,22.374588215218456,11.932362587052646,6.1714944728823191,-7.7769880599220844,-0.29486455904918379,31.807788857149458,29.118745129140962,-26.02823908288488,26.02823908288488,-29.118745129140962,55.937811754358258,0.0
769640.0783812654,4020767.5119837918,-7500.0,-12.614763683041666,16.572180152579051,6.5988724630072957,1.9638707374149655,-5.215531479891645,0.11535100268181284,19.945887007016964,18.812844325204775,-18.142217948408298,18.142217948408298,-18.812844325204775,34.694595802475021,0.0
774640.0783812654,4020767.5119837918,-7500.0,-5.1793216603547823,11.983309270743332,3.8110034957262982,0.41278016464949219,-3.4572910383483828,0.19180483554164293,13.268575912171814,12.356644988327945,-12.572871454890079,12.572871454890079,-12.356644988327945,22.990337583293542,0.0
779640.0783812654,4020767.5119837918,-7500.0,-1.7263610571961165,8.7088536821998623,2.3050221977865384,-0.14543135275043034,-2.3235410691941056,0.17422715297077279,9.2346428970954584,8.3351289302330134,-8.8325151735665219,8.8325151735665219,-8.3351289302330134,15.999833265311782,0.0
784640.0783812654,4020767.5119837918,-7500.0,-0.1090616306371071,6.4220245138814001,1.456822771818679,-0.32162874901935523,-1.595644077955567,0.1380399958177059,6.6632770010954943,5.783223797918251,-6.3276424321655655,6.3276424321655655,-5.783223797918251,11.567276792347286,0.0
789640.0783812654,4020767.5119837918,-7500.0,0.63122873798177037,4.8186090303284095,0.95860218109331052,-0.35083782684473475,-1.1215117620269905,0.10450752445733534,4.9525312939754569,4.1218223488957468,-4.6281468057678081,4.6281468057678081,-4.1218223488957468,8.6230301835306307,0.0
794640.0783812654,4020767.5119837918,-7500.0,0.94229085665979229,3.6794907752597745,0.65414623700765906,-0.32633139635376518,-0.80620664557227806,0.078040985616929529,3.7735465750990045,3.0108034944146906,-3.4535869991873041,3.4535869991873041,-3.0108034944146906,6.5928952148168323,0.0
799640.0783812654,4020767.5119837918,-7500.0,1.0411816407366243,2.8569245461587056,0.46121220158618986,-0.28556110418354302,-0.59181247211770638,0.058259132900951194,2.9365848871099387,2.2484720641329328,-2.6255757065536867,2.6255757065536867,-2.2484720641329328,5.1491602439254898,0.0
804640.0783812654,4020767.5119837918,-7500.0,1.0362076192738603,2.2527963713675363,0.33483897416430558,-0.24328921517083882,-0.44282640186868627,0.043746458890239134,2.3271743351652039,1.7127532503364802,-2.0303941391092493,2.0303941391092493,-1.7127532503364802,4.0953565238697038,0.0
809640.0783812654,4020767.5119837918,-7500.0,0.98251533445779637,1.8017231997334182,0.24954239654541685,-0.20489139200453757,-0.3371474354060065,0.033135123987648236,1.8736072778800459,1.3279766856011865,-1.594624497296607,1.594624497296607,-1.3279766856011865,3.3088167374770339,0.0
814640.0783812654,4020767.5119837918,-7500.0,0.90846844962979711,1.4596427769015197,0.19038248115749151,-0.17186870416306502,-0.26074905031322249,0.025346499115262357,1.5294938380053618,1.0460819614387309,-1.2700669675742735,1.2700669675742735,-1.0460819614387309,2.7102863725250841,0.0
819640.0783812654,4020767.5119837918,-7500.0,0.82860968833195514,1.1964307114895272,0.14832379165953241,-0.14417917795931137,-0.20454592844166686,0.019587549662450323,1.263969291997546,0.8358184042868686,-1.0245007964355106,1.0245007964355106,-0.8358184042868686,2.2470333174698198,0.0
824640.0783812654,4020767.5119837918,-7500.0,0.75022511581265361,0.99117170867147719,0.11774343162825524,-0.1212306350477238,-0.16253373530359996,0.015290817102386544,1.0559859709913617,0.67641083203283947,-0.83599507911513715,0.83599507911513715,-0.67641083203283947,1.8830654092213543,0.0
829640.0783812654,4020767.5119837918,-7500.0,0.67675313923560776,0.82911820712278317,0.095049173605050566,-0.10229727533768002,-0.13066714704198445,0.012053830541633389,0.89087342075240228,0.55376044727857487,-0.68936050038221408,0.68936050038221408,-0.55376044727857487,1.593258724284822,0.0
834640.0783812654,4020767.5119837918,-7500.0,0.60959106173827915,0.69971460840876221,0.077890148979757795,-0.086685357235226232,-0.10617076553896289,0.0095911191476877808,0.75820433867729153,0.45811505656095913,-0.57390186737097737,0.57390186737097737,-0.45811505656095913,1.3597229946245475,0.0
644640.0783812654,4025767.5119837918,-7500.0,2.1573019040872872,0.38133950906159836,-0.074685404076973244,0.28612041769498892,0.061920032739700405,0.028013038411964328,1.1992767332198946,-0.12557811381759301,0.01696462577208676,-0.01696462577208676,0.12557811381759301,2.3359043449670183,0.0
649640.0783812654,4025767.5119837918,-7500.0,2.5860146210081623,0.4255509274315965,-0.098450435157094479,0.36064183528135058,0.071946428668365675,0.037234886738004604,1.434220731327793,-0.17225876002350815,0.045579969368325771,-0.045579969368325771,0.17225876002350815,2.794551463197906,0.0
654640.0783812654,4025767.5119837918,-7500.0,3.1310220098600361,0.47268772883442556,-0.13023414082349166,0.46040630007456379,0.083363808125332201,0.050280599456082993,1.7326039640942843,-0.23691684827546083,0.089149492448056353,-0.089149492448056353,0.23691684827546083,3.3773871511474667,0.0
659640.0783812654,4025767.5119837918,-7500.0,3.832734014427813,0.52030474271159177,-0.17303716773624594,0.59610842498034744,0.095906271371201071,0.069095991110312865,2.1166414708315981,-0.3274800151927641,0.1556017386584006,-0.1556017386584006,0.3274800151927641,4.1280361042561529,0.0
664640.0783812654,4025767.5119837918,-7500.0,4.7487916813941036,0.56321349699153522,-0.23104927921702875,0.78395670127681238,0.10870915368276084,0.096819460630290274,2.6182553700570481,-0.45590860992104865,0.2575840443304841,-0.2575840443304841,0.45590860992104865,5.109249007579086,0.0
669640.0783812654,4025767.5119837918,-7500.0,5.9627709271134437,0.5910392195695563,-0.31006804779376762,1.0490599637041322,0.11963068325453166,0.13864967517983173,3.2842235870232921,-0.64052737146750627,0.41567567094018887,-0.41567567094018887,0.64052737146750627,6.4130818940117953,0.0
674640.0783812654,4025767.5119837918,-7500.0,7.5979049510776697,0.58354130354347633,-0.41791521054063641,1.4312451636986281,0.12382869890831399,0.20345400685762963,4.1845711557217102,-0.90984307629957262,0.66410146829260963,-0.66410146829260963,0.90984307629957262,8.1775081058830139,0.0
679640.0783812654,4025767.5119837918,-7500.0,9.8389446808412462,0.5014787595698541,-0.56450527138109108,1.9953053076305378,0.11071586379595581,0.30685118506081044,5.4265751153010973,-1.3088246467146547,1.0611463347178907,-1.0611463347178907,1.3088246467146547,10.614182321582856,0.0
684640.0783812654,4025767.5119837918,-7500.0,12.967107897830507,0.26839985776848352,-0.76043941868037568,2.849507293886,0.057280018570254478,0.47733379025895145,7.1787176333204021,-1.9091572904301821,1.708617506095695,-1.708617506095695,1.9091572904301821,14.055998059805296,0.0
689640.0783812654,4025767.5119837918,-7500.0,17.41531225616173,-0.26645129607101381,-1.0106799317503983,4.1797915458071859,-0.087014582264320392,0.76889203755604196,9.7126382187401692,-2.8253990277964074,2.7890710643176591,-2.7890710643176591,2.8253990277964074,19.040518923863118,0.0
694640.0783812654,4025767.5119837918,-7500.0,23.851479369384432,-1.4051426478504698,-1.292960070106093,6.3140441615207763,-0.43550856720595726,1.2880419006412602,13.478128518023151,-4.2377476144045065,4.6383026369541742,-4.6383026369541742,4.2377476144045065,26.459408532546671,0.0
699640.0783812654,4025767.5119837918,-7500.0,33.286817858111135,-3.762526085208826,-1.489737534189808,9.8431060634524723,-1.2496281490571668,2.2537405020993972,19.238697609879068,-6.4126063827347322,7.887065114253585,-7.887065114253585,6.4126063827347322,37.829246510611142,0.0
704640.0783812654,4025767.5119837918,-7500.0,47.144546114412677,-8.5999015631054352,-1.1788781457515694,15.840488357073884,-3.1510746082335359,4.1334811086111181,28.313576594142905,-9.667654352288503,13.729421246719296,-13.729421246719296,9.667654352288503,55.777137354128527,0.0
709640.0783812654,4025767.5119837918,-7500.0,66.97027022399719,-18.458372229544278,1.0030311521681572,26.205107695058491,-7.6555644582572873,7.9511443706467775,42.977252315177303,-14.047320101593295,24.363763815908669,-24.363763815908669,14.047320101593295,84.850961030625953,0.0
714640.0783812654,4025767.5119837918,-7500.0,92.565040558693227,-37.987297483407261,9.22931733903728,43.886714437528511,-18.459463795189407,15.926875854892462,66.934086931280632,-17.807730089488373,43.317106222555779,-43.317106222555779,17.807730089488373,132.51809312449203,0.0
719640.0783812654,4025767.5119837918,-7500.0,114.84491272649147,-72.728765413878364,35.199512949168806,71.297284219228146,-43.911171826207301,32.37048714714598,105.0052045073313,-11.804075019866218,73.223292939707818,-73.223292939707818,11.804075019866218,208.51765676821157,0.0
724640.0783812654,4025767.5119837918,-7500.0,98.205528925636742,-113.05637921732244,103.08063760886218,100.11011922128291,-97.047727717940234,62.347740381846414,159.15123090192611,34.990481234768723,99.511201279239899,-99.511201279239899,-34.990481234768723,313.28977835632207,0.0
729640.0783812654,4025767.5119837918,-7500.0,-14.46220833302973,-73.019689459603001,202.93787150242051,84.002200684221677,-164.03706545651752,97.243255957251804,207.78865348927522,168.63779492614282,37.618430796054483,-37.618430796054483,-168.63779492614282,391.59333427226403,0.0
734640.0783812654,4025767.5119837918,-7500.0,-99.459140318451887,157.56398490182542,53.632844196729742,-21.037154590288573,-96.984893619530823,87.175397492194861,210.93344739995075,206.36705232948563,-199.11416955286066,199.11416955286066,-206.36705232948563,365.68084043254845,0.0
739640.0783812654,4025767.5119837918,-7500.0,36.065825386486551,111.05774067781159,-463.51156243759795,-15.565021647283803,158.89266485804879,17.15089230060412,305.67418798647725,-258.53443302817072,-153.03708891567464,153.03708891567464,258.53443302817072,594.94098874087058,0.0
744640.0783812654,4025767.5119837918,-7500.0,-69.064290200429568,-176.72977538704066,-405.58958006166642,94.75967660098496,183.04429842137316,-16.218893978184514,312.10614198715143,-410.85690939529536,124.98916916640891,-124.98916916640891,410.85690939529536,595.8018075727432,0.0
749640.0783812654,4025767.5119837918,-7500.0,-165.42131204184355,-148.86905881568549,-127.20478629502817,90.601915148436078,78.731212504988704,-16.417294656328369,184.41398056188373,-179.68931801983288,111.94006434008199,-111.94006434008199,179.68931801983288,357.31807502784119,0.0
754640.0783812654,4025767.5119837918,-7500.0,-133.49154014134058,-60.756828890942558,-18.255250655815018,52.951450258630416,23.371643097922689,-10.145635364700787,94.595271731789808,-41.957121427592156,39.977597695787281,-39.977597695787281,41.957121427592156,188.15986919978783,0.0
759640.0783812654,4025767.5119837918,-7500.0,-83.521962143549004,-16.296581402947439,6.186147870872424,27.237234348466369,4.3877175410525524,-5.0300307921137106,51.971407608568882,2.3017817215113139,4.9432835496712295,-4.9432835496712295,-2.3017817215113139,101.22874183505242,0.0
764640.0783812654,4025767.5119837918,-7500.0,-48.728471517530231,0.16995970075131522,8.4671344152762895,13.603080476188932,-0.98883515408674683,-2.2663133503133972,30.503365586598797,12.004889102393907,-6.4299101974206723,6.4299101974206723,-12.004889102393907,57.712993592145551,0.0
769640.0783812654,4025767.5119837918,-7500.0,-28.080491783024314,5.1127091791888271,6.5788111099102693,6.818789085384406,-2.0656802321973893,-0.98433680693398984,18.990101804933062,11.835539018970977,-8.5988549969328076,8.5988549969328076,-11.835539018970977,35.029176305661366,0.0
774640.0783812654,4025767.5119837918,-7500.0,-16.284843117273049,5.9086958123992082,4.5729455881276539,3.4634256304569679,-1.9392551192114957,-0.41840364944724284,12.473068315049797,9.5492740407203112,-7.8602760020923075,7.8602760020923075,-9.5492740407203112,22.535717212772596,0.0
779640.0783812654,4025767.5119837918,-7500.0,-9.5410996820067364,5.3779413014221857,3.1035098448735634,1.7786571270633109,-1.5606925958274351,-0.17110222837237257,8.5791284324354589,7.2734368039233912,-6.4663319103552164,6.4663319103552164,-7.2734368039233912,15.256734542060959,0.0
784640.0783812654,4025767.5119837918,-7500.0,-5.6299110864197255,4.5337221808464072,2.1161096898630016,0.91433386551896056,-1.1967870147698549,-0.06312123060996841,6.1342886714328158,5.4599518056466341,-5.1286842893509128,5.1286842893509128,-5.4599518056466341,10.78602542428923,0.0
789640.0783812654,4025767.5119837918,-7500.0,-3.3200555452934206,3.7154306741030414,1.4653068544955961,0.46160689903585495,-0.90548509375564379,-0.016401439354815542,4.5308187047278352,4.1070621672971477,-4.0244282468584984,4.0244282468584984,-4.1070621672971477,7.9067609957227836,0.0
794640.0783812654,4025767.5119837918,-7500.0,-1.9317130677364527,3.0180595487437722,1.0345011581744905,0.22061119758286185,-0.68562650680526172,0.0030984020440509904,3.4387410886135923,3.117260269431108,-3.1597655937878213,3.1597655937878213,-3.117260269431108,5.9737062442642124,0.0
799640.0783812654,4025767.5119837918,-7500.0,-1.0847052876710646,2.4517297676293444,0.74537571551421622,0.091218739474494853,-0.52282003329833437,0.010443679412211323,2.6704668980073123,2.3939862253209352,-2.4952927141728676,2.4952927141728676,-2.3939862253209352,4.6284185112621143,0.0
804640.0783812654,4025767.5119837918,-7500.0,-0.56225954450041526,2.000326253345853,0.5479170980115422,0.021919618332858892,-0.40258100904630789,0.012413409188599971,2.1147359009408198,1.8618816359588479,-1.9867029535339171,1.9867029535339171,-1.8618816359588479,3.6628300350990424,0.0
809640.0783812654,4025767.5119837918,-7500.0,-0.23810516666902592,1.6424757293678109,0.41052932662395708,-0.014471601690328829,-0.31334972505778863,0.012095797185456246,1.7029850592766762,1.4663607386147215,-1.5962512125419173,1.5962512125419173,-1.4663607386147215,2.9511709963719119,0.0
814640.0783812654,4025767.5119837918,-7500.0,-0.037114984130364972,1.3584798139175527,0.31314859323473099,-0.032639087710758199,-0.2465749980706495,0.010901976671919609,1.3914956692793696,1.1688940760543063,-1.294552486680423,1.294552486680423,-1.1688940760543063,2.4145739672483164,0.0
819640.0783812654,4025767.5119837918,-7500.0,0.086310175606330461,1.1320947380218982,0.24287830982631567,-0.040674529847842138,-0.19610790860372049,0.0094684743719750126,1.1515326017255487,0.94245043057555078,-1.0595353104316749,1.0595353104316749,-0.94245043057555078,2.0019247899585753,0.0
824640.0783812654,4025767.5119837918,-7500.0,0.16035666330115719,0.95052323084125179,0.19130185814810655,-0.043109818467317977,-0.15756497012886783,0.0080705451783552509,0.96369417747609476,0.76800663769419519,-0.87484565839797712,0.87484565839797712,-0.76800663769419519,1.6791068924703654,0.0
829640.0783812654,4025767.5119837918,-7500.0,0.20273371228510487,0.80387975949231205,0.15283587352447459,-0.042513577761336872,-0.12781901404922744,0.0068150120229430707,0.81456363685066346,0.63207308902244319,-0.72840178305087078,0.72840178305087078,-0.63207308902244319,1.4227442949502671,0.0
834640.0783812654,4025767.5119837918,-7500.0,0.22472762831373483,0.68458408604484533,0.12371491656184698,-0.040351703501488416,-0.10462694010238097,0.0057314542825206115,0.69466332375176454,0.52499020608710112,-0.61125556856708718,0.61125556856708718,-0.52499020608710112,1.2164426731593827,0.0
644640.0783812654,4030767.5119837918,-7500.0,2.4014892548768656,0.16777224918067321,-0.062626424064062478,0.31745781236773735,0.031954400117256629,0.030886171439487225,1.2652313591136866,-0.26770125435845382,0.24453266572609003,-0.24453266572609003,0.26770125435845382,2.4980050147482653,0.0
649640.0783812654,4030767.5119837918,-7500.0,2.8725820648004872,0.15459146504833357,-0.078698929969635137,0.39938656748437479,0.032158175901118864,0.040998175802812731,1.5122649430097848,-0.34607585376533567,0.33078634254055428,-0.33078634254055428,0.34607585376533567,2.9873824684356194,0.0
654640.0783812654,4030767.5119837918,-7500.0,3.4672415225334943,0.12491847552083807,-0.098322267519978968,0.50846895115779034,0.029785947723045974,0.055245742002739399,1.8251182167312694,-0.45087551974647605,0.45052447502167597,-0.45052447502167597,0.45087551974647605,3.6075433812947568,0.0
659640.0783812654,4030767.5119837918,-7500.0,4.2259734272113638,0.068393318720542065,-0.12170805248716088,0.65580092018894609,0.022654932223380338,0.075685434050177788,2.2262789103174527,-0.59242873857031286,0.61887842853154762,-0.61887842853154762,0.59242873857031286,4.403281917907413,0.0
664640.0783812654,4030767.5119837918,-7500.0,5.2050251468623641,-0.031821962534815909,-0.14831785029332406,0.85789969301732649,0.0069033418004252447,0.10559222446178894,2.7476902049764749,-0.78561598654450249,0.85893391175977896,-0.85893391175977896,0.78561598654450249,5.4382571087418103,0.0
669640.0783812654,4030767.5119837918,-7500.0,6.4832293652711384,-0.20342648234645647,-0.1757711422532908,1.1397850315683493,-0.024378532212919427,0.15030533605233407,3.4354897617581881,-1.0520072559685167,1.2065261897872759,-1.2065261897872759,1.0520072559685167,6.8044492715138825,0.0
674640.0783812654,4030767.5119837918,-7500.0,8.1718517482864641,-0.49260687789143176,-0.19744211135454257,1.54003646137244,-0.083743522585548236,0.21875090752216747,4.3574944172726315,-1.4229225026370702,1.7182746345625739,-1.7182746345625739,1.4229225026370702,8.6370837155204576,0.0
679640.0783812654,4030767.5119837918,-7500.0,10.428355085836452,-0.97748222024747133,-0.19716131603821327,2.1191924549918379,-0.19442257302544602,0.32625550739208253,5.6151985977896706,-1.943530091117061,2.4852158595824716,-2.4852158595824716,1.943530091117061,11.138524803692361,0.0
684640.0783812654,4030767.5119837918,-7500.0,13.474304427869146,-1.7920155370524555,-0.13742795924576268,2.9737797940103903,-0.40032585652867919,0.49988015721844647,7.3632281571763647,-2.6774219183272994,3.6560946515211086,-3.6560946515211086,2.6774219183272994,14.616955664686779,0.0
689640.0783812654,4030767.5119837918,-7500.0,17.614468113811665,-3.1685141297659669,0.067151965869234262,4.2595842731097155,-0.7863559382145352,0.78877440554264233,9.8409888100833278,-3.708649794460829,5.4769459302478065,-5.4769459302478065,3.708649794460829,19.549224863107206,0.0
694640.0783812654,4030767.5119837918,-7500.0,23.243492597075289,-5.5116026539715595,0.61046533593705643,6.2289405695426669,-1.5204095077123019,1.2846423740017585,13.423435420970042,-5.1303532092073567,8.356265622198503,-8.356265622198503,5.1303532092073567,26.681774658306313,0.0
699640.0783812654,4030767.5119837918,-7500.0,30.794648625439489,-9.5183262019382635,1.9339220877202101,9.2845639262936892,-2.9408207007749696,2.1624131087361604,18.698240572601566,-6.9855186911314044,12.962238160010902,-12.962238160010902,6.9855186911314044,37.185341059400919,0.0
704640.0783812654,4030767.5119837918,-7500.0,40.498317659464462,-16.334502319982761,5.0409935011124514,14.033299404017038,-5.7349973913687773,3.7591862697264613,26.56535674398285,-9.0586439462882957,20.325169919124111,-20.325169919124111,9.0586439462882957,52.860507759674441,0.0
709640.0783812654,4030767.5119837918,-7500.0,51.61292798552752,-27.590692687187488,12.164117685358715,21.240310368666325,-11.275053972193858,6.7135235386675376,38.296220210033894,-10.24789015660321,31.761194714570912,-31.761194714570912,10.24789015660321,76.285705829746476,0.0
714640.0783812654,4030767.5119837918,-7500.0,60.469372266221491,-44.575521746035335,27.896468142678948,31.307962054394757,-22.084138315414666,12.139547096133832,55.270892402511002,-6.9377033784956552,47.867560738887519,-47.867560738887519,6.9377033784956552,110.39541520658848,0.0
719640.0783812654,4030767.5119837918,-7500.0,57.0583882976998,-64.149721614996622,59.57726986831721,42.267107254061848,-41.669888233996275,21.517120990049353,78.351768459539301,10.042579931477409,64.373684862847895,-64.373684862847895,-10.042579931477409,155.79882818058454,0.0
724640.0783812654,4030767.5119837918,-7500.0,25.445803180536625,-67.710834751416499,109.16105924945064,45.250442552000713,-70.145919281875592,35.049204857062996,103.57779531070639,55.312291484049396,61.916369470175383,-61.916369470175383,-55.312291484049396,202.37328689655743,0.0
729640.0783812654,4030767.5119837918,-7500.0,-30.324192935731872,-16.249814538489012,137.719462007842,23.977113020747893,-89.109653491215184,46.753416795636795,116.72445642455541,121.36154457626199,3.3046801259140821,-3.3046801259140821,-121.36154457626199,218.09560044881894,0.0
734640.0783812654,4030767.5119837918,-7500.0,-42.915126470925216,77.918977867726909,41.967053264139814,-16.531472113364512,-54.929486258863328,42.560447661594694,108.35534024746926,112.77728154922249,-96.295923908998276,96.295923908998276,-112.77728154922249,187.99313974699211,0.0
739640.0783812654,4030767.5119837918,-7500.0,8.3578690161530496,71.69707597873861,-153.22748674187341,-22.814886495571283,27.267009395776938,19.389113976270668,114.44435657515569,-46.367164248042137,-96.4788528284015,96.4788528284015,46.367164248042137,217.31875633603568,1.0
744640.0783812654,4030767.5119837918,-7500.0,1.8248582508555635,-34.734136784527202,-211.05082063061468,12.453689414255072,69.05265929200732,-2.2109610860475533,128.18301983369099,-167.10889527720636,5.6426244024351888,-5.6426244024351888,167.10889527720636,250.72432649476568,0.0
749640.0783812654,4030767.5119837918,-7500.0,-49.728501490611045,-80.118740130847101,-130.80375838174348,34.296579533714095,54.089841029788502,-9.5845222283078364,106.64220112234551,-140.13148142692643,54.888787125398224,-54.888787125398224,140.13148142692643,207.37009464670163,0.0
754640.0783812654,4030767.5119837918,-7500.0,-70.2973954778424,-61.574304857030725,-54.192106342060718,32.243151848171031,28.452176938764076,-8.1999805066233353,72.260601898158427,-72.436418622641341,43.649897724356855,-43.649897724356855,72.436418622641341,141.55210757320197,0.0
759640.0783812654,4030767.5119837918,-7500.0,-61.838149535710663,-33.669040993593214,-16.61334519951199,22.488850831861793,12.162046730319224,-5.0828560943821604,45.269652676799396,-27.769172813449238,21.984300254757855,-21.984300254757855,27.769172813449238,89.785876180168316,0.0
764640.0783812654,4030767.5119837918,-7500.0,-45.499809068970684,-15.143150667203766,-2.5642383177101609,13.958545407859317,4.3634359296533898,-2.781847279183864,28.343247713071143,-6.8336313996206428,7.7626068069248966,-7.7626068069248966,6.8336313996206428,56.247259043178559,0.0
769640.0783812654,4030767.5119837918,-7500.0,-31.131912025948985,-5.3828646133252391,1.7125729620868575,8.3024085933815588,1.0947110709977401,-1.4551964512640074,18.366976677097611,1.3164050192031422,0.76006992275294916,-0.76006992275294916,-1.3164050192031422,35.805893913161029,0.0
774640.0783812654,4030767.5119837918,-7500.0,-20.737621282114887,-0.78854026707518921,2.5440370704569002,4.8928924856752554,-0.14188824937493899,-0.75386743420148039,12.252234921782884,3.8601420676712301,-2.1122574499891913,2.1122574499891913,-3.8601420676712301,23.449479280451389,0.0
779640.0783812654,4030767.5119837918,-7500.0,-13.732448008484173,1.1736383163155741,2.3243382918103506,2.8998344196489296,-0.53688258093270314,-0.39248766289178405,8.4426723622245099,4.2093053303264565,-3.0043377838767551,3.0043377838767551,-4.2093053303264565,15.868275400482695,0.0
784640.0783812654,4030767.5119837918,-7500.0,-9.1245683263960817,1.8809397621047397,1.8741809427735481,1.7381908514557529,-0.60377794682476871,-0.2061350043015861,6.0064209898588174,3.8035228820684033,-3.0430013109929774,3.0430013109929774,-3.8035228820684033,11.099130385964889,0.0
789640.0783812654,4030767.5119837918,-7500.0,-6.1049320011515293,2.0183274595321565,1.4462584216856562,1.0547229950141335,-0.5542655206801731,-0.1089136992047802,4.4016960568419634,3.2098727166978471,-2.758279459512917,2.758279459512917,-3.2098727166978471,8.0109628694056241,0.0
794640.0783812654,4030767.5119837918,-7500.0,-4.1148195521205668,1.9136995805522479,1.1005501614865463,0.646733847317293,-0.47264051284304154,-0.057434784972508687,3.3127758048169267,2.6344917836764719,-2.383965270575672,2.383965270575672,-2.6344917836764719,5.950915071820237,0.0
799640.0783812654,4030767.5119837918,-7500.0,-2.7902625532297423,1.7202669921142797,0.83692679687298155,0.39930013569719447,-0.39065462152651981,-0.029797068419072165,2.5526218813267567,2.1402079417032969,-2.0161850101315393,2.0161850101315393,-2.1402079417032969,4.5363037523996814,0.0
804640.0783812654,4030767.5119837918,-7500.0,-1.8986751560191064,1.5074866250574512,0.64012090455546233,0.2469296739698616,-0.31878157076350994,-0.014808523876466449,2.0078785594110338,1.7357900058217886,-1.689506182064525,1.689506182064525,-1.7357900058217886,3.5379402730932354,0.0
809640.0783812654,4030767.5119837918,-7500.0,-1.2917087630609141,1.305068688458779,0.49396056529434829,0.15181347988309815,-0.25915853928612737,-0.0066476603266872282,1.6080914010064475,1.4117039008216032,-1.4120578931538592,1.4120578931538592,-1.4117039008216032,2.8152348179216418,0.0
814640.0783812654,4030767.5119837918,-7500.0,-0.87413316284421372,1.1240937410271095,0.38512773043006565,0.091765100775410391,-0.21090184790333288,-0.0022276266042348821,1.3083318521447063,1.1539761761940499,-1.1813834691154399,1.1813834691154399,-1.1539761761940499,2.2797943333547801,0.0
819640.0783812654,4030767.5119837918,-7500.0,-0.58417526739916492,0.96712928602828441,0.3035504107979351,0.053536932742537839,-0.17224932973287854,0.00011934901359455725,1.0792219739627469,0.94920357274970157,-0.99143408861875659,0.99143408861875659,-0.94920357274970157,1.8746703752502616,0.0
824640.0783812654,4030767.5119837918,-7500.0,-0.38127197846158911,0.83306451883195409,0.24187049447167741,0.029081045898280193,-0.14138316414410945,0.00130984065002828,0.90108815766260741,0.78605508943569913,-0.83553535233055298,0.83553535233055298,-0.78605508943569913,1.5622953003960487,0.0
829640.0783812654,4030767.5119837918,-7500.0,-0.23844427383158237,0.71939824531318608,0.19478332125622458,0.01342707594306421,-0.11670922484862414,0.0018550101364655013,0.76045700261531834,0.65544808794264464,-0.70754412140090206,0.70754412140090206,-0.65544808794264464,1.317319668419491,0.0
834640.0783812654,4030767.5119837918,-7500.0,-0.13751827742659004,0.62329502791523461,0.15847539876466876,0.0034578956432555763,-0.096919312068610985,0.0020432464857003453,0.64790722282439694,0.55027897956524241,-0.60221039824941969,0.60221039824941969,-0.55027897956524241,1.1222683959455688,0.0
644640.0783812654,4035767.5119837918,-7500.0,2.5549209940287398,-0.056042092955728109,-0.019988404066841364,0.33734124360034567,0.00032262269958130456,0.032731756459543453,1.3129095234708044,-0.38840008626573574,0.47431378973138494,-0.47431378973138494,0.38840008626573574,2.6168698843512757,0.0
649640.0783812654,4035767.5119837918,-7500.0,3.0391951391666181,-0.12559624989471999,-0.018604206185499836,0.42222965843151089,-0.0093291101634167973,0.043254159063249142,1.5655220802089835,-0.48926007547994999,0.61515880579024029,-0.61515880579024029,0.48926007547994999,3.1220555455107872,0.0
654640.0783812654,4035767.5119837918,-7500.0,3.6430034493237238,-0.22886791091401743,-0.012664229134224778,0.53412493058984956,-0.025247253201795022,0.057959359951809085,1.883554184003458,-0.62056906654789101,0.80528100175106887,-0.80528100175106887,0.62056906654789101,3.7584091917263343,0.0
659640.0783812654,4035767.5119837918,-7500.0,4.4018787628033333,-0.38218269164343732,0.0018967891954888741,0.68341891049436576,-0.051208992064786435,0.078845428803683559,2.2883865266790488,-0.79267226849240879,1.0649518630686503,-1.0649518630686503,0.79267226849240879,4.5688545575106776,0.0
664640.0783812654,4035767.5119837918,-7500.0,5.3630900934928283,-0.61044550574410994,0.032424118491143704,0.88516008779070088,-0.093425680413316337,0.10903130442602142,2.809863173509386,-1.0195683289547826,1.4240332744271003,-1.4240332744271003,1.0195683289547826,5.6132114196116278,0.0
669640.0783812654,4035767.5119837918,-7500.0,6.5893483324639845,-0.95203713660309286,0.092271158623487948,1.1613839667944106,-0.16226698742788256,0.15347976797314694,3.490429660304422,-1.3199568380517626,1.9270250209473079,-1.9270250209473079,1.3199568380517626,6.9758608964823763,0.0
674640.0783812654,4035767.5119837918,-7500.0,8.1629826884854868,-1.4666381688900372,0.20594107514078389,1.5446628123423012,-0.27532423710198517,0.22024426325929233,4.3920505636685929,-1.7180952381415944,2.6409050752446683,-2.6409050752446683,1.7180952381415944,8.7772061174424731,0.0
679640.0783812654,4035767.5119837918,-7500.0,10.189426610633326,-2.247635159055962,0.41890788021242453,2.0834396649435649,-0.46293093333340707,0.32265247873860525,5.6027186511916378,-2.2434908221580927,3.6671771617672557,-3.6671771617672557,2.2434908221580927,11.190774577793423,0.0
684640.0783812654,4035767.5119837918,-7500.0,12.79659886645468,-3.4413049315503081,0.81657508759048814,2.8497541704503933,-0.77821537304302468,0.48317468292458715,7.2481822777684712,-2.9267896926628714,5.1598036946605967,-5.1598036946605967,2.9267896926628714,14.468384956173251,0.0
689640.0783812654,4035767.5119837918,-7500.0,16.121381193613903,-5.2746778726786623,1.5610266550205532,3.9494695424781887,-1.3154556448352872,0.74029970792974598,9.5118087222781806,-3.7851668096992803,7.3498676004003212,-7.3498676004003212,3.7851668096992803,18.975786465474624,0.0
694640.0783812654,4035767.5119837918,-7500.0,20.262310762240336,-8.0898894647124546,2.9616325120638591,5.5327279615260654,-2.2431727112651587,1.1606087553013191,12.656626420222393,-4.7810290717405088,10.572768544934569,-10.572768544934569,4.7810290717405088,25.238536590013958,0.0
699640.0783812654,4035767.5119837918,-7500.0,25.152976818828424,-12.365731480178042,5.6058081026275728,7.7943513650078904,-3.8611663003081955,1.8590429036725673,17.045661936844333,-5.717210856566914,15.275359308554851,-15.275359308554851,5.717210856566914,33.986529773997106,0.0
704640.0783812654,4035767.5119837918,-7500.0,30.270330321903174,-18.651950727751011,10.577611975718121,10.931126716534177,-6.6872798939349645,3.0289404106620745,23.134405000338635,-5.9939979794889044,21.924835340695722,-21.924835340695722,5.9939979794889044,46.149246907694817,0.0
709640.0783812654,4035767.5119837918,-7500.0,34.068286927386403,-27.195225796765925,19.723572099301556,14.968895767189775,-11.543804112235566,4.9713424352558917,31.362176396896125,-4.11635801984891,30.600338997795319,-30.600338997795319,4.11635801984891,62.655712678032792,0.0
714640.0783812654,4035767.5119837918,-7500.0,33.212050244302837,-36.756513320532797,35.568883837946309,19.285863501148299,-19.463879552536916,8.0660590273530062,41.996190498916469,3.0369606987235613,39.79489075340183,-39.79489075340183,-3.0369606987235613,83.681692650339585,0.0
719640.0783812654,4035767.5119837918,-7500.0,22.694221696681879,-42.069959150941102,59.355903602205451,21.700519836492877,-30.829005350800433,12.506791107366549,54.068535389474768,20.250393902337461,43.960926918406344,-43.960926918406344,-20.250393902337461,106.74743925275519,0.0
724640.0783812654,4035767.5119837918,-7500.0,0.28408291755140685,-31.70531233014766,84.040281166961279,17.893880590380373,-42.701984082804721,17.508325123796265,63.954254255477672,49.552941189134188,31.622661840104403,-31.622661840104403,-49.552941189134188,123.75689851996565,0.0
729640.0783812654,4035767.5119837918,-7500.0,-22.459804725747073,3.7768641829750411,83.878939786674962,4.5298703883280407,-45.306957995205657,20.255174723358145,65.754340346233491,76.349688123535373,-6.4444153662467158,6.4444153662467158,-76.349688123535373,121.87188101460053,0.0
734640.0783812654,4035767.5119837918,-7500.0,-21.077014704923513,44.827904053621744,27.618562317160738,-11.743657436500284,-26.865420527959369,16.957400141945275,59.093982276043185,62.389290911375511,-51.064241019899569,51.064241019899569,-62.389290911375511,102.82696160299547,0.0
739640.0783812654,4035767.5119837918,-7500.0,1.6957562866972096,44.217578389304002,-62.07520563739066,-14.695077095928012,6.5827481998285062,7.8588341454786788,57.883867208365245,-6.3127645656503475,-55.546719228083077,55.546719228083077,6.3127645656503475,105.55169741354221,0.0
744640.0783812654,4035767.5119837918,-7500.0,6.9078776824658483,0.86154005920734178,-109.85764424447382,-1.7153296593368699,29.797298060852306,-1.0709485009826629,62.8475681407606,-72.223919321144109,-16.522405552006493,16.522405552006493,72.223919321144109,124.26136853819412,0.0
749640.0783812654,4035767.5119837918,-7500.0,-12.717797698697551,-34.681027502647694,-94.984846204726736,11.769091536962348,31.694664473320007,-5.2146370156620643,61.374720268364527,-85.729598306844963,18.37482024222718,-18.37482024222718,85.729598306844963,120.32846045284563,0.0
754640.0783812654,4035767.5119837918,-7500.0,-31.453873794933624,-41.09533285887278,-57.952271586666704,16.496089599856621,22.514950341550989,-5.2907872822647466,49.843763966354999,-63.362892669790071,27.253307432135827,-27.253307432135827,63.362892669790071,97.383587357019294,0.0
759640.0783812654,4035767.5119837918,-7500.0,-37.123017441993078,-31.575546481428137,-28.728764038327068,14.762859931951725,12.999956591754572,-3.862169008131902,36.258636133164146,-36.457321384058261,21.155162882220683,-21.155162882220683,36.457321384058261,71.059240494440687,0.0
764640.0783812654,4035767.5119837918,-7500.0,-33.541023071796985,-19.889334928612474,-12.212032478958351,11.009111136549825,6.634316045180717,-2.4460491778733608,25.049087184651853,-17.661831160662828,12.524724039963333,-12.524724039963333,17.661831160662828,49.406475278301805,0.0
769640.0783812654,4035767.5119837918,-7500.0,-26.739622335097877,-11.111051698832274,-4.2834001530201853,7.5471031945503064,3.07667277325065,-1.4537514533239388,17.007916341965956,-7.0770487071372212,6.0587596122808183,-6.0587596122808183,7.0770487071372212,33.844829765609219,0.0
774640.0783812654,4035767.5119837918,-7500.0,-20.053454567025117,-5.5877573857293923,-0.85676627972182973,4.9856941214864259,1.2626578187500206,-0.84340260353951491,11.719320321286348,-1.7901404007238049,2.1601669720679024,-2.1601669720679024,1.7901404007238049,23.276447491829956,0.0
779640.0783812654,4035767.5119837918,-7500.0,-14.614568599317355,-2.4037233742442177,0.46990042952935401,3.2518770673303039,0.39038926187979983,-0.48745006619672482,8.2779545348496821,0.60395483970473141,0.080995466131280447,-0.080995466131280447,-0.60395483970473141,16.233655929626416,0.0
784640.0783812654,4035767.5119837918,-7500.0,-10.529757805370117,-0.66740412784503789,0.88368720636840636,2.1206999514121239,-0.0054845080993722569,-0.28348398258292345,5.9648741204790436,1.5465996297382361,-0.91262681209565133,0.91262681209565133,-1.5465996297382361,11.538459660489991,0.0
789640.0783812654,4035767.5119837918,-7500.0,-7.5695853156443027,0.23148171755678268,0.92675636203512823,1.3915280823198253,-0.16904386106813232,-0.16659832304288319,4.3912351589195326,1.8027043861425067,-1.3124709260114162,1.3124709260114162,-1.8027043861425067,8.3755155925577398,0.0
794640.0783812654,4035767.5119837918,-7500.0,-5.4552139020426047,0.66309354345359239,0.83557285231551526,0.9212400171381373,-0.22269344806702196,-0.099022975107141489,3.3025488135100183,1.7550401005043006,-1.4069281143599923,1.4069281143599923,-1.7550401005043006,6.2114434765753188,0.0
799640.0783812654,4035767.5119837918,-7500.0,-3.9500897102988786,0.8404763739857708,0.70893052543633128,0.6158070225763993,-0.22647654217161731,-0.059455876260027733,2.5349618466884505,1.588231935847974,-1.3546267840962505,1.3546267840962505,-1.588231935847974,4.7040079475108261,0.0
804640.0783812654,4035767.5119837918,-7500.0,-2.8759574509696457,0.88323974488569879,0.58539378772195505,0.41544032068249487,-0.20939819283649222,-0.035963712572090967,1.9830719374932149,1.3881779925075755,-1.2394373823271088,1.2394373823271088,-1.3881779925075755,3.6339996034567177,0.0
809640.0783812654,4035767.5119837918,-7500.0,-2.1050760992814794,0.85763241741399077,0.47787425803206912,0.28250991147762361,-0.18519993030687776,-0.021825467214134697,1.5785322518196434,1.1926832798598732,-1.1041691985092119,1.1041691985092119,-1.1926832798598732,2.8599939620369055,0.0
814640.0783812654,4035767.5119837918,-7500.0,-1.5478659765267009,0.79995176467651807,0.38880842441377933,0.19330684490289607,-0.16016364341530454,-0.013212211692237342,1.2764572593690278,1.0165822874571973,-0.96967064467117103,0.96967064467117103,-1.0165822874571973,2.2896666824713332,0.0
819640.0783812654,4035767.5119837918,-7500.0,-1.1419804763658827,0.72980098885155886,0.31671490417192144,0.13278846994367249,-0.13695320169949171,-0.0079112423221540367,1.0469201523920042,0.86404333186042959,-0.84527715662000646,0.84527715662000646,-0.86404333186042959,1.8618912453471965,0.0
824640.0783812654,4035767.5119837918,-7500.0,-0.84402653238030678,0.65750868667310747,0.25895389211879766,0.091314300768594994,-0.11650516960430382,-0.0046241057241560172,0.86964161257615014,0.73453596688712774,-0.73442413674103502,0.73442413674103502,-0.73453596688712774,1.5355800510509436,0.0
829640.0783812654,4035767.5119837918,-7500.0,-0.62367550248576209,0.58826952195849036,0.2128272992881757,0.062634439113175427,-0.098958628236033561,-0.0025770618193539218,0.73065071005910864,0.62568484605374408,-0.63762832174633033,0.63762832174633033,-0.62568484605374408,1.2826848269044773,0.0
644640.0783812654,4040767.5119837918,-7500.0,2.6186969800846294,-0.27315951371435399,0.049888046688239381,0.34586096323137611,-0.030707342703934441,0.033554699863893256,1.3527209810651326,-0.48022190650521712,0.69095015305111551,-0.69095015305111551,0.48022190650521712,2.6882224539457349,0.0
649640.0783812654,4040767.5119837918,-7500.0,3.0896765946809874,-0.39203242134452149,0.076121233564923715,0.4295972093657493,-0.049289719208889408,0.044037280718655418,1.6075282692642021,-0.59267774824266373,0.87799399709351356,-0.87799399709351356,0.59267774824266373,3.1939395794138967,0.0
654640.0783812654,4040767.5119837918,-7500.0,3.6671689230095486,-0.55725372662952,0.1170557648191269,0.53847500061934017,-0.077096162994606407,0.058520938016984679,1.9257323118026146,-0.73503832413663572,1.1252971757263823,-1.1252971757263823,0.73503832413663572,3.8254186179027703,0.0
659640.0783812654,4040767.5119837918,-7500.0,4.3784903844230847,-0.78818374056244178,0.18138884157564683,0.68138826837065991,-0.11894253920970232,0.078814404440574262,2.3267647846626174,-0.91559595571733765,1.4553931229948656,-1.4553931229948656,0.91559595571733765,4.6212239645859734,0.0
664640.0783812654,4040767.5119837918,-7500.0,5.2576604453600222,-1.1129112874973695,0.28336167294224701,0.87074709789127047,-0.18239379031746422,0.10766875173112983,2.8369896633127403,-1.1444568931498396,1.9002052448033824,-1.9002052448033824,1.1444568931498396,5.6337007351614021,0.0
669640.0783812654,4040767.5119837918,-7500.0,6.3459684621370842,-1.5723129161715022,0.44656803399490252,1.1239102953977698,-0.27947354885649467,0.14932717790087938,3.4923935047643462,-1.4331618972634677,2.5051202686078282,-2.5051202686078282,1.4331618972634677,6.9343466556491045,0.0
674640.0783812654,4040767.5119837918,-7500.0,7.6910947149329454,-2.225807888936163,0.71053115791267396,1.4651007277847305,-0.42950245777136925,0.21042054393463966,4.3422707969474796,-1.7930795275989908,3.3346086456142237,-3.3346086456142237,1.7930795275989908,8.6211989834906042,0.0
679640.0783812654,4040767.5119837918,-7500.0,9.3426621199974331,-3.1590479412077883,1.1420794863915134,1.9277566704212352,-0.66380927124458589,0.30142699537478762,5.4540844475435586,-2.230962427240867,4.4794620478637643,-4.4794620478637643,2.230962427240867,10.828643018927163,0.0
684640.0783812654,4040767.5119837918,-7500.0,11.339874283823791,-4.4928823687885098,1.8548744393747891,2.5568532382682987,-1.0334684233330649,0.43902927012351262,6.9193723785274655,-2.7382927919864333,6.0646866450440431,-6.0646866450440431,2.7382927919864333,13.739496829728619,0.0
689640.0783812654,4040767.5119837918,-7500.0,13.682863233050719,-6.3900576276333556,3.0421028103990189,3.4095776346271989,-1.6216292442035196,0.64981368163854747,8.8595724220268632,-3.2676437140925665,8.254018001624754,-8.254018001624754,3.2676437140925665,17.597380990896188,0.0
694640.0783812654,4040767.5119837918,-7500.0,16.273069579829915,-9.0483356442935694,5.0279993388520294,4.5499288375474745,-2.5618096183071146,0.97569044571909602,11.42797595627022,-3.6834318320867121,11.239062662123462,-11.239062662123462,3.6834318320867121,22.71238884107705,0.0
699640.0783812654,4040767.5119837918,-7500.0,18.801596491508285,-12.650217065773264,8.337912846724878,6.0266624868590117,-4.0605976195871643,1.4805938362393303,14.797723847063585,-3.6669242375159579,15.182673317210018,-15.182673317210018,3.6669242375159579,29.441053529322442,0.0
704640.0783812654,4040767.5119837918,-7500.0,20.571063479769311,-17.202425766569753,13.756256763460263,7.8128301213563294,-6.411444285945227,2.2548271831222744,19.113487823531791,-2.5557132912284413,20.050268557795938,-20.050268557795938,2.5557132912284413,38.096136894667602,0.0
709640.0783812654,4040767.5119837918,-7500.0,20.300422926800366,-22.148522598945593,22.242405148261966,9.6729713532988519,-9.9519759195353625,3.4043600439647972,24.400921121074365,0.85392589347647174,25.216338574799362,-25.216338574799362,-0.85392589347647174,48.698622650775633,0.0
714640.0783812654,4040767.5119837918,-7500.0,16.181805031802334,-25.66399532764633,34.339383923643169,10.941824557938759,-14.844045512565115,4.9935372750126596,30.457256552883134,8.3061544999550261,28.763741240021794,-28.763741240021794,-8.3061544999550261,60.449619230461643,0.0
719640.0783812654,4040767.5119837918,-7500.0,6.8855343871355119,-23.980387528976991,48.421482963268971,10.346510972555894,-20.4830979205157,6.8914379786941184,36.163042812576897,21.135293540429736,26.823064869981685,-26.823064869981685,-21.135293540429736,70.922419410197179,0.0
724640.0783812654,4040767.5119837918,-7500.0,-5.7812054550490322,-12.453894389373309,57.704511979221735,6.4061440283047197,-24.56345464902283,8.5250873148278039,39.476706225802076,37.189198258239614,14.62096688664689,-14.62096688664689,-37.189198258239614,75.666144898786143,0.0
729640.0783812654,4040767.5119837918,-7500.0,-14.494206642538996,8.8269106053142785,49.632887796556183,-0.82571467423467559,-22.947101005401851,8.8062371465270797,38.427348332553478,46.651219633185988,-8.0451071403843315,8.0451071403843315,-46.651219633185988,70.544326228000116,0.0
734640.0783812654,4040767.5119837918,-7500.0,-11.313541876743596,27.893866887047331,15.927897139974021,-7.6670320588934002,-12.726190490864932,6.7985801740388458,34.366477939414096,35.126491293290535,-29.682275820971732,29.682275820971732,-35.126491293290535,59.77596541518033,0.0
739640.0783812654,4040767.5119837918,-7500.0,-0.14414865947534344,27.720864520670741,-30.433653341171766,-8.7487340900657404,2.6569045702937397,2.9718114881994393,33.298359756430614,1.0990519060266628,-33.209618907340854,33.209618907340854,-1.0990519060266628,59.813724600032273,0.0
744640.0783812654,4040767.5119837918,-7500.0,4.6110886722436044,7.9957529925675361,-61.179774432368738,-3.3222311990977347,14.632488072100205,-0.75144619251228406,35.898764510852139,-34.427058486078195,-16.957804395601766,16.957804395601766,34.427058486078195,69.797031675855663,0.0
749640.0783812654,4040767.5119837918,-7500.0,-2.4165443037659911,-13.500850785764605,-63.587385088844805,3.6965734841768656,18.247221644175859,-2.8050091983311365,36.867333740735425,-50.32266795574013,2.886110209068292,-2.886110209068292,50.32266795574013,72.835129701930057,0.0
754640.0783812654,4040767.5119837918,-7500.0,-13.344946374595176,-23.752848576482574,-48.414562548171084,7.9123125924384157,15.550998753101993,-3.1511025910884971,33.525121181736459,-46.123687495149696,13.550628248753295,-13.550628248753295,46.123687495149696,65.552992481622809,0.0
759640.0783812654,4040767.5119837918,-7500.0,-20.378537826701024,-23.375373024939915,-30.557963837589629,8.7455361550116137,10.831205104276055,-2.6015801206632303,27.223539822600298,-33.263388029297452,14.792458405912441,-14.792458405912441,33.263388029297452,53.115182170209302,0.0
764640.0783812654,4040767.5119837918,-7500.0,-21.998143059120984,-18.205094135800898,-17.080251674957086,7.631758108983048,6.6856987861017965,-1.854411839298524,20.686655864539482,-20.667521840728817,11.541534049866023,-11.541534049866023,20.667521840728817,40.422693362388124,0.0
769640.0783812654,4040767.5119837918,-7500.0,-20.101735083767291,-12.478456518395905,-8.7264060613293832,5.9279678641082665,3.8162018600242176,-1.225216607552251,15.186806844532686,-11.513978126660913,7.5345202975287187,-7.5345202975287187,11.513978126660913,29.786619174288333,0.0
774640.0783812654,4040767.5119837918,-7500.0,-16.794373295320565,-7.8825372101785325,-4.0752618659284057,4.3341628546196747,2.0510517927046292,-0.77988849814171934,10.992700040488021,-5.7579365859955267,4.299258174532202,-4.299258174532202,5.7579365859955267,21.67782332667317,0.0
779640.0783812654,4040767.5119837918,-7500.0,-13.355630179861375,-4.6669133251405661,-1.653604327302266,3.0742480364457458,1.034063591324756,-0.48898154931778992,7.9455695625485703,-2.433476833287854,2.0957152955661296,-2.0957152955661296,2.433476833287854,15.774134099215122,0.0
784640.0783812654,4040767.5119837918,-7500.0,-10.342388793489093,-2.5737132987643654,-0.45843757736163315,2.152102920074225,0.47162038055255256,-0.30585556098608979,5.8084962693117612,-0.62871945252198436,0.73273916632282865,-0.73273916632282865,0.62871945252198436,11.561046874715379,0.0
789640.0783812654,4040767.5119837918,-7500.0,-7.9034427104987213,-1.2692556562312496,0.09551773081903453,1.5016495798355036,0.17050521310467492,-0.19220825143338516,4.3435251277062035,0.29129137014311918,-0.051787730074850422,0.051787730074850422,-0.29129137014311918,8.5702827176369265,0.0
794640.0783812654,4040767.5119837918,-7500.0,-6.0072566341472768,-0.48186649174141666,0.32577057989759994,1.0502514792410778,0.015164743809825586,-0.12179576407430585,3.2993554683931476,0.71820640919694845,-0.47025889147075084,0.47025889147075084,-0.71820640919694845,6.4404549415800556,0.0
799640.0783812654,4040767.5119837918,-7500.0,-4.5626766507101211,-0.021161828798537088,0.39808477958344746,0.73851880455933683,-0.060406831494365168,-0.077937819511700993,2.5450352255448108,0.8796143355970012,-0.66864419886827942,0.66864419886827942,-0.8796143355970012,4.9115005275912775,0.0
804640.0783812654,4040767.5119837918,-7500.0,-3.4722001033941949,0.23755980572079125,0.39700213982672677,0.5228973571723462,-0.093063630048569448,-0.050372308634430575,1.9933795935367682,0.90347020974096048,-0.73986901979963859,0.73986901979963859,-0.90347020974096048,3.80203091998807,0.0
809640.0783812654,4040767.5119837918,-7500.0,-2.651256761971406,0.37327270796226886,0.36480654767361959,0.37297398337424653,-0.1031406825281737,-0.032859142468694237,1.5845511813941096,0.86016747722045506,-0.74065044853631967,0.74065044853631967,-0.86016747722045506,2.9870773864913707,0.0
814640.0783812654,4040767.5119837918,-7500.0,-2.0325342935833817,0.4351287391397195,0.32212983532080564,0.26797842029628549,-0.10177127590479951,-0.021605559065589433,1.2773775456949248,0.78768413808167648,-0.70467399106118778,0.70467399106118778,-0.78768413808167648,2.3807008035897801,0.0
819640.0783812654,4040767.5119837918,-7500.0,-1.564647260499781,0.45343314370079607,0.27863041789662407,0.19384599879522366,-0.094999361197201801,-0.0142930214236537,1.0433821819372409,0.70600766398748271,-0.65150482259037334,0.65150482259037334,-0.70600766398748271,1.9235763049198316,0.0
824640.0783812654,4040767.5119837918,-7500.0,-1.2091774731439255,0.44676019395026428,0.23847420389671792,0.14106010500759861,-0.086061539435091053,-0.0094911126249066433,0.86271073665152465,0.62524358817980408,-0.59223210833978668,0.59223210833978668,-0.62524358817980408,1.5744562261318424,0.0
829640.0783812654,4040767.5119837918,-7500.0,-0.93767876805864758,0.42643130925212297,0.20313324046924333,0.10315792932310512,-0.076648603154020056,-0.0063075950830058097,0.7213842596091693,0.55012982046262826,-0.53292895347954727,0.53292895347954727,-0.55012982046262826,1.3044023792138157,0.0
649640.0783812654,4045767.5119837918,-7500.0,3.037454745167901,-0.62642863013478578,0.19562544773301141,0.42317857115120044,-0.085099917383292062,0.043499649405952398,1.621559309921125,-0.65302121970360194,1.1030651617421929,-1.1030651617421929,0.65302121970360194,3.2043183905279617,0.0
654640.0783812654,4045767.5119837918,-7500.0,3.5617663459184543,-0.83665647497408868,0.2756982205318908,0.52444943053820514,-0.12218372827180933,0.057211219095616245,1.9293899858955483,-0.79193096112779049,1.3898334516659188,-1.3898334516659188,0.79193096112779049,3.8123291886976594,0.0
659640.0783812654,4045767.5119837918,-7500.0,4.1918044120266629,-1.1195279285205955,0.39337064129149973,0.65478397785061737,-0.17569237700733964,0.076111212582450793,2.3122053704723475,-0.96137980355040076,1.7640363595196598,-1.7640363595196598,0.96137980355040076,4.5686649624410727,0.0
664640.0783812654,4045767.5119837918,-7500.0,4.947524742849688,-1.5017165496336615,0.5681453963337928,0.82347352260828721,-0.25350927213931057,0.10246968768023239,2.7915689280804199,-1.166048263573658,2.2553073375679378,-2.2553073375679378,1.166048263573658,5.5161374596537147,0.0
669640.0783812654,4045767.5119837918,-7500.0,5.8492142704818901,-2.0196297058527053,0.83044484939898633,1.0427481532846776,-0.36759150307318356,0.1396605964345283,3.3957084284169845,-1.4087613289704561,2.9034128134754642,-2.9034128134754642,1.4087613289704561,6.7108993727147164,0.0
674640.0783812654,4045767.5119837918,-7500.0,6.9135450544423511,-2.7221297517750638,1.2279557918784079,1.3283760044121111,-0.53614468624770018,0.19272618640070999,4.1613208568959896,-1.6871548915391099,3.7608281396233636,-3.7608281396233636,1.6871548915391099,8.2261527390024636,0.0
679640.0783812654,4045767.5119837918,-7500.0,8.1454160266893911,-3.6726736672254412,1.8354737765599247,1.6998869352405199,-0.78687575362382767,0.26921218254273571,5.1353676481034949,-1.9870158399901166,4.8945281866599615,-4.8945281866599615,1.9870158399901166,10.155960295226999,0.0
684640.0783812654,4045767.5119837918,-7500.0,9.5223964607520255,-4.9485469380880875,2.7695624446750786,2.1796090714880996,-1.1616304880754815,0.38034861311918616,6.3760925452364274,-2.2695867165953003,6.3845307045632005,-6.3845307045632005,2.2695867165953003,12.617752101559061,0.0
689640.0783812654,4045767.5119837918,-7500.0,10.967176534018678,-6.6317104161244087,4.2085585921570861,2.7887606588578246,-1.7223610570357153,0.54256497441152263,7.9514191936940941,-2.4485914624236784,8.3135317570621048,-8.3135317570621048,2.4485914624236784,15.750090981597783,0.0
694640.0783812654,4045767.5119837918,-7500.0,12.303193804177731,-8.7797110651160803,6.4146214166279432,3.5371486173480031,-2.5570078361344577,0.77900883505435292,9.9307708682121358,-2.3516806310386285,10.735908390306967,-10.735908390306967,2.3516806310386285,19.698229209102315,0.0
699640.0783812654,4045767.5119837918,-7500.0,13.193909589398373,-11.355493099174499,9.7425927596570165,4.4006102079276985,-3.7800698436902564,1.1198531658107198,12.362774136731872,-1.6639927689708811,13.604861318982298,-13.604861318982298,1.6639927689708811,24.572903725309725,0.0
704640.0783812654,4045767.5119837918,-7500.0,13.087801123958867,-14.086227857911865,14.590829427105895,5.2788362353927596,-5.5138847164258884,1.59817413942719,15.228783276677889,0.13096084072510727,16.627951611877066,-16.627951611877066,-0.13096084072510727,30.358069975996852,0.0
709640.0783812654,4045767.5119837918,-7500.0,11.246916684159165,-16.2364139797033,21.192478050325864,5.9324293217173212,-7.8211971980376296,2.2346753468961569,18.436811761112825,3.7435204258562198,19.036159953168713,-19.036159953168713,-3.7435204258562198,36.73859592635403,0.0
714640.0783812654,4045767.5119837918,-7500.0,7.0295789413368155,-16.384035508600697,29.086307866643448,5.9290043718161272,-10.546245010630338,3.0014544960659029,21.681437793125685,9.8195249545637573,19.352596660437783,-19.352596660437783,-9.8195249545637573,42.848702606203076,0.0
719640.0783812654,4045767.5119837918,-7500.0,0.62109539293287674,-12.571193611897215,36.204091784290362,4.7036984221920743,-13.055678260687499,3.7620446344275011,24.173332745728352,18.13864605013908,15.523135390568099,-15.523135390568099,-18.13864605013908,47.075280948321939,0.0
724640.0783812654,4045767.5119837918,-7500.0,-5.9996560552635563,-3.5336993085266912,38.152461405493959,1.9157344979267266,-14.04974037006717,4.2226410171627569,24.958843529247432,26.250878278331811,6.104743718269944,-6.104743718269944,-26.250878278331811,47.362702567027476,0.0
729640.0783812654,4045767.5119837918,-7500.0,-9.1887803136045729,8.834035002998597,29.5142130409399,-1.8833351815330752,-11.933580926880612,3.9976922594565423,23.567828641483697,28.83392929481975,-7.2904009838262276,7.2904009838262276,-28.83392929481975,42.818701894064702,0.0
734640.0783812654,4045767.5119837918,-7500.0,-6.5477429785418364,18.226942008491541,8.7108162132413689,-4.9256113865063078,-6.1362671849806096,2.8810555495084667,21.241770320111726,20.515475056897731,-18.594450617365194,18.594450617365194,-20.515475056897731,36.881790930970972,0.0
739640.0783812654,4045767.5119837918,-7500.0,-0.63760887966373181,17.981996204717706,-17.287956881695813,-5.2875449392955991,1.5843288757599043,1.1520704440994516,20.722896436255724,2.0138737997171301,-20.959938101456608,20.959938101456608,-2.0138737997171301,37.036429028157329,0.0
744640.0783812654,4045767.5119837918,-7500.0,2.5781084064559603,8.1033145644699154,-36.522003420354409,-2.7655717984674224,7.9388017497068493,-0.51032198476378277,22.238495092656553,-17.948733801156823,-13.613564766822266,13.613564766822266,17.948733801156823,42.738848557929181,0.0
749640.0783812654,4045767.5119837918,-7500.0,0.14440930939323837,-4.4347392697767196,-42.253704083237466,0.87699261817207752,10.754272918902185,-1.5409882516144566,23.284437646306518,-29.980686989039491,-2.6585427988561374,2.6585427988561374,29.980686989039491,46.230446143879441,0.0
754640.0783812654,4045767.5119837918,-7500.0,-5.6072675546220045,-12.926108735210734,-36.998564064472596,3.696369090837667,10.295431928726508,-1.8444875629192972,22.704666477994788,-31.627357508765108,5.5078946706306695,-5.5078946706306695,31.627357508765108,44.473819293196385,0.0
759640.0783812654,4045767.5119837918,-7500.0,-10.853327752056666,-15.626420298605405,-27.277488657367385,4.9543587833792779,8.1557771607979408,-1.6690760316616404,19.954393913544433,-26.511960796793296,8.8444189204775707,-8.8444189204775707,26.511960796793296,38.867587001985136,0.0
764640.0783812654,4045767.5119837918,-7500.0,-13.646885133800556,-14.320154229680147,-17.958418355280575,4.9524286842725056,5.7412118529556384,-1.3078405416953089,16.352227829278547,-19.268988857207738,8.6364415713081044,-8.6364415713081044,19.268988857207738,31.807329070066878,0.0
769640.0783812654,4045767.5119837918,-7500.0,-14.048464666193562,-11.352464356787339,-10.943723095354608,4.2922120561979593,3.7418203399861061,-0.94422400803810758,12.837022851001276,-12.708392470654555,6.8416535347895078,-6.8416535347895078,12.708392470654555,24.991668912171356,0.0
774640.0783812654,4045767.5119837918,-7500.0,-12.93185322643661,-8.2421051684080915,-6.2966290927164454,3.4369140901328405,2.3126779505140274,-0.65087676563323782,9.8387060436276244,-7.7809105255208078,4.7763359866338071,-4.7763359866338071,7.7809105255208078,19.200026480598343,0.0
779640.0783812654,4045767.5119837918,-7500.0,-11.140771626497424,-5.640453245005177,-3.4406318525134858,2.6309762200304299,1.37154531289075,-0.4378771816039681,7.4568833616574626,-4.4413181189657731,3.0246866267506731,-3.0246866267506731,4.4413181189657731,14.604245084900748,0.0
784640.0783812654,4045767.5119837918,-7500.0,-9.2232291418732171,-3.6878178855559232,-1.7668580155094429,1.9646349936244565,0.78132517886622277,-0.29147457833970802,5.6361402960303852,-2.3176539904523068,1.730150597494496,-1.730150597494496,2.3176539904523068,11.089905972232799,0.0
789640.0783812654,4045767.5119837918,-7500.0,-7.4577126590870808,-2.3086932320727218,-0.81880778319111835,1.4488714494901938,0.4225380194086758,-0.19362009560604443,4.2719830730283457,-1.026754568594805,0.84723361013781096,-0.84723361013781096,1.026754568594805,8.4522170504429113,0.0
794640.0783812654,4045767.5119837918,-7500.0,-5.949979589277099,-1.3703172971783988,-0.29807567272584479,1.0633870795008358,0.20935084898049719,-0.12901724125184108,3.262986202548996,-0.27218705146800898,0.27812732656909561,-0.27812732656909561,0.27218705146800898,6.487315986403563,0.0
799640.0783812654,4045767.5119837918,-7500.0,-4.7145191291660895,-0.74786658717157872,-0.022525406366516097,0.78041688169531365,0.085332477048874394,-0.086494467746559028,2.5341311305933041,0.14966092238702783,-0.070896924409728779,0.070896924409728779,-0.14966092238702783,5.0245063857459566,0.0
804640.0783812654,4045767.5119837918,-7500.0,-3.725419330330539,-0.34330127179908476,0.11497377249249265,0.57436090050726962,0.015042965147142739,-0.058431297018337991,1.9990256770617922,0.37038163693138165,-0.27302254515064989,0.27302254515064989,-0.37038163693138165,3.9314961991017179,0.0
809640.0783812654,4045767.5119837918,-7500.0,-2.9435488919571617,-0.085645135978579298,0.17613461263411584,0.42461071258654531,-0.023237298289854786,-0.039800083722173994,1.596083829910572,0.4721683904556257,-0.38036458608470131,0.38036458608470131,-0.4721683904556257,3.1096483735936,0.0
814640.0783812654,4045767.5119837918,-7500.0,-2.3293320916245208,0.074349803472771522,0.19605630349292041,0.31559178776178032,-0.042647417367808596,-0.027333488443396458,1.2891536497946943,0.505313869178599,-0.42823232321117899,0.42823232321117899,-0.505313869178599,2.486800790805991,0.0
819640.0783812654,4045767.5119837918,-7500.0,-1.8478634360353063,0.1700669062188786,0.19450963784693204,0.23590796094748401,-0.051080182487148039,-0.018918369240099955,1.0529565354916093,0.50016326198276018,-0.43984084122103778,0.43984084122103778,-0.50016326198276018,2.0105952310840602,0.0
824640.0783812654,4045767.5119837918,-7500.0,-1.4702912847683205,0.22384397621398089,0.18251615546820246,0.1773547757861782,-0.053255989847414635,-0.013186244160292342,0.86931912188641358,0.47480920735585724,-0.43014710865847755,0.43014710865847755,-0.47480920735585724,1.6431082159893415,0.0
829640.0783812654,4045767.5119837918,-7500.0,-1.1735804866320321,0.2505200983215598,0.16612909257610797,0.13406765004413068,-0.051985975630519959,-0.0092464110099024222,0.7250719446937226,0.4398955887735872,-0.40863393389680208,0.40863393389680208,-0.4398955887735872,1.3568113612836674,0.0
649640.0783812654,4050767.5119837918,-7500.0,2.9021640276586131,-0.81674265495119991,0.32810009688690278,0.40549730326637645,-0.11496171219110382,0.0418723492495316,1.6051424693209182,-0.67214453335523561,1.2800077991968362,-1.2800077991968362,0.67214453335523561,3.1588982940774941,0.0
654640.0783812654,4050767.5119837918,-7500.0,3.3564068781752945,-1.0531629670810974,0.44618552713246235,0.49606507258447224,-0.15828138808467487,0.05442100627243808,1.8945420690817951,-0.79604470274982675,1.587162775480625,-1.587162775480625,0.79604470274982675,3.7287862090642965,0.0
659640.0783812654,4050767.5119837918,-7500.0,3.8865372686991737,-1.3611534256696238,0.61312984552012673,0.61003039025912476,-0.21882243651560299,0.071402517474692062,2.2489972916556371,-0.94000860958947208,1.9786274524910556,-1.9786274524910556,0.94000860958947208,4.4272153623876536,0.0
664640.0783812654,4050767.5119837918,-7500.0,4.5002412946597712,-1.7627148629546134,0.85112059881688584,0.75366163181410439,-0.30394540982579099,0.094581717860148865,2.6849647248282542,-1.1032633325552341,2.4787046795336418,-2.4787046795336418,1.1032633325552341,5.2869454021626794,0.0
669640.0783812654,4050767.5119837918,-7500.0,5.200975418657479,-2.2855563355680641,1.1929201101774205,0.93453779164008099,-0.42428371821009281,0.12647256096631215,3.2228877209486955,-1.2807760727594935,3.1176528207778751,-3.1176528207778751,1.2807760727594935,6.3488293766391095,0.0
674640.0783812654,4050767.5119837918,-7500.0,5.9830833087099906,-2.9630561099869235,1.6867298750034312,1.1613232810049607,-0.59512515792387621,0.17064445021012251,3.8876108388557289,-1.4593199533022934,3.9315292751157842,-3.9315292751157842,1.4593199533022934,7.6627963789848099,0.0
679640.0783812654,4050767.5119837918,-7500.0,6.8236005427215884,-3.8321596777519464,2.4027011535169081,1.4428750498194818,-0.83818365118681826,0.23211402433847486,4.7081595238156426,-1.6107595207352061,4.9598452065479579,-4.9598452065479579,1.6107595207352061,9.2877021551789039,0.0
684640.0783812654,4050767.5119837918,-7500.0,7.6693606932796197,-4.9266990212031176,3.4406436798579421,1.7859919188989468,-1.1835621891335271,0.31778146927048356,5.7160256207292477,-1.6811497154828547,6.2384432137882975,-6.2384432137882975,1.6811497154828547,11.288439486161401,0.0
689640.0783812654,4050767.5119837918,-7500.0,8.4185343313635883,-6.2616130836926169,4.9365648503067883,2.1906387289000313,-1.671141896789158,0.43675537293892314,6.9403631302041804,-1.5743606797723371,7.7829769604503589,-7.7829769604503589,1.5743606797723371,13.727302398478725,0.0
694640.0783812654,4050767.5119837918,-7500.0,8.8983920691342107,-7.8010067909908738,7.0610386253768516,2.6409505015870889,-2.3493560870214254,0.60015013075346613,8.3974074535034635,-1.1307855113147181,9.5557795995442678,-9.5557795995442678,1.1307855113147181,16.644497142545426,0.0
699640.0783812654,4050767.5119837918,-7500.0,8.8486510765636854,-9.401808522754699,9.9929135808940988,3.0903035169462116,-3.2668436204295297,0.8194431048579881,10.070380120135722,-0.10816098968278975,11.407606941915407,-11.407606941915407,0.10816098968278975,20.020334129339975,0.0
704640.0783812654,4050767.5119837918,-7500.0,7.935804002723156,-10.731394170990926,13.836453331240117,3.4408929329273623,-4.4487504614340878,1.1017255538834565,11.88189835892692,1.8123328368501275,12.991997372914856,-12.991997372914856,-1.8123328368501275,23.711381829085241,0.0
709640.0783812654,4050767.5119837918,-7500.0,5.8473193362220481,-11.186504897024477,18.436179938657382,3.5260075779241475,-5.846702220786927,1.4396040302634141,13.766609603091982,4.9419007663981951,13.678132057174619,-13.678132057174619,-4.9419007663981951,27.361635977691869,0.0
714640.0783812654,4050767.5119837918,-7500.0,2.52283024804616,-9.9104596295734293,23.065689539975462,3.1201945482405158,-7.25844316815928,1.7947710695358055,15.419660908583978,9.3398260865996114,12.556698797807943,-12.556698797807943,-9.3398260865996114,30.321758182149882,0.0
719640.0783812654,4050767.5119837918,-7500.0,-1.4970943494829787,-6.0982823357494249,26.101911707180502,2.0227232745579276,-8.2478935171566121,2.0807974438080583,16.393624068225972,14.367562262370134,8.7273756151941928,-8.7273756151941928,-14.367562262370134,31.680984846024575,0.0
724640.0783812654,4050767.5119837918,-7500.0,-4.8688070986523817,0.2575036717308693,25.098225644217841,0.24588654147260169,-8.1685479086549275,2.1644745292764171,16.3013976297547,18.248315435622576,2.0316888687861514,-2.0316888687861514,-18.248315435622576,30.615018387071341,0.0
729640.0783812654,4050767.5119837918,-7500.0,-5.9275592759402125,7.49259157948494,17.881168941168319,-1.7740927239715145,-6.4380466475918094,1.9146166121939212,15.163463180972425,18.296217807506387,-6.0427608799228825,6.0427608799228825,-18.296217807506387,27.273565264658401,0.0
734640.0783812654,4050767.5119837918,-7500.0,-4.0452509974284308,12.377219033859063,4.6246599697486097,-3.2075174731622562,-3.0485530943959653,1.2997616215445298,13.840914657229458,12.49805690226847,-12.349948210675684,12.349948210675684,-12.49805690226847,23.994330966233871,0.0
739640.0783812654,4050767.5119837918,-7500.0,-0.71559804585915066,12.101677366906181,-10.905220225884214,-3.3103009423501448,1.1110858814794526,0.46161985913370152,13.642501007373987,1.7034443854014141,-13.908257408110874,13.908257408110874,-1.7034443854014141,24.354450221999297,0.0
744640.0783812654,4050767.5119837918,-7500.0,1.3530682907438711,6.7433344725852482,-23.15199780627033,-2.0318306147277068,4.647873195029435,-0.3376345130399771,14.59570729615216,-10.089515400101773,-10.348872298116907,10.348872298116907,10.089515400101773,27.848461690228966,0.0
749640.0783812654,4050767.5119837918,-7500.0,0.5878852278935861,-0.68705179638274672,-28.557544841684724,-0.073835363248851565,6.5661708685111426,-0.87662035370969704,15.437450879882551,-18.437146474909788,-4.1980785362737745,4.1980785362737745,18.437146474909788,30.654420572617102,0.0
754640.0783812654,4050767.5119837918,-7500.0,-2.3743378696214825,-6.7920499586231395,-27.432006213293469,1.6873337717019741,6.7870251890926285,-1.0916711442896463,15.678179767802245,-21.416741473350164,1.3818907443655792,-1.3818907443655792,21.416741473350164,30.770129356136497,0.0
759640.0783812654,4050767.5119837918,-7500.0,-5.7850109774303622,-9.9606001194553215,-22.519919307653069,2.7576411073551923,5.8920309581241668,-1.057171278059363,14.583447539372743,-19.96823798108786,4.6999480226283428,-4.6999480226283428,19.96823798108786,28.392465428302511,0.0
764640.0783812654,4050767.5119837918,-7500.0,-8.2909062721401892,-10.445173121811056,-16.618788311266645,3.1114920598677474,4.5694216848113367,-0.89272711867931853,12.67272671800286,-16.228223056322911,5.7593121561857563,-5.7593121561857563,16.228223056322911,24.590358966253408,0.0
769640.0783812654,4050767.5119837918,-7500.0,-9.4554513721735312,-9.2982190493715215,-11.390639328271025,2.9692268506832074,3.2836704218415949,-0.69362606435609453,10.516187037902395,-12.011026162843706,5.3619578996933503,-5.3619578996933503,12.011026162843706,20.387185804318996,0.0
774640.0783812654,4050767.5119837918,-7500.0,-9.4794957392598462,-7.5058166206716193,-7.4090217037861974,2.5782239022031104,2.2384710419773719,-0.51190708401585316,8.4730321808302964,-8.3082372491730343,4.3228087692235402,-4.3228087692235402,8.3082372491730343,16.43542431050016,0.0
779640.0783812654,4050767.5119837918,-7500.0,-8.7781548312932731,-5.6842090113363728,-4.6336534054017307,2.114977403702774,1.4689668044120849,-0.36631829407692984,6.7088031413672011,-5.4474507018783092,3.1705742335553984,-3.1705742335553984,5.4474507018783092,13.034442542770748,0.0
784640.0783812654,4050767.5119837918,-7500.0,-7.7279644170545376,-4.1163086160885651,-2.8028843916851409,1.6759302700598586,0.9353888842367003,-0.25767572907652903,5.2646662743416979,-3.3997695091845057,2.1584104317609287,-2.1584104317609287,3.3997695091845057,10.254410295592121,0.0
789640.0783812654,4050767.5119837918,-7500.0,-6.5862408385040236,-2.8798018537599619,-1.6377147340249842,1.3009690890445198,0.57913910322021667,-0.17980437924716638,4.1187991504379937,-2.0051165476500792,1.3654656247539771,-1.3654656247539771,2.0051165476500792,8.0493145561115504,0.0
794640.0783812654,4050767.5119837918,-7500.0,-5.4986050819460468,-1.9539122708482251,-0.91433884385810282,0.99838917261454418,0.34714322533367892,-0.12521521515854001,3.2254210400187362,-1.0881314899212078,0.78566113573158813,-0.78566113573158813,1.0881314899212078,6.3293722765334861,0.0
799640.0783812654,4050767.5119837918,-7500.0,-4.5323980802390507,-1.2830457751610591,-0.47393135806274461,0.76200667506213227,0.19873204352995441,-0.087365397604485112,2.5352248148196002,-0.50214878063892343,0.38151040716720941,-0.38151040716720941,0.50214878063892343,4.9988514321405786,0.0
804640.0783812654,4050767.5119837918,-7500.0,-3.7082270895846139,-0.80765733981642462,-0.21081577125107073,0.58070692047307859,0.10518844445643506,-0.06122220461049737,2.0045899899128474,-0.13793488055214298,0.11048957180031599,-0.11048957180031599,0.13793488055214298,3.9723092707620276,0.0
809640.0783812654,4050767.5119837918,-7500.0,-3.022208143349979,-0.47629523186748357,-0.057191859623362991,0.44300771307498349,0.04712354194045016,-0.043151008689010562,1.6005580343882668,0.081013954370131216,-0.064516692097641035,0.064516692097641035,-0.081013954370131216,3.179489092568585,0.0
814640.0783812654,4050767.5119837918,-7500.0,-2.4595348988950234,-0.24853636062613485,0.029533882197828529,0.33887053277670154,0.011776463953159483,-0.030613322771414986,1.2967626411597377,0.20640505323379002,-0.1725084527952255,0.1725084527952255,-0.20640505323379002,2.5650725701313792,0.0
819640.0783812654,4050767.5119837918,-7500.0,-2.0019550040643423,-0.09418894196365217,0.075793375339456973,0.26017143643857926,-0.0091301790610858607,-0.021866771632313098,1.0627098538253799,0.27243800045171201,-0.23484673247232385,0.23484673247232385,-0.27243800045171201,2.0865269948428735,0.0
824640.0783812654,4050767.5119837918,-7500.0,-1.6315025070067122,0.0086523983346944566,0.097868729982694497,0.20060077991365868,-0.020922063440275293,-0.015724821329914113,0.87910574832808408,0.30142168055557805,-0.26672186821423349,0.26672186821423349,-0.30142168055557805,1.7115614972273425,0.0
654640.0783812654,4055767.5119837918,-7500.0,3.0828394287020089,-1.2022022015578426,0.61260174335107642,0.45768874094380768,-0.18449524274165349,0.050579851494256325,1.8282366213886314,-0.75692273264649101,1.7142493381279058,-1.7142493381279058,0.75692273264649101,3.5878535813416157,0.0
659640.0783812654,4055767.5119837918,-7500.0,3.5078308516211334,-1.5114701588901414,0.81919306949626658,0.55371117781027779,-0.24773974870630747,0.065379682138177436,2.1479074152368081,-0.86713096555918112,2.0993899103617695,-2.0993899103617695,0.86713096555918112,4.2167852895969915,0.0
664640.0783812654,4055767.5119837918,-7500.0,3.9796395572076912,-1.9009336054872257,1.1038506609958298,0.6712304490015083,-0.33398095843289011,0.08512243324785948,2.5335348926002057,-0.98113371130691074,2.5774464237685484,-2.5774464237685484,0.98113371130691074,4.9763985782291096,0.0
669640.0783812654,4055767.5119837918,-7500.0,4.4905168401139939,-2.3882658731086317,1.4975878794918123,0.81414984554364966,-0.45185383249997102,0.11157175138381661,2.9986590515514995,-1.0883286532449536,3.1680272205381854,-3.1680272205381854,1.0883286532449536,5.8940130211263773,0.0
674640.0783812654,4055767.5119837918,-7500.0,5.0220675828622987,-2.99120655926238,2.0430996407042823,0.9859688691301518,-0.61301304084709052,0.14708945440378146,3.5582614072918042,-1.1691147843858429,3.8908469525159255,-3.8908469525159255,1.1691147843858429,7.0002119273565349,0.0
679640.0783812654,4055767.5119837918,-7500.0,5.5390628777501396,-3.7232943347615444,2.7976725354566145,1.1885580567757736,-0.8327658020522648,0.19476113960158056,4.227521506146898,-1.1895806714362931,4.7612561201359682,-4.7612561201359682,1.1895806714362931,8.3266580584241758,0.0
684640.0783812654,4055767.5119837918,-7500.0,5.9813986654927795,-4.5853673383855966,3.8347613087307955,1.4198954853913539,-1.1302804859475795,0.25844570165557179,5.0190926391275985,-1.094224029363335,5.7813742574196478,-5.7813742574196478,1.094224029363335,9.9011529796999227,0.0
689640.0783812654,4055767.5119837918,-7500.0,6.2554366660666547,-5.5503538663122818,5.241028929896415,1.6702451422657933,-1.5275499547288034,0.3426002700402147,5.9378827523207303,-0.79740471266539448,6.924236388656654,-6.924236388656654,0.79740471266539448,11.738027838643305,0.0
694640.0783812654,4055767.5119837918,-7500.0,6.2287615354909835,-6.538964724689678,7.1023849290808059,1.9163680704144817,-2.0455322551753401,0.45159487306120333,6.9720267413097918,-0.17673099308116758,8.108358302171677,-8.108358302171677,0.17673099308116758,13.821364831350474,0.0
699640.0783812654,4055767.5119837918,-7500.0,5.7375041754324876,-7.3866823098906123,9.467926794956723,2.1141323802450271,-2.69488762309182,0.58804961733952921,8.0790713108041832,0.92311262911574588,9.1627361546285719,-9.1627361546285719,-0.92311262911574588,16.078797487264996,0.0
704640.0783812654,4055767.5119837918,-7500.0,4.6221391116981057,-7.8116512776299514,12.277134763942547,2.1921223286186815,-3.458113667338619,0.74960780452577114,9.1901699925713274,2.6588276532534731,9.7912396693352068,-9.7912396693352068,-2.6588276532534731,18.346585672815994,0.0
709640.0783812654,4055767.5119837918,-7500.0,2.810303754956617,-7.412969940040008,15.24182363531675,2.0533022687442677,-4.2616510964618417,0.92384554377679196,10.268336095206397,5.1033632219808656,9.5650779043781888,-9.5650779043781888,-5.1033632219808656,20.335744016246181,0.0
714640.0783812654,4055767.5119837918,-7500.0,0.44789552921443376,-5.7562918677559889,17.708254040519567,1.5973987349649477,-4.9445783866687094,1.0823793478675476,11.061740889486229,8.088132034690986,8.0001473909209153,-8.0001473909209153,-8.088132034690986,21.628162892323044,0.0
719640.0783812654,4055767.5119837918,-7500.0,-1.9794935245003007,-2.6090481538964112,18.603637791993616,0.77663213056176217,-5.2480435255057261,1.1782429021092955,11.352519331444411,11.007559686007401,4.7849368196541908,-4.7849368196541908,-11.007559686007401,21.759991781793246,0.0
724640.0783812654,4055767.5119837918,-7500.0,-3.6843219136238332,1.6975415152517566,16.662761640859159,-0.32259220004807848,-4.868651163818547,1.1540147182834484,11.013214325338136,12.742787918902703,0.14721028471692676,-0.14721028471692676,-12.742787918902703,20.470361551718987,0.0
729640.0783812654,4055767.5119837918,-7500.0,-3.9349102345331439,6.020456610709819,11.081654466723986,-1.4265468930318883,-3.6066304586763427,0.96658958688784968,10.188118472606766,11.966926969411858,-4.8635555490427294,4.8635555490427294,-11.966926969411858,18.159966355684535,0.0
734640.0783812654,4055767.5119837918,-7500.0,-2.642779011714087,8.6867069399687136,2.3629607047240397,-2.1393156044234414,-1.5566269237378585,0.621164933726288,9.4287061862407615,7.931010809486617,-8.5886478253583096,8.5886478253583096,-7.931010809486617,16.332428314111521,0.0
739640.0783812654,4055767.5119837918,-7500.0,-0.66503702924206365,8.4296632666408993,-7.4028534835010324,-2.1518960823804085,0.82173983529326511,0.18794599994718336,9.3841953085947978,1.268503947360224,-9.631438358163507,9.631438358163507,-1.268503947360224,16.762112080353219,0.0
744640.0783812654,4055767.5119837918,-7500.0,0.66990612269060712,5.3252935778124879,-15.429747116963563,-1.4557817657139185,2.8881653969768721,-0.22317492595779442,10.018193138284291,-6.0364325927820417,-7.8068805514369952,7.8068805514369952,6.0364325927820417,19.028315421947578,0.0
749640.0783812654,4055767.5119837918,-7500.0,0.50830846291090181,0.78453610884036051,-19.780569693745207,-0.3562771983973298,4.1603937549383154,-0.51830266394586433,10.665214829806846,-11.746055306615297,-4.2486772780238198,4.2486772780238198,11.746055306615297,21.119129689153024,0.0
754640.0783812654,4055767.5119837918,-7500.0,-1.0240933424718615,-3.4303316436265754,-20.242654496753865,0.73406842197590427,4.5285228858046835,-0.66131660294231498,11.083225114965133,-14.609826058454892,-0.55878801084295926,0.55878801084295926,14.609826058454892,21.792140790652365,0.0
759640.0783812654,4055767.5119837918,-7500.0,-3.1402349378643808,-6.2014959773149601,-17.950668653141221,1.5243936273748244,4.2018877476673646,-0.67330391070534978,10.739919473375352,-14.723539855793319,2.1412019132939584,-2.1412019132939584,14.723539855793319,20.911374435477995,0.0
764640.0783812654,4055767.5119837918,-7500.0,-5.0345592462956255,-7.3254297461867113,-14.40835381969025,1.9275144239319211,3.5064030211016948,-0.60297980285292607,9.7649250529895824,-13.006397514922902,3.5304372630629501,-3.5304372630629501,13.006397514922902,18.922577026075977,0.0
769640.0783812654,4055767.5119837918,-7500.0,-6.264666496358779,-7.1870629592890118,-10.771489000406538,2.0043694717622036,2.7171119524766274,-0.49757172528722216,8.4776744426309936,-10.492439046149306,3.8451895318339164,-3.8451895318339164,10.492439046149306,16.392812713075724,0.0
774640.0783812654,4055767.5119837918,-7500.0,-6.7632891706546268,-6.3289609489237533,-7.6513348582020244,1.8707051675900666,1.9974040099302415,-0.38911100644679131,7.1276695863428499,-7.9273599374492836,3.5045744405886889,-3.5045744405886889,7.9273599374492836,13.773672557833855,0.0
779640.0783812654,4055767.5119837918,-7500.0,-6.6776885962073456,-5.1958879859459364,-5.2361891552905417,1.6333758657114383,1.4134127942838086,-0.29384060085205072,5.8665204639327833,-5.6999441455192565,2.8738501965458125,-2.8738501965458125,5.6999441455192565,11.340980370958057,0.0
784640.0783812654,4055767.5119837918,-7500.0,-6.2159022502545067,-4.0645926991207757,-3.483638276011511,1.3665858620846048,0.97202592368466822,-0.21708498193381565,4.7652523870209826,-3.9369191315041414,2.1893045915517177,-2.1893045915517177,3.9369191315041414,9.222832434067131,0.0
789640.0783812654,4055767.5119837918,-7500.0,-5.561167655645864,-3.0701100537436359,-2.2643471204401986,1.1124346197137427,0.65330314607775231,-0.15834155903823816,3.8426634574431038,-2.6213536195915075,1.5719613088855264,-1.5719613088855264,2.6213536195915075,7.4509785951798699,0.0
794640.0783812654,4055767.5119837918,-7500.0,-4.8438899781837677,-2.2566062424709039,-1.4396036180245031,0.89002130959751946,0.43000295855306253,-0.11475778472633209,3.0893648492302392,-1.6780724735969921,1.0668198435785232,-1.0668198435785232,1.6780724735969921,6.0052038543222572,0.0
799640.0783812654,4055767.5119837918,-7500.0,-4.1439641887835297,-1.6202516430890808,-0.89248297676707367,0.70471075616359513,0.27674299968807048,-0.08300685840074834,2.4837609264655574,-1.0208659069086718,0.67772664815584216,-0.67772664815584216,1.0208659069086718,4.8429986602033228,0.0
804640.0783812654,4055767.5119837918,-7500.0,-3.5034647402736137,-1.1368656397438772,-0.53471243732058682,0.55483933938848251,0.17309392640390769,-0.060103750554853938,2.0011430860624269,-0.57317881786601221,0.39035963416104774,-0.39035963416104774,0.57317881786601221,3.9164466448355135,0.0
809640.0783812654,4055767.5119837918,-7500.0,-2.9397826110356173,-0.77699856498624498,-0.3035631358520241,0.43580378479397175,0.10380725670038156,-0.043653325364051518,1.618187671691466,-0.2742847968251218,0.18495437445269508,-0.18495437445269508,0.2742847968251218,3.1805138737710461,0.0
814640.0783812654,4055767.5119837918,-7500.0,-2.4558052005969864,-0.51297205605169593,-0.15601944386495567,0.34226178129845325,0.05798411061226217,-0.031843384260939661,1.314834908053772,-0.078886329394531329,0.042349096088535876,-0.042349096088535876,0.078886329394531329,2.5963338376995533,0.0
819640.0783812654,4055767.5119837918,-7500.0,-2.0467790881961241,-0.32147533127677697,-0.063211159347112245,0.26917333165355051,0.02803426355573618,-0.023347465845768339,1.0750748531297656,0.045588387383999153,-0.053697604358276051,0.053697604358276051,-0.045588387383999153,2.1318918733019632,0.0
824640.0783812654,4055767.5119837918,-7500.0,-1.7045361166742563,-0.18398927439543453,-0.0060109552212175982,0.2122030347248553,0.0087541561217589197,-0.01721273182732861,0.8876830695563096,0.12202976150589524,-0.11602610720620311,0.11602610720620311,-0.12202976150589524,1.761522964180414,0.0
654640.0783812654,4060767.5119837918,-7500.0,2.7706889732076605,-1.2867400864144494,0.76228180284731617,0.4134490938317652,-0.20103945923922723,0.046098248598383858,1.7382021003925974,-0.68629750327119754,1.7750712595198579,-1.7750712595198579,0.68629750327119754,3.4038474749937477,0.0
659640.0783812654,4060767.5119837918,-7500.0,3.0954024562857629,-1.5788127165465369,0.99595078907253876,0.49170811472411152,-0.26341085291981031,0.058668108213330371,2.0200190919829875,-0.76010794621685895,2.1357479077132453,-2.1357479077132453,0.76010794621685895,3.9579554113373447,0.0
664640.0783812654,4060767.5119837918,-7500.0,3.4381527447804143,-1.9339367228124087,1.3080580545263067,0.58447954127635793,-0.34602293121719224,0.075041015125674695,2.3531009077312457,-0.82483666298514624,2.5701554709125132,-2.5701554709125132,0.82483666298514624,4.613941461521228,0.0
669640.0783812654,4060767.5119837918,-7500.0,3.7853071584710776,-2.3605830864737336,1.7250387304840011,0.69308818576250075,-0.45534511937697664,0.096383673245413345,2.745422419873091,-0.86698694471586624,3.0881794144580357,-3.0881794144580357,0.86698694471586624,5.3882166477164644,0.0
674640.0783812654,4060767.5119837918,-7500.0,4.113643871918244,-2.8636645763670372,2.2806885733625673,0.81775589059727949,-0.59949934817080497,0.12415545286602114,3.2045330589904122,-0.86492222682926889,3.6960838870154618,-3.6960838870154618,0.86492222682926889,6.2967678970275198,0.0
679640.0783812654,4060767.5119837918,-7500.0,4.3866952432063275,-3.4398933806643077,3.0162309957958238,0.95649348979417392,-0.78819134580221561,0.16010051351850377,3.736009276489145,-0.7854868110825719,4.3916557069908198,-4.3916557069908198,0.7854868110825719,7.3523366278338544,0.0
684640.0783812654,4060767.5119837918,-7500.0,4.551199563027029,-4.0702056010523977,3.977920818304419,1.103380233743658,-1.0320428306164176,0.20614217100076584,4.340771729721987,-0.58038757963528376,5.1562468095144194,-5.1562468095144194,0.58038757963528376,8.5594769203233501,0.0
689640.0783812654,4060767.5119837918,-7500.0,4.5354615909990699,-4.7085478276705679,5.2094941972089313,1.246137913188514,-1.3407302621922426,0.264082544640241,5.0107853769795447,-0.18382278284692211,5.9428919564445284,-5.9428919564445284,0.18382278284692211,9.906592128625773,0.0
694640.0783812654,4060767.5119837918,-7500.0,4.2532060963297891,-5.2675145256064546,6.7352605303757285,1.3632016132332676,-1.7190392540743844,0.33496160535389535,5.7227641795235424,0.48524926057449891,6.6607968473129908,-6.6607968473129908,-0.48524926057449891,11.354245982700437,0.0
699640.0783812654,4060767.5119837918,-7500.0,3.6186695907231945,-5.6045743013160685,8.5286524082762334,1.4212097954388949,-2.1597976840615378,0.41790399134286671,6.4302826436188463,1.5099249370057981,7.1596527392037013,-7.1596527392037013,-1.5099249370057981,12.820139821387265,0.0
704640.0783812654,4060767.5119837918,-7500.0,2.5795463099615215,-5.5190337343570555,10.463071759581521,1.3751626045272982,-2.6331799749586344,0.50835931733133666,7.1114464279355367,2.9421826022150794,7.2236242636382491,-7.2236242636382491,-2.9421826022150794,14.164087384357757,0.0
709640.0783812654,4060767.5119837918,-7500.0,1.169839947293762,-4.7787499158386844,12.251709037672956,1.1751927743708741,-3.0740401697284252,0.59597489856182539,7.6994822123178199,4.7418918532262122,6.5940238170818635,-6.5940238170818635,-4.7418918532262122,15.182173636095275,0.0
714640.0783812654,4060767.5119837918,-7500.0,-0.43140075340247075,-3.2002239611305563,13.405854446011244,0.78450748822028726,-3.3736678054704261,0.6630760164927324,8.0435606658425947,6.6935460198665089,5.0454361757399537,-5.0454361757399537,-6.6935460198665089,15.628132200140831,0.0
719640.0783812654,4060767.5119837918,-7500.0,-1.8781777850483654,-0.78939205834530457,13.273240496864878,0.20928547622091584,-3.3886743505417423,0.68573566970435151,8.0444345680990335,8.3398233963298907,2.5261637134846717,-2.5261637134846717,-8.3398233963298907,15.288635165522088,0.0
724640.0783812654,4060767.5119837918,-7500.0,-2.7366502225635259,2.1054486722213426,11.228851782051644,-0.47017808600330468,-2.981417618816288,0.63977120551941746,7.6833728731301258,9.0151392841415792,-0.67915150411105163,0.67915150411105163,-9.0151392841415792,14.138972571008246,0.0
729640.0783812654,4060767.5119837918,-7500.0,-2.6948035005778785,4.7566549174833552,7.0219561979840792,-1.0932473194275192,-2.0921663394058347,0.51198846394187025,7.1093185328060855,8.0648798746487564,-3.887166343823695,3.887166343823695,-8.0648798746487564,12.575120433315105,0.0
734640.0783812654,4060767.5119837918,-7500.0,-1.8101261415036689,6.2750988246764932,1.1138096280034948,-1.465031570969288,-0.80961896646552522,0.3119356346032966,6.6672371209908974,5.222879447603427,-6.1973883222121788,6.1973883222121788,-5.222879447603427,11.549189198221486,0.0
739640.0783812654,4060767.5119837918,-7500.0,-0.58136180398521553,6.0551202276252374,-5.2960623473512749,-1.4487628859229484,0.62046369568764792,0.07498311782122101,6.6902329860361487,0.91630359571769793,-6.9124714336406061,6.9124714336406061,-0.91630359571769793,11.9665688413323,0.0
744640.0783812654,4060767.5119837918,-7500.0,0.2962959071726598,4.1555380466632377,-10.719157306411221,-1.0465998332044797,1.8826195113240582,-0.14932628045663407,7.1298865727985676,-3.8034564654213012,-5.9344877259690785,5.9344877259690785,3.8034564654213012,13.503867222156764,0.0
749640.0783812654,4060767.5119837918,-7500.0,0.3435816885320831,1.2854897640831517,-14.059666610835638,-0.40187016117804242,2.7301574281012297,-0.31822024736352594,7.6172526191536614,-7.7435531697362139,-3.8086842425592886,3.8086842425592886,7.7435531697362139,15.038705901591399,0.0
754640.0783812654,4060767.5119837918,-7500.0,-0.45837469659336089,-1.6077418238250742,-15.039170027112119,0.28156453686382243,3.0787679601534523,-0.41184745541352924,8.0236097651871212,-10.124380250157111,-1.3762450002477262,1.3762450002477262,10.124380250157111,15.802181335957254,0.0
759640.0783812654,4060767.5119837918,-7500.0,-1.7553901682417279,-3.8066029408462811,-14.114485612120001,0.83753668696393457,3.000685227518701,-0.43513377840861067,8.0096275323077357,-10.815209671983581,0.66420266690288177,-0.66420266690288177,10.815209671983581,15.60111881615811,0.0
764640.0783812654,4060767.5119837918,-7500.0,-3.0937087016761819,-5.0331496765413037,-12.073638391011791,1.1883309436089551,2.6490879831068197,-0.40806543272960821,7.5415036767600503,-10.183821231538623,1.9826433567015513,-1.9826433567015513,10.183821231538623,14.603283344507455,0.0
769640.0783812654,4060767.5119837918,-7500.0,-4.1427982459970236,-5.3756626023061695,-9.6502928607860987,1.3370762296267293,2.1784960462313374,-0.35368397429948178,6.7908361491389035,-8.7832566708299478,2.5830939889392384,-2.5830939889392384,8.7832566708299478,13.109252808052863,0.0
774640.0783812654,4060767.5119837918,-7500.0,-4.7656608572069983,-5.0977337210669038,-7.3367576351820896,1.3315156735271074,1.7008604806309526,-0.29041571118102005,5.917411282186734,-7.1051319206091872,2.6469631175957935,-2.6469631175957935,7.1051319206091872,11.406265580693288,0.0
779640.0783812654,4060767.5119837918,-7500.0,-4.9773563833685897,-4.4784370203286503,-5.3751952545660959,1.2298317952748059,1.2779660045527312,-0.22975995672421212,5.0372689594402864,-5.4769143966847427,2.3910260712888487,-2.3910260712888487,5.4769143966847427,9.7053063061674738,0.0
784640.0783812654,4060767.5119837918,-7500.0,-4.8702671912349524,-3.7329324856961126,-3.8308713971684689,1.0811777516753862,0.93302211759228204,-0.17726434733657406,4.2201261522687776,-4.0656661096024838,1.9914193687514852,-1.9914193687514852,4.0656661096024838,8.1332351206804603,0.0
789640.0783812654,4060767.5119837918,-7500.0,-4.554539899739348,-2.9963393905034779,-2.6731436121815908,0.91950378469435412,0.66625818311582641,-0.13454752787105748,3.4993141086049966,-2.9253174674104572,1.5633403573895488,-1.5633403573895488,2.9253174674104572,6.7500028205845792,0.0
794640.0783812654,4060767.5119837918,-7500.0,-4.1259075018587072,-2.3382418668852822,-1.8335567030061115,0.76478540720659127,0.46722977990865605,-0.10111603486004403,2.8841806954448321,-2.0460405749917463,1.1693660335473037,-1.1693660335473037,2.0460405749917463,5.5712934625928945,0.0
799640.0783812654,4060767.5119837918,-7500.0,-3.6547972640516475,-1.784647219436909,-1.2384099932741819,0.62680557818194638,0.3223613337417246,-0.075591929602968524,2.3704124810618112,-1.3899384588518862,0.8360115864944041,-0.8360115864944041,1.3899384588518862,4.5876132508514242,0.0
804640.0783812654,4060767.5119837918,-7500.0,-3.1870681663862772,-1.3367519929671507,-0.82320097228335798,0.50892062639185365,0.218728369125017,-0.056402350860779778,1.9471613195972739,-0.91198602782403315,0.56869596272691891,-0.56869596272691891,0.91198602782403315,3.7775260323685655,0.0
809640.0783812654,4060767.5119837918,-7500.0,-2.7492296970406551,-0.98380307896013719,-0.53683965621507312,0.41090773271683173,0.14552141267165419,-0.042103631118264609,1.6013815749121314,-0.57026058860608086,0.36226948705221085,-0.36226948705221085,0.57026058860608086,3.1157106598023967,0.0
814640.0783812654,4060767.5119837918,-7500.0,-2.3542778835067311,-0.71076323805509378,-0.34109437087519523,0.33082562229762547,0.094308483425471212,-0.031496615052971508,1.3201880065046587,-0.32978930798040201,0.20740309397973161,-0.20740309397973161,0.32978930798040201,2.5773257288255569,0.0
819640.0783812654,4060767.5119837918,-7500.0,-2.006573744809339,-0.50235742706207154,-0.20833074195637577,0.26610954949416038,0.0587800881790944,-0.023638476512768687,1.0919715861297667,-0.16312727271557467,0.094025415976083965,-0.094025415976083965,0.16312727271557467,2.1400485581190951,0.0
659640.0783812654,4065767.5119837918,-7500.0,2.6804898455326898,-1.5773427266454576,1.1343783458857541,0.42872924125822776,-0.26777462978488231,0.051775889719050734,1.8755282880017923,-0.63506404957418017,2.1025130774474365,-2.1025130774474365,0.63506404957418017,3.6697246804585859,0.0
664640.0783812654,4065767.5119837918,-7500.0,2.9138697454989226,-1.885197866073232,1.4555257488764717,0.49957599451699652,-0.34358709961478368,0.065056238270459671,2.1574271347973237,-0.655842110114779,2.4808678201418508,-2.4808678201418508,0.655842110114779,4.225251865438052,0.0
669640.0783812654,4065767.5119837918,-7500.0,3.1295169491932326,-2.2396625861948354,1.8706782223664302,0.57912384866513744,-0.44082499270287662,0.081896329482879712,2.4814534904785917,-0.64422579296747906,2.9156126324138221,-2.9156126324138221,0.64422579296747906,4.8655526243100899,0.0
674640.0783812654,4065767.5119837918,-7500.0,3.304675538013254,-2.6367546954888077,2.4038051736994674,0.66582333851760345,-0.56463559735465119,0.10313039472193872,2.8500404000831385,-0.57976417535969071,3.4035346953685743,-3.4035346953685743,0.57976417535969071,5.5965265815966889,0.0
679640.0783812654,4065767.5119837918,-7500.0,3.4077460011122298,-3.063296182988585,3.080692378011721,0.75603448491829206,-0.72043108604287776,0.12964256674716432,3.2627766335182136,-0.43401752998458987,3.9318141056842681,-3.9318141056842681,0.43401752998458987,6.4190332904711571,0.0
684640.0783812654,4065767.5119837918,-7500.0,3.3978215635451843,-3.4914312318660694,3.924748236219032,0.84294012111216066,-0.9129520712721827,0.16222858017246947,3.7142425103271521,-0.16969776789241031,4.4721399254082961,-4.4721399254082961,0.16969776789241031,7.3248889858135753,0.0
689640.0783812654,4065767.5119837918,-7500.0,3.2267837737679792,-3.8719285985426595,4.9485672980131481,0.91529191613787786,-1.1444628355385222,0.20132833863418631,4.1909867013541362,0.25799799909224008,4.97334966193608,-4.97334966193608,-0.25799799909224008,8.2912758399151283,0.0
694640.0783812654,4065767.5119837918,-7500.0,2.8462204961229713,-4.1278460977306546,6.1392538956707163,0.9563471400336524,-1.4117096572228651,0.24657354917209248,4.6677350595586864,0.89536986517851513,5.3540439106893976,-5.3540439106893976,-0.89536986517851513,9.2737732174105201,0.0
699640.0783812654,4065767.5119837918,-7500.0,2.2217337328443336,-4.1524207174622347,7.4362628778136717,0.94379356641640944,-1.7014539856954398,0.2961195114213675,5.1036647611975186,1.776035939775567,5.498919447255072,-5.498919447255072,-1.776035939775567,10.19928159930056,0.0
704640.0783812654,4065767.5119837918,-7500.0,1.3558291948404324,-3.8181728924746401,8.7037360119269689,0.8520200518816915,-1.9850522026933646,0.34582225867985034,5.5225402757036246,2.895330373798811,5.2658169698019046,-5.2658169698019046,-2.895330373798811,10.962104242086074,0.0
709640.0783812654,4065767.5119837918,-7500.0,0.31570908382845136,-3.0064406766250893,9.7066492365531847,0.65841537038600551,-2.2139773787639636,0.38852487507599565,5.8249738414418113,4.1737430539518874,4.5131122579152079,-4.5131122579152079,-4.1737430539518874,11.429476229506262,0.0
714640.0783812654,4065767.5119837918,-7500.0,-0.74704360466223607,-1.6634243952721957,10.111288580238114,0.35463051696811365,-2.3202592540518236,0.41401769810798689,5.941342088050491,5.4198254169447084,3.1547814586583209,-3.1547814586583209,-5.4198254169447084,11.466180334314284,0.0
719640.0783812654,4065767.5119837918,-7500.0,-1.6080853305324927,0.12591133653121866,9.5392215710727353,-0.039162180807843699,-2.2273096597122657,0.41046643222872203,5.8323910942119337,6.3186799014228079,1.2368653119011253,-1.2368653119011253,-6.3186799014228079,10.989562018807087,0.0
724640.0783812654,4065767.5119837918,-7500.0,-2.035405062314616,2.082070484053486,7.6943258181643159,-0.46405630742602549,-1.8746197813789622,0.3678631674101589,5.5197765428824717,6.4831425144277235,-0.99781890640320636,0.99781890640320636,-6.4831425144277235,10.062499854758777,0.0
729640.0783812654,4065767.5119837918,-7500.0,-1.9021720933369459,3.7522915290950678,4.5383218942192336,-0.82727364509416457,-1.2515429484500555,0.2829357774140972,5.125598269173123,5.5886651698975101,-3.1148745012983259,3.1148745012983259,-5.5886651698975101,9.0095940292465375,0.0
734640.0783812654,4065767.5119837918,-7500.0,-1.2901957713446057,4.6493626970978763,0.42320207474949534,-1.0293959255219352,-0.42308523030320105,0.16321183738457756,4.8651543281692753,3.554233447634672,-4.6090173633776015,4.6090173633776015,-3.554233447634672,8.4334780552308164,0.0
739640.0783812654,4065767.5119837918,-7500.0,-0.49681796967741682,4.468336833275937,-3.9389698334603991,-1.0063788975581853,0.47449495672313124,0.02706470503160394,4.9143098648536165,0.6608797967424076,-5.1121019897070434,5.1121019897070434,-0.6608797967424076,8.805570978102887,0.0
744640.0783812654,4065767.5119837918,-7500.0,0.093559497431299807,3.2515523272163849,-7.7091323984540026,-0.76222553935075954,1.2763028142626311,-0.10169801810217895,5.2292559245061048,-2.5027603639249794,-4.5696402133368448,4.5696402133368448,2.5027603639249794,9.8865656137458249,0.0
749640.0783812654,4065767.5119837918,-7500.0,0.2019617239359765,1.377362365677407,-10.243178311748373,-0.36873814449806441,1.8496735424865545,-0.20233044655597857,5.595315942623996,-5.2679433024941495,-3.2598972043529035,3.2598972043529035,5.2679433024941495,11.018378989041862,0.0
754640.0783812654,4065767.5119837918,-7500.0,-0.22203346528645782,-0.62526308033106082,-11.306712385932737,0.068455211489756113,2.1374072321566557,-0.26385132308131276,5.9411890828301051,-7.1492590933854654,-1.6417302197031454,1.6417302197031454,7.1492590933854654,11.717541001220674,0.0
759640.0783812654,4065767.5119837918,-7500.0,-1.0192521122216909,-2.3047036652858059,-11.071716417114656,0.45411971373493387,2.1613486280585037,-0.28653063777468218,6.0611077273902891,-7.984579991806835,-0.14426582688175227,0.14426582688175227,7.984579991806835,11.81196472231249,0.0
764640.0783812654,4065767.5119837918,-7500.0,-1.9388002104616533,-3.4206748575052286,-9.9473433278202386,0.73185188949000479,1.9935628345102236,-0.27861764919406817,5.8635306369446001,-7.9022406744784472,0.97124802705378999,-0.97124802705378999,7.9022406744784472,11.349949865796928,0.0
769640.0783812654,4065767.5119837918,-7500.0,-2.7588593578887384,-3.9467980173660782,-8.3805350275283512,0.88785135176373564,1.7190831810821605,-0.25134954890640304,5.4377426066698824,-7.1860923037833979,1.6320426643720944,-1.6320426643720944,7.1860923037833979,10.485679493951666,0.0
774640.0783812654,4065767.5119837918,-7500.0,-3.3490638162841364,-3.9933740701147347,-6.7256836575478989,0.93810780720295672,1.4094481109033883,-0.21500947975621754,4.8819787338262577,-6.1391263245311611,1.8960902028248841,-1.8960902028248841,6.1391263245311611,9.3940006541638823,0.0
779640.0783812654,4065767.5119837918,-7500.0,-3.6724461197521916,-3.7194720775815964,-5.2028633395024411,0.91172812139227488,1.1123077244832316,-0.17705099613783623,4.2779998043527838,-5.0017523549670964,1.8772979513005212,-1.8772979513005212,5.0017523549670964,8.2230301200518952,0.0
784640.0783812654,4065767.5119837918,-7500.0,-3.7557304225043104,-3.2731404963789696,-3.9145484263894836,0.83845849710163289,0.85267104247614189,-0.14190116239407036,3.6832212945205236,-3.9275775797518149,1.6910767881194684,-1.6910767881194684,3.9275775797518149,7.0773903403927969,0.0
789640.0783812654,4065767.5119837918,-7500.0,-3.655325380945992,-2.765287456419883,-2.8837016062257637,0.74234722228605365,0.63917085331013257,-0.11160885492726987,3.1321400803503612,-2.994233635408857,1.4281355798932869,-1.4281355798932869,2.994233635408857,6.0198184880042005,0.0
794640.0783812654,4065767.5119837918,-7500.0,-3.432584425474547,-2.2666234016624025,-2.0898807223240756,0.6400837095551809,0.47073019059100901,-0.086682533080586363,2.6416096465581203,-2.2265670425959017,1.1487999163435973,-1.1487999163435973,2.2265670425959017,5.0805496734398883,0.0
799640.0783812654,4065767.5119837918,-7500.0,-3.1405648594566329,-1.8153377241020541,-1.494749629041263,0.54182506377290141,0.34163495487242085,-0.066790282002628612,2.2166218014886039,-1.6187855534241213,0.88755645859352117,-0.88755645859352117,1.6187855534241213,4.2679213436104959,0.0
804640.0783812654,4065767.5119837918,-7500.0,-2.8193920867834872,-1.4272939923209329,-1.0569276538725445,0.45287536075137819,0.24471247418527811,-0.051234573897995121,1.8550957432653044,-1.1506272007100193,0.66058569974863579,-0.66058569974863579,1.1506272007100193,3.5772395804591537,0.0
809640.0783812654,4065767.5119837918,-7500.0,-2.4964814888033371,-1.1048536780513618,-0.73912497924548703,0.37533725410420254,0.17301855973739408,-0.039229239940295015,1.5512868476696864,-0.79733041282733574,0.47267530339558617,-0.47267530339558617,0.79733041282733574,2.9971098845003694,0.0
814640.0783812654,4065767.5119837918,-7500.0,-2.188837137030363,-0.84322819335274957,-0.51066009511444066,0.30940751298379848,0.12056515230705078,-0.030038848159514159,1.2979810960431113,-0.53493962962887642,0.32234396971863633,-0.32234396971863633,0.53493962962887642,2.5135136289375271,0.0
819640.0783812654,4065767.5119837918,-7500.0,-1.9057952928892272,-0.63453323792451388,-0.3476004247560387,0.25427125606616419,0.082511518115416169,-0.023034782154687499,1.0877789529011475,-0.34263219546497092,0.20518049851882766,-0.20518049851882766,0.34263219546497092,2.1121870132755856,0.0
659640.0783812654,4070767.5119837918,-7500.0,2.2851401168144498,-1.5234339515711448,1.2313708943997568,0.36817260178070882,-0.26320487154885308,0.045077019630345418,1.723076496306198,-0.50518370317026695,2.016489743932945,-2.016489743932945,0.50518370317026695,3.368210107330162,0.0
664640.0783812654,4070767.5119837918,-7500.0,2.43102471502129,-1.7789303899066371,1.5461466462507247,0.42057059797443314,-0.33046960234814221,0.055653279759917129,1.9575249023574302,-0.49019309424379653,2.3341727100201073,-2.3341727100201073,0.49019309424379653,3.8308659488515415,0.0
669640.0783812654,4070767.5119837918,-7500.0,2.5471985162284838,-2.0600371390091388,1.9404001283693377,0.47671384879486345,-0.41417026895063713,0.068700897263452715,2.220384276149673,-0.4383276303122341,2.6851379580452051,-2.6851379580452051,0.4383276303122341,4.3514187030737821,0.0
674640.0783812654,4070767.5119837918,-7500.0,2.6142069713579246,-2.357641440148913,2.4290684416480524,0.53432326868877211,-0.51719637323255396,0.084649204575729373,2.5108846252127242,-0.33219173194704044,3.0605203419625404,-3.0605203419625404,0.33219173194704044,4.9294036127788141,0.0
679640.0783812654,4070767.5119837918,-7500.0,2.6076462525334665,-2.654288255198006,3.025234131509837,0.58944827435460512,-0.64199225107271574,0.1038708476638449,2.8253376104603545,-0.14968471632863234,3.4425940551180556,-3.4425940551180556,0.14968471632863234,5.559079560163541,0.0
684640.0783812654,4070767.5119837918,-7500.0,2.4993409752479612,-2.9208663859379054,3.7356873825771304,0.63589345799704056,-0.7896801537631476,0.12656239525284815,3.1556010750029073,0.13520712811521518,3.8010703375975843,-3.8010703375975843,-0.13520712811521518,6.2265924822797167,0.0
689640.0783812654,4070767.5119837918,-7500.0,2.2607415736010297,-3.113512771234185,4.5536220089348607,0.66473744310423732,-0.95865545589380818,0.1525525964899232,3.4872024119307774,0.54946076153056511,4.0894122692144563,-4.0894122692144563,-0.54946076153056511,6.9065302792073693,0.0
694640.0783812654,4070767.5119837918,-7500.0,1.8696133748731998,-3.172333711391107,5.4479464552739154,0.66425273854396616,-1.1425797895961876,0.18102726547083159,3.7973827778633522,1.1144681018099409,4.2427142654859669,-4.2427142654859669,-1.1144681018099409,7.5583978841810273,0.0
699640.0783812654,4070767.5119837918,-7500.0,1.3206264039416002,-3.0247360747078105,6.3498604422526101,0.62073657929486459,-1.327922352605545,0.21018852191811141,4.0707013401428673,1.8344739429422496,4.179943941558359,-4.179943941558359,-1.8344739429422496,8.1242894635057326,0.0
704640.0783812654,4070767.5119837918,-7500.0,0.6388267614993357,-2.5971519016084375,7.1399325114653749,0.52090666266155539,-1.4916699194582905,0.23692804531343825,4.3144011347756948,2.6797357627981864,3.814492237686073,-3.814492237686073,-2.6797357627981864,8.5301551747060369,0.0
709640.0783812654,4070767.5119837918,-7500.0,-0.1082636980172853,-1.8384176394392007,7.6430223765258498,0.3563696595879034,-1.6005466197709213,0.2566886193918172,4.4549234602037089,3.5673487196186215,3.0767686122868998,-3.0767686122868998,-3.5673487196186215,8.694386745917825,0.0
714640.0783812654,4070767.5119837918,-7500.0,-0.80835802906350995,-0.75398519437652345,7.6425627589954948,0.12989287465223093,-1.6137802104177128,0.26378422408949331,4.4606978472632663,4.348251373232956,1.9489444982591957,-1.9489444982591957,-4.348251373232956,8.5484454213264698,0.0
719640.0783812654,4070767.5119837918,-7500.0,-1.3224827084124153,0.5588645268940895,6.9256876507786806,-0.13839010662215198,-1.4913810816741579,0.25244842401463996,4.3217710678608574,4.814773295763616,0.50328849431963452,-0.50328849431963452,-4.814773295763616,8.0740026503151157,0.0
724640.0783812654,4070767.5119837918,-7500.0,-1.5287084671617488,1.8958743331358217,5.3602616450580172,-0.40861005572858744,-1.2080267193687078,0.21865310167912766,4.0710044751138401,4.7431472115456899,-1.076026628216036,1.076026628216036,-4.7431472115456899,7.3576865042291884,0.0
729640.0783812654,4070767.5119837918,-7500.0,-1.3807964625977494,2.9755664516473264,2.9817551608801653,-0.62692208109039771,-0.76864219794210009,0.16222817273029891,3.8007277176363972,3.9718735989806744,-2.5131802423581586,2.5131802423581586,-3.9718735989806744,6.647914752911424,0.0
734640.0783812654,4070767.5119837918,-7500.0,-0.95099432740271561,3.5224657660594985,0.043304086988495978,-0.74075422681345249,-0.21757054800223341,0.088252009558510147,3.6461996582799192,2.4894058790655818,-3.5150967021228023,3.5150967021228023,-2.4894058790655818,6.3282539316646513,0.0
739640.0783812654,4070767.5119837918,-7500.0,-0.42146172122255726,3.375956661250632,-3.0184436232327716,-0.71859716521847417,0.36691058514574093,0.0066040058439193212,3.7024453788723877,0.48084538462260995,-3.8777272024019149,3.8777272024019149,-0.48084538462260995,6.6470670327674322,0.0
744640.0783812654,4070767.5119837918,-7500.0,-0.015012927399272553,2.5658147201225856,-5.7083646723705659,-0.56402287672461304,0.89411334900670003,-0.070619441004787856,3.9340745440940763,-1.7084697427155842,-3.5693481220469385,3.5693481220469385,1.7084697427155842,7.4299162665584984,0.0
749640.0783812654,4070767.5119837918,-7500.0,0.10018886010590727,1.3045242744843797,-7.6340406025866203,-0.31506393870955002,1.2894274949869606,-0.13278915270018235,4.2107491264075474,-3.6866488022984374,-2.7394097951050966,2.7394097951050966,3.6866488022984374,8.2741582728574485,0.0
754640.0783812654,4070767.5119837918,-7500.0,-0.1248000314707947,-0.10142132499196273,-8.6189668958407228,-0.028916485699337694,1.5153484913308031,-0.17370625321343661,4.4915293755411207,-5.1473097318950369,-1.6476137687533183,1.6476137687533183,5.1473097318950369,8.8690504241185764,0.0
759640.0783812654,4070767.5119837918,-7500.0,-0.61947371633834114,-1.3670211644631625,-8.7164522858784981,0.23893408378590489,1.5756619564753094,-0.19252358098487229,4.6558632805208164,-5.9508998228780685,-0.55897588839953638,0.55897588839953638,5.9508998228780685,9.0788763266494321,0.0
764640.0783812654,4070767.5119837918,-7500.0,-1.2455399156145435,-2.3095041120447077,-8.1378700876499579,0.45026718040256203,1.5042775144930924,-0.19263238549143993,4.6000989210257162,-6.1261690896294194,0.33712151405253588,-0.33712151405253588,6.1261690896294194,8.9032588224366602,0.0
769640.0783812654,4070767.5119837918,-7500.0,-1.8608436321318689,-2.8680151913114411,-7.1505299333734857,0.58911510213154816,1.3477243006465645,-0.17954900031917026,4.3687991776205219,-5.8132560912118301,0.95491174691800529,-0.95491174691800529,5.8132560912118301,8.4183038423351011,0.0
774640.0783812654,4070767.5119837918,-7500.0,-2.362729583360998,-3.076015371446315,-5.9959781674049806,0.65792672549305187,1.1502324636603338,-0.15894785866425962,4.0210147817009494,-5.1916552242888816,1.2954040206785904,-1.2954040206785904,5.1916552242888816,7.7277004716934901,0.0
779640.0783812654,4070767.5119837918,-7500.0,-2.7014155178359247,-3.0164809373384687,-4.849365280026241,0.66992492150805893,0.94554046832079253,-0.13545580689266837,3.611892723971271,-4.4256883495376274,1.4102763884174745,-1.4102763884174745,4.4256883495376274,6.9307575515982869,0.0
784640.0783812654,4070767.5119837918,-7500.0,-2.8717464498590108,-2.7833314043669226,-3.8141508498553991,0.64194631268648339,0.75497368631514183,-0.11223996823260342,3.1849294252085634,-3.6378651234840014,1.368167731653479,-1.368167731653479,3.6378651234840014,6.1066042324011436,0.0
789640.0783812654,4070767.5119837918,-7500.0,-2.8964348727772307,-2.4582541340376975,-2.9361697129944537,0.58972748069914471,0.58927907036423699,-0.091119627337461387,2.7701944557715268,-2.9047281100298146,1.2329613599633524,-1.2329613599633524,2.9047281100298146,5.3100815786750353,0.0
794640.0783812654,4070767.5119837918,-7500.0,-2.8102070999999977,-2.1017018035916899,-2.2230974718671566,0.52571429835798456,0.45178652799808372,-0.072902771669426811,2.385858642108972,-2.2648411413686231,1.0541315110629075,-1.0541315110629075,2.2648411413686231,4.5742044291710924,0.0
799640.0783812654,4070767.5119837918,-7500.0,-2.6488165886899098,-1.752891098219431,-1.6614994765556077,0.45862649268587752,0.34140892487647218,-0.057745618613401412,2.0409904849917488,-1.7304380423129309,0.86520240126477921,-0.86520240126477921,1.7304380423129309,3.9152026374585285,0.0
804640.0783812654,4070767.5119837918,-7500.0,-2.4431727790638318,-1.4339161267593539,-1.2288665899063085,0.393938244302174,0.25489123615324999,-0.045442549488492176,1.738423740658813,-1.2980282414799349,0.68621104829915835,-0.68621104829915835,1.2980282414799349,3.337796899252369,0.0
809640.0783812654,4070767.5119837918,-7500.0,-2.2171955449481913,-1.1547727337516545,-0.90085383115768658,0.33466683119781815,0.18824950574415655,-0.035624308519151819,1.4771152415039994,-0.9562242810732573,0.52735509443159212,-0.52735509443159212,0.9562242810732573,2.8395659597484109,0.0
814640.0783812654,4070767.5119837918,-7500.0,-1.9878789807380823,-0.91777514084766543,-0.65501133971325298,0.28214775785518292,0.13757574075568621,-0.027878152964210364,1.2538847108018276,-0.69079001090195946,0.39239575923199876,-0.39239575923199876,0.69079001090195946,2.4141778447825848,0.0
664640.0783812654,4075767.5119837918,-7500.0,2.0023797893912656,-1.6368221080100724,1.5852905585874562,0.349719833574204,-0.31019521559796492,0.047115571160583722,1.761553098917668,-0.33838243729920214,2.1521029317401288,-2.1521029317401288,0.33838243729920214,3.4459595009057242,0.0
669640.0783812654,4075767.5119837918,-7500.0,2.0473632665685075,-1.8500479230524189,1.946048754173332,0.3877682301417254,-0.38038970938072864,0.057077095998955371,1.9715069994463252,-0.25941381221302717,2.4254485446987371,-2.4254485446987371,0.25941381221302717,3.8630392626772361,0.0
674640.0783812654,4075767.5119837918,-7500.0,2.0428736847992019,-2.061435152301454,2.3782123353042302,0.42398849434892172,-0.46400380054057577,0.06888696026876738,2.1968094723376095,-0.1295767467351987,2.7025478049507519,-2.7025478049507519,0.1295767467351987,4.3133248910400033,0.0
679640.0783812654,4075767.5119837918,-7500.0,1.9717138465941919,-2.2530477981058064,2.8855707914854674,0.45480733699885761,-0.56161669561556449,0.0826372448849228,2.4323327601478306,0.066880650906884664,2.9647082430893708,-2.9647082430893708,-0.066880650906884664,4.7880635873127,0.0
684640.0783812654,4075767.5119837918,-7500.0,1.8163841673984664,-2.3987021258919263,3.4642727950048502,0.47522386858382398,-0.6723804707610187,0.098241652676540461,2.6693871410959176,0.3463119885725785,3.1840766166753864,-3.1840766166753864,-0.3463119885725785,5.2719990017999647,0.0
689640.0783812654,4075767.5119837918,-7500.0,1.5624115470245119,-2.4632134712067306,4.0973632801186053,0.47875458871416149,-0.79306025491718546,0.11531409123431478,2.8947045020067566,0.7224446164508378,3.3224148000509728,-3.3224148000509728,-0.7224446164508378,5.7415247910131058,0.0
694640.0783812654,4075767.5119837918,-7500.0,1.2035458526085294,-2.403683830065098,4.7479298349627088,0.45776064263499172,-0.91685591121475407,0.13301851547389532,3.0897982436059084,1.2008137089178748,3.3317882060760464,-3.3317882060760464,-1.2008137089178748,6.1633305208067553,0.0
699640.0783812654,4075767.5119837918,-7500.0,0.74853649223880669,-2.1744726363913127,5.3520809331486054,0.40442663318392735,-1.0322271164565624,0.1499161947739801,3.2647968534079768,1.7706033568760962,3.1588774504450177,-3.1588774504450177,-1.7706033568760962,6.4945282913043245,0.0
704640.0783812654,4075767.5119837918,-7500.0,0.22800291601619208,-1.7374689106183081,5.8145751435925854,0.31263636829556163,-1.1222085217432687,0.16386895287291542,3.3963734289153247,2.394756578829722,2.7547254002796002,-2.7547254002796002,-2.394756578829722,6.6857958746700623,0.0
709640.0783812654,4075767.5119837918,-7500.0,-0.30178764280454973,-1.0780954675218677,6.011775783266355,0.18077021023721387,-1.1649972828358797,0.17209391409964264,3.4473090161613147,3.001271688467078,2.0907314213380097,-2.0907314213380097,-3.001271688467078,6.6895683511031141,0.0
714640.0783812654,4075767.5119837918,-7500.0,-0.76283924479434728,-0.22445695593264092,5.8075025555214754,0.014933529900311415,-1.1367204351442268,0.17148268181801626,3.4033582114709326,3.481191354961124,1.1788682881706101,-1.1788682881706101,-3.481191354961124,6.4754726681009247,0.0
719640.0783812654,4075767.5119837918,-7500.0,-1.0710933173079802,0.73756374083048037,5.08517573919596,-0.16862357527338928,-1.0169062779628839,0.1592561232653405,3.2679046880502658,3.7002960948124901,0.089496330999885521,-0.089496330999885521,-3.7002960948124901,6.0546382164880006,0.0
724640.0783812654,4075767.5119837918,-7500.0,-1.1635004626385177,1.664317752852968,3.7925100948993475,-0.34372653196397879,-0.79600607636116816,0.1338888524299339,3.0734419323667543,3.5291320235511536,-1.0441417465586236,1.0441417465586236,-3.5291320235511536,5.5118568643505998,0.0
729640.0783812654,4075767.5119837918,-7500.0,-1.0280656670464527,2.3791918803738286,1.9840215986909913,-0.47868384793925484,-0.48253826343111722,0.0960240499142163,2.8874610906903158,2.8876101141574209,-2.0452932894975779,2.0452932894975779,-2.8876101141574209,5.031699244088438,0.0
734640.0783812654,4075767.5119837918,-7500.0,-0.72113832022916213,2.7216460224457029,-0.16167204056618278,-0.54472354388996147,-0.10610683021111601,0.048929991750574171,2.7958086705324159,1.7882014096592649,-2.7385043658869623,2.7385043658869623,-1.7882014096592649,4.8601644910584687,0.0
739640.0783812654,4075767.5119837918,-7500.0,-0.35738799957399375,2.6036936513399085,-2.3686142627233959,-0.52565888917735737,0.28679249237984017,-0.0018947040922082333,2.8507324962852305,0.35421284026073763,-3.0057485632026779,3.0057485632026779,-0.35421284026073763,5.1283279449947416,0.0
744640.0783812654,4075767.5119837918,-7500.0,-0.071334100755186036,2.0462070604966476,-4.3328852655658849,-0.42422862243882625,0.6440400620067801,-0.049997098009328216,3.024878882854046,-1.2034444261289796,-2.8277959469531,2.8277959469531,1.2034444261289796,5.7094102065684424,0.0
749640.0783812654,4075767.5119837918,-7500.0,0.03232279339952538,1.1739188337792714,-5.807472650114458,-0.26157137399671004,0.92197435636684377,-0.089664069950093364,3.2361402502550138,-2.6460247665561316,-2.2885378374190082,2.2885378374190082,2.6460247665561316,6.3478609362163638,0.0
754640.0783812654,4075767.5119837918,-7500.0,-0.086105237945066693,0.1706377810205468,-6.6643383469561659,-0.069927041117048436,1.0961114271222527,-0.11730758256893474,3.4601511497633992,-3.776403138465966,-1.540097071424098,1.540097071424098,3.776403138465966,6.8392448441690767,0.0
759640.0783812654,4075767.5119837918,-7500.0,-0.39675711615808579,-0.78156203681443992,-6.9088774983827621,0.11766959536012771,1.1642911528114497,-0.13199895173557363,3.6290367599939932,-4.4865529869366672,-0.74840983933721761,0.74840983933721761,4.4865529869366672,7.0811526968312855,0.0
764640.0783812654,4075767.5119837918,-7500.0,-0.82318668429040487,-1.5503291917784652,-6.6493742689775317,0.27592442283056706,1.14234104153237,-0.13509643424382531,3.6452647989581348,-4.766811757107936,-0.046127015227236612,0.046127015227236612,4.766811757107936,7.0555415576431511,0.0
769640.0783812654,4075767.5119837918,-7500.0,-1.2760752383967027,-2.0723169925647169,-6.0445105708758833,0.39120177175018905,1.0557485731896339,-0.12933114814055385,3.529368671125924,-4.6826690350898268,0.49043224059069734,-0.49043224059069734,4.6826690350898268,6.7976170344406039,0.0
774640.0783812654,4075767.5119837918,-7500.0,-1.6808203629412655,-2.3458340525491446,-5.2543686941304832,0.46088186496351519,0.93145985756592531,-0.11783095279421577,3.3163304997097049,-4.337569881640329,0.83979586412000051,-0.83979586412000051,4.337569881640329,6.3676920980288338,0.0
779640.0783812654,4075767.5119837918,-7500.0,-1.9910131605074912,-2.4093659219603225,-4.4094217745153834,0.49005676755648175,0.79234637558798782,-0.10340869032114049,3.0424477620787536,-3.839224851904238,1.0193422688940044,-1.0193422688940044,3.839224851904238,5.8305906605961173,0.0
784640.0783812654,4075767.5119837918,-7500.0,-2.188931712841558,-2.3186666873079167,-3.5991728324774606,0.48767389664301358,0.65484381326636032,-0.088209385220536868,2.7391969131999638,-3.2783041824983501,1.0661183983695368,-1.0661183983695368,3.2783041824983501,5.2433694976456549,0.0
789640.0783812654,4075767.5119837918,-7500.0,-2.2785770628890232,-2.129744106892927,-2.8746041914875278,0.46346178119424458,0.5289698686708274,-0.073648714715731728,2.4306888294874804,-2.7199987113914026,1.0215903780410036,-1.0215903780410036,2.7199987113914026,4.6499894824649148,0.0
794640.0783812654,4075767.5119837918,-7500.0,-2.2766905094944829,-1.8894950134028232,-2.2571564423095332,0.42606874615748508,0.41958332421286815,-0.060519146317151468,2.1334885003410626,-2.2045589984557443,0.9225540510894088,-0.9225540510894088,2.2045589984557443,4.0806659621559316,0.0
799640.0783812654,4075767.5119837918,-7500.0,-2.2050745449309952,-1.6325118648550525,-1.7488597094586835,0.38226566157989778,0.32797995702935617,-0.04915680915322302,1.8576913962330945,-1.7522660025674068,0.79736837934957894,-0.79736837934957894,1.7522660025674068,3.5537206187054626,0.0
804640.0783812654,4075767.5119837918,-7500.0,-2.0854164426050237,-1.3816445058717195,-1.3408334460202846,0.33685274232147372,0.25331523110871002,-0.039603131438107508,1.6084451493198915,-1.3694970721593829,0.66561973507188288,-0.66561973507188288,1.3694970721593829,3.0783466159692341,0.0
809640.0783812654,4075767.5119837918,-7500.0,-1.9364976575415207,-1.1502524064819073,-1.0193115341925463,0.29292835924926169,0.19366447363385689,-0.031732667256307683,1.387437720298752,-1.0540909404860264,0.53947534889468685,-0.53947534889468685,1.0540909404860264,2.6573514422452469,0.0
669640.0783812654,4080767.5119837918,-7500.0,1.6290875410447672,-1.6308151986002442,1.9017353383387479,0.31245916791328648,-0.34337138111226539,0.047086704967014316,1.7404941805666692,-0.11139448640299698,2.1580881533236402,-2.1580881533236402,0.11139448640299698,3.4108167726939671,0.0
674640.0783812654,4080767.5119837918,-7500.0,1.5808437925749412,-1.7717039154857039,2.2731384215014327,0.33351029321541709,-0.40988483519922986,0.055733961444382314,1.9127054607246283,0.028131637417209587,2.3537133111144248,-2.3537133111144248,-0.028131637417209587,3.7570687468729056,0.0
679640.0783812654,4080767.5119837918,-7500.0,1.476412648541982,-1.882880405017445,2.693203728978395,0.34815040951483284,-0.48479151730064063,0.065466484283484727,2.0862875188520911,0.22269283201095869,2.5221566759938465,-2.5221566759938465,-0.22269283201095869,4.1100592145348793,0.0
684640.0783812654,4080767.5119837918,-7500.0,1.3062249215478885,-1.9428319407519679,3.1521998930454727,0.35263452082155444,-0.56634816657188491,0.076089695227158638,2.2531600745157054,0.48124940433358709,2.639980790438281,-2.639980790438281,-0.48124940433358709,4.4554177147555496,0.0
689640.0783812654,4080767.5119837918,-7500.0,1.0649259222203784,-1.9253075521682896,3.6293087817302565,0.3425372479429456,-0.65094927653281376,0.087190802203431172,2.4021737627526347,0.80862298965604285,2.6778231452615069,-2.6778231452615069,-0.80862298965604285,4.773147838672549,0.0
694640.0783812654,4080767.5119837918,-7500.0,0.75492235687903864,-1.801550571462013,4.0887276934746239,0.31317874488471709,-0.73251013028093936,0.098064967954073087,2.5219305452474092,1.2013482346170443,2.6022486806330627,-2.6022486806330627,-1.2013482346170443,5.037485856706641,0.0
699640.0783812654,4080767.5119837918,-7500.0,0.39023911567297426,-1.5450459294516379,4.4766942813923114,0.26045625564946373,-0.80201552850226665,0.10765890855447924,2.6326653621747309,1.6424619328503094,2.3801627762314914,-2.3801627762314914,-1.6424619328503094,5.218085723859005,0.0
704640.0783812654,4080767.5119837918,-7500.0,-0.00057446854360083163,-1.1392241788261956,4.7214132342619433,0.18213226656408324,-0.84754859107223124,0.11456735401680057,2.696633386462103,2.0962792239306478,1.9863919842678048,-1.9863919842678048,-2.0962792239306478,5.2834415633812029,0.0
709640.0783812654,4080767.5119837918,-7500.0,-0.37448069727805688,-0.58751529505369715,4.7384875669644755,0.079457491215967527,-0.85520289210432665,0.1171287497458019,2.6996596131384578,2.5053182037392445,1.414080800201432,-1.414080800201432,-2.5053182037392445,5.2076021279479008,0.0
714640.0783812654,4080767.5119837918,-7500.0,-0.67914155320544867,0.076674993927486987,4.4441611709323121,-0.041277892227022592,-0.81122419883589536,0.11366127247791073,2.637000385756358,2.792521222339361,0.68577577624064645,-0.68577577624064645,-2.792521222339361,4.9811646335584543,0.0
719640.0783812654,4080767.5119837918,-7500.0,-0.86440615275437327,0.78456502153606,3.7765960910145338,-0.16798136998867444,-0.70539776407700061,0.10284505663564503,2.5173424824232016,2.8718550409090962,-0.13910141038066204,0.13910141038066204,-2.8718550409090962,4.6270400639507292,0.0
724640.0783812654,4080767.5119837918,-7500.0,-0.89844081604080817,1.4365970689349006,2.7212386990884632,-0.28362005436765914,-0.53505621321216978,0.084185735174754361,2.3688605504974394,2.6681498209764527,-0.96594954448632186,0.96594954448632186,-2.6681498209764527,4.2192951316504983,0.0
729640.0783812654,4080767.5119837918,-7500.0,-0.78303148047919835,1.9204020673206026,1.3314061247829723,-0.36920117221114374,-0.30833809207416185,0.058409815566756174,2.2401929620345857,2.142385080282188,-1.679902557716187,1.679902557716187,-2.142385080282188,3.8932855888727191,0.0
734640.0783812654,4080767.5119837918,-7500.0,-0.56017081875785069,2.1397285739324929,-0.26714226341338021,-0.40846547419894308,-0.044974378785170022,0.027597239756857156,2.186448961386311,1.3133382419307886,-2.1727765539326716,2.1727765539326716,-1.3133382419307886,3.8080204207936972,0.0
739640.0783812654,4080767.5119837918,-7500.0,-0.30393660758885566,2.0446960955230602,-1.8951219877405541,-0.39277801242056692,0.22655366898504509,-0.0050894504401943833,2.236676623608326,0.26442591581088903,-2.3736895500092556,2.3736895500092556,-0.26442591581088903,4.0318546017627952,1.0
744640.0783812654,4080767.5119837918,-7500.0,-0.098471612047597051,1.6500196954943478,-3.3594753159546773,-0.32413314294088585,0.47512101057596823,-0.036057474208678553,2.3700967907229811,-0.8709708722039583,-2.2705612515263662,2.2705612515263662,0.8709708722039583,4.4723232452333912,0.0
749640.0783812654,4080767.5119837918,-7500.0,-0.010913080660068773,1.0317929669236559,-4.5000756728081042,-0.21478193057075784,0.67426116249796419,-0.062104272155468793,2.5332998700992153,-1.9423544191399582,-1.9123293407176032,1.9123293407176032,1.9423544191399582,4.9620020247433541,0.0
754640.0783812654,4080767.5119837918,-7500.0,-0.071509610455306571,0.30378251011794644,-5.2250057642813177,-0.083568163174512933,0.80786628468712796,-0.081097987117102685,2.7112514362168878,-2.8202269845637717,-1.3909516360858898,1.3909516360858898,2.8202269845637717,5.3632962847553758,0.0
759640.0783812654,4080767.5119837918,-7500.0,-0.26903606440815264,-0.41577138853730855,-5.5219340624850872,0.049375706477188377,0.87230507939608071,-0.092282835775418529,2.8680973922623516,-3.4242390495455854,-0.81213924675593163,0.81213924675593163,3.4242390495455854,5.6001165738974557,0.0
764640.0783812654,4080767.5119837918,-7500.0,-0.56106999924746193,-1.0328008826402775,-5.4452703800398856,0.1673827350469396,0.87477535234263715,-0.09616362522595362,2.9185845624003921,-3.7323995295234003,-0.26773726331492909,0.26773726331492909,3.7323995295234003,5.6499581295872368,0.0
769640.0783812654,4080767.5119837918,-7500.0,-0.89187818958701459,-1.492343678007126,-5.0889596297211375,0.25994358539433982,0.82928363036432928,-0.09410214341305416,2.8704352833031184,-3.7722668448354346,0.18086617969616436,-0.18086617969616436,3.7722668448354346,5.5269689028566837,0.0
774640.0783812654,4080767.5119837918,-7500.0,-1.2093242049722472,-1.7787435138838463,-4.5576033243013789,0.32305525758993608,0.75216320466537367,-0.087829722062985741,2.7441036404911636,-3.6019932653878,0.50612214511652698,-0.50612214511652698,3.6019932653878,5.2655415218168962,0.0
779640.0783812654,4080767.5119837918,-7500.0,-1.4754371083692668,-1.9060550931844358,-3.9449362596005693,0.35790566268650531,0.6585709506915618,-0.079041811274922144,2.563139184018679,-3.290301483510381,0.70809316070607853,-0.70809316070607853,3.290301483510381,4.9072718918798186,0.0
784640.0783812654,4080767.5119837918,-7500.0,-1.6696882535472175,-1.9051557544008006,-3.3226733524443794,0.36888722955437742,0.56052296459054107,-0.069149675260181301,2.3497189959345346,-2.9013859228860532,0.80420348296733035,-0.80420348296733035,2.9013859228860532,4.4921483267301108,0.0
789640.0783812654,4080767.5119837918,-7500.0,-1.7869593819353093,-1.8123829919150398,-2.7382039991910099,0.36172955883022934,0.466319323923236,-0.059184916285904297,2.1222862146166985,-2.4866405271645773,0.81945088882029682,-0.81945088882029682,2.4866405271645773,4.0537278363532021,0.0
794640.0783812654,4080767.5119837918,-7500.0,-1.8330075390804677,-1.6618476153394823,-2.2177314435060369,0.34214850796231511,0.3808786012843477,-0.049811338824143847,1.8947409278373666,-2.0822223490505456,0.77933124075530036,-0.77933124075530036,2.0822223490505456,3.6173822298513807,0.0
799640.0783812654,4080767.5119837918,-7500.0,-1.8196537956760259,-1.4814971613552967,-1.7716355102471926,0.31507757271152442,0.30649161531168945,-0.041392209420650271,1.6766244947005062,-1.7103265909342085,0.70584841433970202,-0.70584841433970202,1.7103265909342085,3.200510182928487,0.0
804640.0783812654,4080767.5119837918,-7500.0,-1.7609079460123485,-1.2919830126200578,-1.3999047871407944,0.28436622151727298,0.24364535602316414,-0.034073364882562365,1.4738098954672925,-1.3821566079304564,0.61597354658733994,-0.61597354658733994,1.3821566079304564,2.8137573011394981,0.0
674640.0783812654,4085767.5119837918,-7500.0,1.2135244860224041,-1.5025701698773939,2.1331490678688936,0.26056429310330342,-0.35795364263343388,0.044929487063378702,1.6600565357058354,0.14519990178071784,2.0286655495838914,-2.0286655495838914,-0.14519990178071784,3.2630074103432576,0.0
679640.0783812654,4085767.5119837918,-7500.0,1.0962956220558306,-1.5549174917374122,2.4731311604981179,0.26487590076375611,-0.41453549167510573,0.051758718877314029,1.785895697697202,0.32796571365141913,2.1266933678788464,-2.1266933678788464,-0.32796571365141913,3.521958395531406,0.0
684640.0783812654,4085767.5119837918,-7500.0,0.92984656854350034,-1.5571952518812104,2.8290276688692155,0.26018948516845231,-0.47364463837454435,0.058928243938597732,1.9008011951217489,0.55804991067782517,2.1734076965075251,-2.1734076965075251,-0.55804991067782517,3.7643198315748436,0.0
689640.0783812654,4085767.5119837918,-7500.0,0.71418352276937802,-1.4909067650344814,3.1799285139197551,0.24363792258539063,-0.53192643745546031,0.066074981475260003,1.996008107229873,0.83482325124905787,2.1473705379805619,-2.1473705379805619,-0.83482325124905787,3.9740832772770887,0.0
694640.0783812654,4085767.5119837918,-7500.0,0.45569308218525378,-1.3379437399863379,3.4943738026628477,0.2125299656962546,-0.58439782356679026,0.072655933263464936,2.0735291002071605,1.1504299325235805,2.0263638053475277,-2.0263638053475277,-1.1504299325235805,4.132139317562145,0.0
699640.0783812654,4085767.5119837918,-7500.0,0.16907091795187626,-1.0844245169612245,3.7296522088038517,0.16496604459214181,-0.62436063537679598,0.077936168540725145,2.1363539275152355,1.4867335311623813,1.7911069749139759,-1.7911069749139759,-1.4867335311623813,4.2177703767043102,0.0
704640.0783812654,4085767.5119837918,-7500.0,-0.12188968538717453,-0.7259856567661721,3.8335226029681344,0.10065773220721365,-0.64368542210441537,0.081015499885030998,2.160336529118875,1.8129131848285849,1.4306373427252828,-1.4306373427252828,-1.8129131848285849,4.2117024406319343,0.0
709640.0783812654,4085767.5119837918,-7500.0,-0.38575786321647626,-0.27371700909517893,3.7496513252475774,0.021817138332054939,-0.63365182928793351,0.080914199532393108,2.1391960415926947,2.0851078550721729,0.94869476103524264,-0.94869476103524264,-2.0851078550721729,4.1012494342518258,0.0
714640.0783812654,4085767.5119837918,-7500.0,-0.5880933463626884,0.24104110598064865,3.427489075163038,-0.066158098338748167,-0.58644400989218093,0.076729253351979207,2.0731345085596247,2.249757871973288,0.3694666100994406,-0.3694666100994406,-2.249757871973288,3.8879845916323168,0.0
719640.0783812654,4085767.5119837918,-7500.0,-0.69926695122575855,0.76562827945028222,2.8358279318781592,-0.15458921515081905,-0.4971807912412739,0.067850623807429025,1.9722573379280515,2.2518218429876593,-0.25986440072014394,0.25986440072014394,-2.2518218429876593,3.5979649071351605,0.0
724640.0783812654,4085767.5119837918,-7500.0,-0.70389598217846971,1.2312378850045977,1.9770327772682372,-0.23237221820395179,-0.36603625332331619,0.054192922465535941,1.8596184134064815,2.047494257096997,-0.87247139017651143,0.87247139017651143,-2.047494257096997,3.292639336752055,0.0
729640.0783812654,4085767.5119837918,-7500.0,-0.60860572193726692,1.5652277163150277,0.8968503356336901,-0.28790009476752743,-0.19970861492414704,0.036365709015288718,1.7701033997780566,1.6186057851822402,-1.3924969831903566,1.3924969831903566,-1.6186057851822402,3.070754522657718,0.0
734640.0783812654,4085767.5119837918,-7500.0,-0.44418011685817604,1.708356388978256,-0.31568006919825897,-0.31170959802768333,-0.011443574306315665,0.015697605171878438,1.7394940594160784,0.98364632119727902,-1.7513953890447211,1.7513953890447211,-0.98364632119727902,3.0358247008423414,0.0
739640.0783812654,4085767.5119837918,-7500.0,-0.25964360126400077,1.6314882083884483,-1.5411164983508128,-0.29904036207649304,0.1808147033935055,-0.005935985758768538,1.7839981574835586,0.19999939874317885,-1.9051604287769974,1.9051604287769974,-0.19999939874317885,3.2223094793737466,0.0
744640.0783812654,4085767.5119837918,-7500.0,-0.109288474028991,1.3450997747994768,-2.6530881452593449,-0.25131942984980055,0.35784270794983325,-0.026457857006276973,1.8879070262009936,-0.64537415355449113,-1.8459592931332987,1.8459592931332987,0.64537415355449113,3.5623027616520346,0.0
749640.0783812654,4085767.5119837918,-7500.0,-0.037328183373497442,0.8972028508552502,-3.5450128423784801,-0.17591194891809736,0.50308720470565682,-0.044005029265268156,2.0154913888772601,-1.4547039368002783,-1.6033183990587945,1.6033183990587945,1.4547039368002783,3.9430343762216133,0.0
754640.0783812654,4085767.5119837918,-7500.0,-0.066288774948923504,0.36026199863306307,-4.1508191071903724,-0.084197451300085435,0.6058136175646861,-0.057277996693224205,2.157138757970702,-2.1411354308052122,-1.2344413523318449,1.2344413523318449,2.1411354308052122,4.2698873754821349,0.0
759640.0783812654,4085767.5119837918,-7500.0,-0.19335890652829163,-0.18755122757745737,-4.4531579040573552,0.011265491479033185,0.66248077555684082,-0.065716253440037536,2.2961861219808606,-2.6457468930971886,-0.80792751095961268,0.80792751095961268,2.6457468930971886,4.4864754149157804,0.0
764640.0783812654,4085767.5119837918,-7500.0,-0.39496070349756207,-0.67967282434434451,-4.4782408172144965,0.099440184127450357,0.67616031462319393,-0.069470711122285464,2.3606989807705303,-2.9448646138678871,-0.3873397939999077,0.3873397939999077,2.9448646138678871,4.5711372593284763,0.0
769640.0783812654,4085767.5119837918,-7500.0,-0.63633403365212948,-1.0718032887636166,-4.2815904497092978,0.17257319820650285,0.6545664288077403,-0.069222163816235013,2.3516453072107169,-3.0472798613893972,-0.019861208862149038,0.019861208862149038,3.0472798613893972,4.5274475611158342,0.0
774640.0783812654,4085767.5119837918,-7500.0,-0.8817455984905056,-1.3444371761039078,-3.931107326619371,0.22674520425029332,0.60759993134314627,-0.065935196920758568,2.2807855415410416,-2.9847116831209655,0.26795490845207315,-0.26795490845207315,2.9847116831209655,4.3744898823027967,0.0
779640.0783812654,4085767.5119837918,-7500.0,-1.1020159883765932,-1.4990535441709982,-3.4927751424241205,0.26142827390327444,0.5451932770556589,-0.06063019361343866,2.1632566206679193,-2.8001476449048344,0.46841843725470889,-0.46841843725470889,2.8001476449048344,4.1386159846045993,0.0
784640.0783812654,4085767.5119837918,-7500.0,-1.2781205070002992,-1.5511782394289377,-3.0216265146203614,0.27850380881391351,0.47587653238143218,-0.054221854267101063,2.0144338278274923,-2.5377653399923572,0.58755638511130026,-0.58755638511130026,2.5377653399923572,3.847355727346653,0.0
789640.0783812654,4085767.5119837918,-7500.0,-1.4013548191162115,-1.5232195021274963,-2.5580419122865461,0.28117828448286453,0.40611680055170829,-0.047435264607815428,1.8480288218119967,-2.2362445445862811,0.63919272869649157,-0.63919272869649157,2.2362445445862811,3.5255713963168729,0.0
794640.0783812654,4085767.5119837918,-7500.0,-1.4713785463675713,-1.4388159852667781,-2.1279871733914573,0.27307929968416644,0.34025679847728063,-0.040785534682382475,1.6751611431520648,-1.9255911607889518,0.63995383140047446,-0.63995383140047446,1.9255911607889518,3.1935382046020537,0.0
799640.0783812654,4085767.5119837918,-7500.0,-1.4934636142802113,-1.3192596515607804,-1.7454347829203194,0.25764314789054954,0.28080827384680046,-0.03459783545128773,1.5041390965689592,-1.6266405579558456,0.60587713815286015,-0.60587713815286015,1.6266405579558456,2.8664278929184137,0.0
679640.0783812654,4090767.5119837918,-7500.0,0.80769034991720734,-1.2723405628823004,2.2436701211794108,0.20052682714473652,-0.35216476209120984,0.040908531705613711,1.5277088465075161,0.39338648411801413,1.7819261887493822,-1.7819261887493822,-0.39338648411801413,3.016673672805041,0.0
684640.0783812654,4090767.5119837918,-7500.0,0.65463179631119162,-1.2379778846717655,2.5140180016619409,0.19103036961281045,-0.39438149834994513,0.045706900040578383,1.6046757712662389,0.59260664895367776,1.7808715959232857,-1.7808715959232857,-0.59260664895367776,3.1834240961646398,0.0
689640.0783812654,4090767.5119837918,-7500.0,0.46881148488666535,-1.1457340749683387,2.7658223628103382,0.17223189314165882,-0.43379788309596279,0.050255806297732353,1.6630183332731481,0.82183234192649657,1.7168179270239783,-1.7168179270239783,-0.82183234192649657,3.3173073075803492,0.0
694640.0783812654,4090767.5119837918,-7500.0,0.25788151893391259,-0.98500367721350679,2.9729986778161939,0.14270631639006609,-0.46653685368428438,0.054157160472981386,1.7139374514625283,1.0716438584839016,1.5756918597294405,-1.5756918597294405,-1.0716438584839016,3.4045942812836034,0.0
699640.0783812654,4090767.5119837918,-7500.0,0.03511784321292287,-0.74978265579771164,3.1028348345820431,0.10179042392312404,-0.48777364923734134,0.056912323609344721,1.7454377306455802,1.3251869611678861,1.3471958873379073,-1.3471958873379073,-1.3251869611678861,3.4316000063183192,0.0
704640.0783812654,4090767.5119837918,-7500.0,-0.18078986474891925,-0.4420929911432433,3.118202997462979,0.050077171855437544,-0.49206473266739614,0.057953182286414842,1.7464356261696219,1.5573348895810668,1.0284114425912858,-1.0284114425912858,-1.5573348895810668,3.387179571655841,0.0
709640.0783812654,4090767.5119837918,-7500.0,-0.36749616926809492,-0.075297026368248393,2.9821185813933311,-0.010122668458596461,-0.47400709281810777,0.056706356789842594,1.7144687059426946,1.7354702612480148,0.62754761360324562,-0.62754761360324562,-1.7354702612480148,3.2665449983624182,0.0
714640.0783812654,4090767.5119837918,-7500.0,-0.50260097082290922,0.32386859163054166,2.6646935318741161,-0.074519613904693957,-0.42923002546124195,0.052691439103174961,1.6521126434367499,1.8226822553040307,0.1667157056029086,-0.1667157056029086,-1.8226822553040307,3.0765852640166154,0.0
719640.0783812654,4090767.5119837918,-7500.0,-0.56877546654742006,0.71595219400693577,2.1515959410657111,-0.13698231005390563,-0.35559216577911307,0.045641624417409668,1.569125908000341,1.7837098158929408,-0.3177148541846323,0.3177148541846323,-1.7837098158929408,2.8425127488936193,0.0
724640.0783812654,4090767.5119837918,-7500.0,-0.5592341288293271,1.0532334912020203,1.4519777575693915,-0.19021878178937443,-0.25429981219613318,0.035619584899102205,1.4838316398233284,1.5929914157860026,-0.77843540638240016,0.77843540638240016,-1.5929914157860026,2.6139824850719662,0.0
729640.0783812654,4090767.5119837918,-7500.0,-0.48164271274511983,1.2879690231376077,0.60300308384832702,-0.22699449586457507,-0.13055136301598719,0.023089773013155689,1.4212543400674968,1.2429363038557872,-1.1645061329398974,1.1645061329398974,-1.2429363038557872,2.4629369682284299,0.0
734640.0783812654,4090767.5119837918,-7500.0,-0.35849387523111431,1.3828080873316009,-0.33169810255020216,-0.24165106893848581,0.0066601222496893986,0.0089098273313027374,1.4048773504485315,0.7496095471421933,-1.4313987868407891,1.4313987868407891,-0.7496095471421933,2.4571634125970689,0.0
739640.0783812654,4090767.5119837918,-7500.0,-0.22296260997276196,1.3202828271935423,-1.2707158112567714,-0.23148788300083531,0.14573595358137079,-0.0057763640907479794,1.4436867436523158,0.15315461917244322,-1.5509743112489995,1.5509743112489995,-0.15315461917244322,2.6127440127905581,0.0
744640.0783812654,4090767.5119837918,-7500.0,-0.1110540888396378,1.1079397416588805,-2.1291131185054213,-0.1975230897519365,0.27444509082191693,-0.01972704578793948,1.5257900233616992,-0.48818984559769141,-1.5180096775255867,1.5180096775255867,0.48818984559769141,2.8793756423775227,0.0
749640.0783812654,4090767.5119837918,-7500.0,-0.05259454274472164,0.77698473035865456,-2.8342430306800748,-0.14432976256121213,0.38214169143301191,-0.031822288579280593,1.6266888461763465,-1.1091881881290633,-1.3508569564063351,1.3508569564063351,1.1091881881290633,3.179227386972308,0.0
754640.0783812654,4090767.5119837918,-7500.0,-0.064247815748769616,0.37479162778217168,-3.3382898604410545,-0.078984937750005632,0.4615644269014661,-0.041250481637042702,1.7400249872808409,-1.6504161012493794,-1.0860374479341326,1.0860374479341326,1.6504161012493794,3.4459282843771279,0.0
759640.0783812654,4090767.5119837918,-7500.0,-0.14683078866122998,-0.046015899052009528,-3.6240117561848484,-0.0095005489460491411,0.50972097228656088,-0.04761058022616127,1.8604314096645953,-2.068764936935354,-0.76889769832403387,0.76889769832403387,2.068764936935354,3.6375415227854546,0.0
764640.0783812654,4090767.5119837918,-7500.0,-0.2872886210093199,-0.4381997465258976,-3.7029034551146753,0.05674454077383756,0.52772521843914177,-0.050912676244453448,1.9283077326597575,-2.342817484924796,-0.44366103058953532,0.44366103058953532,2.342817484924796,3.7350858178102797,0.0
769640.0783812654,4090767.5119837918,-7500.0,-0.46388681100576606,-0.76726488979024399,-3.6076684553511735,0.11413727392610355,0.51982035567752227,-0.051495400257684905,1.941146311721168,-2.4724816093557322,-0.14582685969138898,0.14582685969138898,2.4724816093557322,3.7370718540215284,0.0
774640.0783812654,4090767.5119837918,-7500.0,-0.65235368702531082,-1.0143111378521701,-3.3822681951357843,0.15933100488385685,0.49202241931610896,-0.049899854945037042,1.9055291442158491,-2.4742755868768516,0.10160845672377317,-0.10160845672377317,2.4742755868768516,3.6536187324126699,0.0
779640.0783812654,4090767.5119837918,-7500.0,-0.83100464185717737,-1.1749088662146012,-3.0726308851377424,0.19116414858806891,0.45081053356778344,-0.04674163447091649,1.8311134374116702,-2.3746205796667357,0.28825966986997553,-0.28825966986997553,2.3746205796667357,3.5012191243454205,0.0
784640.0783812654,4090767.5119837918,-7500.0,-0.98382084031444006,-1.2555360370463973,-2.719917476587975,0.21019865428179532,0.40214076056444087,-0.042609661272567247,1.7284525135032982,-2.2033296358169996,0.41397845935749922,-0.41397845935749922,2.2033296358169996,3.2985993684692159,0.0
789640.0783812654,4090767.5119837918,-7500.0,-1.1014214546085286,-1.2692398424799183,-2.3568777761271429,0.21811126638284259,0.35087714312437507,-0.038003314745056367,1.6075612061892548,-1.9886550950471502,0.48543930327083695,-0.48543930327083695,1.9886550950471502,3.0638333761852965,0.0
794640.0783812654,4090767.5119837918,-7500.0,-1.1804719814927263,-1.2317355779138299,-2.0068442947428977,0.21711737010555648,0.30059403658146361,-0.033305621539653371,1.4770730922252147,-1.7543291337576403,0.51282209577121707,-0.51282209577121707,1.7543291337576403,2.8126279809917003,0.0
689640.0783812654,4095767.5119837918,-7500.0,0.29825001364423376,-0.87446279574666441,2.3943086264707354,0.1208551243955784,-0.35369645450734294,0.038400406680170383,1.3928291718370989,0.78483804897834364,1.3704173296532778,-1.3704173296532778,-0.78483804897834364,2.778276535168263,0.0
694640.0783812654,4095767.5119837918,-7500.0,0.12839720773919816,-0.71829064743060489,2.5236578571441934,0.09437500777206502,-0.37322462240289583,0.040640561277102832,1.4242159906837406,0.9803832863123163,1.2246778522162205,-1.2246778522162205,-0.9803832863123163,2.8191504029971219,0.0
699640.0783812654,4095767.5119837918,-7500.0,-0.043720298337017009,-0.50783692835902161,2.582187855754436,0.060112669014004555,-0.38279779199017128,0.041935391936091485,1.4361076127944348,1.1698590144348484,1.012976178434905,-1.012976178434905,-1.1698590144348484,2.811039779239819,0.0
704640.0783812654,4095767.5119837918,-7500.0,-0.20392239794640232,-0.24807596527476697,2.5439479487662036,0.01898255754328006,-0.37881630814530437,0.041929524824739439,1.4244996139769055,1.3334595870655228,0.73665297791655904,-0.73665297791655904,-1.3334595870655228,2.7480678401509331,0.0
709640.0783812654,4095767.5119837918,-7500.0,-0.33657901938417867,0.047945617090890388,2.3849983828347185,-0.026949338083563007,-0.35796672462690465,0.040289308532103642,1.3890452921002814,1.4472842722650197,0.40519518805887367,-0.40519518805887367,-1.4472842722650197,2.6299871944308868,0.0
714640.0783812654,4095767.5119837918,-7500.0,-0.42723322075356834,0.3584695410640637,2.0881491241204655,-0.074400206300875016,-0.31786156253724956,0.03676296327111897,1.3332824317777852,1.4859817359995127,0.037425630221400219,-0.037425630221400219,-1.4859817359995127,2.4658727292440679,0.0
719640.0783812654,4095767.5119837918,-7500.0,-0.4658935548489424,0.65422284534247599,1.6481771696537089,-0.11906056045017774,-0.25773945452515701,0.031247504113727925,1.2659135559358115,1.426902003574458,-0.33901178506121532,0.33901178506121532,-1.426902003574458,2.2784403934554414,0.0
724640.0783812654,4095767.5119837918,-7500.0,-0.45019489790326706,0.9018793084817891,1.076213874126615,-0.1560927807558592,-0.17905303847329151,0.023846779047592734,1.2012819831338393,1.2551746322740558,-0.69042149869936242,0.69042149869936242,-1.2551746322740558,2.1072473937307934,0.0
729640.0783812654,4095767.5119837918,-7500.0,-0.38733555867255115,1.0695413535256793,0.40170266654972409,-0.18090027831991676,-0.085735151277810437,0.014901035907073829,1.1573868753685677,0.96850857246282673,-0.98202489241415847,0.98202489241415847,-0.96850857246282673,2.0047388736345577,0.0
734640.0783812654,4095767.5119837918,-7500.0,-0.29380256260361526,1.1331358429827345,-0.3293822055619593,-0.19001548632485599,0.016028052501827587,0.0049714311071922031,1.1497913761848224,0.58014839855502798,-1.1842278700438693,1.1842278700438693,-0.58014839855502798,2.0155001733613953,0.0
739640.0783812654,4095767.5119837918,-7500.0,-0.1925094026220755,1.0819500094703585,-1.0603919108322371,-0.18186772269847012,0.11856280249394627,-0.0052260858331357237,1.1833733212185118,0.11863683926559199,-1.2785568987843901,1.2785568987843901,-0.11863683926559199,2.1457123508495481,0.0
744640.0783812654,4095767.5119837918,-7500.0,-0.10792207582670003,0.92148666073524432,-1.732881704420687,-0.15718630645183115,0.21387877071819211,-0.014926761084871509,1.2490862240432108,-0.37608359583917328,-1.2614410117360018,1.2614410117360018,0.37608359583917328,2.3577581605132361,0.0
749640.0783812654,4095767.5119837918,-7500.0,-0.060603721210026738,0.67256943807075176,-2.2962656576033309,-0.11889315914137596,0.29495635544419152,-0.023437367867676223,1.3297619495253605,-0.85943724452749859,-1.1445918883830237,1.1445918883830237,0.85943724452749859,2.5967499850666593,0.0
754640.0783812654,4095767.5119837918,-7500.0,-0.062897404308289342,0.36690844203718026,-2.7156144089503598,-0.071507862434126379,0.3568069928050257,-0.030239326782029813,1.4210602680988496,-1.2899984052353832,-0.95188251542604974,0.95188251542604974,1.2899984052353832,2.8152701331072265,0.0
759640.0783812654,4095767.5119837918,-7500.0,-0.1170113990425917,0.040558247630463215,-2.9756322562006163,-0.020251560742796663,0.39704405996444825,-0.035049332944702104,1.5240747741445562,-1.6361120188815055,-0.7138298707026508,0.7138298707026508,1.6361120188815055,2.9819166160458579,0.0
764640.0783812654,4095767.5119837918,-7500.0,-0.21581061033343615,-0.27273081908185648,-3.0802277804717479,0.029883485386608538,0.4158761600520291,-0.037827338895233112,1.5898984873174893,-1.8797232452100192,-0.4614594583018814,0.4614594583018814,1.8797232452100192,3.0807574420630059,0.0
769640.0783812654,4095767.5119837918,-7500.0,-0.34565754718102021,-0.5465307372410757,-3.0485138065280046,0.074860381848921284,0.41561913466561212,-0.038738704324739928,1.6143259210014298,-2.016884778696248,-0.22123953338371893,0.22123953338371893,2.016884778696248,3.1081033149136368,0.0
774640.0783812654,4095767.5119837918,-7500.0,-0.49011711586595746,-0.76423433819983477,-2.9089285854147153,0.11198969424578435,0.39993948498616816,-0.038088720040042087,1.6008671924543303,-2.0554989728421926,-0.012086255318350725,0.012086255318350725,2.0554989728421926,3.0688747587829379,0.0
779640.0783812654,4095767.5119837918,-7500.0,-0.63336891124284789,-0.91909294302014188,-2.6932535304728096,0.13998251011745419,0.37306059057529595,-0.036250487065327075,1.5556341882325846,-2.0114912792127129,0.15541570540484351,-0.15541570540484351,2.0114912792127129,2.9732429350324385,0.0
784640.0783812654,4095767.5119837918,-7500.0,-0.76258919306958028,-1.0125028664777571,-2.4318020619041834,0.1587506754424535,0.33910458099165308,-0.033602532345937901,1.4858225186393053,-1.9046823203317946,0.27807865044146318,-0.27807865044146318,1.9046823203317946,2.8338303254730381,0.0
789640.0783812654,4095767.5119837918,-7500.0,-0.86908504158858824,-1.0514646710894804,-2.1503437668920506,0.16907525722312108,0.30165326423144434,-0.030484973549219134,1.3986637416237078,-1.7552894151650114,0.35823432786780285,-0.35823432786780285,1.7552894151650114,2.663609377597433,0.0
699640.0783812654,4100767.5119837918,-7500.0,-0.087948527147057934,-0.33354525067146329,2.1521606140828529,0.032737644306894152,-0.30196421239877591,0.031180381569099132,1.1899769970720131,1.026741791993983,0.76112190641271982,-0.76112190641271982,-1.026741791993983,2.3186070438139161,0.0
704640.0783812654,4100767.5119837918,-7500.0,-0.20704812380072057,-0.11633890364481844,2.0831926639203879,0.00019277022638590873,-0.29374943378214163,0.030672477452868278,1.1720345226334998,1.1407041200308246,0.52438296662051465,-0.52438296662051465,-1.1407041200308246,2.2487212044751388,0.0
709640.0783812654,4100767.5119837918,-7500.0,-0.30176009775289109,0.12225772881907668,1.9185950174794635,-0.034929575796317988,-0.272840050306488,0.028997929914322627,1.1369874543926939,1.2107441217236057,0.25085097299976189,-0.25085097299976189,-1.2107441217236057,2.1393465342686757,0.0
714640.0783812654,4100767.5119837918,-7500.0,-0.3628131696748535,0.36497887879626711,1.6489008062848325,-0.070164556906697956,-0.23798193425300171,0.026028254443163919,1.0885877263287278,1.2194565370204036,-0.044029647959558549,0.044029647959558549,-1.2194565370204036,2.0000642967123969,0.0
719640.0783812654,4100767.5119837918,-7500.0,-0.38457893036898816,0.59016492779998853,1.273643501658086,-0.1024807913999273,-0.1890842965759055,0.021736538087652597,1.034283186029876,1.1522521691022849,-0.33936196548469855,0.33936196548469855,-1.1522521691022849,1.8505896214932989,0.0
724640.0783812654,4100767.5119837918,-7500.0,-0.36689315811783513,0.7743368558019682,0.80376227910912712,-0.12863150035401208,-0.1275267561626072,0.016226461932902739,0.9852146193322906,1.0005672931427776,-0.61094829924468752,0.61094829924468752,-1.0005672931427776,1.7221886765618992,0.0
729640.0783812654,4100767.5119837918,-7500.0,-0.31598550977055984,0.89584326283090321,0.26232716641331338,-0.14564209527897345,-0.056254466926179532,0.0097433359242182927,0.95438029403636082,0.76467874794331792,-0.83466006722023134,0.83466006722023134,-0.76467874794331792,1.6531502416496591,0.0
734640.0783812654,4100767.5119837918,-7500.0,-0.24401996949324431,0.93885363949104028,-0.31705606143614923,-0.15133945092467208,0.020418646784367087,0.0026597838164007436,0.95218338460498819,0.45524412493115901,-0.99041362288702683,0.99041362288702683,-0.45524412493115901,1.6728723254770972,0.0
739640.0783812654,4100767.5119837918,-7500.0,-0.16712198945617604,0.89666751765294328,-0.89421950534545713,-0.14479020462865089,0.097306786613166746,-0.0045653740181340347,0.98114997000113835,0.092873012623323814,-1.0657906252669695,1.0657906252669695,-0.092873012623323814,1.7823092649664478,0.0
744640.0783812654,4100767.5119837918,-7500.0,-0.1022820233374189,0.77334735374614794,-1.4280960833154466,-0.12652072314856008,0.16906539701783257,-0.011448431662094796,1.0343541709710586,-0.29445242461736482,-1.0582950825682771,1.0582950825682771,0.29445242461736482,1.9530571702273625,0.0
749640.0783812654,4100767.5119837918,-7500.0,-0.063958831466973856,0.58311813508862809,-1.8827750647497317,-0.098446160098879451,0.23096093390616521,-0.017548888510796192,1.099528001013399,-0.67561769112291969,-0.97557836526266417,0.97557836526266417,0.67561769112291969,2.1456564514356167,0.0
754640.0783812654,4100767.5119837918,-7500.0,-0.06134371374499014,0.34766487450782013,-2.2324715114315983,-0.063522908173116177,0.27951329285825555,-0.02252831066074986,1.1736234301182595,-1.0212353466531296,-0.83358328500380963,0.83358328500380963,1.0212353466531296,2.3256562229100024,0.0
759640.0783812654,4100767.5119837918,-7500.0,-0.097009297184401683,0.092109308084828215,-2.4642847089427984,-0.025221949728659786,0.31286795497688141,-0.026186979814801007,1.2612495635998289,-1.3079045188853926,-0.65320064149313872,0.65320064149313872,1.3079045188853926,2.469349001695079,0.0
764640.0783812654,4100767.5119837918,-7500.0,-0.16716681458995516,-0.15922250381779643,-2.5783226068624434,0.013035436077899152,0.33083945705753154,-0.028472312120467778,1.3224730275078829,-1.5209050651393026,-0.45641208510721953,0.45641208510721953,1.5209050651393026,2.5636403602291216,0.0
769640.0783812654,4100767.5119837918,-7500.0,-0.26323314431482542,-0.38621563661782066,-2.5855816551064437,0.048345608976814843,0.33466827694420792,-0.029461690669749886,1.3523555198755852,-1.6549406187400204,-0.26290861903652019,0.26290861903652019,1.6549406187400204,2.6041041645368894,0.0
774640.0783812654,4100767.5119837918,-7500.0,-0.3740775735984222,-0.57496007222654311,-2.5044470266264107,0.078611478444876051,0.32659411257355581,-0.029327989021875785,1.352596093596008,-1.7131208663289219,-0.087834521106927688,0.087834521106927688,1.7131208663289219,2.5926893290719741,0.0
779640.0783812654,4100767.5119837918,-7500.0,-0.48827135902123892,-0.7182264969088592,-2.3568514916528778,0.10263344561513069,0.30937377111276793,-0.028298526896369445,1.3270206880453648,-1.7047966447748912,0.059134609342064492,-0.059134609342064492,1.7047966447748912,2.5355370200092735,0.0
709640.0783812654,4105767.5119837918,-7500.0,-0.26740450896475171,0.16478489659824605,1.5524628884210063,-0.037789123346618332,-0.20980440256375238,0.021126063378265354,0.93968750660267686,1.0167748122230469,0.14359514136215623,-0.14359514136215623,-1.0167748122230469,1.7572363971486855,0.0
714640.0783812654,4105767.5119837918,-7500.0,-0.30860002624717164,0.35558417396299657,1.3115218768871868,-0.064169392096765199,-0.17999993388737473,0.018678484962458775,0.89840914196805466,1.0073693570465045,-0.094171727936806116,0.094171727936806116,-1.0073693570465045,1.6402891501326173,0.0
719640.0783812654,4105767.5119837918,-7500.0,-0.31998498872413073,0.52863048650096511,0.99203454691861748,-0.087824852560353828,-0.14023625455642771,0.015339934335418177,0.85478677703691153,0.93877676928981979,-0.32806559412125547,0.32806559412125547,-0.93877676928981979,1.5213066835203235,0.0
724640.0783812654,4105767.5119837918,-7500.0,-0.30242188932173403,0.66722123114142018,0.60386614759035717,-0.10654973415641875,-0.091709807345051408,0.011200049867738095,0.81744303514333017,0.80617125072161033,-0.5405467700628519,0.5405467700628519,-0.80617125072161033,1.4248957971319076,0.0
729640.0783812654,4105767.5119837918,-7500.0,-0.26109712418778774,0.75643620238460818,0.16502746605181531,-0.11838544851411766,-0.036621027474386281,0.0064348850602252532,0.79580863448134209,0.61098328675335489,-0.71461733021887563,0.71461733021887563,-0.61098328675335489,1.3790610579724201,0.0
734640.0783812654,4105767.5119837918,-7500.0,-0.20505909325681973,0.78567246356885023,-0.29962835451390601,-0.12194201062541436,0.021980467300674968,0.0012956161531393936,0.79688824739548947,0.36169602895152342,-0.83638473825804671,0.83638473825804671,-0.36169602895152342,1.403190317961756,0.0
739640.0783812654,4105767.5119837918,-7500.0,-0.14585278725689532,0.75066768233831593,-0.76112715388212704,-0.11665449272889845,0.080521831579800335,-0.0039172949139175649,0.8218620806174185,0.073407884042377802,-0.89732131142085714,0.89732131142085714,-0.073407884042377802,1.4956000522839097,0.0
744640.0783812654,4105767.5119837918,-7500.0,-0.095509863892575014,0.65445688223697884,-1.1900644121218642,-0.10290624655102522,0.13535160606240493,-0.0088904752230257976,0.86538862492030777,-0.23390096049149511,-0.89564720235204665,0.89564720235204665,0.23390096049149511,1.6346354070638274,0.0
749640.0783812654,4105767.5119837918,-7500.0,-0.064380237329082449,0.50696388631099309,-1.5604980889983522,-0.081981607664651013,0.18321256540720512,-0.013337335415087623,0.91854727343186626,-0.53809189424234194,-0.83646762071199043,0.83646762071199043,0.53809189424234194,1.7914354108087602,0.0
754640.0783812654,4105767.5119837918,-7500.0,-0.059358824548548524,0.3233099878362054,-1.8531883605762436,-0.055857010541994517,0.22164101644033429,-0.017032649663420982,0.97914420989487372,-0.81797782057933022,-0.73063949132113604,0.73063949132113604,0.81797782057933022,1.9405834519937244,0.0
759640.0783812654,4105767.5119837918,-7500.0,-0.082932712046223947,0.12127899451929008,-2.0575147593638468,-0.026883076859850624,0.24921138612781732,-0.019835068460332731,1.0535206852253303,-1.0561135813520139,-0.59269395858779761,0.59269395858779761,1.0561135813520139,2.0640154738747301,0.0
764640.0783812654,4105767.5119837918,-7500.0,-0.13320635886671622,-0.08142281528323167,-2.1718011402432316,0.0025643857156256535,0.26559118833328915,-0.021694224074228434,1.1091498216361486,-1.2406945558712139,-0.43837206582628724,0.43837206582628724,1.2406945558712139,2.1510826310578506,0.0
769640.0783812654,4105767.5119837918,-7500.0,-0.20476948090278699,-0.26950242359726245,-2.202188663154236,0.030388756079230601,0.27141968696448376,-0.022643032588456079,1.1408805101719539,-1.366277231782695,-0.28234801698920586,0.28234801698920586,1.366277231782695,2.1973409685659235,0.0
729640.0783812654,4110767.5119837918,-7500.0,-0.21822937905892575,0.64355141007807037,0.096708266643839316,-0.097097030273345292,-0.023417763360720351,0.0042787752755697756,0.6702470693972028,0.49348830647083497,-0.61601611389504918,0.61601611389504918,-0.49348830647083497,1.1623352924939316,0.0
734640.0783812654,4110767.5119837918,-7500.0,-0.17410859479477458,0.66344660617787499,-0.27999054803200052,-0.09929613229105709,0.021958257816747217,0.00049229641794705948,0.67326176150583705,0.29061168013285171,-0.71249150855796839,0.71249150855796839,-0.29061168013285171,1.1881470453196947,0.0
739640.0783812654,4110767.5119837918,-7500.0,-0.12793890273442726,0.63420733694248921,-0.65323865737962794,-0.095004490683727433,0.067147429337251999,-0.0033309192696733382,0.6948180275839213,0.058533482487577337,-0.76227514051958134,0.76227514051958134,-0.058533482487577337,1.2665639562056896,0.0
744640.0783812654,4110767.5119837918,-7500.0,-0.088391840249308407,0.55812705657159623,-1.001621817967884,-0.084504040447292442,0.10960684069049645,-0.0069834065710758083,0.73076445049621919,-0.1882327140350889,-0.76407483559705847,0.76407483559705847,0.1882327140350889,1.3809207646776551,0.0
749640.0783812654,4110767.5119837918,-7500.0,-0.062997670885947529,0.44226125316166842,-1.306099534997611,-0.068674020510534006,0.14705366623961441,-0.01027468868278417,0.77451164833611719,-0.43365972039166933,-0.72136211344602941,0.72136211344602941,0.43365972039166933,1.5097780461232484,0.0
709640.0783812654,3920767.5119837918,-12500.0,-0.085638934696635874,-0.26018480088793883,-2.3925113557481237,-0.063516572728458259,-0.53315564865078335,-0.088928607775546217,1.2840279717527556,-0.95375136511123193,-0.71150940724953471,0.71150940724953471,0.95375136511123193,2.5262697058695878,0.0
714640.0783812654,3920767.5119837918,-12500.0,-0.016526392411564495,-0.052854157090406292,-2.3561415696990959,-0.016011679324521924,-0.52795758535627479,-0.088621361240305258,1.2514783036002548,-0.81712310327051463,-0.87920989038891784,0.87920989038891784,0.81712310327051463,2.4810662672008701,0.0
719640.0783812654,3920767.5119837918,-12500.0,0.025686396433718412,0.16579379155447799,-2.2340988856000883,0.033868330476021148,-0.50530715893899403,-0.085718789266651205,1.1987765427463846,-0.63984737052940677,-1.0291174205447848,1.0291174205447848,0.63984737052940677,2.3914846324650147,0.0
724640.0783812654,3920767.5119837918,-12500.0,0.036488102579900719,0.37931095234180606,-2.0225273791061005,0.082683650146880477,-0.46436602625177897,-0.080074132501511283,1.1497484076310078,-0.43047598325098835,-1.1452395647535623,1.1452395647535623,0.43047598325098835,2.2610120819164239,0.0
729640.0783812654,3920767.5119837918,-12500.0,0.015424592182594704,0.56962683189997521,-1.72556055486682,0.12666764622981647,-0.40585724069342421,-0.071763428558400399,1.0875103505945736,-0.20197137719076308,-1.2124244251110796,1.2124244251110796,0.20197137719076308,2.0982270001675101,0.0
734640.0783812654,3920767.5119837918,-12500.0,-0.033336489728961416,0.71951110603978274,-1.3558993984953231,0.16221461596596487,-0.33218427939815343,-0.061105587743297884,1.0179776431969172,0.029583803493436478,-1.218770715225606,1.218770715225606,-0.029583803493436478,1.9173643414557269,0.0
739640.0783812654,3920767.5119837918,-12500.0,-0.10134821607833643,0.81520247067739138,-0.93395909529302412,0.18640092214637474,-0.24727853815129625,-0.048644405065404406,0.94924564688828117,0.24701851769378003,-1.1578062767935702,1.1578062767935702,-0.24701851769378003,1.7381718777280735,0.0
744640.0783812654,3920767.5119837918,-12500.0,-0.17715184245252047,0.84860314602612519,-0.48560044932072105,0.19742489064356544,-0.15617632894787029,-0.035091959904771854,0.89011649165050888,0.43445958348744967,-1.0298862518189884,1.0298862518189884,-0.43445958348744967,1.5841794481737888,0.0
749640.0783812654,3920767.5119837918,-12500.0,-0.24820954555704397,0.81850086035917657,-0.038848989546841774,0.19486178081121538,-0.064398262850107274,-0.021242824288049675,0.84803796365338302,0.57954784243174184,-0.84241810303466103,0.84241810303466103,-0.57954784243174184,1.4778408509981833,0.0
754640.0783812654,3920767.5119837918,-12500.0,-0.30303534523037834,0.73052838100122153,0.3797083895060977,0.17967587040684441,0.022741719437110865,-0.0078763962692710611,0.82666460521171059,0.67498674812027426,-0.60882379045735102,0.60882379045735102,-0.67498674812027426,1.4321860382967624,0.0
759640.0783812654,3920767.5119837918,-12500.0,-0.33300639857560321,0.59591750053466408,0.74808552624426294,0.15399647121578974,0.10075450412690493,0.0043326186110490056,0.82448495069732242,0.71911457122707112,-0.34649113465775916,0.34649113465775916,-0.71911457122707112,1.4438888555206686,0.0
764640.0783812654,3920767.5119837918,-12500.0,-0.33346024160294097,0.42941758743765357,1.0510174100177623,0.12072446479751671,0.1664056819013103,0.014878958810139339,0.83573952151831854,0.71546824894973982,-0.074217706148451135,0.074217706148451135,-0.71546824894973982,1.4952741767106299,0.0
699640.0783812654,3925767.5119837918,-12500.0,-0.36221375206080225,-0.76298891429041849,-2.578699867875069,-0.19187487155189062,-0.604222049666294,-0.10644205533621547,1.4957859527237816,-1.2801361312802304,-0.37863881162252366,0.37863881162252366,1.2801361312802304,2.9150130843530162,0.0
704640.0783812654,3925767.5119837918,-12500.0,-0.23513579983924682,-0.59361441729421649,-2.7292850506893642,-0.14980013288596383,-0.63947774902237886,-0.11261877598461752,1.52423035730555,-1.2389771023921319,-0.57411752755976198,0.57411752755976198,1.2389771023921319,2.9820490427044635,0.0
709640.0783812654,3925767.5119837918,-12500.0,-0.1183497551233382,-0.3781192531961009,-2.8072778728883887,-0.097447874657876243,-0.65915891783122482,-0.11637784417803941,1.5249996581942942,-1.1423108469295911,-0.78591811786512888,0.78591811786512888,1.1423108469295911,2.9994204187367353,0.0
714640.0783812654,3925767.5119837918,-12500.0,-0.024182470512647776,-0.12629757387951021,-2.7918547436234671,-0.037058475272544134,-0.65886235193095888,-0.11702201925234497,1.4943450341052693,-0.98755174172052662,-0.99898519825712606,0.99898519825712606,0.98755174172052662,2.9607349708999169,0.0
719640.0783812654,3925767.5119837918,-12500.0,0.036348884976203991,0.14546363398818404,-2.6669861638730756,0.027736357033039321,-0.63517385952969663,-0.11399736696163155,1.4356120719952796,-0.77815338886065977,-1.1937714310487872,1.1937714310487872,0.77815338886065977,2.8636187783842857,0.0
724640.0783812654,3925767.5119837918,-12500.0,0.055864297582016408,0.41524868894150718,-2.4250243370187166,0.092144764585693303,-0.58639637236291553,-0.10700430930509557,1.3779263919010591,-0.52450022069057922,-1.3482044216261202,1.3482044216261202,0.52450022069057922,2.7113878798738273,0.0
729640.0783812654,3925767.5119837918,-12500.0,0.032655354752499213,0.65812736468902067,-2.0695718128256089,0.15073978348685618,-0.51313480838601666,-0.09608901139101314,1.3026919422303473,-0.24358299159458563,-1.440773682106697,1.440773682106697,0.24358299159458563,2.514511602260816,0.0
734640.0783812654,3925767.5119837918,-12500.0,-0.028228529702794151,0.8498206012517131,-1.6167180714914429,0.19821734774126445,-0.41855775058156264,-0.081688086785374606,1.216824224352528,0.042763534406114023,-1.4542246513256893,1.4542246513256893,-0.042763534406114023,2.2915637208615762,0.0
739640.0783812654,3925767.5119837918,-12500.0,-0.11533108426856939,0.97076886658759842,-1.0940096711898308,0.2302378950399811,-0.3082096893146643,-0.064607099051766259,1.1312258228597578,0.31087364384103344,-1.379006318249457,1.379006318249457,-0.31087364384103344,2.0691089524373596,0.0
744640.0783812654,3925767.5119837918,-12500.0,-0.21266302664221562,1.0095884920211959,-0.53710220726143065,0.24414957487684555,-0.18935997051252493,-0.045929274119879258,1.0579153886848618,0.53889583526685025,-1.215524693459815,1.215524693459815,-0.53889583526685025,1.8791916607682688,0.0
749640.0783812654,3925767.5119837918,-12500.0,-0.30268420973735377,0.96497991003262051,0.015261220035864467,0.23940487875538424,-0.070009726569336156,-0.026870939156047866,1.0069318029408934,0.71018585461538064,-0.97450636133110835,0.97450636133110835,-0.71018585461538064,1.7520489551803557,0.0
754640.0783812654,3925767.5119837918,-12500.0,-0.36959752454878986,0.84558620590623723,0.5267760868846918,0.21756589412961652,0.042217944078025482,-0.0086158539127531436,0.98273581706897106,0.81560323127161716,-0.67531420478807125,0.67531420478807125,-0.81560323127161716,1.7037073951147454,0.0
759640.0783812654,3925767.5119837918,-12500.0,-0.40207128097725703,0.66792287835840791,0.9683121959221076,0.18191444734213999,0.14105048987605467,0.007834023512194508,0.98243608921263126,0.85420965360866008,-0.34266964386136728,0.34266964386136728,-0.85420965360866008,1.7267232004243152,0.0
764640.0783812654,3925767.5119837918,-12500.0,-0.39474660030680453,0.45304914528319429,1.3208807301297461,0.13679336925691535,0.22220330945306674,0.021761114723735601,0.99757286577961757,0.83236606496647036,-0.0026683438925910186,0.0026683438925910186,-0.83236606496647036,1.795077878064318,0.0
769640.0783812654,3925767.5119837918,-12500.0,-0.34832654095637028,0.22291543446271889,1.5764527835824431,0.086861453937719588,0.28359704841648437,0.032773773890998614,1.0180518793277018,0.76166866208343209,0.32092919026364952,-0.32092919026364952,-0.76166866208343209,1.8786882015046202,0.0
774640.0783812654,3925767.5119837918,-12500.0,-0.26847981129644516,-0.0027593734646227286,1.7368643559498393,0.036434586493246664,0.32518944180982573,0.04078998614915786,1.0353804108501183,0.65639014356583281,0.60938508153109017,-0.60938508153109017,-0.65639014356583281,1.9539985801443334,0.0
689640.0783812654,3930767.5119837918,-12500.0,-0.77510869618123934,-1.1635575028416365,-2.3763694245990821,-0.31387599692060136,-0.5939769471083457,-0.11244909825006034,1.5870533801528337,-1.3897223432381582,-0.013544702887929527,0.013544702887929527,1.3897223432381582,3.0789321048464608,0.0
694640.0783812654,3930767.5119837918,-12500.0,-0.63951700516984156,-1.1025281081640177,-2.6772030207317008,-0.29482250723144665,-0.66631532940996707,-0.12536187464325219,1.6830197093962498,-1.4668010198247594,-0.16771770181288614,0.16771770181288614,1.4668010198247594,3.2716357514816079,0.0
699640.0783812654,3930767.5119837918,-12500.0,-0.48473925742509166,-0.98066306294401184,-2.9514720914152668,-0.26108538617187171,-0.73248327458410456,-0.13728217984440477,1.7595010617862659,-1.498992370187139,-0.36453629045011882,0.36453629045011882,1.498992370187139,3.4295441657804555,0.0
704640.0783812654,3930767.5119837918,-12500.0,-0.32239801064405366,-0.79278344354095454,-3.1717738413479828,-0.21167035042062618,-0.78633679499590758,-0.14719621766808266,1.8089660242201768,-1.4722336584753437,-0.60000256771908289,0.60000256771908289,1.4722336584753437,3.5388925512872338,0.0
709640.0783812654,3930767.5119837918,-12500.0,-0.16791408568903632,-0.54044262462892378,-3.307318997012608,-0.14712911719040406,-0.82101520877839373,-0.15396708921575886,1.8241214705773376,-1.3750708125213862,-0.86320684735933539,0.86320684735933539,1.3750708125213862,3.5865326608353896,0.0
714640.0783812654,3930767.5119837918,-12500.0,-0.038742914915738495,-0.2341207329599137,-3.3275818411374689,-0.07001893587047299,-0.8297316855609298,-0.15645945189561344,1.7990495314666848,-1.2015390490412572,-1.1354153356949617,1.1354153356949617,1.2015390490412572,3.5619766217155484,0.0
719640.0783812654,3930767.5119837918,-12500.0,0.048552094118171484,0.10578210584296961,-3.2073837622070225,0.014903780586791654,-0.8068619168259118,-0.15371273012125469,1.7355740609192256,-0.95393284471701156,-1.3906273051691924,1.3906273051691924,0.95393284471701156,3.4598818555209703,0.0
724640.0783812654,3930767.5119837918,-12500.0,0.081936622394525566,0.44995573938651956,-2.9325922337755448,0.10092083619098612,-0.74915885305240981,-0.14513662637604313,1.6672503258673508,-0.64461070297148337,-1.5981059493090632,1.5981059493090632,0.64461070297148337,3.2826940358765642,0.0
729640.0783812654,3930767.5119837918,-12500.0,0.057335959393773422,0.76360630071706359,-2.5050402225487076,0.18010310652484615,-0.65680421716629633,-0.13068406998666129,1.5757260955155095,-0.29596303211309904,-1.7268840778605561,1.7268840778605561,0.29596303211309904,3.0430438146218313,0.0
734640.0783812654,3930767.5119837918,-12500.0,-0.019297723371784658,1.0119706809576945,-1.9450416692049746,0.24450383353817712,-0.53396110178761569,-0.11094865104775117,1.4685926926606725,0.061969272268773579,-1.7515112153618593,1.7515112153618593,-0.061969272268773579,2.7653819165208136,0.0
739640.0783812654,3930767.5119837918,-12500.0,-0.1322293403454686,1.1667346152663627,-1.29025911849455,0.28754718104943783,-0.38856865750102904,-0.087144224666872355,1.3607252151546536,0.39603059844273003,-1.6576246894312994,1.6576246894312994,-0.39603059844273003,2.4859789776645349,0.0
744640.0783812654,3930767.5119837918,-12500.0,-0.25875208636919589,1.2116035091684798,-0.59068604550360015,0.30524777501056288,-0.23132287179367911,-0.060955166945520591,1.2688074510145595,0.67563790463614204,-1.4456698243626662,1.4456698243626662,-0.67563790463614204,2.2492149530243819,0.0
749640.0783812654,3930767.5119837918,-12500.0,-0.37389421367214321,1.1453530599418849,0.099210906469312271,0.29690957723416483,-0.074048246904919568,-0.03428601423962712,1.206567138753097,0.87809162956154929,-1.1315010186611361,1.1315010186611361,-0.87809162956154929,2.096403592192166,0.0
754640.0783812654,3930767.5119837918,-12500.0,-0.45562586190547238,0.98146661806114899,0.72915390428131455,0.26510827913909185,0.072129009703795446,-0.0089726213279635262,1.1793673992318845,0.99203717559804705,-0.74357770861370653,0.74357770861370653,-0.99203717559804705,2.0470226276174883,0.0
759640.0783812654,3930767.5119837918,-12500.0,-0.48901794473543703,0.74461779779683102,1.2602659287878726,0.21499597418663521,0.19834208393088409,0.013472677866762723,1.1819783522479796,1.0182466120989173,-0.3175992170995684,0.3175992170995684,-1.0182466120989173,2.086515684381038,0.0
764640.0783812654,3930767.5119837918,-12500.0,-0.46828602597529029,0.46524551332017999,1.669211106701717,0.1531740584955677,0.29893289338260681,0.032025477170949779,1.2019296026920532,0.96781381927250787,0.1098167041710596,-0.1098167041710596,-0.96781381927250787,2.1766076478737371,0.0
769640.0783812654,3930767.5119837918,-12500.0,-0.39648758204101353,0.17387585970494662,1.9487749535784011,0.086473877455563328,0.37166806362762062,0.046200408722285632,1.2255378034467803,0.85862993726740278,0.5067190945316834,-0.5067190945316834,-0.85862993726740278,2.2771808327871921,0.0
774640.0783812654,3930767.5119837918,-12500.0,-0.28341240186807787,-0.10340458940349101,2.1054882142574374,0.020944838649929885,0.41732410124272284,0.05600114260441659,1.2421966475811335,0.71133249088759887,0.84950067111318894,-0.84950067111318894,-0.71133249088759887,2.3594690684444308,0.0
779640.0783812654,3930767.5119837918,-12500.0,-0.14260901990614469,-0.34758149088825341,2.1555352003142385,-0.038778766359948466,0.43888319650882257,0.061804322077443623,1.245703592665258,0.54577135745436722,1.1242883904747631,-1.1242883904747631,-0.54577135745436722,2.4079629914134153,0.0
784640.0783812654,3930767.5119837918,-12500.0,0.011531997090947608,-0.54741902005410514,2.1202638486398788,-0.08970625673931644,0.44060845050036318,0.064218726384343519,1.2337545459743571,0.37859798746710843,1.3263667531229653,-1.3263667531229653,-0.37859798746710843,2.4174315992325872,0.0
684640.0783812654,3935767.5119837918,-12500.0,-1.1192672521512563,-1.3915295174367617,-2.2317813066750554,-0.40553775905600931,-0.59948300497009799,-0.12289671086737232,1.6885869541485421,-1.4167039824892986,0.17923563998006409,-0.17923563998006409,1.4167039824892986,3.274065277791653,0.0
689640.0783812654,3935767.5119837918,-12500.0,-1.0014025578142303,-1.4136192197531234,-2.6131273747880326,-0.40629751369083306,-0.69694056195428267,-0.14140581013721246,1.8335346966722559,-1.566802034981412,0.064245496247046341,-0.064245496247046341,1.566802034981412,3.5595924959697132,0.0
694640.0783812654,3935767.5119837918,-12500.0,-0.8445219849900788,-1.374677189929207,-3.0025716839600305,-0.39100283051775275,-0.79613341600635223,-0.16026881384269129,1.966805971671532,-1.6860888530818006,-0.10390712608254937,0.10390712608254937,1.6860888530818006,3.8250987273092583,0.0
699640.0783812654,3935767.5119837918,-12500.0,-0.65572187589900377,-1.2593706551011072,-3.3734544902325125,-0.35613548625564867,-0.89064628065548468,-0.17836130532549585,2.0790563324592202,-1.7551701597991651,-0.32996495242810397,0.32996495242810397,1.7551701597991651,4.0533412458158704,0.0
704640.0783812654,3935767.5119837918,-12500.0,-0.44873531542380912,-1.0567378683954607,-3.6901878836774737,-0.2993123126306681,-0.97202361356336964,-0.19420096520803851,2.1597447675684966,-1.7535633557238108,-0.61221333082981366,0.61221333082981366,1.7535633557238108,4.2249498903357425,0.0
709640.0783812654,3935767.5119837918,-12500.0,-0.24375055357674236,-0.76426052355050023,-3.9102728113611347,-0.22021412405551904,-1.0302526391408986,-0.20602643027903619,2.1981148890641546,-1.6629751269180499,-0.93947947211469462,0.93947947211469462,1.6629751269180499,4.3203184651455286,0.0
714640.0783812654,3935767.5119837918,-12500.0,-0.065396770354126083,-0.39183361840814501,-3.9890110583316494,-0.1214701908472872,-1.0548460792119578,-0.21197767759792752,2.1848632869029818,-1.4716712251811022,-1.2889734525134811,1.2889734525134811,1.4716712251811022,4.3225079096524164,0.0
719640.0783812654,3935767.5119837918,-12500.0,0.061354539444853758,0.035729224193546252,-3.8869237504079059,-0.0091955520416737539,-1.0365200002924562,-0.21037842112187979,2.1194387602276619,-1.1791131642252279,-1.6261926562817461,1.6261926562817461,1.1791131642252279,4.2210268237803508,0.0
724640.0783812654,3935767.5119837918,-12500.0,0.11686966015242588,0.47919151361766488,-3.5788251268161266,0.10715326038950392,-0.96923172833974147,-0.20008327532763462,2.0385561317091132,-0.79946035845142394,-1.907986975125989,1.907986975125989,0.79946035845142394,4.0160686278791502,0.0
729640.0783812654,3935767.5119837918,-12500.0,0.092685967095736732,0.88943361988743586,-3.0623181759450162,0.21582631144662456,-0.85208968647842043,-0.18080963493141264,1.9265187235555663,-0.36231976352955075,-2.0891220614266439,2.0891220614266439,0.36231976352955075,3.7225208143861703,0.0
734640.0783812654,3935767.5119837918,-12500.0,-0.0045588967729120293,1.2158208816935907,-2.3627955721810796,0.30468007564538691,-0.69050132453894353,-0.15334871099414193,1.7913560471194492,0.090392923225553812,-2.1313524254095877,2.1313524254095877,-0.090392923225553812,3.3728421785454126,0.0
739640.0783812654,3935767.5119837918,-12500.0,-0.15296776863439907,1.4165359780159876,-1.5324777702796761,0.36352122741871729,-0.49601968680503972,-0.11956284645699428,1.6536486078108541,0.51138483255385203,-2.0126282811723777,2.0126282811723777,-0.51138483255385203,3.0173694381365728,0.0
744640.0783812654,3935767.5119837918,-12500.0,-0.31966262181905264,1.4677874123912207,-0.64277201655862204,0.38622109864558113,-0.28471970598214041,-0.08213523930708376,1.5369835749273371,0.85706771462703979,-1.7334000285239022,1.7334000285239022,-0.85706771462703979,2.7187243470371336,0.0
749640.0783812654,3935767.5119837918,-12500.0,-0.46840170687142063,1.3688136164997333,0.22832625636729198,0.3719221611684933,-0.074455559799428736,-0.044123445743500099,1.4604265860018428,1.0960747608277941,-1.3176375723080105,1.3176375723080105,-1.0960747608277941,2.5342447971945177,0.0
754640.0783812654,3935767.5119837918,-12500.0,-0.56801419487765448,1.1410423596347774,1.0101397077918393,0.32495817575447566,0.11822842283113927,-0.0084401447522831317,1.4302295467652133,1.2145659110164979,-0.80802896579961903,0.80802896579961903,-1.2145659110164979,2.4870181371179996,0.0
759640.0783812654,3935767.5119837918,-12500.0,-0.5988595686147401,0.82196689548967483,1.650482922750782,0.2535799685771491,0.280657557441991,0.022593363777363002,1.4371965857112856,1.2169208974198924,-0.2569793466879553,0.2569793466879553,-1.2169208974198924,2.5502917539586356,0.0
764640.0783812654,3935767.5119837918,-12500.0,-0.55551399300026338,0.45612664763909816,2.12137011068695,0.16798180740476837,0.40543860293657286,0.047512877246802553,1.4628783851830065,1.1221822197228355,0.28360313678591931,-0.28360313678591931,-1.1221822197228355,2.6677830625675858,0.0
769640.0783812654,3935767.5119837918,-12500.0,-0.44551643783382638,0.086184866940746965,2.4187297933986374,0.078275625813435751,0.49056567696955072,0.0657615469768216,1.4887863319573296,0.95798262123813149,0.77076196820634291,-0.77076196820634291,-0.95798262123813149,2.7863083775302764,0.0
774640.0783812654,3935767.5119837918,-12500.0,-0.28538339312092631,-0.25358150201171392,2.5575582367916065,-0.0070620529814935679,0.5384886803218234,0.07756127968544009,1.5019162082931277,0.75411478190549719,1.1753734704853722,-1.1753734704853722,-0.75411478190549719,2.8714431834359453,0.0
779640.0783812654,3935767.5119837918,-12500.0,-0.095663613962348543,-0.54041501238082656,2.5648827906163869,-0.08202421718192851,0.55463549672381984,0.083682173634449061,1.4957462175351501,0.53742446519233988,1.4831725256460433,-1.4831725256460433,-0.53742446519233988,2.9073536021938264,0.0
784640.0783812654,3935767.5119837918,-12500.0,0.1034421827128348,-0.76313704481480382,2.4727709358965404,-0.14321823734167505,0.545874597981444,0.085190276556116579,1.4689399133159085,0.32880371382886486,1.6928171093257054,-1.6928171093257054,-0.32880371382886486,2.891349634165838,0.0
789640.0783812654,3935767.5119837918,-12500.0,0.29505241449164049,-0.92016064364146888,2.3128192968216941,-0.18952217350556505,0.51924968620937628,0.083231322298000884,1.4236951794679655,0.14221986694867772,1.8123696080420886,-1.8123696080420886,-0.14221986694867772,2.8284908439466148,0.0
794640.0783812654,3935767.5119837918,-12500.0,0.46701046449508105,-1.0166140238770687,2.1126551013796973,-0.22149820042613325,0.48112888593515829,0.078878116549448429,1.3681089408338472,-0.014772677850160676,1.8554616651701328,-1.8554616651701328,0.014772677850160676,2.7275763052346118,0.0
674640.0783812654,3940767.5119837918,-12500.0,-1.5032916618577241,-1.3792139507336045,-1.5811451612790446,-0.45023579066993469,-0.46720184944229409,-0.10707087673080051,1.5498299820970551,-1.131651589392539,0.35266953534522527,-0.35266953534522527,1.131651589392539,3.0056375686269194,0.0
679640.0783812654,3940767.5119837918,-12500.0,-1.4848755258653195,-1.5226228767957102,-1.9508581098733135,-0.4859730534068506,-0.56979590594511742,-0.12819538174684933,1.7349724629801728,-1.336812125468966,0.33441266250624857,-0.33441266250624857,1.336812125468966,3.3656445037029474,0.0
684640.0783812654,3940767.5119837918,-12500.0,-1.4189097981994574,-1.6391987152247116,-2.3753929167375882,-0.51300769429966842,-0.68651039935600888,-0.15207033369286777,1.9273383263224388,-1.5485483719105415,0.27690637626607972,-0.27690637626607972,1.5485483719105415,3.7410947995292867,0.0
689640.0783812654,3940767.5119837918,-12500.0,-1.2988005210706599,-1.7090456213867193,-2.8465514520409902,-0.52614202033854096,-0.81503610138786986,-0.17825705098992353,2.1202118204067437,-1.7526245552529893,0.16624994868138054,-0.16624994868138054,1.7526245552529893,4.1196251572209839,0.0
694640.0783812654,3940767.5119837918,-12500.0,-1.1225922206835657,-1.7089182419264783,-3.3461201383784918,-0.51947136181634079,-0.95054631827805247,-0.20584861683358552,2.3041439999900986,-1.9288501388704478,-0.011286787233576123,0.011286787233576123,1.9288501388704478,4.4837786856715374,0.0
699640.0783812654,3940767.5119837918,-12500.0,-0.89568706082215821,-1.6147991269799788,-3.8431076005954248,-0.48706447474514908,-1.0850578494751515,-0.23335127166482963,2.4668740812769361,-2.0514381270371138,-0.26623823402823721,0.26623823402823721,2.0514381270371138,4.8108870621071924,0.0
704640.0783812654,3940767.5119837918,-12500.0,-0.63320144465033945,-1.4063882068628004,-4.2923094305021348,-0.42409042851218248,-1.2071278767333764,-0.25862544437473178,2.5937635974406583,-2.0910532853449348,-0.60162241164666019,0.60162241164666019,2.0910532853449348,5.0739340790218659,0.0
709640.0783812654,3940767.5119837918,-12500.0,-0.36085519797052756,-1.0733450214404288,-4.635676971574104,-0.32833713979824886,-1.3022296575866512,-0.27894798918356989,2.6690030728177345,-2.0190879897335066,-1.0078714878400261,1.0078714878400261,2.0190879897335066,5.2438515794236933,0.0
714640.0783812654,3940767.5119837918,-12500.0,-0.11310837062980482,-0.62221592538053905,-4.8079627134547733,-0.20185593060915058,-1.3541404700189594,-0.29125634996549393,2.6779926737260009,-1.8141526508818175,-1.4583664285413847,1.4583664285413847,1.8141526508818175,5.2935621135131159,0.0
719640.0783812654,3940767.5119837918,-12500.0,0.072340331309795919,-0.081885190365005633,-4.7473141113804376,-0.052220700974218583,-1.3474838187995113,-0.29260248103623127,2.6160814720141206,-1.469754527321887,-1.9076900504119725,1.9076900504119725,1.469754527321887,5.2037283211356193,0.0
724640.0783812654,3940767.5119837918,-12500.0,0.16336845381532586,0.49532161532880475,-4.4097024708195516,0.10726109574419292,-1.27115697722138,-0.28077260586715036,2.5213488705790343,-1.0009272171968728,-2.2948703351869995,2.2948703351869995,1.0009272171968728,4.9696293538048328,0.0
729640.0783812654,3940767.5119837918,-12500.0,0.14342528183778888,1.0393017413700016,-3.7837031791249354,0.25893380727398951,-1.1218378832312694,-0.25493358459939602,2.3834025021605769,-0.44682142772110445,-2.5528389126705058,2.5528389126705058,0.44682142772110445,4.6080111198391291,0.0
734640.0783812654,3940767.5119837918,-12500.0,0.019036538439136302,1.4749412594618048,-2.9003591936286663,0.3838431401507828,-0.90636333161399185,-0.21609231452106445,2.2108022553201265,0.13321090064864083,-2.6229540821697537,2.6229540821697537,-0.13321090064864083,4.1622792001601816,0.0
739640.0783812654,3940767.5119837918,-12500.0,-0.17891471849377613,1.7391069969297113,-1.8331550133879972,0.46578855942492453,-0.64183378484406906,-0.16716005472383647,2.0324576547740447,0.67036659650407426,-2.470585500581679,2.470585500581679,-0.67036659650407426,3.7035526690622471,0.0
744640.0783812654,3940767.5119837918,-12500.0,-0.4017899447793884,1.7962943818310468,-0.68619504610549242,0.49510288222323529,-0.35298183442719822,-0.11252701658323813,1.8824011943713144,1.1012661675227575,-2.0961100454966051,2.0961100454966051,-1.1012661675227575,3.3220500888080871,0.0
749640.0783812654,3940767.5119837918,-12500.0,-0.59586784392447589,1.6470719379201839,0.4265479671897609,0.47080219661984984,-0.067413092178846237,-0.057239432048766775,1.787555325234405,1.3819822489208242,-1.5366879372315099,1.5366879372315099,-1.3819822489208242,3.0986913460925845,0.0
754640.0783812654,3940767.5119837918,-12500.0,-0.71638010216232528,1.3262046277637933,1.4041513098410947,0.40034730046835498,0.18977449810815986,-0.006034392500215988,1.7547497045739584,1.496307656919885,-0.85778241278778244,0.85778241278778244,-1.496307656919885,3.0594553785417484,0.0
759640.0783812654,3940767.5119837918,-12500.0,-0.73770758141134296,0.89170372512488494,2.1763563212708115,0.29723819318325473,0.40028229081521982,0.037464348625689606,1.768034104181855,1.4558582059185832,-0.1376507310959556,0.1376507310959556,-1.4558582059185832,3.1567222522777136,0.0
764640.0783812654,3940767.5119837918,-12500.0,-0.65666929062183033,0.40951923428477122,2.7112010712523378,0.17747261483659696,0.55468388113954037,0.071176806793645533,1.800033382249703,1.2930796464645375,0.54946392158244894,-0.54946392158244894,-1.2930796464645375,3.3078164455133336,0.0
769640.0783812654,3940767.5119837918,-12500.0,-0.48910830304255937,-0.060597872347762517,3.0124138975120101,0.056134128844312861,0.65212627855816019,0.094577003311822061,1.8259497191875682,1.050689386663259,1.146132946120352,-1.146132946120352,-1.050689386663259,3.4429398305393115,0.0
774640.0783812654,3940767.5119837918,-12500.0,-0.26244366174211331,-0.47427023961953924,3.1098468223242146,-0.054969102822108901,0.69832797883425457,0.10838474837386491,1.8303234219626983,0.77148597114620632,1.6178220441573647,-1.6178220441573647,-0.77148597114620632,3.5222383771470702,0.0
779640.0783812654,3940767.5119837918,-12500.0,-0.007513740170368384,-0.80567782098080176,3.0474836913284902,-0.14830162709097705,0.70287831613494822,0.11410874409572482,1.8070719458435387,0.49117169137719496,1.952509360862754,-1.952509360862754,-0.49117169137719496,3.5315278721016723,0.0
784640.0783812654,3940767.5119837918,-12500.0,0.24783479265121158,-1.0459449239017209,2.8727310236543211,-0.22044079912597531,0.67670614037811194,0.11359644190279346,1.7568472683103069,0.23498617109394659,2.1560077303885707,-2.1560077303885707,-0.23498617109394659,3.4730448154066673,0.0
789640.0783812654,3940767.5119837918,-12500.0,0.48240253211472411,-1.1988778789297236,2.6289328621496293,-0.27121846577180786,0.63021338846213892,0.1086857168639549,1.6847892411166527,0.017532537377553226,2.2456022892095571,-2.2456022892095571,-0.017532537377553226,3.3576123680108596,0.0
794640.0783812654,3940767.5119837918,-12500.0,0.6827251347192248,-1.2760471114347944,2.351402744337955,-0.30262288462913173,0.57219543118163541,0.10098908218050824,1.6071137766335752,-0.15544049948735505,2.244025821839021,-2.244025821839021,0.15544049948735505,3.199294466339099,0.0
799640.0783812654,3940767.5119837918,-12500.0,0.84238791566678151,-1.2925087398134898,2.066276895930637,-0.31778148217004559,0.50942907885462829,0.091796262643423068,1.5200429186132911,-0.28449502158011586,2.174851543366878,-2.174851543366878,0.28449502158011586,3.0121717441530991,0.0
669640.0783812654,3945767.5119837918,-12500.0,-1.7597592246389502,-1.3209744667369765,-1.2222973729617848,-0.48456919311347219,-0.4011320489995675,-0.10356245174830499,1.505512344303092,-0.93202415593011023,0.39014828659159273,-0.39014828659159273,0.93202415593011023,2.9263926094259634,0.0
674640.0783812654,3945767.5119837918,-12500.0,-1.8206574328403717,-1.5255497092704817,-1.5670969280342939,-0.54302425303070068,-0.5058304018680968,-0.12719716844328632,1.7174074047789127,-1.1523659696919857,0.42151402026947776,-0.42151402026947776,1.1523659696919857,3.3371890728645157,0.0
679640.0783812654,3945767.5119837918,-12500.0,-1.8382374216171025,-1.7284774358197159,-1.9867747339014956,-0.59901034901084593,-0.63160881279143144,-0.15527411441274208,1.9488967461114062,-1.3999331216990334,0.4272550287793046,-0.4272550287793046,1.3999331216990334,3.7868910313249962,0.0
684640.0783812654,3945767.5119837918,-12500.0,-1.7984106811374625,-1.9119490580717853,-2.4854411712259461,-0.64728128754129977,-0.77929596850068616,-0.18795216494520028,2.1959299518878534,-1.666719653614354,0.39165900959315958,-0.39165900959315958,1.666719653614354,4.2681957602113965,0.0
689640.0783812654,3945767.5119837918,-12500.0,-1.6883680401752563,-2.0510306995942611,-3.0594952535848923,-0.68077700163718058,-0.94756330057390459,-0.22495623597905429,2.4512668535608348,-1.9376826294030138,0.29541649043099305,-0.29541649043099305,1.9376826294030138,4.767836940255382,0.0
694640.0783812654,3945767.5119837918,-12500.0,-1.499907143679702,-2.1139706853258571,-3.6928998341934931,-0.6907916920994791,-1.1317079789584108,-0.26533683272471853,2.7036813557366286,-2.1889985928044773,0.11727305443722069,-0.11727305443722069,2.1889985928044773,5.2650991416092641,0.0
699640.0783812654,3945767.5119837918,-12500.0,-1.2338164520954522,-2.0646705355417039,-4.3520054348519333,-0.66770982173467874,-1.3223539805410036,-0.30721272871613503,2.9374490647013807,-2.3873927272949267,-0.16232197983251417,0.16232197983251417,2.3873927272949267,5.7308799623329927,0.0
704640.0783812654,3945767.5119837918,-12500.0,-0.90451159718639473,-1.8682960568653826,-4.9813891542964885,-0.6025346854202146,-1.5044498692007253,-0.34756919745195192,3.1324982381422513,-2.4917346334811952,-0.55512791478955614,0.55512791478955614,2.4917346334811952,6.1280130759393838,0.0
709640.0783812654,3945767.5119837918,-12500.0,-0.54323949632724799,-1.5004311183309798,-5.5031514323461295,-0.48927857509739953,-1.657173019022198,-0.38222872041406947,3.2657271895841533,-2.4581688523241869,-1.0569162328317927,1.0569162328317927,2.4581688523241869,6.4137335922178353,0.0
714640.0783812654,3945767.5119837918,-12500.0,-0.19743020660990637,-0.95874958459339421,-5.8226816157669985,-0.32792595358807858,-1.7554729587895206,-0.40613576003943103,3.314259406988509,-2.2494317245563482,-1.6389158824719146,1.6389158824719146,2.2494317245563482,6.545093943851036,0.0
719640.0783812654,3945767.5119837918,-12500.0,0.076091814965335111,-0.27400865322807499,-5.8431811637001871,-0.12715720157341942,-1.7737919606690042,-0.4140628153623912,3.2662178978964076,-1.8473799983285315,-2.2423889269681481,2.2423889269681481,1.8473799983285315,6.4876380868536687,0.0
724640.0783812654,3945767.5119837918,-12500.0,0.22456526559740672,0.48484416055485735,-5.4884379445798634,0.09444726249356071,-1.6918126982008936,-0.40171731092060764,3.1580534291546596,-1.265332223706813,-2.7808614282838118,2.7808614282838118,1.265332223706813,6.2266647756765989,0.0
729640.0783812654,3945767.5119837918,-12500.0,0.21651586293678782,1.2168024373010147,-4.7287092819620788,0.31001276667847311,-1.5009659597060903,-0.36701845691819029,2.9873939174062891,-0.55475396693370049,-3.1533916724444429,3.1533916724444429,0.55475396693370049,5.7791781545558543,0.0
734640.0783812654,3945767.5119837918,-12500.0,0.056220521340103663,1.8082571192921055,-3.6001945152835111,0.48927636385123507,-1.2093864355406239,-0.31111010846350534,2.7640765371674263,0.19902409075181682,-3.2680933053440069,3.2680933053440069,-0.19902409075181682,5.2035172368220346,0.0
739640.0783812654,3945767.5119837918,-12500.0,-0.21218357854625641,2.1615619606540313,-2.2079094012101956,0.60577122693789898,-0.84283762182931532,-0.23863058692772507,2.5294011238413701,0.89370338540473893,-3.0691962233673946,3.0691962233673946,-0.89370338540473893,4.6021617163731445,0.0
744640.0783812654,3945767.5119837918,-12500.0,-0.51500387038820128,2.2224416994122227,-0.70711968462450481,0.6438126763772527,-0.44037863262699317,-0.15697970560213156,2.3336006182924716,1.4350683388448466,-2.5568417686405627,2.5568417686405627,-1.4350683388448466,4.1081501337534929,0.0
749640.0783812654,3945767.5119837918,-12500.0,-0.77073413003350022,1.9946948408257938,0.73187746640402007,0.60246631778021165,-0.045828463333208252,-0.074745695182558719,2.2153645539626199,1.7607873600143054,-1.7902696827855291,1.7902696827855291,-1.7607873600143054,3.8377156588764958,0.0
754640.0783812654,3945767.5119837918,-12500.0,-0.91411052374079727,1.5360379684168206,1.9626259687632133,0.49491238632245654,0.30191780012845848,0.00015666337951193607,2.1810641048971768,1.8535031112872304,-0.87231622288440036,0.87231622288440036,-1.8535031112872304,3.816792810911378,0.0
759640.0783812654,3945767.5119837918,-12500.0,-0.91244551691628029,0.93794661237665233,2.89073980447187,0.34375364407912123,0.5762491773360221,0.061977376198817803,2.2031733866160508,1.7390209714234857,0.07808781685460886,-0.07808781685460886,-1.7390209714234857,3.962035879334012,0.0
764640.0783812654,3945767.5119837918,-12500.0,-0.76896875239525431,0.29912667934338699,3.4834037671106981,0.17449663573808691,0.76577357810083413,0.10782128037436665,2.241025346525984,1.4724916053257595,0.95406547172545197,-0.95406547172545197,-1.4724916053257595,4.1523487356887658,0.0
769640.0783812654,3945767.5119837918,-12500.0,-0.51465796857092305,-0.29697153630090445,3.7611664029446339,0.0097430835032935731,0.87286514440308827,0.13749802952934523,2.2618304233697848,1.1199074860925571,1.6799915541336758,-1.6799915541336758,-1.1199074860925571,4.2976759690891164,0.0
774640.0783812654,3945767.5119837918,-12500.0,-0.19442772382059786,-0.79452406835031464,3.7794289497996383,-0.13430778552945624,0.90945941438769484,0.15280640500533527,2.2481869043050544,0.74210539216011173,2.2180103513482896,-2.2180103513482896,-0.74210539216011173,4.3544827765343683,0.0
779640.0783812654,3945767.5119837918,-12500.0,0.14612893412485045,-1.1671826327349772,3.6082427647963837,-0.24878014540466881,0.8921473547283687,0.15662997423286118,2.195962870793974,0.38520659492712195,2.5638859698112064,-2.5638859698112064,-0.38520659492712195,4.3139758850206524,0.0
784640.0783812654,3945767.5119837918,-12500.0,0.46970137297345943,-1.4127404454130137,3.3163622933295756,-0.33115309371795743,0.83808430835645964,0.15214139132281168,2.109464499610652,0.077760986663744314,2.7370681601074969,-2.7370681601074969,-0.077760986663744314,4.1871181095780869,0.0
789640.0783812654,3945767.5119837918,-12500.0,0.7511213580904097,-1.54486245165369,2.9617391295088917,-0.38339400629239107,0.76236497273793413,0.14225902978452598,2.0007284293385141,-0.16737666188089539,2.7697112860034472,-2.7697112860034472,0.16737666188089539,3.9934796957272449,0.0
794640.0783812654,3945767.5119837918,-12500.0,0.97724905968763198,-1.5851231471942171,2.5878593607031983,-0.41000993809417935,0.67682600277560301,0.12936824724502513,1.8894742563103561,-0.34892878415816808,2.6976553619538244,-2.6976553619538244,0.34892878415816808,3.7543340184138616,0.0
799640.0783812654,3945767.5119837918,-12500.0,1.1446311160401133,-1.5569840517288838,2.2240434818784505,-0.41647409002844726,0.58988123242022217,0.11524513128384679,1.7631746379678426,-0.47276924094756789,2.5544525137511602,-2.5544525137511602,0.47276924094756789,3.4889437000900543,0.0
804640.0783812654,3945767.5119837918,-12500.0,1.2564413945796273,-1.4820687447165437,1.8878104039179373,-0.40817401860252056,0.50694681861758406,0.1011042978639687,1.6288648391109561,-0.54825490253436948,2.3682731336751934,-2.3682731336751934,0.54825490253436948,3.2129832371968963,0.0
664640.0783812654,3950767.5119837918,-12500.0,-1.9244507713015482,-1.1557156886239961,-0.84698182034304925,-0.49031990850365859,-0.31763162192336297,-0.095252916447816305,1.409614697906967,-0.67995668240604934,0.35676822230861982,-0.35676822230861982,0.67995668240604934,2.7508084043192351,0.0
669640.0783812654,3950767.5119837918,-12500.0,-2.0710074126485924,-1.3929226080555797,-1.1341302870763563,-0.56733681863948127,-0.41475590244023025,-0.11970905469565114,1.635047341381225,-0.88704143362984889,0.42420480509571412,-0.42420480509571412,0.88704143362984889,3.1874061527696109,0.0
674640.0783812654,3950767.5119837918,-12500.0,-2.1903782342144331,-1.6542516393803954,-1.5024296736341229,-0.64966418035867679,-0.53712603139650095,-0.15000323669702675,1.8913559340682571,-1.1359859403791854,0.48346319574480173,-0.48346319574480173,1.1359859403791854,3.6843017698914537,0.0
679640.0783812654,3950767.5119837918,-12500.0,-2.2648818129520536,-1.9292837474441709,-1.9669206171287692,-0.73357377717013561,-0.68891904989739128,-0.18704567356518351,2.1784238300545971,-1.4270817747905797,0.52158064196014098,-0.52158064196014098,1.4270817747905797,4.2416619999227008,0.0
684640.0783812654,3950767.5119837918,-12500.0,-2.2737175632419562,-2.1992900909168878,-2.5399272260007781,-0.81292152805261908,-0.87335519357289426,-0.23153160183167004,2.493385554556673,-1.7550464729235777,0.51964064647230368,-0.51964064647230368,1.7550464729235777,4.8545281488891732,0.0
689640.0783812654,3950767.5119837918,-12500.0,-2.1951103262750045,-2.4348813707808974,-3.2264187360399847,-0.87858025508485682,-1.0913591157704621,-0.28365430861393331,2.8292889873624993,-2.1058613984048251,0.45219072355910328,-0.45219072355910328,2.1058613984048251,5.5103001398601492,0.0
694640.0783812654,3950767.5119837918,-12500.0,-2.0104922369179117,-2.5947063909209707,-4.017163566818601,-0.91821246869104711,-1.3396418270042794,-0.34269596261334323,3.1736019954710342,-2.4533136871113377,0.28819542552791555,-0.28819542552791555,2.4533136871113377,6.1859324324476228,0.0
699640.0783812654,3950767.5119837918,-12500.0,-1.7110138413903186,-2.6268002823292544,-4.8799932792739336,-0.91681149277152152,-1.6083182962445381,-0.40651983750812848,3.5068761845298879,-2.756303572877123,-0.0051851919212198005,0.0051851919212198005,2.756303572877123,6.8454351428315103,0.0
704640.0783812654,3950767.5119837918,-12500.0,-1.3057664450847841,-2.4746524991112557,-5.7508343843260779,-0.85853995164975849,-1.8785354561793892,-0.47106144414446705,3.8021525076885703,-2.9588155317599103,-0.45466605582224062,0.45466605582224062,2.9588155317599103,7.4387738076680456,0.0
709640.0783812654,3950767.5119837918,-12500.0,-0.82947398680423701,-2.0897532861484627,-6.5281658074808924,-0.73028066008284576,-2.1211019894977059,-0.53002259019275089,4.0260158360729958,-2.9951034413443307,-1.0682624262925819,1.0682624262925819,2.9951034413443307,7.9037711061537621,0.0
714640.0783812654,3950767.5119837918,-12500.0,-0.34547221673422746,-1.4504566888849169,-7.0765235095253614,-0.52678638386772281,-2.2975961136387637,-0.57507357124837999,4.1427350003864358,-2.8023101611558916,-1.8198213752296761,1.8198213752296761,2.8023101611558916,8.1728293142554378,0.0
719640.0783812654,3950767.5119837918,-12500.0,0.061164519000815487,-0.58303611944512035,-7.2448856921075064,-0.25628303565015037,-2.3654408027277571,-0.5968765152947586,4.1277783226520315,-2.3404350810234673,-2.6359910752714386,2.6359910752714386,2.3404350810234673,8.1857482100884766,0.0
724640.0783812654,3950767.5119837918,-12500.0,0.3034615837243006,0.42409058661233734,-6.901963305031753,0.05585091950574711,-2.287417716181305,-0.58704312044528095,4.0106108630307631,-1.6149803512761407,-3.3942743932382902,3.3942743932382902,1.6149803512761407,7.9082512336270847,0.0
729640.0783812654,3950767.5119837918,-12500.0,0.3222599006290322,1.4244001407987277,-5.9817084591744907,0.36827109462028285,-2.0438480685800706,-0.54068929090154283,3.7989435125915589,-0.69247312312005471,-3.9405415682085851,3.9405415682085851,0.69247312312005471,7.3532480477729454,0.0
734640.0783812654,3950767.5119837918,-12500.0,0.11441848915707789,2.242532540892646,-4.5220029288513519,0.63148495181282416,-1.6430369880708946,-0.45870691609870029,3.5058826962318586,0.30250420553065482,-4.12742761118208,4.12742761118208,-0.30250420553065482,6.5992055088379296,0.0
739640.0783812654,3950767.5119837918,-12500.0,-0.25620040828962698,2.7233925767525768,-2.6753160741451647,0.80091912362842754,-1.1245045605780379,-0.34862430440692377,3.1915955121774635,1.214152188713743,-3.862599660771199,3.862599660771199,-1.214152188713743,5.7970359595021614,0.0
744640.0783812654,3950767.5119837918,-12500.0,-0.67492836479849461,2.781778696364225,-0.67916473398481059,0.85031610690672987,-0.55175844360189863,-0.22333378562312967,2.9321457213498356,1.898953188306487,-3.1456538479174889,3.1456538479174889,-1.898953188306487,5.1481231010937325,0.0
749640.0783812654,3950767.5119837918,-12500.0,-1.0148922687533544,2.4288812772727906,1.2056820098949943,0.77934944990965938,0.0035899151479227287,-0.0979607035000883,2.784145134632118,2.2673984672138725,-2.0740173230555006,2.0740173230555006,-2.2673984672138725,4.8224669110554768,0.0
754640.0783812654,3950767.5119837918,-12500.0,-1.1796024446888187,1.7629930083253511,2.7632463806144596,0.61198783653728683,0.4798939573936058,0.01387905851552464,2.7507717169719546,2.3049858748994101,-0.81350876830101126,0.81350876830101126,-2.3049858748994101,4.8377321984795296,0.0
759640.0783812654,3950767.5119837918,-12500.0,-1.1294139910852901,0.93120296767179256,3.8682311223365176,0.38700945780979368,0.83837862407177399,0.10293011484988082,2.784524835398646,2.0651221077494153,0.45195616782061077,-0.45195616782061077,-2.0651221077494153,5.0493259144431697,0.0
764640.0783812654,3950767.5119837918,-12500.0,-0.88285217307090169,0.082474546761656456,4.4957625138249355,0.14568658570934676,1.0669200343855281,0.16536251667838958,2.8251319086526387,1.6415511874822561,1.5682363221993962,-1.5682363221993962,-1.6415511874822561,5.2810360760242414,0.0
769640.0783812654,3950767.5119837918,-12500.0,-0.49813747107316825,-0.66794463165643136,4.7003083690550795,-0.078151560867682199,1.175587507912925,0.20211761625073946,2.8303618596148454,1.1357795418621546,2.4389542409306455,-2.4389542409306455,-1.1357795418621546,5.4200322188063561,0.0
774640.0783812654,3950767.5119837918,-12500.0,-0.047796725671725028,-1.2536350592447516,4.5803717547815177,-0.26299477612593475,1.1879226909826057,0.21726924095406419,2.7826243613595945,0.63254411839233815,3.0295744453228259,-3.0295744453228259,-0.63254411839233815,5.4239483588536519,0.0
779640.0783812654,3950767.5119837918,-12500.0,0.40230980204579547,-1.6540144106198778,4.2451056962116738,-0.39971441601167046,1.1321254222049251,0.21623975328138231,2.6825339340043541,0.18844924409846264,3.3544511107650905,-3.3544511107650905,-0.18844924409846264,5.2960798083308571,0.0
784640.0783812654,3950767.5119837918,-12500.0,0.80446591829455305,-1.8814125728101081,3.7916892945026293,-0.48870813114532752,1.0346569053275627,0.20442118955015634,2.5406932488212894,-0.1681130373780606,3.4572806734272614,-3.4572806734272614,0.1681130373780606,5.0619379955987371,0.0
789640.0783812654,3950767.5119837918,-12500.0,1.1316657570922781,-1.9661606645861298,3.2947645794490148,-0.53616232257500385,0.91687017673122773,0.18637816142663308,2.385346606818957,-0.43068880837339862,3.3930897519878762,-3.3930897519878762,0.43068880837339862,4.7538449477296867,0.0
794640.0783812654,3950767.5119837918,-12500.0,1.3745506257647666,-1.9444735508941309,2.8049137730034586,-0.55077612055919867,0.79408073191999307,0.1655533571798139,2.2194880874475844,-0.60671867803269297,3.2156036778411621,-3.2156036778411621,0.60671867803269297,4.4024545503906793,0.0
799640.0783812654,3950767.5119837918,-12500.0,1.5361122993208218,-1.850687776284063,2.3521375916767058,-0.54148996845103958,0.67611188157218227,0.14429928611829845,2.0404781544329658,-0.7105148676558406,2.9704055891273837,-2.9704055891273837,0.7105148676558406,4.0329824057833443,0.0
804640.0783812654,3950767.5119837918,-12500.0,1.6264569396652739,-1.7134167535108145,1.951095994986189,-0.51621439881409503,0.56847122943632256,0.12406826254597836,1.8589106112581686,-0.75831122628977254,2.6925416914033633,-2.6925416914033633,0.75831122628977254,3.6642322170674331,0.0
809640.0783812654,3950767.5119837918,-12500.0,1.6587121201044044,-1.5544372554350967,1.6061924796675457,-0.48131242650295364,0.47361570775475115,0.10564525690239014,1.682210660821519,-0.76535150075152192,2.4068500008151594,-2.4068500008151594,0.76535150075152192,3.3090715458941595,0.0
664640.0783812654,3955767.5119837918,-12500.0,-2.1912689534342573,-1.1451624073777353,-0.71184651024934165,-0.55505454095248585,-0.30851191715392257,-0.10660778630295407,1.4957376297917171,-0.58065003639988444,0.3460381920064956,-0.3460381920064956,0.58065003639988444,2.9316198060529204,0.0
669640.0783812654,3955767.5119837918,-12500.0,-2.4096710271579234,-1.4242986997754643,-0.99606140127841214,-0.6559696659448796,-0.41575309322063253,-0.13670747385274895,1.7590031443190899,-0.79737404284890911,0.43655334880587765,-0.43655334880587765,0.79737404284890911,3.4419316089720207,0.0
674640.0783812654,3955767.5119837918,-12500.0,-2.6094526305070573,-1.7462117398524402,-1.3748143723363595,-0.76865673183860883,-0.55538249451187627,-0.17505482058234223,2.0653987721449814,-1.0686473618192116,0.52759553193501518,-0.52759553193501518,1.0686473618192116,4.0361663289306611,0.0
679640.0783812654,3955767.5119837918,-12500.0,-2.7686895279604586,-2.1040805010614494,-1.8718616290355705,-0.88994998524137903,-0.7347327224135104,-0.22340585682771996,2.4175865131089247,-1.3998026182225078,0.60627654101582418,-0.60627654101582418,1.3998026182225078,4.719860331997662,0.0
684640.0783812654,3955767.5119837918,-12500.0,-2.8588557072514496,-2.4809928721783985,-2.5111418946394619,-1.0134176952740357,-0.96092086990085468,-0.28345190400207848,2.8153469066133798,-1.7908426112557132,0.651507299212298,-0.651507299212298,1.7908426112557132,5.4931990765988035,0.0
689640.0783812654,3955767.5119837918,-12500.0,-2.8462671678766198,-2.8454076063796157,-3.3115807142405598,-1.1280985162228254,-1.239178550866175,-0.35642831206255249,3.2535922259935877,-2.2319152327504939,0.63181837604722579,-0.63181837604722579,2.2319152327504939,6.3472759937824197,0.0
694640.0783812654,3955767.5119837918,-12500.0,-2.6965134013503675,-3.1469056568776592,-4.2780907005374154,-1.2174194001490126,-1.5700767459885991,-0.44247017359615592,3.7198367677820179,-2.6974469150702989,0.50455515718828359,-0.50455515718828359,2.6974469150702989,7.2593277800783049,0.0
699640.0783812654,3955767.5119837918,-12500.0,-2.3831437229856474,-3.314482489784536,-5.3881645337168509,-1.2589649881006728,-1.9455234795095107,-0.53968709717787333,4.1914341146077714,-3.1399901271091055,0.21855303725356934,-0.21855303725356934,3.1399901271091055,8.1875303850073209,0.0
704640.0783812654,3955767.5119837918,-12500.0,-1.9009268138035642,-3.2610959407773152,-6.5752123276669829,-1.226148027856506,-2.3439365466779742,-0.64304611390191979,4.633379454642883,-3.4864126141952108,-0.27683426618758777,0.27683426618758777,3.4864126141952108,9.0668393182016356,0.0
709640.0783812654,3955767.5119837918,-12500.0,-1.2814541557235362,-2.8989549818891427,-7.7133064266801004,-1.0929836523614445,-2.7259896732619717,-0.74337320130791318,4.9981868963562599,-3.6409454792509583,-1.0138103732107273,1.0138103732107273,3.6409454792509583,9.8085590586880294,0.0
714640.0783812654,3955767.5119837918,-12500.0,-0.60466867287155945,-2.1682566750566825,-8.6128262499322776,-0.84259735776556033,-3.0336456747659621,-0.82707780030640021,5.2304413704749422,-3.5005199079085632,-1.9797185694438202,1.9797185694438202,3.5005199079085632,10.307371461664186,0.0
719640.0783812654,3955767.5119837918,-12500.0,0.0040874383816691924,-1.075687562721124,-9.0398873653179752,-0.47827860192034238,-3.1960478933292951,-0.8774030896056515,5.2837276238522843,-2.985360228812783,-3.0891650054564472,3.0891650054564472,2.985360228812783,10.45944819511887,0.0
724640.0783812654,3955767.5119837918,-12500.0,0.40123644576375717,0.27175200455519016,-8.768950236830559,-0.032962574768578022,-3.1447777605719112,-0.87778951587235965,5.1707604734345916,-2.0798348151511212,-4.1703101117257066,4.1703101117257066,2.0798348151511212,10.192792203522544,0.0
729640.0783812654,3955767.5119837918,-12500.0,0.47586488197887028,1.6611705114864388,-7.6627228527893623,0.42936677443271076,-2.836745889599992,-0.81702853402970488,4.9088087471533983,-0.86670802954556247,-4.9847710268832977,4.9847710268832977,0.86670802954556247,9.5057229507245893,0.0
734640.0783812654,3955767.5119837918,-12500.0,0.20540131734203415,2.8161816677519105,-5.7497512453085911,0.82571654391418481,-2.2765290566396992,-0.69446295413356784,4.5183424355588055,0.46939695134366666,-5.2902968130837227,5.2902968130837227,-0.46939695134366666,8.5029749709385847,0.0
739640.0783812654,3955767.5119837918,-12500.0,-0.31682497434846413,3.4831347940139739,-3.2548997523674581,1.078457957985528,-1.5258212957661108,-0.52251495604393861,4.089153151476653,1.6848070147951346,-4.9292881942539335,4.9292881942539335,-1.6848070147951346,7.412189270625106,0.0
744640.0783812654,3955767.5119837918,-12500.0,-0.90697086408383421,3.5243143730978175,-0.55196689410642974,1.1420762983180841,-0.69130958291078703,-0.32449314897831455,3.7397892656228731,2.5549158858912429,-3.9002544179943288,3.9002544179943288,-2.5549158858912429,6.5473386378812499,0.0
749640.0783812654,3955767.5119837918,-12500.0,-1.3618976233537838,2.9675516380864715,1.9488588422591071,1.0184309509128164,0.10612769222423109,-0.12807301785412736,3.5545546143171403,2.9500498999181799,-2.3691144559039179,2.3691144559039179,-2.9500498999181799,6.1614138785083137,0.0
754640.0783812654,3955767.5119837918,-12500.0,-1.5372914691646611,1.9849957053566876,3.9242762818533659,0.7525426228488985,0.76650447913718789,0.042576543131362547,3.5267728984462257,2.8693748893194009,-0.6108621984686422,0.6108621984686422,-2.8693748893194009,6.2432620837582871,0.0
759640.0783812654,3955767.5119837918,-12500.0,-1.390675841290328,0.81779845189011924,5.2131260588284896,0.412651783451573,1.233813302471803,0.17241350811367667,3.5742865127754024,2.4199807161266578,1.0854588483737522,-1.0854588483737522,-2.4199807161266578,6.5433346725925263,0.0
764640.0783812654,3955767.5119837918,-12500.0,-0.97442258611690669,-0.30840839335720305,5.8198805874737252,0.066353913170517059,1.499624039327409,0.25699347008377876,3.6085538941873714,1.7611897353494885,2.4990307462616315,-2.4990307462616315,-1.7611897353494885,6.8086341959399173,0.0
769640.0783812654,3955767.5119837918,-12500.0,-0.39513605259838852,-1.2386453384802807,5.8646982312974698,-0.23629011395197644,1.5910969588943191,0.30035463870395951,3.5777971483251139,1.047343897072609,3.5153072404180215,-3.5153072404180215,-1.047343897072609,6.9051119154768719,0.0
774640.0783812654,3955767.5119837918,-12500.0,0.23234012788029831,-1.9026294616379078,5.5171129752513943,-0.46859419783404072,1.5530734999709173,0.31128800247131894,3.4684864098267143,0.39207340990721384,4.1193807548983354,-4.1193807548983354,-0.39207340990721384,6.8024029057210029,0.0
779640.0783812654,3955767.5119837918,-12500.0,0.81643746902590841,-2.2989258818967087,4.9426942439988943,-0.62433001114076347,1.4325716711082992,0.29985248185768298,3.2908558214705321,-0.14161099174703784,4.364024663547351,-4.364024663547351,0.14161099174703784,6.527307762279416,0.0
784640.0783812654,3955767.5119837918,-12500.0,1.3009399761291547,-2.4676195726530636,4.2737396836550321,-0.71080995525026947,1.2693880321433633,0.2750788317705114,3.0669131713351945,-0.53355303056687298,4.3335644195031282,-4.3335644195031282,0.53355303056687298,6.1283634251241033,0.0
789640.0783812654,3955767.5119837918,-12500.0,1.6626612621117072,-2.4652684490360315,3.6009938537308037,-0.7418923148872193,1.0925670322641963,0.24393844613474031,2.8437080668444743,-0.79180706425122493,4.1162179940615795,-4.1162179940615795,0.79180706425122493,5.6555133007591527,0.0
794640.0783812654,3955767.5119837918,-12500.0,1.9023728883332975,-2.3480041325330223,2.9780093799994902,-0.7328468789391076,0.92072914666391359,0.21121184680067864,2.600402254915354,-0.9386714149590718,3.7882921405722021,-3.7882921405722021,0.9386714149590718,5.1507168829005279,0.0
799640.0783812654,3955767.5119837918,-12500.0,2.0348015059255737,-2.1629143291019628,2.4304890976694686,-0.69741053726787816,0.76418664233606448,0.17982417883659627,2.3521315275903976,-1.0006462144782455,3.4081715743564684,-3.4081715743564684,1.0006462144782455,4.6451247880035273,0.0
804640.0783812654,3955767.5119837918,-12500.0,2.0806239955668464,-1.9453680031955669,1.9658478134631165,-0.6465620097314233,0.62743691420772807,0.15132857550918852,2.1109792822339668,-1.002610195803384,3.0163987006232587,-3.0163987006232587,1.002610195803384,4.1596208687999461,0.0
809640.0783812654,3955767.5119837918,-12500.0,2.0612149343104265,-1.7196840617577205,1.5808925858175826,-0.58836193825952376,0.51132572488333605,0.12636144062613863,1.8843243680148294,-0.96521377785786378,2.6386252793219644,-2.6386252793219644,0.96521377785786378,3.7067270394727565,0.0
814640.0783812654,3955767.5119837918,-12500.0,1.9957839182572588,-1.5012099086414372,1.2671788387557141,-0.52832023079583212,0.41465400765386368,0.10500065464078197,1.6760747782996737,-0.90426793778455206,2.2893478327334011,-2.2893478327334011,0.90426793778455206,3.2927749130702155,0.0
659640.0783812654,3960767.5119837918,-12500.0,-2.1606029880408619,-0.82479167154424649,-0.35064104205263047,-0.50885919037847971,-0.20076531291655361,-0.089626919599599356,1.314544759955687,-0.27823924541052236,0.20897325754864504,-0.20897325754864504,0.27823924541052236,2.5990562346564485,0.0
664640.0783812654,3960767.5119837918,-12500.0,-2.4539780135929155,-1.0803702299799778,-0.53882741514664301,-0.6173612131873667,-0.2846997244294931,-0.11723461270493747,1.5668092391644912,-0.43912200414188574,0.30369720513981235,-0.30369720513981235,0.43912200414188574,3.0888706539919779,0.0
669640.0783812654,3960767.5119837918,-12500.0,-2.7609690025671543,-1.3955067051908268,-0.80422590412910577,-0.74607315604329272,-0.39898948155214958,-0.153609387004669,1.8694185493981903,-0.65401940478835918,0.41506489783043682,-0.41506489783043682,0.65401940478835918,3.6762759634749589,0.0
674640.0783812654,3960767.5119837918,-12500.0,-3.0660917677745219,-1.775986341716383,-1.1740821901755196,-0.89588864779652977,-0.55329246776213592,-0.20134202826889025,2.2302136879042651,-0.9356605218049513,0.53871866754723097,-0.53871866754723097,0.9356605218049513,4.3766410519305197,0.0
679640.0783812654,3960767.5119837918,-12500.0,-3.344680099412034,-2.2220094488204323,-1.6821195373084215,-1.0654419486272111,-0.75923369989572675,-0.26351696820368326,2.6562813063321644,-1.2963009362668165,0.66388616825717461,-0.66388616825717461,1.2963009362668165,5.2040213872756897,0.0
684640.0783812654,3960767.5119837918,-12500.0,-3.5608021340803235,-2.7230152840758897,-2.3671702980605893,-1.2493937293601818,-1.0297822433314638,-0.34354331843248403,3.1522633964634985,-1.7444318132338983,0.76961277977046971,-0.76961277977046971,1.7444318132338983,6.1679845890387766,0.0
689640.0783812654,3960767.5119837918,-12500.0,-3.6667064430157525,-3.2503679716827758,-3.2685185311921732,-1.4361222610167643,-1.3775128023306491,-0.44470315310828223,3.7176600148778745,-2.2790441014449221,0.82021820380387955,-0.82021820380387955,2.2790441014449221,7.2685306570820671,0.0
694640.0783812654,3960767.5119837918,-12500.0,-3.6059338665672951,-3.7485104021681339,-4.4156146855520682,-1.6050824328939202,-1.8110415339810035,-0.56924111145572909,4.3429192417229894,-2.8808750708045281,0.76118316081235826,-0.76118316081235826,2.8808750708045281,8.488716726490388,0.0
699640.0783812654,3960767.5119837918,-12500.0,-3.3230498099941386,-4.127083357923043,-5.8096449136759363,-1.724686746956426,-2.328924722568257,-0.71682016730158149,5.0044278973595508,-3.5010786829260185,0.51834047070790068,-0.51834047070790068,3.5010786829260185,9.7851919436452377,0.0
704640.0783812654,3960767.5119837918,-12500.0,-2.7827077087517988,-4.2596314341453958,-7.3959839345089682,-1.7524837972825857,-2.9108573796841557,-0.88230204576755089,5.6592683085181488,-4.0501874369134825,0.005484174884041515,-0.005484174884041515,4.0501874369134825,11.0782311666374,0.0
709640.0783812654,3960767.5119837918,-12500.0,-1.9976995760476572,-3.9979904012982002,-9.0316378649104756,-1.6403570298844401,-3.5076184824875676,-1.0532006502675513,6.2419809703487443,-4.394284598606534,-0.85296292000485319,0.85296292000485319,4.394284598606534,12.245250948401235,0.0
714640.0783812654,3960767.5119837918,-12500.0,-1.0580780226850839,-3.2120326057320492,-10.461525418177311,-1.3474628825940398,-4.0341421264629567,-1.2078662841947545,6.6678281928852554,-4.3695183105273081,-2.0799347421212748,2.0799347421212748,4.3695183105273081,13.124788399657337,0.0
719640.0783812654,3960767.5119837918,-12500.0,-0.14253626359502553,-1.8563121327147458,-11.328944591643662,-0.86102446909829611,-4.3733940924783896,-1.3162657006689551,6.8531600559839294,-3.8257850890317253,-3.5906260899444224,3.5906260899444224,3.8257850890317253,13.539758365615493,0.0
724640.0783812654,3960767.5119837918,-12500.0,0.51278763225985591,-0.044005462872624572,-11.247894204783652,-0.21881172842252181,-4.3991699875088628,-1.3453679540812082,6.7760029168279141,-2.6985322507528693,-5.150054517919215,5.150054517919215,2.6985322507528693,13.346188133594667,0.0
729640.0783812654,3960767.5119837918,-12500.0,0.69947744683709134,1.9180886311387118,-9.9417172792014163,0.48048229155869926,-4.0188880099166653,-1.2695315774511622,6.455785991641112,-1.0820951791465023,-6.3860371655816799,6.3860371655816799,1.0820951791465023,12.503742539231643,0.0
734640.0783812654,3960767.5119837918,-12500.0,0.34796944226987153,3.5852382654178263,-7.4002579142231157,1.0941101450524748,-3.2221211248755384,-1.0826680261615638,5.9271739626243409,0.74625716542976095,-6.8899219806951031,6.8899219806951031,-0.74625716542976095,11.148814792700538,0.0
739640.0783812654,3960767.5119837918,-12500.0,-0.40467805789318201,4.5290897275140596,-3.9600306665395806,1.481780162467877,-2.1066948886227266,-0.80550856612328758,5.3283922331898221,2.3940286937518236,-6.383532934026273,6.383532934026273,-2.3940286937518236,9.6340838778574707,0.0
744640.0783812654,3960767.5119837918,-12500.0,-1.2536220590483265,4.5198090947223371,-0.22837197983136048,1.5614902156406654,-0.85854425548459834,-0.48197943239550511,4.8503537853802543,3.4990671101373172,-4.8635028847659276,4.8635028847659276,-3.4990671101373172,8.4656668939195061,0.0
749640.0783812654,3960767.5119837918,-12500.0,-1.8634301224345449,3.6229457915338061,3.1302964224319885,1.3416086332457848,0.31084968368770854,-0.16492425731573593,4.6204825695002718,3.8731839776888388,-2.6236657143712985,2.6236657143712985,-3.8731839776888388,8.0254087453920384,0.0
754640.0783812654,3960767.5119837918,-12500.0,-2.0170191229719423,2.1493227036874085,5.6263068704346564,0.90978138397860686,1.2356291020831778,0.10131737598312258,4.6065025409737466,3.5564705482156711,-0.13386345677982958,0.13386345677982958,-3.5564705482156711,8.2242844020893511,0.0
759640.0783812654,3960767.5119837918,-12500.0,-1.6845928984038767,0.50148667884064113,7.0677457133104111,0.38919958693374251,1.8374146108121796,0.29231348986306599,4.6660857499998389,2.7607882840285374,2.1457502689657355,-2.1457502689657355,-2.7607882840285374,8.6340146459774036,0.0
764640.0783812654,3960767.5119837918,-12500.0,-0.99051743513630408,-0.98056958767398672,7.5371143866320303,-0.10870648380145226,2.1240775660796567,0.40487917418856112,4.6718765029100808,1.7559310599463411,3.9061480436935887,-3.9061480436935887,-1.7559310599463411,8.9007485990296544,0.0
769640.0783812654,3960767.5119837918,-12500.0,-0.12559709900598537,-2.1000564292447743,7.2777994026051944,-0.51211878929898846,2.1592452077041364,0.45086206363979237,4.5664389765673237,0.77076712217445742,5.0321987632624152,-5.0321987632624152,-0.77076712217445742,8.88140511182152,0.0
774640.0783812654,3960767.5119837918,-12500.0,0.73390954470627257,-2.8030928379083084,6.5723980502081885,-0.79276664432669741,2.0260151854048414,0.44869745544449974,4.3492644154602056,-0.053057578400782734,5.5641651378455421,-5.5641651378455421,0.053057578400782734,8.5794020359735299,0.0
779640.0783812654,3960767.5119837918,-12500.0,1.4689383629876667,-3.1330959362928774,5.6626742378274173,-0.95481926655200389,1.8007858691502205,0.41675653340103697,4.0481875107158372,-0.65954189773725513,5.6273728355673134,-5.6273728355673134,0.65954189773725513,8.0634656971427034,0.0
784640.0783812654,3960767.5119837918,-12500.0,2.0234741143808708,-3.1782922986152657,4.7184964631446915,-1.0198411605256887,1.5411114956188841,0.36981996613036039,3.718392292280257,-1.0526700089064049,5.3699077453128528,-5.3699077453128528,1.0526700089064049,7.4164870457129632,0.0
789640.0783812654,3960767.5119837918,-12500.0,2.38998822421875,-3.0332435426492923,3.8400409352072984,-1.0146478620958952,1.2840788273218677,0.31813521770140152,3.3803687706794356,-1.2676345675042568,4.9243374028202025,-4.9243374028202025,1.2676345675042568,6.7109112002542224,0.0
794640.0783812654,3960767.5119837918,-12500.0,2.5897350335027225,-2.7784342423003654,3.0745435714575486,-0.96406987884620943,1.0499972018482426,0.2679313651036529,3.0325130027655005,-1.3493218683710113,4.3919823920153567,-4.3919823920153567,1.3493218683710113,6.0005255533898563,0.0
799640.0783812654,3960767.5119837918,-12500.0,2.6563057430839678,-2.4735355543578601,2.4350717732009501,-0.88786558856093467,0.84751540568786976,0.22245656568497174,2.6953263758784125,-1.3399540322040444,3.841672166374277,-3.841672166374277,1.3399540322040444,5.3206215414035603,0.0
804640.0783812654,3960767.5119837918,-12500.0,2.6249235101614814,-2.1583426526855187,1.915665951914769,-0.80022239245864446,0.67816354690599912,0.18300458607033859,2.3808126930405962,-1.2738250645776894,3.3152784913949693,-3.3152784913949693,1.2738250645776894,4.6915007090125203,0.0
809640.0783812654,3960767.5119837918,-12500.0,2.5268364002633459,-1.8568202535439857,1.5016081993518482,-0.71050149211670877,0.53967165209393919,0.1497188183074602,2.0948941010559414,-1.1762991535845466,2.83502225890869,-2.83502225890869,1.1762991535845466,4.1226460955943542,0.0
814640.0783812654,3960767.5119837918,-12500.0,2.387197087739962,-1.5816423073066066,1.1755512136892352,-0.62437298519276385,0.42810793795331659,0.1221437077463947,1.8394744752060197,-1.0648470723276096,2.410087098630167,-2.410087098630167,1.0648470723276096,3.616385103147695,0.0
819640.0783812654,3960767.5119837918,-12500.0,2.224929444375789,-1.3380732638816188,0.92074828576366308,-0.54490909953541211,0.33912026978874982,0.099568101064505865,1.6139964373325277,-0.9507578452924399,2.0417059639523782,-2.0417059639523782,0.9507578452924399,3.1706937325907663,0.0
654640.0783812654,3965767.5119837918,-12500.0,-1.9868288730476051,-0.48359938261896862,-0.080358997398635085,-0.43692308854657075,-0.10355015700092954,-0.07090096444749866,1.1163343719439871,-0.018176068727413744,0.045433951497944491,-0.045433951497944491,0.018176068727413744,2.2269321151792791,0.0
659640.0783812654,3965767.5119837918,-12500.0,-2.3170971714006257,-0.68467847735512,-0.18046938631873014,-0.54162145724051991,-0.16098314741713687,-0.094310772402052462,1.3371587395327755,-0.11439400495248404,0.121260054442676,-0.121260054442676,0.11439400495248404,2.6684925462330824,0.0
664640.0783812654,3965767.5119837918,-12500.0,-2.689535291559515,-0.94696526855370522,-0.33265633957102725,-0.67127892462366801,-0.2428967812408612,-0.12599451343374804,1.6152441948104699,-0.25364782960213367,0.22047660042006284,-0.22047660042006284,0.25364782960213367,3.2099434255755064,0.0
669640.0783812654,3965767.5119837918,-12500.0,-3.0996063870848842,-1.2847572178039419,-0.56027484237391878,-0.83049758105294025,-0.35897928828532488,-0.16892386012685112,1.9562603324080721,-0.45078378387982909,0.34590122208332819,-0.34590122208332819,0.45078378387982909,3.8733332661029012,0.0
674640.0783812654,3965767.5119837918,-12500.0,-3.5351525658080423,-1.7124503173572048,-0.89571049501162392,-1.023416335580289,-0.5222553992814043,-0.22702943585892688,2.3730503886700181,-0.72396055548956662,0.49757843277954683,-0.49757843277954683,0.72396055548956662,4.6836510422656241,0.0
679640.0783812654,3965767.5119837918,-12500.0,-3.9723323891133187,-2.2413424424884716,-1.3824811022473933,-1.2523952834424665,-0.74969328843117289,-0.30535900580480324,2.8791877822880534,-1.093773634267817,0.66961060519873927,-0.66961060519873927,1.093773634267817,5.6674118870903634,0.0
684640.0783812654,3965767.5119837918,-12500.0,-4.3707956799366858,-2.8736200305177175,-2.0762667049376051,-1.5157202849316493,-1.0623164283012396,-0.41008990965652203,3.4872560945950535,-1.5804770009278408,0.84504190758867259,-0.84504190758867259,1.5804770009278408,6.8494487392666068,0.0
689640.0783812654,3965767.5119837918,-12500.0,-4.6692711855470019,-3.5922986300525772,-3.0427642875180347,-1.8039775691403974,-1.4840521257139556,-0.54818240612870095,4.2056095351727993,-2.1978321883776601,0.98841851261988012,-0.98841851261988012,2.1978321883776601,8.2468165844703911,0.0
694640.0783812654,3965767.5119837918,-12500.0,-4.7843839685198475,-4.3464050126240323,-4.3485941838770925,-2.0949847268897752,-2.0380088091236455,-0.72631515786249035,5.0329290046746751,-2.9417647667558806,1.0365827473261398,-1.0365827473261398,2.9417647667558806,9.8585192910780535,0.0
699640.0783812654,3965767.5119837918,-12500.0,-4.6178953653643804,-5.0328566093714597,-6.0396540509055257,-2.3479572293443525,-2.7383392122417813,-0.94860201564827473,5.9500845010539054,-3.7725360150356204,0.89064566317161575,-0.89064566317161575,3.7725360150356204,11.650112122371,0.0
704640.0783812654,3965767.5119837918,-12500.0,-4.0796230064337839,-5.4816302969361272,-8.1009884691512131,-2.4993163085733348,-3.5758981387377347,-1.2126054728942288,6.9097240536720363,-4.5919594662128169,0.41657080591922613,-0.41657080591922613,4.5919594662128169,13.533890633383706,0.0
709640.0783812654,3965767.5119837918,-12500.0,-3.1318409995986718,-5.4593612953428927,-10.397292468301123,-2.4652400309940483,-4.4977950213094609,-1.5036675366425629,7.8262820050703974,-5.2240935921800098,-0.53235223484166561,0.53235223484166561,5.2240935921800098,15.349388645771567,0.0
714640.0783812654,3965767.5119837918,-12500.0,-1.8503262013509536,-4.714767028222127,-12.609142887915173,-2.1584061211703651,-5.3863425362942108,-1.7890105231151352,8.57354531860409,-5.4188194706107362,-2.0555211524450208,2.0555211524450208,5.4188194706107362,16.855766768304175,0.0
719640.0783812654,3965767.5119837918,-12500.0,-0.47348932380928382,-3.0850290701436847,-14.208321504338993,-1.5244790537844242,-6.0519624690717357,-2.015463077409513,9.0060135171590971,-4.9060293741219869,-4.104196450165551,4.104196450165551,4.9060293741219869,17.755213847767696,0.0
724640.0783812654,3965767.5119837918,-12500.0,0.61567830268228851,-0.64717735460928572,-14.539758142153547,-0.59231549229786473,-6.2618405921154405,-2.1166364753643592,9.0339435884869683,-3.5163095855927353,-6.374881739696324,6.374881739696324,3.5163095855927353,17.767508160381354,0.0
729640.0783812654,3965767.5119837918,-12500.0,1.0241935876144388,2.1686557974322631,-13.054536548145787,0.48919561237971959,-5.8180613348388039,-2.0334533469593654,8.6557555858552533,-1.3341748500051032,-8.284889147269249,8.284889147269249,1.3341748500051032,16.759734932341139,0.0
734640.0783812654,3965767.5119837918,-12500.0,0.57219150887940273,4.6329971268566235,-9.6305019366547793,1.4684632914752636,-4.6645405954221566,-1.7431654250455864,7.9285118843685272,1.2199188217949022,-9.1265264222717022,9.1265264222717022,-1.2199188217949022,14.898654691207264,0.0
739640.0783812654,3965767.5119837918,-12500.0,-0.54023528968451384,5.9966812112495091,-4.777268198294828,2.0814522129902224,-2.9581085130083102,-1.2803604015480738,7.0735920747927272,3.4928079519565416,-8.3904364057089769,8.3904364057089769,-3.4928079519565416,12.747290030102246,0.0
744640.0783812654,3965767.5119837918,-12500.0,-1.7879695207759685,5.8626215173587051,0.48222951566313688,2.173998981953265,-1.0365659325680594,-0.73177216212270457,6.4101294735107395,4.8811402417347054,-6.0708730415005885,6.0708730415005885,-4.8811402417347054,11.152793057581874,0.0
749640.0783812654,3965767.5119837918,-12500.0,-2.5983897569297114,4.3837970548611871,5.037305974840689,1.7729095203298153,0.71522318881105851,-0.20319400926331865,6.1321077937703956,5.1156924745256536,-2.7115403580051609,2.7115403580051609,-5.1156924745256536,10.694349583611961,0.0
754640.0783812654,3965767.5119837918,-12500.0,-2.647315751292318,2.1399223054241463,8.1432356160522961,1.0556200600968066,2.0167476880060824,0.22126752184744489,6.1447724611390235,4.3446073183307128,0.8598039095699801,-0.8598039095699801,-4.3446073183307128,11.090256575514617,0.0
759640.0783812654,3965767.5119837918,-12500.0,-1.9633883691598482,-0.18756015673688256,9.6160402761121464,0.24988712147629713,2.7675842239608643,0.50285444666441637,6.2024191238329864,2.9847339021305572,3.9065102824116851,-3.9065102824116851,-2.9847339021305572,11.613753619634542,0.0
764640.0783812654,3965767.5119837918,-12500.0,-0.81995136444134142,-2.097674534181964,9.7223383588436256,-0.46146095621904748,3.02474810575095,0.6463392196522687,6.1299899975107035,1.4872209561784833,6.0208793216791801,-6.0208793216791801,-1.4872209561784833,11.794858110074243,0.0
769640.0783812654,3965767.5119837918,-12500.0,0.45098050899238729,-3.3712362002691894,8.9286151337549118,-0.98265381383254913,2.9273196028142268,0.68245853945490265,5.8780701102959361,0.17432143024515678,7.142396735112361,-7.142396735112361,-0.17432143024515678,11.517882228180447,0.0
774640.0783812654,3965767.5119837918,-12500.0,1.5932732346610496,-4.0190117015012987,7.6872330275992695,-1.2965505842006175,2.6248058088243886,0.64901147618631461,5.4764139893518751,-0.80320636654474598,7.4374847440278806,-7.4374847440278806,0.80320636654474598,10.860551617727358,0.0
779640.0783812654,3965767.5119837918,-12500.0,2.4710938277585339,-4.1740007765355189,6.3307860401804188,-1.4335869227667817,2.2365297894777347,0.57878721340557304,4.9830236449516638,-1.428073842218637,7.157789169612359,-7.157789169612359,1.428073842218637,9.9609401032679514,0.0
784640.0783812654,3965767.5119837918,-12500.0,3.0509761078299178,-4.0001568150998024,5.0567882900879937,-1.4419085737985904,1.840540262298765,0.49507663237566851,4.4970972901004531,-1.7557124789267475,6.542902055653574,-6.542902055653574,1.7557124789267475,8.9490998964585042,0.0
789640.0783812654,3965767.5119837918,-12500.0,3.3622382202208567,-3.641019259933572,3.9568340262043815,-1.3684173371574453,1.4792018842865076,0.41200751852124079,3.995717269286498,-1.8653612287665657,5.7770076563688191,-5.7770076563688191,1.8653612287665657,7.9224034604790088,0.0
794640.0783812654,3965767.5119837918,-12500.0,3.4613302546729834,-3.2017424768168348,3.0551655498499941,-1.250423744228607,1.1701087174562479,0.33681729310501396,3.5108210476594395,-1.8319876915261775,4.9823587458935181,-4.9823587458935181,1.8319876915261775,6.9433486622560086,0.0
799640.0783812654,3965767.5119837918,-12500.0,3.4086661430106995,-2.7500218915207171,2.3402105240841324,-1.1140631576002926,0.9161834482292226,0.27230604568169348,3.0627124050830976,-1.714929130744808,4.2299931434161255,-4.2299931434161255,1.714929130744808,6.0462168504023426,0.0
804640.0783812654,3965767.5119837918,-12500.0,3.2570067518828485,-2.3243740413207346,1.7853087687860021,-0.97587471698459793,0.71293878979657388,0.21875988012311925,2.6605738795473388,-1.5562494798968616,3.5547946228114813,-3.5547946228114813,1.5562494798968616,5.2455162576743746,0.0
809640.0783812654,3965767.5119837918,-12500.0,3.0475240456170556,-1.9433640532417942,1.3603812112428251,-0.84529030323110566,0.55296117004007705,0.17523134371120416,2.3065739661692768,-1.3833601892067902,2.9688326332501775,-2.9688326332501775,1.3833601892067902,4.543279107206498,0.0
814640.0783812654,3965767.5119837918,-12500.0,2.8099633648683522,-1.6131843965816473,1.0375530612898693,-0.72695916918095871,0.42835400817040298,0.14029957452971561,1.998848498847962,-1.2127616720541994,2.4711761847562084,-2.4711761847562084,1.2127616720541994,3.9344333125151678,0.0
819640.0783812654,3965767.5119837918,-12500.0,2.5645161082963819,-1.3330425999741642,0.79327980905357887,-0.6225495885529323,0.33189377933558345,0.11247726024478945,1.7334846020365502,-1.0534787760755462,2.0543588378900584,-2.0543588378900584,1.0534787760755462,3.4103965250732817,0.0
654640.0783812654,3970767.5119837918,-12500.0,-2.0279867954824207,-0.30056526402614686,0.059479237100150212,-0.44207775402319499,-0.057334943132432654,-0.070801673675234142,1.1337351663050566,0.13925507580979052,-0.068524843820736703,0.068524843820736703,-0.13925507580979052,2.2292844411821577,0.0
659640.0783812654,3970767.5119837918,-12500.0,-2.4140798459655821,-0.48318138201556543,-0.00091406251858807785,-0.55928117882833484,-0.10660949775020392,-0.09615861710695929,1.3635865868165806,0.075510942870197745,-0.0037170051379014357,0.0037170051379014357,-0.075510942870197745,2.6973089428487196,0.0
664640.0783812654,3970767.5119837918,-12500.0,-2.8662525438830011,-0.73308601433474452,-0.10432160841691102,-0.70881462533217321,-0.18060245468947173,-0.13138664827278851,1.6502483963160091,-0.027658469975760644,0.088684787953734592,-0.088684787953734592,0.027658469975760644,3.2820107876472586,0.0
669640.0783812654,3970767.5119837918,-12500.0,-3.3873401021230278,-1.0710830450186446,-0.27420581699265006,-0.89879617431214731,-0.2907321762505789,-0.18052156773990324,2.0122085749349936,-0.18729390738534174,0.21548855458788313,-0.21548855458788313,0.18729390738534174,4.013822295009283,0.0
674640.0783812654,3970767.5119837918,-12500.0,-3.9731908367575683,-1.5217075727554776,-0.54545062399011335,-1.1382135703172185,-0.4533183222781294,-0.24920620625887266,2.4789886269328174,-0.42616335009987483,0.38258705966622297,-0.38258705966622297,0.42616335009987483,4.9297542874438829,0.0
679640.0783812654,3970767.5119837918,-12500.0,-4.6070197752745266,-2.1111408682623662,-0.96879199838506724,-1.4357737841659468,-0.69121578742630541,-0.34519124788244343,3.0656959090928426,-0.7732799388099888,0.59194123440946067,-0.59194123440946067,0.7732799388099888,6.0731215197725668,0.0
684640.0783812654,3970767.5119837918,-12500.0,-5.2512841100976537,-2.8617462808306917,-1.6155681357861893,-1.7973690598846084,-1.0353907375213725,-0.47880171998976462,3.7944055474529188,-1.2627745642876449,0.8357790823900878,-0.8357790823900878,1.2627745642876449,7.4913358104405878,0.0
689640.0783812654,3970767.5119837918,-12500.0,-5.837441604610194,-3.7806492427472227,-2.5808077975121604,-2.2212504273946183,-1.5255639247084452,-0.66309220195827701,4.6881030736470342,-1.9290209025435796,1.0865328979127582,-1.0865328979127582,1.9290209025435796,9.2299738157059572,0.0
694640.0783812654,3970767.5119837918,-12500.0,-6.2561083143630114,-4.8391609985945205,-3.9799308020242061,-2.6898847388594942,-2.2080054608749116,-0.9130984942949899,5.7622670562987537,-2.7945589914362503,1.2813679847948864,-1.2813679847948864,2.7945589914362503,11.320416988174014,0.0
699640.0783812654,3970767.5119837918,-12500.0,-6.354531256858917,-5.9409545597705966,-5.9298242264597443,-3.15806335112977,-3.1269619448201147,-1.2431138150046115,7.0130305747159563,-3.8463277754539638,1.3024849650800574,-1.3024849650800574,3.8463277754539638,13.757714128800108,0.0
704640.0783812654,3970767.5119837918,-12500.0,-5.95501579482442,-6.8828926267771084,-8.4998879460219623,-3.539219127047875,-4.3045514940589635,-1.6604358332340039,8.3991164566699581,-4.9972112259567147,0.96105568838188971,-0.96105568838188971,4.9972112259567147,16.466246924414975,0.0
709640.0783812654,3970767.5119837918,-12500.0,-4.9133739058974237,-7.3276808511144047,-11.618405403649032,-3.6974611122243681,-5.7044050472951371,-2.1541735522860761,9.8191685306031111,-6.0385798362583927,0.0057769768080166983,-0.0057769768080166983,6.0385798362583927,19.255914574078293,0.0
714640.0783812654,3970767.5119837918,-12500.0,-3.2287963623759461,-6.8326525150984958,-14.937982742685755,-3.461344508467822,-7.1816581678020617,-2.6798657922816975,11.093990331991904,-6.6108809612529731,-1.8070437006326427,1.8070437006326427,6.6108809612529731,21.78441372925424,0.0
719640.0783812654,3970767.5119837918,-12500.0,-1.1762842568663321,-4.996672221880412,-17.718514997745643,-2.6804100041274799,-8.4417253414380493,-3.146457301838482,11.979484654028797,-6.2498809488384728,-4.5466964566470187,4.5466964566470187,6.2498809488384728,23.56221755422191,0.0
724640.0783812654,3970767.5119837918,-12500.0,0.64368479099918208,-1.7478968948018323,-18.868993159662647,-1.330325811890533,-9.0586066887717056,-3.4204776691525329,12.25766580780345,-4.5732261813237267,-7.8699035222817875,7.8699035222817875,4.5732261813237267,24.054295260350894,0.0
729640.0783812654,3970767.5119837918,-12500.0,1.4898736173443632,2.3513906598931409,-17.311043771544011,0.37839515707564314,-8.6089225559173723,-3.36424161982888,11.848625825334731,-1.5911506932509161,-10.873515343981033,10.873515343981033,1.5911506932509161,22.915767832251792,0.0
734640.0783812654,3970767.5119837918,-12500.0,0.92557047262119418,6.0864497804381612,-12.63258647880674,1.9929758845512779,-6.9093157489391874,-2.9060079221772672,10.833274185691712,2.0573367857890688,-12.300530870590574,12.300530870590574,-2.0573367857890688,20.318018491990685,0.0
739640.0783812654,3970767.5119837918,-12500.0,-0.7656160667545171,8.096424948554473,-5.6101159529454723,2.9940810890010527,-4.211466380713297,-2.1019435975568697,9.5831315817709548,5.2454018869916901,-11.180492629235726,11.180492629235726,-5.2454018869916901,17.191286008292128,0.0
744640.0783812654,3970767.5119837918,-12500.0,-2.639059894476818,7.6697049919248501,1.9617014793972278,3.0781928715257467,-1.1587625992134525,-1.1325450568833002,8.654680583750892,6.9316366324875007,-7.5083575138203988,7.5083575138203988,-6.9316366324875007,15.01441331646584,0.0
749640.0783812654,3970767.5119837918,-12500.0,-3.6825123871588614,5.1690500655562204,8.1641220971848796,2.3244791977160211,1.5178798284524755,-0.22092775069227907,8.3393604076630652,6.7512533918786541,-2.3407491598805326,2.3407491598805326,-6.7512533918786541,14.649092557548297,0.0
754640.0783812654,3970767.5119837918,-12500.0,-3.4299462025195702,1.7122479322842179,11.879430290627223,1.1074381485610838,3.3389436965242716,0.46836615651353569,8.3938837169587472,5.1251212018099421,2.8201008520153996,-2.8201008520153996,-5.1251212018099421,15.356216591151554,0.0
759640.0783812654,3970767.5119837918,-12500.0,-2.0917950723224852,-1.5414385902113965,13.067438669907862,-0.14399740161038246,4.2078147068788407,0.87871686091978018,8.4011161347658696,2.8690823273596364,6.8069217825847481,-6.8069217825847481,-2.8690823273596364,15.934335330551869,0.0
764640.0783812654,3970767.5119837918,-12500.0,-0.24037332243311998,-3.8960173677798777,12.400607913862892,-1.1381117639550433,4.3119952669393067,1.0436900308942092,8.1434855090995395,0.71375925571155907,9.1579598240432709,-9.1579598240432709,-0.71375925571155907,15.824476713443858,0.0
769640.0783812654,3970767.5119837918,-12500.0,1.5723092130280987,-5.1883886525003069,10.728353296820458,-1.7690366283704428,3.9411970363479432,1.0383656246899884,7.6146798441741943,-0.93509487964991411,10.007566280180558,-10.007566280180558,0.93509487964991411,15.025070864945778,0.0
774640.0783812654,3970767.5119837918,-12500.0,3.0110914922987382,-5.5934825597733804,8.731453739265552,-2.0646139735316442,3.353409315791446,0.93823896606762047,6.9051645399824748,-1.9798678257070681,9.7770386225255077,-9.7770386225255077,1.9798678257070681,13.757246283427946,0.0
779640.0783812654,3970767.5119837918,-12500.0,3.9648969760216102,-5.4018597758903333,6.8228230052325491,-2.1116869612071967,2.7230656203456816,0.79963645928635885,6.1485407505626899,-2.504102182246192,8.916927152383856,-8.916927152383856,2.504102182246192,12.263600101394575,0.0
784640.0783812654,3970767.5119837918,-12500.0,4.4682687324174948,-4.8818732908590423,5.191265218975575,-2.0031033207776363,2.1444851032599717,0.65694809087853612,5.4010226015611966,-2.6542229617440962,7.7801026755537492,-7.7801026755537492,2.6542229617440962,10.730155575974978,0.0
789640.0783812654,3970767.5119837918,-12500.0,4.6195759192209831,-4.2283405992085497,3.8843962650252055,-1.8132824451555301,1.6558178588592032,0.52750770722611073,4.6803427867156051,-2.5705189712586756,6.5952993891937908,-6.5952993891937908,2.5705189712586756,9.2737735994657129,0.0
794640.0783812654,3970767.5119837918,-12500.0,4.5273122496316365,-3.5616142548802512,2.878589114386958,-1.5929496107795493,1.2629851841379729,0.41782486318617762,4.0220359533613266,-2.3606280909894535,5.4884202737806538,-5.4884202737806538,2.3606280909894535,7.9551188578939165,0.0
799640.0783812654,3970767.5119837918,-12500.0,4.2844101710746187,-2.9455268650022899,2.1233494888940059,-1.3726389877141276,0.95665099993851443,0.32852796745187024,3.4406173302479521,-2.0969186144927474,4.5154928738255773,-4.5154928738255773,2.0969186144927474,6.7968101417943325,0.0
804640.0783812654,3970767.5119837918,-12500.0,3.9606398227806858,-2.4072260843891264,1.5645649090902325,-1.1684979021805193,0.72218769317840092,0.25755081063317242,2.9378867582288786,-1.8233197446603699,3.6911028702901167,-3.6911028702901167,1.8233197446603699,5.7988105709327149,0.0
809640.0783812654,3970767.5119837918,-12500.0,3.6039254556864044,-1.9526828745296287,1.1544720641403681,-0.98751432934423866,0.54470133484145822,0.20192193495760968,2.5088979337437443,-1.5638689535686308,3.0082050604845945,-3.0082050604845945,1.5638689535686308,4.9492387617153284,0.0
814640.0783812654,3970767.5119837918,-12500.0,3.2448414317434398,-1.5770237663442308,0.85457392261426079,-0.83135267018489878,0.41113761728767534,0.15865106948767102,2.1457001536983555,-1.3299158368959401,2.4502856506969639,-2.4502856506969639,1.3299158368959401,4.2311564913097577,0.0
819640.0783812654,3970767.5119837918,-12500.0,2.9014387511323876,-1.2707353566780153,0.63535322095755631,-0.69886957424414364,0.31087164053726252,0.12510098364623418,1.8394940966822173,-1.1252981941971136,1.9981251181851658,-1.9981251181851658,1.1252981941971136,3.6264667106810511,0.0
824640.0783812654,3970767.5119837918,-12500.0,2.5832936838390421,-1.0230768236077297,0.47482703081042321,-0.58763944053206751,0.23560789968707752,0.099094445770467748,1.5817680336320439,-0.94973448782891623,1.6331855884806976,-1.6331855884806976,0.94973448782891623,3.1179445750059021,0.0
649640.0783812654,3975767.5119837918,-12500.0,-1.6385982242135269,0.023748800532600697,0.18877849297159052,-0.33355321846729957,0.019787620906999249,-0.049066141720580207,0.94828454053866695,0.30592159558605481,-0.2304774747382341,0.2304774747382341,-0.30592159558605481,1.8160076828228473,0.0
654640.0783812654,3975767.5119837918,-12500.0,-1.9914878230438255,-0.074304515533391541,0.18922229310487432,-0.42935993790042931,-0.0017902720567096291,-0.067658797502591003,1.1389962604784056,0.30302511178949315,-0.2080247204319578,0.2080247204319578,-0.30302511178949315,2.1979363684100583,0.0
659640.0783812654,3975767.5119837918,-12500.0,-2.4220124560721907,-0.22014801152231481,0.17317889467383071,-0.55502389612098679,-0.038038228951875107,-0.093998393577716957,1.378954318454815,0.28094893587670056,-0.16565401853649914,0.16565401853649914,-0.28094893587670056,2.680842479533486,0.0
664640.0783812654,3975767.5119837918,-12500.0,-2.944368235082182,-0.43313432048174483,0.12802932204887968,-0.720153616156336,-0.097028033966222851,-0.13159452651954498,1.6827888932086585,0.22813058038388129,-0.09511458062304172,0.09511458062304172,-0.22813058038388129,3.2948879560841742,0.0
669640.0783812654,3975767.5119837918,-12500.0,-3.5720888514629161,-0.73943220530185305,0.033213243069920829,-0.93711704264562268,-0.19110290083626177,-0.18562761045968515,2.0697255786942201,0.12739779473480167,0.014033939232601871,-0.014033939232601871,-0.12739779473480167,4.0794010705131951,0.0
674640.0783812654,3975767.5119837918,-12500.0,-4.3146408603127577,-1.1733803943628676,-0.14432489278024424,-1.2213103218886343,-0.33901687214162429,-0.26372778319360657,2.5652787082326052,-0.046203233623735379,0.17395449131795568,-0.17395449131795568,0.046203233623735379,5.0850666873017536,0.0
679640.0783812654,3975767.5119837918,-12500.0,-5.1710758744550276,-1.7778057441112423,-0.45684533651161569,-1.5907844224589724,-0.5689324706409673,-0.37704426115781198,3.2058966955667008,-0.32780454968602196,0.39658276594997571,-0.39658276594997571,0.32780454968602196,6.3758259024966746,0.0
684640.0783812654,3975767.5119837918,-12500.0,-6.119158695749972,-2.601376228505365,-0.98501284276931944,-2.0643491676611383,-0.92228667332111014,-0.54159348586512479,4.0432936700753102,-0.76446323750369893,0.68856779836801041,-0.68856779836801041,0.76446323750369893,8.0293573495182073,0.0
689640.0783812654,3975767.5119837918,-12500.0,-7.0984342400952398,-3.6892113783969291,-1.8488110953757542,-2.6565479460968695,-1.4579583282275834,-0.77966584180112863,5.1208533054712682,-1.414018029782159,1.0403391302085705,-1.0403391302085705,1.414018029782159,10.1337917196283,0.0
694640.0783812654,3975767.5119837918,-12500.0,-7.9873179712855267,-5.0602922528959837,-3.2162111251877015,-3.3669381357295292,-2.2547031293373547,-1.1205579415438323,6.4778604009827756,-2.3362648422108343,1.4053685300082657,-1.4053685300082657,2.3362648422108343,12.776281029411727,0.0
699640.0783812654,3975767.5119837918,-12500.0,-8.5798347441228913,-6.6628303871645693,-5.2983778878317249,-4.16048193518911,-3.4067343982949598,-1.5988437624354055,8.1427498107419911,-3.567838055073755,1.6660629176732509,-1.6660629176732509,3.567838055073755,16.01626196559581,0.0
704640.0783812654,3975767.5119837918,-12500.0,-8.5804437577946242,-8.3012027325836701,-8.3070573214648746,-4.937447927208428,-5.0021399554099055,-2.2466635356375138,10.103049009793864,-5.0689829626895495,1.5890175834864801,-1.5890175834864801,5.0689829626895495,19.834042234685775,0.0
709640.0783812654,3975767.5119837918,-12500.0,-7.6561485676600016,-9.5464485198249687,-12.33406287966401,-5.4992812308748649,-7.0683535659970493,-3.0747325883645953,12.261738657917713,-6.635325344946108,0.79298657564385078,-0.79298657564385078,6.635325344946108,24.048262154679232,0.0
714640.0783812654,3975767.5119837918,-12500.0,-5.5994231790258571,-9.6927555982374773,-17.115719177925584,-5.5368658942174616,-9.4720506575489463,-4.0378920896314403,14.386192789089066,-7.7976813077930185,-1.2049695854323392,1.2049695854323392,7.7976813077930185,28.21391364460144,0.0
719640.0783812654,3975767.5119837918,-12500.0,-2.6144982500355614,-7.9009998966804078,-21.720544264775402,-4.696211516205488,-11.793063443986759,-4.9916227184179931,16.086825844449354,-7.8050169632153645,-4.7563889594913755,4.7563889594913755,7.8050169632153645,31.558578986995045,0.0
724640.0783812654,3975767.5119837918,-12500.0,0.42551126002261991,-3.6868870670685938,-24.400705304068438,-2.7782230675525672,-13.270866695890819,-5.6715454351546652,16.910736295159424,-5.8660396405039332,-9.6041745357455302,9.6041745357455302,5.8660396405039332,33.082185037703468,0.0
729640.0783812654,3975767.5119837918,-12500.0,2.1355240192198179,2.3410542674628902,-23.063465260894457,-0.029632715441542595,-12.999974759109058,-5.7534538872582717,16.570154958992529,-1.7487427682464345,-14.397089476135488,14.397089476135488,1.7487427682464345,31.966748883915681,0.0
734640.0783812654,3975767.5119837918,-12500.0,1.4799438958956785,8.147248344609185,-16.580687035338823,2.7245072302542344,-10.453325251345555,-5.0227462938838894,15.138254980860946,3.5880349691048803,-16.852977210658494,16.852977210658494,-3.5880349691048803,28.288628349592024,0.0
739640.0783812654,3975767.5119837918,-12500.0,-1.1735255105717814,11.157706908314498,-6.1294344204188098,4.4133303495080698,-6.026831646983748,-3.5622421693863613,13.269670119413826,8.121626858931096,-15.043141355427808,15.043141355427808,-8.121626858931096,23.649789893501154,0.0
744640.0783812654,3975767.5119837918,-12500.0,-4.0392070193096874,10.049498879160693,4.9916878872717749,4.4096719802969222,-1.0140181676467819,-1.7705389674107836,11.980643356967768,9.9865645427180603,-8.9857545331599873,8.9857545331599873,-9.9865645427180603,20.75122688927005,0.0
749640.0783812654,3975767.5119837918,-12500.0,-5.2653208748129039,5.7117953745480836,13.359917100544916,2.9461964168443009,3.1337647432244951,-0.14514970965224008,11.678766213826162,8.7708946392002609,-0.84876286719271476,0.84876286719271476,-8.7708946392002609,20.763591200782372,0.0
754640.0783812654,3975767.5119837918,-12500.0,-4.2609915840075834,0.36837276372432293,17.389954283383808,0.84731718846971349,5.6062283216666424,0.98505611905479096,11.77438662165312,5.5729634271001185,6.5742340044703234,-6.5742340044703234,-5.5729634271001185,21.898696338721262,0.0
759640.0783812654,3975767.5119837918,-12500.0,-1.734509394433168,-4.0383117540425024,17.582477596850591,-1.0748872757231798,6.4274860387024448,1.5585222565249945,11.592286028723874,1.965397230761825,11.517480152884586,-11.517480152884586,-1.965397230761825,22.286910016428624,0.0
764640.0783812654,3975767.5119837918,-12500.0,1.1723970344080505,-6.6780358685327856,15.450484976794566,-2.391317082214115,6.1076877432287437,1.6981953591045269,10.926664333951685,-0.95461282667304914,13.689792073247451,-13.689792073247451,0.95461282667304914,21.435673409120124,0.0
769640.0783812654,3975767.5119837918,-12500.0,3.6176123873090975,-7.659350554065008,12.439400712767398,-3.0509351936119731,5.2201896571066726,1.5795992823638516,9.8910478901568499,-2.8073845128049992,13.731008508308848,-13.731008508308848,2.8073845128049992,19.637440679909812,0.0
774640.0783812654,3975767.5119837918,-12500.0,5.2567582210476962,-7.4974921289961758,9.4692926182428181,-3.2030881722088766,4.1801546896291049,1.3474527172885342,8.6929643476730387,-3.6964912958947567,12.517750179043617,-12.517750179043617,3.6964912958947567,17.358967865359968,0.0
779640.0783812654,3975767.5119837918,-12500.0,6.1057334355483102,-6.7204996108082078,6.9572769813335693,-3.0403841213160665,3.2134418312778492,1.0922044720215698,7.5253884631985253,-3.9060697394837538,10.766959832500177,-10.766959832500177,3.9060697394837538,14.977837440367688,0.0
784640.0783812654,3975767.5119837918,-12500.0,6.3424965101144668,-5.7106910863309706,5.0028452487155022,-2.7207281163511134,2.4089082587120085,0.85888812281153037,6.411305160395675,-3.7152614929577208,8.932960517543215,-8.932960517543215,3.7152614929577208,12.72674675833859,0.0
789640.0783812654,3975767.5119837918,-12500.0,6.1724920905871183,-4.6930011105470948,3.5545510030287035,-2.3486097623203062,1.7792744238160549,0.66390734822317776,5.4088961630164434,-3.3302631125802136,7.2500652358767486,-7.2500652358767486,3.3302631125802136,10.718913434388991,0.0
794640.0783812654,3975767.5119837918,-12500.0,5.7674402550760711,-3.7765270249602758,2.5116568381639159,-1.9832142506995496,1.303879342523218,0.50879596357585832,4.5412025814759485,-2.8806371313172141,5.8098222154586798,-5.8098222154586798,2.8806371313172141,8.9899192424369083,0.0
799640.0783812654,3975767.5119837918,-12500.0,5.2500786758432785,-2.9999754687550628,1.7727561469904844,-1.6529372690833288,0.95232704391033529,0.38879417990538917,3.8073873733157133,-2.4379715333141521,4.6255308617265065,-4.6255308617265065,2.4379715333141521,7.5323667266593635,0.0
804640.0783812654,3975767.5119837918,-12500.0,4.6994423360293194,-2.3650376591777471,1.2534910703371434,-1.3678851989674532,0.6952964691926965,0.29735983346779205,3.195173203132355,-2.0363992386594525,3.6741929446003558,-3.6741929446003558,2.0363992386594525,6.3188131317808134,0.0
809640.0783812654,3975767.5119837918,-12500.0,4.1620160086545717,-1.8568847384699378,0.88962401387574419,-1.1284565108471403,0.50836906566500661,0.22820147322093126,2.6881459228931175,-1.6882880197030126,2.920061199586601,-2.920061199586601,1.6882880197030126,5.3150809381670623,0.0
814640.0783812654,3975767.5119837918,-12500.0,3.6623671351717704,-1.4553304732453025,0.6344967873524161,-0.93054675676128518,0.3726101282625911,0.17600816763906027,2.2695776945733428,-1.3945026220485521,2.3263254969350111,-2.3263254969350111,1.3945026220485521,4.4871685767007543,0.0
819640.0783812654,3975767.5119837918,-12500.0,3.2113128912157016,-1.1402643029325503,0.45509911447825258,-0.76843450318883855,0.27389564369869862,0.13657359343499798,1.9241877182682174,-1.1505113811476768,1.8600869853508257,-1.8600869853508257,1.1505113811476768,3.8043707218916576,0.0
824640.0783812654,3975767.5119837918,-12500.0,2.8115614367329629,-0.89391198506946679,0.32840642324651348,-0.63624818961905605,0.20191549075699064,0.1066791854367303,1.638778426476357,-0.94976341317472324,1.4938907978561673,-1.4938907978561673,0.94976341317472324,3.2403372779603514,0.0
649640.0783812654,3980767.5119837918,-12500.0,-1.4950248332767546,0.23723920671056048,0.26371899987993735,-0.29955984238939382,0.068449415238215836,-0.042964800731477008,0.94253342504005855,0.42600005364912974,-0.35937525505278145,0.35937525505278145,-0.42600005364912974,1.7606726469245155,0.0
654640.0783812654,3980767.5119837918,-12500.0,-1.856208009997862,0.1861440169023654,0.29550603208585707,-0.39427571889409146,0.060758577475370633,-0.060760843054187934,1.1348374733595694,0.45984194463166805,-0.36614682740853333,0.36614682740853333,-0.45984194463166805,2.1381296953362492,0.0
659640.0783812654,3980767.5119837918,-12500.0,-2.3098609258235188,0.096150796868318927,0.3234142831405456,-0.52182606444629287,0.042324193472527791,-0.086638207354647986,1.3793826110082281,0.48550551607030668,-0.35819012511061987,0.35819012511061987,-0.48550551607030668,2.6215485075413234,0.0
664640.0783812654,3980767.5119837918,-12500.0,-2.8790146864912383,-0.0523096475336053,0.33961420459284358,-0.69444684932103551,0.005839764885014186,-0.12463746506864383,1.6931558160237097,0.49418093852704759,-0.32675862413504086,0.32675862413504086,-0.49418093852704759,3.245909456597778,0.0
669640.0783812654,3980767.5119837918,-12500.0,-3.5902660003946338,-0.28772797846262277,0.32968866391199592,-0.92894028986503352,-0.060583311097735126,-0.18098160928747878,2.0992348306042423,0.47146023959506761,-0.25940452529585395,0.25940452529585395,-0.47146023959506761,4.0587175002360976,0.0
674640.0783812654,3980767.5119837918,-12500.0,-4.4717999020682093,-0.65092138725712689,0.26781622624682649,-1.248042996092666,-0.17623032198012548,-0.26529928719841445,2.6289837875484929,0.39431627488759025,-0.13915854431806621,0.13915854431806621,-0.39431627488759025,5.124305963278319,0.0
679640.0783812654,3980767.5119837918,-12500.0,-5.5482159804571234,-1.1988093185190696,0.10875467547371996,-1.6816691330143092,-0.37220853710139501,-0.39249955561552796,3.3249888019578679,0.22688354252943022,0.055512007255669973,-0.055512007255669973,-0.22688354252943022,6.5290178802321952,0.0
684640.0783812654,3980767.5119837918,-12500.0,-6.8293594845288244,-2.0071278159490067,-0.2250310127576986,-2.2671506400093246,-0.69814823246573754,-0.58554029889897652,4.2453682826855426,-0.084789250980539965,0.3483249628417025,-0.3483249628417025,0.084789250980539965,8.3865389113315381,0.0
689640.0783812654,3980767.5119837918,-12500.0,-8.2888720473390904,-3.1682151137871246,-0.86273689598843284,-3.0464007590615245,-1.2316338267418714,-0.87922175462480012,5.4712824858976159,-0.61759650277012956,0.75683155060724494,-0.75683155060724494,0.61759650277012956,10.841150108459408,0.0
694640.0783812654,3980767.5119837918,-12500.0,-9.8273309539190716,-4.775079311487473,-2.0107889984715861,-4.055691237734008,-2.0895362612228841,-1.3245875349426277,7.1057217007798616,-1.4712332210166443,1.2712544737993206,-1.2712544737993206,1.4712332210166443,14.063479299972816,0.0
699640.0783812654,3980767.5119837918,-12500.0,-11.217942833949202,-6.8746896399472526,-3.9767716111263427,-5.30030400343104,-3.4363408971455964,-1.9918700772846509,9.2388189358192125,-2.7516145851236429,1.8095212725741157,-1.8095212725741157,2.7516145851236429,18.22735481224904,0.0
704640.0783812654,3980767.5119837918,-12500.0,-12.04799749018108,-9.3644007443319914,-7.1634201891833698,-6.7033192187700212,-5.4746278409039713,-2.9660447891686084,11.922456334500854,-4.5149338215035337,2.136997835699642,-2.136997835699642,4.5149338215035337,23.447251007260608,0.0
709640.0783812654,3980767.5119837918,-12500.0,-11.710364700046211,-11.811019694492295,-11.962658061513542,-8.0225648348961336,-8.3843493815079828,-4.3220689890203543,15.112879582733061,-6.6390648736504083,1.7582351676774124,-1.7582351676774124,6.6390648736504083,29.647794611559615,0.0
714640.0783812654,3980767.5119837918,-12500.0,-9.5699964532419024,-13.236312553295688,-18.428041022387426,-8.7610211776966409,-12.157948205074595,-6.0598432705651453,18.559079673202987,-8.608456108785191,-0.14027563756290196,0.14027563756290196,8.608456108785191,36.348214842232338,0.0
719640.0783812654,3980767.5119837918,-12500.0,-5.4628807323780864,-12.099870215061992,-25.635878699692871,-8.1771798580882091,-16.301095134783811,-7.9880341496355731,21.688805211104864,-9.3160797317590962,-4.4686679953043509,4.4686679953043509,9.3160797317590962,42.419132814744117,0.0
724640.0783812654,3980767.5119837918,-12500.0,-0.45005028103738709,-6.9600429210056989,-30.995840917114883,-5.5985035859214136,-19.530889114715659,-9.6057043085345359,23.641795839144137,-7.2456338425187159,-11.409872080368823,11.409872080368823,7.2456338425187159,46.053532368531975,0.0
729640.0783812654,3980767.5119837918,-12500.0,2.9591845010011508,1.916944469909017,-30.543485681574246,-1.1329393865177531,-19.928145921872531,-10.147907382838094,23.644470332460791,-1.5242391601226206,-19.117543255181033,19.117543255181033,1.5242391601226206,45.402311323212409,0.0
734640.0783812654,3980767.5119837918,-12500.0,2.3308597424162247,11.160522372108852,-21.426419848662466,3.7244187092662928,-16.048042833028049,-8.9820409074783978,21.627699119616629,6.4719023485990803,-23.389536390863622,23.389536390863622,-6.4719023485990803,40.143878864533775,0.0
739640.0783812654,3980767.5119837918,-12500.0,-1.9827905207637435,15.691761794527674,-5.3807064202592283,6.6536708510626239,-8.4731935437746202,-6.19343163276202,18.800840176308142,12.951618350546005,-20.221992397154203,20.221992397154203,-12.951618350546005,33.194293563424324,0.0
744640.0783812654,3980767.5119837918,-12500.0,-6.4071756704574536,12.969907732129879,11.197001207622366,6.2970419168641065,0.027110340859395267,-2.7241363354242547,17.104379210199554,14.450148127082841,-9.7703739450509275,9.7703739450509275,-14.450148127082841,29.702708323571017,0.0
749640.0783812654,3980767.5119837918,-12500.0,-7.4589088581058602,5.2773970292950398,22.039423530888996,3.3611421720365797,6.4453556877794105,0.25253138970385947,16.957888836608468,10.833216357973637,3.2481298122534001,-3.2481298122534001,-10.833216357973637,30.72809325262039,0.0
754640.0783812654,3980767.5119837918,-12500.0,-4.7078927328945035,-2.8589205652805867,25.294345344252221,-0.27010776236450462,9.5091313289886372,2.0831747554696398,16.996810334404934,4.8645108450310151,13.590020850362327,-13.590020850362327,-4.8645108450310151,32.226007425477306,0.0
759640.0783812654,3980767.5119837918,-12500.0,-0.1267777706168858,-8.3813372908200705,23.054670113640849,-3.0992377517390808,9.7715236865289583,2.7943345773730037,16.259025047997344,-0.55625922657572602,18.945612743897602,-18.945612743897602,0.55625922657572602,31.68913226081181,0.0
764640.0783812654,3980767.5119837918,-12500.0,4.1736994542251065,-10.72449299453427,18.420602642295425,-4.6310176850566798,8.4858544787031622,2.7642727043343602,14.737790985974982,-4.0697328066892666,19.905302147803397,-19.905302147803397,4.0697328066892666,29.162529103945577,0.0
769640.0783812654,3980767.5119837918,-12500.0,7.1311506177692978,-10.744562800465292,13.583653142076951,-5.0657734337886691,6.7010083667002114,2.3821438798824648,12.812818301602132,-5.685095034184636,18.198155890142758,-18.198155890142758,5.685095034184636,25.551212142391286,0.0
774640.0783812654,3980767.5119837918,-12500.0,8.6314664990382308,-9.5374370591690898,9.5402125856002282,-4.8189593684666692,5.0024179476858937,1.9055584943339086,10.876071073746951,-5.9809631519795987,15.377517693749127,-15.377517693749127,5.9809631519795987,21.674952863687203,0.0
779640.0783812654,3980767.5119837918,-12500.0,9.0084587748552192,-7.9046852931499441,6.5117434128798131,-4.2493678520378548,3.6137338197501787,1.4623404899917036,9.0690666411000134,-5.5541117426012558,12.409440851413686,-12.409440851413686,5.5541117426012558,18.031575800794929,0.0
784640.0783812654,3980767.5119837918,-12500.0,8.6758307536433694,-6.2907658306351335,4.3763728583780388,-3.587080189468649,2.5634887937923967,1.0976086133302909,7.476543561477059,-4.8250022650697915,9.7535587685772782,-9.7535587685772782,4.8250022650697915,14.844851075044156,0.0
789640.0783812654,3980767.5119837918,-12500.0,7.9683974381208458,-4.8871116955906357,2.9204823956426682,-2.9529216495755848,1.8023215967802804,0.81549315530882527,6.1334530225974744,-4.0353004057086075,7.5593125975164437,-7.5593125975164437,4.0353004057086075,12.169393708165146,0.0
794640.0783812654,3980767.5119837918,-12500.0,7.110576972449989,-3.74409595690762,1.945371502589301,-2.3977184354564276,1.2632037549199726,0.60430015189034503,5.0288370006608991,-3.3021079699372269,5.8229296509321298,-5.8229296509321298,3.3021079699372269,9.9746531197710642,0.0
799640.0783812654,3980767.5119837918,-12500.0,6.2350784421898675,-2.8467873956751935,1.2975533583272358,-1.9342622619808927,0.88565898645069607,0.4487711165318507,4.1325193020453179,-2.6700096842800942,4.4807006618635761,-4.4807006618635761,2.6700096842800942,8.1963620772328092,0.0
804640.0783812654,3980767.5119837918,-12500.0,5.4116422946819585,-2.156758146357638,0.86809297663467755,-1.5574879253872829,0.62236448712363912,0.33499490160888218,3.4097249635550089,-2.1464914932779791,3.4554383804705773,-3.4554383804705773,2.1464914932779791,6.7634552590875883,0.0
809640.0783812654,3980767.5119837918,-12500.0,4.6712131863159767,-1.6320274864854365,0.5829616095677983,-1.2555512617502349,0.43870306715124879,0.25181609168701719,2.8277873868330121,-1.7225321745404241,2.6760566806774033,-2.6760566806774033,1.7225321745404241,5.6102062083642856,0.0
814640.0783812654,3980767.5119837918,-12500.0,4.0227023098682242,-1.2351254964585354,0.3929687108200674,-1.01528031211053,0.31021784647956574,0.19081603376464812,2.3586163621528753,-1.3833898399528342,2.0837961380001455,-2.0837961380001455,1.3833898399528342,4.6805218425141657,0.0
819640.0783812654,3980767.5119837918,-12500.0,3.4635034790483616,-0.93541548289783016,0.2657719244714456,-0.82453663779019515,0.21993445996035133,0.14583571670395426,1.979129253915423,-1.1137311607170486,1.6326107058835277,-1.6326107058835277,1.1137311607170486,3.9284981180254017,0.0
824640.0783812654,3980767.5119837918,-12500.0,2.9856674207838458,-0.70895584517250954,0.18017981088317872,-0.67302079194946685,0.15616543955643239,0.11243860282574718,1.6708210841435502,-0.89976633150991892,1.287423941899837,-1.287423941899837,0.89976633150991892,3.3174215566305847,0.0
829640.0783812654,3980767.5119837918,-12500.0,2.5793303968822396,-0.53749485839769873,0.12229463524091159,-0.55236043956153869,0.11088005881413969,0.087449737672424477,1.4190523102979284,-0.7299103812121408,1.0219095354312402,-1.0219095354312402,0.7299103812121408,2.8182876994063357,0.0
644640.0783812654,3985767.5119837918,-12500.0,-0.99321018130880534,0.43882354678879393,0.26016058281144239,-0.18307516271753593,0.10754009196770072,-0.023270698851123778,0.78658618653462553,0.46119402249941188,-0.44509117570903478,0.44509117570903478,-0.46119402249941188,1.4173812320986825,0.0
649640.0783812654,3985767.5119837918,-12500.0,-1.2605734395933386,0.45831982155177331,0.30844444014405747,-0.24634201191832852,0.11802986579818445,-0.033861933943779454,0.93716966511452893,0.52405123373523887,-0.48842867365941867,0.48842867365941867,-0.52405123373523887,1.7017412917466543,0.0
654640.0783812654,3985767.5119837918,-12500.0,-1.6048546405056716,0.46443172958850998,0.3651606654591763,-0.33324589934837057,0.12639234921636658,-0.049553989755216507,1.1277120316679947,0.59343086989287597,-0.53055535582299773,0.53055535582299773,-0.59343086989287597,2.0649766083589451,0.0
659640.0783812654,3985767.5119837918,-12500.0,-2.0498005871345666,0.4468289002772346,0.43023711010378302,-0.45354172125493875,0.12961220212187458,-0.073054062262308955,1.3715472168530787,0.66753252546691599,-0.56718882666309489,0.56718882666309489,-0.66753252546691599,2.5342009292264001,0.0
664640.0783812654,3985767.5119837918,-12500.0,-2.6263557837576768,0.3890788932243554,0.5017568716645282,-0.62133752274731713,0.1222756428035648,-0.10865469928081474,1.6872231922681673,0.7421314017669991,-0.59118787693465769,0.59118787693465769,-0.7421314017669991,3.147290424526263,0.0
669640.0783812654,3985767.5119837918,-12500.0,-3.3741392220832624,0.26526372892935118,0.57391048615628459,-0.85708110673050575,0.09478530434275094,-0.16324329088210651,2.1007453980429998,0.80869649888607564,-0.59105208165412182,0.59105208165412182,-0.80869649888607564,3.9575224327002827,0.0
674640.0783812654,3985767.5119837918,-12500.0,-4.3422300390324713,0.034912131637088117,0.63307004026083347,-1.1903428520924588,0.030251079650402149,-0.24798971225510591,2.6487974763352757,0.85124149674281224,-0.54888190063061437,0.54888190063061437,-0.85124149674281224,5.0401875739712239,0.0
679640.0783812654,3985767.5119837918,-12500.0,-5.5877152538076187,-0.36424643751814062,0.65038971021880454,-1.6634783737071634,-0.10089730240761961,-0.38116425396450676,3.3832984837401527,0.84120713374293066,-0.4379744126847972,0.4379744126847972,-0.84120713374293066,6.5017815494376627,0.0
684640.0783812654,3985767.5119837918,-12500.0,-7.1686665103401257,-1.0257018293916924,0.56815340665172775,-2.3358174970089154,-0.35011413309504719,-0.59278875111761853,4.3776974788963665,0.72955248686336072,-0.22100016931492422,0.22100016931492422,-0.72955248686336072,8.4921276072591283,0.0
689640.0783812654,3985767.5119837918,-12500.0,-9.1249481232257175,-2.0838277213322174,0.27541466526652525,-3.2867291869074644,-0.80598039015283962,-0.93208802845289584,5.7354508887762723,0.43566558957363744,0.14825667227416819,-0.14825667227416819,-0.43566558957363744,11.21862350069223,0.0
694640.0783812654,3985767.5119837918,-12500.0,-11.435143999816283,-3.7163193407955557,-0.43293230224633455,-4.612634182861556,-1.6178661585203387,-1.4786632295968611,7.6012992211283477,-0.16496241719796845,0.71184190255310509,-0.71184190255310509,0.16496241719796845,14.958328975284436,0.0
699640.0783812654,3985767.5119837918,-12500.0,-13.932687256534772,-6.1185172385468523,-1.9170436865573248,-6.4058258942493733,-3.0277372088160157,-2.3568709762814954,10.170249767122645,-1.2448162789432844,1.4658288897382266,-1.4658288897382266,1.2448162789432844,20.054886787870203,0.0
704640.0783812654,3985767.5119837918,-12500.0,-16.168822074068434,-9.4020568583156088,-4.7583668102822614,-8.6899776836737654,-5.397888416412286,-3.7471573213134026,13.651224147435585,-2.9915752351351084,2.2574142200736724,-2.2574142200736724,2.9915752351351084,26.868460108294229,0.0
709640.0783812654,3985767.5119837918,-12500.0,-17.255341552766392,-13.335011282787345,-9.754737878834753,-11.273085582014465,-9.187235411358321,-5.8721650162163916,18.156716914415128,-5.4730516163849368,2.5820176200622482,-2.5820176200622482,5.4730516163849368,35.614405858447412,0.0
714640.0783812654,3985767.5119837918,-12500.0,-15.867666770394258,-16.855124735753087,-17.621930045414487,-13.495680837700395,-14.755094368939837,-8.9037348139992538,23.529302120100525,-8.299732535955636,1.3057733634644606,-1.3057733634644606,8.299732535955636,45.995811558377738,0.0
719640.0783812654,3985767.5119837918,-12500.0,-10.854927199013444,-17.551154436113574,-27.998204562193141,-13.995892018261626,-21.797762648648082,-12.708473971844569,29.050346757439709,-10.078558564448542,-3.3753326628972395,3.3753326628972395,10.078558564448542,56.592960195589257,0.0
724640.0783812654,3985767.5119837918,-12500.0,-2.8989969394254591,-12.089508053192036,-37.618779331591703,-10.986283122214914,-28.402297858761923,-16.431325480040574,33.225813385667585,-8.1769491991129613,-12.860532203125135,12.860532203125135,8.1769491991129613,64.33803804362968,0.0
729640.0783812654,3985767.5119837918,-12500.0,3.7942670250474588,0.79606241530178523,-39.348629161357451,-3.7769453027189477,-30.619080860602736,-18.296344287954529,34.234478450019722,-0.23036393197467753,-25.178201426497772,25.178201426497772,0.23036393197467753,65.219115915295276,0.0
734640.0783812654,3985767.5119837918,-12500.0,3.5557120113019263,15.802279243284447,-26.279899065261706,5.0395539705525954,-24.57034858091707,-16.445572490580417,31.463973256708989,12.011829283347293,-32.602617705451053,32.602617705451053,-12.011829283347293,57.705268505442533,0.0
739640.0783812654,3985767.5119837918,-12500.0,-3.7477303022146518,22.462931852412972,-0.7839876937652116,10.176781782509252,-10.962519254692797,-10.809663007748659,27.281095335208491,21.107672030103593,-26.453263294056391,26.453263294056391,-21.107672030103593,47.587450913422948,0.0
744640.0783812654,3985767.5119837918,-12500.0,-10.462085176464782,15.805285863364787,23.933635205081256,8.5898898648921378,3.8119375243679876,-3.8021303632769392,25.479871055125059,20.436170292980854,-7.5572065224592269,7.5572065224592269,-20.436170292980854,44.863337432485849,0.0
749640.0783812654,3985767.5119837918,-12500.0,-9.9931452993518359,2.022328930617427,36.310291034236471,2.5506278638588036,13.323629649647165,1.6767815588109007,25.766566309296238,11.5356296866855,13.182068484301293,-13.182068484301293,-11.5356296866855,48.00189126911927,0.0
754640.0783812654,3985767.5119837918,-12500.0,-3.430386396632485,-9.6750502577441715,35.807515138509913,-3.5502052969993589,16.114522089194459,4.4416183753172795,25.252271104407619,1.1411273793896353,26.224386240986547,-26.224386240986547,-1.1411273793896353,48.891364879667208,0.0
759640.0783812654,3985767.5119837918,-12500.0,4.3246875266318012,-15.34713704915313,28.601025712393444,-7.2416479095034196,14.521038233498254,5.0166870504359675,23.048535678192717,-6.023630588981673,29.947272731053545,-29.947272731053545,6.023630588981673,45.492088750401685,0.0
764640.0783812654,3985767.5119837918,-12500.0,9.9503027602271814,-15.995978747044244,20.260783559707253,-8.439485122966218,11.312868882069393,4.4457118006759142,19.826771572595511,-9.196530422158979,27.596337697445826,-27.596337697445826,9.196530422158979,39.479023012538264,0.0
769640.0783812654,3985767.5119837918,-12500.0,12.737263497460109,-14.017713949779738,13.388299382735696,-8.0533250170452746,8.137398879633686,3.51506209726612,16.441870624947796,-9.6007920984601043,22.777167037080162,-22.777167037080162,9.6007920984601043,32.774771649017822,0.0
774640.0783812654,3985767.5119837918,-12500.0,13.333028314792726,-11.226664408643645,8.505634356896147,-6.9604194910165589,5.6028151185489738,2.6205755561139514,13.329720512925592,-8.6239738627398541,17.708119540910687,-17.708119540910687,8.6239738627398541,26.532584839660323,0.0
779640.0783812654,3985767.5119837918,-12500.0,12.633404051073274,-8.5550965905014902,5.2900433624205805,-5.7047999365676318,3.7716911693034518,1.8973918327056996,10.667791418670854,-7.1854781581520566,13.338359517608703,-13.338359517608703,7.1854781581520566,21.218593668675449,0.0
784640.0783812654,3985767.5119837918,-12500.0,11.330695404870184,-6.34184256972671,3.2547139535549205,-4.545394198573339,2.5138254898528918,1.3572101511370407,8.4995374903278584,-5.7525106571814364,9.8974427419162367,-9.8974427419162367,5.7525106571814364,16.903931056812617,0.0
789640.0783812654,3985767.5119837918,-12500.0,9.8500637625322938,-4.6321228507267538,1.9916459253821721,-3.5720044504367068,1.6709536706275234,0.9689419880304333,6.7789814297307247,-4.5103776675235334,7.3079659819846032,-7.3079659819846032,4.5103776675235334,13.485587911276507,0.0
794640.0783812654,3985767.5119837918,-12500.0,8.4149488500821281,-3.3586023589581235,1.2144754817302197,-2.7928781655693138,1.1120493644179461,0.69462977690724648,5.430402754687071,-3.5022183243126288,5.4020076961006911,-5.4020076961006911,3.5022183243126288,10.807927070675657,0.0
799640.0783812654,3985767.5119837918,-12500.0,7.1242804178317352,-2.4276232056465878,0.73741349970062842,-2.184276899987045,0.74225770303978322,0.50183493441908023,4.3776518028841283,-2.7110851225499371,4.0120112084696835,-4.0120112084696835,2.7110851225499371,8.7176989361845578,0.0
804640.0783812654,3985767.5119837918,-12500.0,6.0088377108957038,-1.7529795896920901,0.44439757602878466,-1.7143141264616188,0.49697387118120029,0.36608582738805862,3.5550617631860977,-2.1007380800981235,2.9999253523360734,-2.9999253523360734,2.1007380800981235,7.0838737965720595,0.0
809640.0783812654,3985767.5119837918,-12500.0,5.0657909338269906,-1.2655033122811852,0.26416908974044684,-1.3528299835874518,0.33345312847073472,0.26993107000621752,2.9097864348833786,-1.6334007055893462,2.2608424413414658,-2.2608424413414658,1.6334007055893462,5.8014183131403927,0.0
814640.0783812654,3985767.5119837918,-12500.0,4.2778992349439786,-0.91307926678427231,0.15324349999560305,-1.0746013286151557,0.22376333096339585,0.20124969612586796,2.4007394776473685,-1.2762377086697494,1.7180833376754803,-1.7180833376754803,1.2762377086697494,4.7888136180120284,0.0
819640.0783812654,3985767.5119837918,-12500.0,3.6234154823020481,-0.6576635427410007,0.085078916075930058,-0.8597098872343405,0.14970936905506418,0.15171461959304205,1.9965123593332501,-1.002847897099076,1.3166369785289072,-1.3166369785289072,1.002847897099076,3.9837912080116893,0.0
824640.0783812654,3985767.5119837918,-12500.0,3.0808016844294079,-0.47191787607131863,0.04341404508013539,-0.69287792973761886,0.099412471524705226,0.11561791542240024,1.6732354547987047,-0.79281133476192545,1.0173356284884745,-1.0173356284884745,0.79281133476192545,3.3391066720871292,0.0
829640.0783812654,3985767.5119837918,-12500.0,2.6307069915485743,-0.33633082427732225,0.018231049242465873,-0.56255656279179256,0.065075860817065304,0.089035723277241047,1.4127439839922549,-0.63064651424677076,0.79232404167893256,-0.79232404167893256,0.63064651424677076,2.818960424616753,0.0
644640.0783812654,3990767.5119837918,-12500.0,-0.70696737856788205,0.60247186794789831,0.259938033663899,-0.12293121812118586,0.14206415645655665,-0.013829226447565989,0.79225274221645914,0.50447048079572476,-0.53244384841983017,0.53244384841983017,-0.50447048079572476,1.392819990249893,0.0
649640.0783812654,3990767.5119837918,-12500.0,-0.9312210190350203,0.66894407394860689,0.31672188086635222,-0.17323134875973875,0.16457297463327503,-0.021678212377757133,0.94061095768513381,0.58777884831263438,-0.60396083703423342,0.60396083703423342,-0.58777884831263438,1.6623208852574423,0.0
654640.0783812654,3990767.5119837918,-12500.0,-1.2281420614786882,0.73712450664477669,0.38782391827232043,-0.24449149302737413,0.18968818897995648,-0.0337834680458882,1.1281335552786773,0.68640454238266924,-0.68360596138329721,0.68360596138329721,-0.68640454238266924,2.0062717550973521,0.0
659640.0783812654,3990767.5119837918,-12500.0,-1.6235303515187476,0.80179753178227364,0.47672995120036649,-0.3463245387190122,0.21643626680818032,-0.052632296738110006,1.3682207599653404,0.80244482998852096,-0.77018388520115066,0.77018388520115066,-0.80244482998852096,2.4512268541813422,0.0
664640.0783812654,3990767.5119837918,-12500.0,-2.1529392215729284,0.85321481273173361,0.58722228421508138,-0.49321109719359441,0.24235153633435627,-0.08231697909726389,1.6798535023890464,0.93733000426601731,-0.86046856066791766,0.86046856066791766,-0.93733000426601731,3.0351314794662914,0.0
669640.0783812654,3990767.5119837918,-12500.0,-2.8652162912242045,0.87385256454347549,0.72261113665316812,-0.70715750416486589,0.26204103841861354,-0.12967741292452004,2.0902761045727667,1.0906675623692326,-0.94763425673731916,0.94763425673731916,-1.0906675623692326,3.8128865479507703,0.0
674640.0783812654,3990767.5119837918,-12500.0,-3.8268109423207934,0.83296440284456774,0.883776741274511,-1.0218341852191879,0.26444344087084254,-0.20632846314966877,2.6390864244287,1.2579728454781949,-1.01869001304561,1.01869001304561,-1.2579728454781949,4.8648376054596021,0.0
679640.0783812654,3990767.5119837918,-12500.0,-5.1261326151738205,0.6775737804087788,1.0646200567997193,-1.4889141905968497,0.22759159649529559,-0.33229617439102838,3.3844743876318755,1.4263621193686111,-1.0504747595336781,1.0504747595336781,-1.4263621193686111,6.3096861729173606,0.0
684640.0783812654,3990767.5119837918,-12500.0,-6.8755592603697666,0.31804472260041872,1.2420056930333989,-2.187406982716154,0.10862719003252311,-0.54257582283258088,4.4126615489139791,1.5666559318898998,-1.0039327769133162,1.0039327769133162,-1.5666559318898998,8.323835681335634,0.0
689640.0783812654,3990767.5119837918,-12500.0,-9.204667324339864,-0.39355176361272598,1.3543205778390937,-3.2362168378794847,-0.17505845120567387,-0.89891044824001998,5.8518855527475555,1.6195895266631062,-0.81748692832899228,0.81748692832899228,-1.6195895266631062,11.169302576765087,0.0
694640.0783812654,3990767.5119837918,-12500.0,-12.229448708735456,-1.6912405428604322,1.2575126545954038,-4.8073959612418813,-0.78056790604390536,-1.5104786832332973,7.8922745059924182,1.4737490503877624,-0.40429407563495734,0.40429407563495734,-1.4737490503877624,15.230562068049885,0.0
699640.0783812654,3990767.5119837918,-12500.0,-15.965422530629834,-3.9161370135931906,0.64022913576606011,-7.1285300574847561,-1.9999199374250225,-2.5681370987391792,10.811889228747212,0.93664832673204024,0.33019170870636683,-0.33019170870636683,-0.93664832673204024,21.052779341203252,0.0
704640.0783812654,3990767.5119837918,-12500.0,-20.128686149583928,-7.4807680123709686,-1.1217195482514746,-10.438400500339679,-4.351742458423951,-4.3932550833396853,14.99998093727492,-0.28198303151013782,1.4050739569771187,-1.4050739569771187,0.28198303151013782,29.349020936746435,0.0
709640.0783812654,3990767.5119837918,-12500.0,-23.767351607203477,-12.636972776039636,-5.1496977020594628,-14.807637669199792,-8.6728730220772601,-7.4799949129876397,20.905615466174659,-2.4999530019886249,2.5153178526037596,-2.5153178526037596,2.4999530019886249,40.880270024536799,0.0
714640.0783812654,3990767.5119837918,-12500.0,-24.81450085616396,-18.763778860792247,-13.061692754101703,-19.667789799015633,-16.039909032254393,-12.435070486146561,28.748471000205271,-5.7055567856740987,2.4795815031975552,-2.4795815031975552,5.7055567856740987,55.985943132649581,0.0
719640.0783812654,3990767.5119837918,-12500.0,-20.259455670008435,-22.946691403589647,-25.995829874535705,-22.976462326212349,-27.020137683318247,-19.556822676680309,37.921138487508301,-8.6006189464247349,-1.4903957534158012,1.4903957534158012,8.6006189464247349,73.424104838878165,0.0
724640.0783812654,3990767.5119837918,-12500.0,-8.7174803291341867,-18.918645168399038,-41.222572363826281,-20.749132934832264,-39.496023726728346,-27.706933666271905,46.157242143706974,-7.2802364179869148,-13.245443758024718,13.245443758024718,7.2802364179869148,88.572337928651493,0.0
729640.0783812654,3990767.5119837918,-12500.0,4.0032923710977828,-0.98715303215660977,-47.223224110231712,-9.5308017503634606,-45.888323987876895,-32.951368571598302,49.572341282883379,3.6104461866497957,-32.306065340305864,32.306065340305864,-3.6104461866497957,93.216904062238314,0.0
734640.0783812654,3990767.5119837918,-12500.0,5.0231406513499195,23.672255873217665,-27.920020134920623,6.7603734847382073,-35.954114567066107,-29.869320956633114,46.036798502549857,22.571092390250413,-44.906921185093793,44.906921185093793,-22.571092390250413,82.762297291218005,0.0
739640.0783812654,3990767.5119837918,-12500.0,-7.9678889831343405,32.513790712400372,14.147577742410071,15.419558478577203,-10.019383374675552,-17.654721874422332,40.745388657907839,34.293444573800947,-31.402641050900222,31.402641050900222,-34.293444573800947,70.590719436437723,0.0
744640.0783812654,3990767.5119837918,-12500.0,-17.190762354102759,15.953760516796001,49.641948955328125,9.6212189507006745,15.683317241545479,-3.1865721414304873,40.623499816127897,26.098838533137155,4.2434308480279288,-4.2434308480279288,-26.098838533137155,74.202162691846283,0.0
749640.0783812654,3990767.5119837918,-12500.0,-10.913673747054165,-8.2028662037540947,58.172649081855724,-2.7802676137631455,27.494969605002851,6.2817981813470887,41.420848852397299,6.5370822512105971,35.411190705642085,-35.411190705642085,-6.5370822512105971,79.834848898475329,0.0
754640.0783812654,3990767.5119837918,-12500.0,3.1129372973647418,-22.390917562286941,47.213325118104606,-11.889236518747369,26.593849791950717,9.4655419551448627,38.47319843333959,-9.1489770051030916,47.236743736884165,-47.236743736884165,9.1489770051030916,75.860842375416695,0.0
759640.0783812654,3990767.5119837918,-12500.0,14.462288661023981,-24.967819427421954,31.672901213623017,-15.117436204597601,20.38532174727564,8.8504997484846246,32.717917394900788,-15.904153974255125,44.139745651180775,-44.139745651180775,15.904153974255125,65.013462953732855,0.0
764640.0783812654,3990767.5119837918,-12500.0,19.904714260548996,-21.439380602547505,19.152212835957808,-14.403384527747875,13.925228772974537,6.9210616682693482,26.313450706987581,-16.316313645917806,35.176973418658093,-35.176973418658093,16.316313645917806,52.368128136521548,0.0
769640.0783812654,3990767.5119837918,-12500.0,20.760012196069113,-16.322297852105596,10.938010159959028,-12.071520830391636,8.9744890622838138,4.977446129923508,20.520674508284973,-13.950352535276725,25.921309240651208,-25.921309240651208,13.950352535276725,40.848331035359607,0.0
774640.0783812654,3990767.5119837918,-12500.0,19.154013902845826,-11.692034093713229,6.0433756083325774,-9.4973197375084162,5.6271197023995629,3.4444141059581117,15.78730935484313,-10.968492876363188,18.40363908073256,-18.40363908073256,10.968492876363188,31.439133899486421,0.0
779640.0783812654,3990767.5119837918,-12500.0,16.607890238199825,-8.1181782155194284,3.2618008750195493,-7.2483786331103843,3.4906078312342239,2.3502825039778608,12.116257528353808,-8.2831365219174558,12.875436604393322,-12.875436604393322,8.2831365219174558,24.145364623564085,0.0
784640.0783812654,3990767.5119837918,-12500.0,13.943648776059927,-5.5499959424027336,1.7179110026671345,-5.4641233045960584,2.1607543155254163,1.6031602422943476,9.3381165472449368,-6.1438065430579138,8.9882036889467543,-8.9882036889467543,6.1438065430579138,18.624409186014983,0.0
789640.0783812654,3990767.5119837918,-12500.0,11.522695003841442,-3.7661272128464054,0.87181830543373462,-4.1104913470967182,1.3396584004825671,1.1015719037946372,7.2549648028151701,-4.5309874001886747,6.3044182307961947,-6.3044182307961947,4.5309874001886747,14.480003373519455,0.0
794640.0783812654,3990767.5119837918,-12500.0,9.4610445716432814,-2.5457427882031642,0.41264751453848103,-3.1038700311258109,0.83222145242523649,0.76563179407094817,5.6943519810156387,-3.3453446087378413,4.4594144324757785,-4.4594144324757785,3.3453446087378413,11.367777683767065,0.0
799640.0783812654,3990767.5119837918,-12500.0,7.761455306734014,-1.7152213284192819,0.16666640675254329,-2.3603376438297237,0.51693265690714696,0.53936532689373451,4.5195181223294467,-2.4822289530881512,3.1867106489342629,-3.1867106489342629,2.4822289530881512,9.0183338488323983,0.0
804640.0783812654,3990767.5119837918,-12500.0,6.3825603219996427,-1.1499998979006139,0.037875301890271627,-1.8107632191028376,0.31962742086462564,0.38543369041721276,3.6265599305723732,-1.8547466740039158,2.3020813215742577,-2.3020813215742577,1.8547466740039158,7.2305775013841345,0.0
809640.0783812654,3990767.5119837918,-12500.0,5.2714411555465714,-0.76432180431348407,-0.026659562570890916,-1.4025530848805945,0.19526475102488861,0.27941675608437166,2.9406005942769546,-1.397004173166531,1.6811394742916852,-1.6811394742916852,1.397004173166531,5.8575032792856234,0.0
814640.0783812654,3990767.5119837918,-12500.0,4.3773914725408485,-0.50021664323114556,-0.056181211078958494,-1.0971273260732228,0.11640468084170037,0.20542015489668591,2.4081542169022798,-1.0610408376519138,1.2405500109635703,-1.2405500109635703,1.0610408376519138,4.7924460011506058,0.0
819640.0783812654,3990767.5119837918,-12500.0,3.6567343275724005,-0.31874706668355168,-0.066889490081426209,-0.86664128722660827,0.066204573012821913,0.15306434353454923,1.9906453493343885,-0.81258919012501085,0.92443709789154349,-0.92443709789154349,0.81258919012501085,3.958014434900841,0.0
824640.0783812654,3990767.5119837918,-12500.0,3.0736924102508718,-0.19375565376306794,-0.067770542690933189,-0.69110802165530105,0.03422596772329986,0.11551765651053539,1.6600178447143747,-0.62733166312871735,0.69512658754888057,-0.69512658754888057,0.62733166312871735,3.2978204718652733,0.0
829640.0783812654,3990767.5119837918,-12500.0,2.5997020193311737,-0.10760274430030947,-0.063797836021611765,-0.55617189623137275,0.013930810788187907,0.088236761389978394,1.3956988921694555,-0.48801607211209036,0.52700619929725578,-0.52700619929725578,0.48801607211209036,2.7705054879468021,0.0
644640.0783812654,3995767.5119837918,-12500.0,-0.3540024802179304,0.73840500848646806,0.23105143229909164,-0.049586044376060269,0.17031153783785485,-0.0024722870724961017,0.81363954550055695,0.51198913240685928,-0.59429589202116806,0.59429589202116806,-0.51198913240685928,1.4107861989696109,0.0
649640.0783812654,3995767.5119837918,-12500.0,-0.51184326972920879,0.84825723900809435,0.28663570455550058,-0.081404512027700701,0.20359106088020631,-0.0066180883916520401,0.96222445173405502,0.60667956163907566,-0.69019427885568962,0.69019427885568962,-0.60667956163907566,1.6710052501983361,0.0
654640.0783812654,3995767.5119837918,-12500.0,-0.72890962855319019,0.97564630032300748,0.35880721260824266,-0.1288900688226296,0.24417794146440427,-0.013628834684374737,1.1490428201417424,0.72309047909756718,-0.80378586047145473,0.80378586047145473,-0.72309047909756718,2.0002737902077263,0.0
659640.0783812654,3995767.5119837918,-12500.0,-1.0291092960954595,1.121820893158481,0.45322928366895182,-0.20013538132868508,0.29341852127308632,-0.025423776318879172,1.3870360233817065,0.86675052199325631,-0.93783356932597628,0.93783356932597628,-0.86675052199325631,2.4229739303568865,0.0
664640.0783812654,3995767.5119837918,-12500.0,-1.4469418350320316,1.2863168104715208,0.57756773093079561,-0.30783593548015975,0.35242976781346974,-0.045303738623382842,1.6946287266754929,1.0444320983131268,-1.0947354245461034,1.0947354245461034,-1.0444320983131268,2.9742798331240965,0.0
669640.0783812654,3995767.5119837918,-12500.0,-2.0324835794623692,1.4648962637779344,0.74203942473067475,-0.47217601619903693,0.42138945999188743,-0.079046128833729454,2.0985184277728819,1.2640934400382422,-1.2755663983531185,1.2755663983531185,-1.2640934400382422,3.7058547762942275,0.0
674640.0783812654,3995767.5119837918,-12500.0,-2.858631510262764,1.6455836397919736,0.95979471649151615,-0.72566890266169948,0.49791790971744798,-0.13695704729580455,2.6381002630834303,1.5343124340754479,-1.4781616354386826,1.4781616354386826,-1.5343124340754479,4.6949725165784404,0.0
679640.0783812654,3995767.5119837918,-12500.0,-4.0312399142169415,1.8011404465966376,1.2464903142962775,-1.1213113859163832,0.57349397412199066,-0.23779261108778244,3.3725790369692437,1.8625261215193725,-1.693451032292334,1.693451032292334,-1.8625261215193725,6.0592831025874867,0.0
684640.0783812654,3995767.5119837918,-12500.0,-5.7021308410700096,1.874989978520432,1.6173210021038427,-1.746261447004146,0.62562427900766282,-0.41638497879777481,4.3925065151974279,2.2506429720222592,-1.898759597160818,1.898759597160818,-2.2506429720222592,7.9808513899770626,0.0
689640.0783812654,3995767.5119837918,-12500.0,-8.0823027602223316,1.7555189352241667,2.0770978613053859,-2.7442769205665538,0.60085851410970614,-0.73866987127506489,5.8385310179056571,2.6851782305957892,-2.0463412469771018,2.0463412469771018,-2.6851782305957892,10.745103860273868,0.0
694640.0783812654,3995767.5119837918,-12500.0,-11.444412870466683,1.2313946930023432,2.5926057472426325,-4.3503673428080347,0.37828961564257718,-1.3314136801786969,7.9315391063753218,3.1167363332488009,-2.046164497043963,2.046164497043963,-3.1167363332488009,14.802353941303242,0.0
699640.0783812654,3995767.5119837918,-12500.0,-16.081218094426831,-0.077929595709371899,3.0223698929577791,-6.9362540692326222,-0.30721653588650333,-2.4401403118649236,11.019524823431588,3.4213036876836469,-1.7483730297831135,1.7483730297831135,-3.4213036876836469,20.85830228000323,0.0
704640.0783812654,3995767.5119837918,-12500.0,-22.133543452541129,-2.7999815461011268,2.9522460363740359,-11.040769901309872,-2.0180954320745954,-4.5358620063464477,15.644800705893324,3.3401213942104069,-0.9574108472799705,0.9574108472799705,-3.3401213942104069,29.982613492607591,0.0
709640.0783812654,3995767.5119837918,-12500.0,-29.103304597764499,-7.779354459566731,1.3568014070088701,-17.274277771279412,-5.8803402606080555,-8.4824949849610576,22.612145267376921,2.4345854707641963,0.40510163848588077,-0.40510163848588077,-2.4345854707641963,43.651072036337837,0.0
714640.0783812654,3995767.5119837918,-12500.0,-34.80801690076192,-15.511941818693701,-3.909412401017887,-25.761261440477433,-13.878406140369163,-15.677261985184137,32.871989072936088,0.25729188660639313,1.668476191057084,-1.668476191057084,-0.25729188660639313,63.405166782511877,0.0
719640.0783812654,3995767.5119837918,-12500.0,-34.091545144163511,-24.005619006644356,-16.078898335629429,-34.449384608402653,-28.477323751863345,-27.668122973743099,46.639936870909736,-2.6214988460572255,-0.19004193760844901,0.19004193760844901,2.6214988460572255,89.285924972222347,0.0
724640.0783812654,3995767.5119837918,-12500.0,-20.463420777924593,-24.423460300689602,-35.726315060297665,-36.237560759472501,-49.203005184452955,-43.848048859922827,61.304820772023838,-1.8165690855527012,-12.272933014281172,12.272933014281172,1.8165690855527012,115.8217833236542,0.0
729640.0783812654,3995767.5119837918,-12500.0,1.9582202116781278,-1.596210587305448,-48.332494773317428,-20.277472861293937,-63.597577614914343,-56.243939389075088,69.513136951875211,12.565472905281069,-39.63845769603671,39.63845769603671,-12.565472905281069,127.92476770740942,0.0
734640.0783812654,3995767.5119837918,-12500.0,5.8326292739010626,39.144735934809518,-18.948916477388277,9.8942782941280782,-45.221140207943158,-49.165889945219071,65.902337996583825,41.368973087662027,-59.98381806168355,59.98381806168355,-41.368973087662027,115.3320842353055,0.0
739640.0783812654,3995767.5119837918,-12500.0,-18.879797846846568,47.084657922035753,52.996596029317743,21.654285878349231,8.2244718343016956,-19.768151000118863,65.035204147685164,51.775204553092131,-26.696588389872936,26.696588389872936,-51.775204553092131,116.15249427188824,0.0
744640.0783812654,3995767.5119837918,-12500.0,-26.532853321043664,5.4024716157951387,97.095110779622274,1.1947861358621732,50.007681901233809,8.7867639923193988,73.341794033123449,21.545231496199083,42.069099168349567,-42.069099168349567,-21.545231496199083,140.56672394769322,0.0
749640.0783812654,3995767.5119837918,-12500.0,-2.5308428347315508,-32.504270122647739,84.506317243430871,-22.181997588689164,54.625378281041741,20.329525656537253,71.840491363233483,-14.847200718815479,79.395655759528978,-79.395655759528978,14.847200718815479,140.37757572682551,0.0
754640.0783812654,3995767.5119837918,-12500.0,22.493689855140353,-41.412021044152901,52.428739702762783,-30.618451669812906,40.366037100623885,19.607045744497228,59.774465250347795,-30.371186625776733,75.877439716600705,-75.877439716600705,30.371186625776733,117.62838867138548,0.0
759640.0783812654,3995767.5119837918,-12500.0,33.740847643872272,-34.20617403952685,27.450230758039392,-28.334627559130926,25.285636324466896,14.824978968881183,45.53307485584746,-29.747107194796058,56.889505568787811,-56.889505568787811,29.747107194796058,90.084516220311286,0.0
764640.0783812654,3995767.5119837918,-12500.0,34.414832615768361,-23.966086473863925,13.091181538337683,-22.451076968863411,14.727909969523166,10.09818620835707,33.452534866697555,-23.460808784090371,38.50848783299358,-38.50848783299358,23.460808784090371,66.434058843525293,0.0
769640.0783812654,3995767.5119837918,-12500.0,30.330651574657043,-15.601548563018611,5.8095555429731585,-16.615238184269558,8.3236531731678802,6.5778780058847586,24.358288437718347,-16.934926216085596,25.033812545193658,-25.033812545193658,16.934926216085596,48.469653805241848,0.0
774640.0783812654,3995767.5119837918,-12500.0,25.029072020302475,-9.8110002668223117,2.3358071582509421,-11.957666926272225,4.6554914183040896,4.2274526373455563,17.824321810643813,-11.790378265439193,16.097778156688264,-16.097778156688264,11.790378265439193,35.473657205581034,0.0
779640.0783812654,3995767.5119837918,-12500.0,20.051430580794239,-6.0615687309327502,0.7454341898959771,-8.5438432875101569,2.5966645500881289,2.7264431395095956,13.191390049508614,-8.1169393866646615,10.388365338599105,-10.388365338599105,8.1169393866646615,26.226859564830939,0.0
784640.0783812654,3995767.5119837918,-12500.0,15.883404168558716,-3.7000428335257389,0.051922088075077678,-6.1275951646554203,1.4444067252060915,1.7805040340432432,9.8987591886334609,-5.5949105509508046,6.7740617648001971,-6.7740617648001971,5.5949105509508046,19.652734086770771,0.0
789640.0783812654,3995767.5119837918,-12500.0,12.562785731080627,-2.2272923137766578,-0.224018897357013,-4.436503077541162,0.79638443604701215,1.1825799978121168,7.5382732683326292,-3.885385065181576,4.4761933155632212,-4.4761933155632212,3.885385065181576,14.944157524888361,0.0
794640.0783812654,3995767.5119837918,-12500.0,9.9740401048122234,-1.3105261550467697,-0.31021900488176413,-3.2517644196671931,0.42933888693367345,0.80027085738663573,5.8258170234463629,-2.7263307984313205,2.9992863650688695,-2.9992863650688695,2.7263307984313205,11.532820785002858,0.0
799640.0783812654,3995767.5119837918,-12500.0,7.9711470862693252,-0.73929846534904942,-0.31383333575620503,-2.4155801607696481,0.22021830762472491,0.55195721403987252,4.5666927140310323,-1.9350918992507185,2.036785278657907,-2.036785278657907,1.9350918992507185,9.028161143100002,0.0
804640.0783812654,3995767.5119837918,-12500.0,6.4215991266781227,-0.38316212554815293,-0.28472304272173465,-1.8190343480346722,0.10085499177905245,0.38782362868141529,3.6279212518817023,-1.3894423057006573,1.400115289181181,-1.400115289181181,1.3894423057006573,7.1634052043749552,0.0
809640.0783812654,3995767.5119837918,-12500.0,5.2178451751158139,-0.16162369753753236,-0.24562139292610716,-1.3881859359526163,0.033077135307215337,0.2773610988391722,2.9182955111042372,-1.0087632326987137,0.97267957049682918,-0.97267957049682918,1.0087632326987137,5.7557371200534648,0.0
814640.0783812654,3995767.5119837918,-12500.0,4.2767295339286937,-0.024856807828622658,-0.2064480236000478,-1.0729869278136255,-0.0047714035291622284,0.20168853932345085,2.3747198042537989,-0.7399586017583607,0.68161337679105516,-0.68161337679105516,0.7399586017583607,4.6788387993557556,0.0
819640.0783812654,3995767.5119837918,-12500.0,3.5353603855405886,0.058196062784116612,-0.17111876018799185,-0.83941707759495043,-0.025142901521076091,0.14895595887393939,1.9530640551462084,-0.5478746932205818,0.48076902782865433,-0.48076902782865433,0.5478746932205818,3.8444772264068643,0.0
824640.0783812654,3995767.5119837918,-12500.0,2.9465928534139563,0.10705922708464809,-0.14079498529543841,-0.66416175903678865,-0.035287959890726715,0.11160850889631151,1.6220885414143456,-0.4090313432111346,0.3404932178426941,-0.3404932178426941,0.4090313432111346,3.1902753789019007,0.0
829640.0783812654,3995767.5119837918,-12500.0,2.4751443030819491,0.1341157018473243,-0.1154327907093497,-0.53107843963097323,-0.039474585033340483,0.084750540456105375,1.3594008101722204,-0.30757787009107185,0.24144822976214539,-0.24144822976214539,0.30757787009107185,2.6715803212398228,0.0
834640.0783812654,3995767.5119837918,-12500.0,2.0945449638418689,0.14728502926612652,-0.094515054780125701,-0.42886389540606684,-0.040236550782965515,0.065157655828105218,1.1487495638395009,-0.23269091432064501,0.17083924426097577,-0.17083924426097577,0.23269091432064501,2.2560262176508341,0.0
644640.0783812654,4000767.5119837918,-12500.0,0.052969744850900932,0.83178853929227492,0.17702361191905575,0.034358777324136697,0.18927396795840756,0.010407819388431031,0.85514984300539609,0.47970006883198879,-0.61947544056122927,0.61947544056122927,-0.47970006883198879,1.4863084655443637,0.0
649640.0783812654,4000767.5119837918,-12500.0,-0.017705036221505373,0.97530033475519418,0.22186891112469737,0.025834315994327239,0.23063469435345441,0.010789165526068281,1.0090185472018702,0.57418124772984547,-0.73135906801103034,0.73135906801103034,-0.57418124772984547,1.7511689463552986,0.0
654640.0783812654,4000767.5119837918,-12500.0,-0.12501542118480025,1.1500764958956491,0.28142244298426428,0.0094400869394587212,0.28319311743056885,0.01020529378314777,1.2013968497052674,0.69285928633729998,-0.86863424179244841,0.86863424179244841,-0.69285928633729998,2.0826444177638721,0.0
659640.0783812654,4000767.5119837918,-12500.0,-0.28642084602351703,1.3637552997689257,0.36150987793098111,-0.019916362931983886,0.35043116418647358,0.007660792991212844,1.444883641506514,0.84324753952880238,-1.0378783998335168,1.0378783998335168,-0.84324753952880238,2.5029652902430195,0.0
664640.0783812654,4000767.5119837918,-12500.0,-0.52831423334142458,1.6256063560123601,0.47061602991697044,-0.070687229138030425,0.43692891580339138,0.001282177660407743,1.757255992464801,1.0355076555691562,-1.2473243129876694,1.2473243129876694,-1.0355076555691562,3.043813875181121,0.0
669640.0783812654,4000767.5119837918,-12500.0,-0.89101359231125432,1.9463792925175694,0.62121338988482844,-0.15709143415606591,0.54857463084589086,-0.012485095990299388,2.1640650177418088,1.2834065986213803,-1.5070208148378534,1.5070208148378534,-1.2834065986213803,3.7512825608940017,0.0
674640.0783812654,4000767.5119837918,-12500.0,-1.436722793839823,2.3373703683523872,0.83175063696216001,-0.30341214334721078,0.69255810529391304,-0.040476324036605039,2.7027787015386995,1.6055285856231751,-1.828630555831315,1.828630555831315,-1.6055285856231751,4.6939445652313214,0.0
679640.0783812654,4000767.5119837918,-12500.0,-2.2621972448605985,2.8076236382663931,1.1295272995486383,-0.55179055901226493,0.87662523770433631,-0.096071575461845277,3.4295362123401771,2.0266321112754579,-2.2242846845149917,2.2242846845149917,-2.0266321112754579,5.9762931294611041,0.0
684640.0783812654,4000767.5119837918,-12500.0,-3.5185750510240283,3.3568926151266272,1.554501037714114,-0.97653943426945244,1.1062179738380995,-0.20602103142549708,4.4303940896625793,2.5786787402850004,-2.7032407939213829,2.7032407939213829,-2.5786787402850004,7.7616044121598167,0.0
689640.0783812654,4000767.5119837918,-12500.0,-5.4410634588597739,3.9592697095560276,2.1631680050948989,-1.7105786522720401,1.3759422057212751,-0.42506416693759341,5.8404056704676712,3.3001151122015098,-3.2637828529896624,3.2637828529896624,-3.3001151122015098,10.311503486468814,0.0
694640.0783812654,4000767.5119837918,-12500.0,-8.3884397234722119,4.5269807212883251,3.0283989437446266,-2.9938156578561208,1.6462748346438614,-0.86788719458077224,7.8764349235043847,4.2297332510680619,-3.8756244074194939,3.8756244074194939,-4.2297332510680619,14.054967200543615,0.0
699640.0783812654,4000767.5119837918,-12500.0,-12.878214594072917,4.8345411433498233,4.2207432683349513,-5.2580312556866744,1.7826429556722938,-1.7797540476989273,10.893795986099294,5.3866585865284753,-4.446048085100629,4.446048085100629,-5.3866585865284753,19.707119709373043,0.0
704640.0783812654,4000767.5119837918,-12500.0,-19.552252429328032,4.3745823741077032,5.7263981697560959,-9.2577594005479593,1.4016190977281082,-3.6909440954003929,15.4827232189268,6.7204983965477787,-4.7692649200361679,4.7692649200361679,-6.7204983965477787,28.461582093077908,0.0
709640.0783812654,4000767.5119837918,-12500.0,-28.854074536714496,2.1458290412747134,7.1787654019351912,-16.192437062656428,-0.49481977703972491,-7.7339402691352177,22.625418744632455,8.0169235904740468,-4.5114621804987483,4.5114621804987483,-8.0169235904740468,42.243822610188843,0.0
714640.0783812654,4000767.5119837918,-12500.0,-39.839579500775471,-3.3782013247984617,7.1358610887322236,-27.461530656932027,-6.2677653364053603,-16.169568481554851,33.888816021617231,8.8282187478627652,-3.5233757378852615,3.5233757378852615,-8.8282187478627652,63.793029567627521,0.0
719640.0783812654,4000767.5119837918,-12500.0,-47.204488351170895,-12.779472729985365,1.7238209905033064,-42.708302722489996,-20.522464060083895,-32.622192258620693,51.052027159897364,8.9675963817648459,-3.5149860947771598,3.5149860947771598,-8.9675963817648459,95.491321320873695,0.0
724640.0783812654,4000767.5119837918,-12500.0,-38.083444213320412,-18.826536916027813,-14.950259788375803,-53.277501250217519,-47.797058114175705,-58.995455482462724,72.91725658435324,11.53272920832079,-12.85085671486326,12.85085671486326,-11.53272920832079,133.74859266028542,0.0
729640.0783812654,4000767.5119837918,-12500.0,-5.0379837592884043,5.7172640789465037,-34.563743632902387,-34.286146245179609,-74.446867595636007,-81.275778968836548,88.412423997350018,29.601517756386208,-47.437845197175967,47.437845197175967,-29.601517756386208,157.11359636570501,0.0
734640.0783812654,4000767.5119837918,-12500.0,3.5866117855486279,73.03250790265362,5.5002040157663297,21.487626188128765,-36.794128520314729,-53.334396561089108,90.815667973674721,69.379450236765067,-80.506854377387484,80.506854377387484,-69.379450236765067,157.48144708407378,0.0
739640.0783812654,4000767.5119837918,-12500.0,-47.988386873003144,68.267329172804537,126.53548191945336,22.597868971564985,83.808862866634442,31.794654232666481,133.92339104081387,58.52990998840189,3.6408835447118761,-3.6408835447118761,-58.52990998840189,243.89530880460518,0.0
744640.0783812654,4000767.5119837918,-12500.0,-29.783606822918074,-31.714253396201624,156.84583014803738,-48.244057591591691,134.02916899420444,73.300669937715824,159.48446462118295,-25.198201689125419,130.55406034705297,-130.55406034705297,25.198201689125419,300.18270708842067,0.0
749640.0783812654,4000767.5119837918,-12500.0,36.202221724144522,-71.557611231096814,90.76557118944298,-77.037739426514705,93.483482614742798,58.512130369180056,129.3790862868417,-66.781292728474938,141.04207886338011,-141.04207886338011,66.781292728474938,248.27603068998036,0.0
754640.0783812654,4000767.5119837918,-12500.0,63.779124839297182,-55.765163566436271,36.51391965210199,-64.700642452618197,49.243485832593962,36.989682683227272,88.682739298418255,-58.753148143305772,95.189738982163163,-95.189738982163163,58.753148143305772,172.8964675250798,0.0
759640.0783812654,4000767.5119837918,-12500.0,61.318267720599572,-33.546127064341043,11.596624382512895,-45.561043844184653,23.894016042359283,22.206030192127134,58.650964325931042,-40.048744045582765,55.447373324456095,-55.447373324456095,40.048744045582765,115.6438943292804,0.0
764640.0783812654,4000767.5119837918,-12500.0,49.84352211551596,-18.408860791857695,2.2619654410397065,-30.469062952881526,11.343345155579017,13.148918270022442,39.287199805953136,-25.207595448499134,31.120588647939257,-31.120588647939257,25.207595448499134,77.796377878536546,0.0
769640.0783812654,4000767.5119837918,-12500.0,38.203554228700945,-9.651732234647886,-0.78265692482362115,-20.168766548590465,5.3276448556776028,7.8047568950449913,26.975426399071445,-15.551003259072052,17.473979701379626,-17.473979701379626,15.551003259072052,53.327612402620403,0.0
774640.0783812654,4000767.5119837918,-12500.0,28.741713841627313,-4.8438468240969366,-1.5297234260420187,-13.443817453296079,2.4513937961472498,4.6990736718109059,18.966358808698693,-9.6239164032625251,9.9355025164903719,-9.9355025164903719,9.6239164032625251,37.379518735343815,0.0
779640.0783812654,4000767.5119837918,-12500.0,21.599138184882129,-2.2539857213890251,-1.5063442259302597,-9.096944658318618,1.0700832035096171,2.8906320332311268,13.639994928807782,-6.0307299478883527,5.7343948209555817,-5.7343948209555817,6.0307299478883527,26.805638501566946,0.0
784640.0783812654,4000767.5119837918,-12500.0,16.346871869655285,-0.8737395922507134,-1.2685680334797853,-6.2712904729366263,0.40574367087666657,1.8229036082538259,10.023910898069508,-3.8389828796128409,3.3523262325749705,-3.3523262325749705,3.8389828796128409,19.651327842357311,0.0
789640.0783812654,4000767.5119837918,-12500.0,12.507006108482038,-0.14896595004090893,-1.0077701847844589,-4.4096615858116417,0.089388501266274317,1.1794683932356189,7.5173804302540219,-2.4831696723613295,1.9750190187741152,-1.9750190187741152,2.4831696723613295,14.707108490512775,0.0
794640.0783812654,4000767.5119837918,-12500.0,9.6886141594063133,0.22016247890059049,-0.78174063878949662,-3.1620192050613736,-0.056215316568486121,0.78252247310429768,5.7440438747427462,-1.6300169581139174,1.1634963402743237,-1.1634963402743237,1.6300169581139174,11.218148256303458,0.0
799640.0783812654,4000767.5119837918,-12500.0,7.6017738926598337,0.39600584173218739,-0.60120013599306232,-2.3102706086013112,-0.11757579625032644,0.5316370553232439,4.4646242842947705,-1.083569220494673,0.67731944715559467,-0.67731944715559467,1.083569220494673,8.7065178973154662,0.0
804640.0783812654,4000767.5119837918,-12500.0,6.0394793021773685,0.46710533024805517,-0.46180013576204954,-1.7178773340199858,-0.13758251261729951,0.36925550631139631,3.5244195249160426,-0.72751944699273485,0.38212179811670793,-0.38212179811670793,0.72751944699273485,6.8643294988652679,0.0
809640.0783812654,4000767.5119837918,-12500.0,4.8558605369398951,0.48215021993456392,-0.35563732642659729,-1.2983654476625035,-0.13776413207852861,0.26174813391206248,2.8215924363278067,-0.49180561724149319,0.20119851743107378,-0.20119851743107378,0.49180561724149319,5.4895331001957794,0.0
814640.0783812654,4000767.5119837918,-12500.0,3.9482509711413796,0.46809446405524824,-0.27510815462295563,-0.99614535514697788,-0.12899777695366343,0.18904083221163281,2.2878700227924988,-0.33349686250156058,0.089833717686995398,-0.089833717686995398,0.33349686250156058,4.447033167725591,0.0
819640.0783812654,4000767.5119837918,-12500.0,3.2440295158600159,0.43989945826456484,-0.21395422526656785,-0.77489091983615732,-0.11676461989113425,0.13888595609514148,1.8766534990416543,-0.22581746556610605,0.021437357204524929,-0.021437357204524929,0.22581746556610605,3.6448369620007881,0.0
824640.0783812654,4000767.5119837918,-12500.0,2.6914014158780333,0.40583726635491302,-0.16733379782505522,-0.61046218546139452,-0.10377941843766904,0.10364829655015825,1.5555849097458427,-0.15177349732559625,-0.020094306319922747,0.020094306319922747,0.15177349732559625,3.0191963607987731,0.0
829640.0783812654,4000767.5119837918,-12500.0,2.2530573187484002,0.37041585448549469,-0.13160325577991736,-0.48654915278700467,-0.091329385719206582,0.078468487147109939,1.3018248733943354,-0.10039704432978558,-0.044676809097261821,0.044676809097261821,0.10039704432978558,2.5251977169697128,0.0
834640.0783812654,4000767.5119837918,-12500.0,1.9018338459051753,0.33601366250177878,-0.10405308918783396,-0.39195401007030362,-0.079966040384547188,0.060192385022661214,1.0990026741710235,-0.064496524564844629,-0.058505524354860915,0.058505524354860915,0.064496524564844629,2.1307004027659473,0.0
644640.0783812654,4005767.5119837918,-12500.0,0.49436399150717031,0.87049257243809564,0.10533410527132848,0.12497204922820394,0.19651655518800745,0.024227833871276524,0.91684628350012831,0.40766909808139051,-0.59904662356127691,0.59904662356127691,-0.40766909808139051,1.620326358436571,0.0
649640.0783812654,4005767.5119837918,-12500.0,0.52569421793622606,1.0324093373247096,0.13199358284150381,0.14310320133020743,0.24199491989172653,0.029698829069334506,1.0822704725836014,0.48944638309238342,-0.71439084174734191,0.71439084174734191,-0.48944638309238342,1.9080003244467929,0.0
654640.0783812654,4005767.5119837918,-12500.0,0.55022874051464288,1.2343215816308801,0.16785896872363815,0.1630799934780543,0.30098756858777131,0.03648268359226492,1.2887223481272412,0.59312787684900148,-0.85880755491202232,0.85880755491202232,-0.59312787684900148,2.266255897649176,0.0
659640.0783812654,4005767.5119837918,-12500.0,0.56099712773731547,1.4884692242691417,0.21689611979082157,0.18405716625118659,0.37840958932564983,0.044796396517218229,1.5493260799616018,0.72607838747398268,-1.0412940833921167,1.0412940833921167,-0.72607838747398268,2.7175499948817166,0.0
664640.0783812654,4005767.5119837918,-12500.0,0.54630279025988471,1.8114673636001124,0.28510941684112784,0.20399341332523355,0.48127283741720445,0.054731773218221147,1.882400240278129,0.89863651059225891,-1.274081663401367,1.274081663401367,-0.89863651059225891,3.2932387628608604,0.0
669640.0783812654,4005767.5119837918,-12500.0,0.48651570105910991,2.2259981194375196,0.38175538194531011,0.21848866616898538,0.61968189661108397,0.065987952421290713,2.3139226748256019,1.1254994804876961,-1.5738907041921772,1.5738907041921772,-1.1254994804876961,4.0378453938462373,0.0
674640.0783812654,4005767.5119837918,-12500.0,0.3485514907491814,2.7630937216863849,0.52136949150347756,0.21850186273203584,0.80830719571315546,0.077233875208657321,2.8813591047645168,1.4278155686775604,-1.9636321459157888,1.9636321459157888,-1.4278155686775604,5.0157491346975975,0.0
679640.0783812654,4005767.5119837918,-12500.0,0.076272310986613565,3.465027879402883,0.72719438317481322,0.1858086457218765,1.0684917022343479,0.084601245607313538,3.639706387711882,1.836344851568761,-2.4745892549449335,2.4745892549449335,-1.836344851568761,6.3218826432206843,0.0
684640.0783812654,4005767.5119837918,-12500.0,-0.42629647993381564,4.388429574992494,1.0370187391668213,0.083820318637167102,1.4310057457241141,0.078100241214748331,4.6711729477274275,2.3961829914858379,-3.1488685028698171,3.1488685028698171,-2.3961829914858379,8.0991955377418705,0.0
689640.0783812654,4005767.5119837918,-12500.0,-1.3241952495890503,5.6059857088832112,1.5130673136263983,-0.16124530114139443,1.938756928837521,0.032964262934754317,6.1008590891904859,3.173602948984644,-4.041163029898156,4.041163029898156,-3.173602948984644,10.567728500072171,0.0
694640.0783812654,4005767.5119837918,-12500.0,-2.9011847721997546,7.2016136890047386,2.25820501862552,-0.69934319410558787,2.6461429557000824,-0.11166208600345824,8.1222539043101634,4.2652453845791092,-5.2169055071450332,5.2169055071450332,-4.2652453845791092,14.07379424584747,0.0
699640.0783812654,4005767.5119837918,-12500.0,-5.6379789076456888,9.24494039250221,3.4398150581708618,-1.8369173127600591,3.6029285097398192,-0.50618112281220673,11.038276134074096,5.8083250513967686,-6.7393414610648898,6.7393414610648898,-5.8083250513967686,19.173657308627451,0.0
704640.0783812654,4005767.5119837918,-12500.0,-10.309583469446824,11.709842591366128,5.3133855930783227,-4.195960214909265,4.7823633802962453,-1.5257520622885454,15.325142271801649,7.9860467582995005,-8.6301137851528651,8.6301137851528651,-7.9860467582995005,26.773042703737353,0.0
709640.0783812654,4005767.5119837918,-12500.0,-17.997731002637316,14.264753407208003,8.1932144544416428,-8.988330152371617,5.8282640151038532,-4.1048382992356345,21.726785728354997,11.015396780312111,-10.787928591631561,10.787928591631561,-11.015396780312111,38.338438765119164,0.0
714640.0783812654,4005767.5119837918,-12500.0,-29.556895274330401,15.868825136663904,12.148303571849162,-18.272357383798177,5.2726767922199027,-10.480862585439082,31.408451764821564,15.123069054952662,-12.948171480654661,12.948171480654661,-15.123069054952662,56.108361461229798,0.0
719640.0783812654,4005767.5119837918,-12500.0,-43.090084284557385,14.63203975281264,15.711271845724257,-34.049227434888024,-1.4628990966429842,-25.258864772222424,46.286962000550844,20.75171186840177,-15.413642761603287,15.413642761603287,-20.75171186840177,82.787750502704142,0.0
724640.0783812654,4005767.5119837918,-12500.0,-47.066632699362252,11.653720225173139,12.49102319517565,-51.365606669241309,-24.622372169052788,-53.415455708587139,67.94775057367923,30.449824775723293,-23.813149626826792,23.813149626826792,-30.449824775723293,118.77302223074425,0.0
729640.0783812654,4005767.5119837918,-12500.0,-17.760466912347638,32.192865964702591,-7.0538185304187166,-35.490760263242713,-66.311239938447443,-76.519697184203963,89.604025741391951,56.137425230637071,-62.537945407991025,62.537945407991025,-56.137425230637071,155.80712292833317,0.0
734640.0783812654,4005767.5119837918,-12500.0,-4.3002178204083776,131.84430329706453,7.5751158299646377,64.325219851553726,-20.220017605009357,32.690772880487359,146.72444288628779,104.91401078530222,-132.71368324231611,132.71368324231611,-104.91401078530222,258.5702739760863,0.0
739640.0783812654,4005767.5119837918,-12500.0,-115.06197956343338,107.47548802423644,140.17017373530291,-1.4773277560419595,230.08288974030023,328.75051568603755,330.3797675470617,22.298902629573771,14.662620151280915,-14.662620151280915,-22.298902629573771,585.07406515538275,0.0
744640.0783812654,4005767.5119837918,-12500.0,9.1309879115878818,-71.725357095503341,112.82259484541078,-210.80155610637473,231.38972662877597,296.7880713553817,329.88946789827207,-131.99154245834063,197.66062876988053,-197.66062876988053,131.99154245834063,610.77001176038675,0.0
749640.0783812654,4005767.5119837918,-12500.0,122.61889483868298,-71.641453585767664,23.043482496292672,-177.43747174774046,95.280776616760448,130.18665189734719,201.97721617735692,-111.70460496754191,133.99164457834593,-133.99164457834593,111.70460496754191,384.4620113276398,0.0
754640.0783812654,4005767.5119837918,-12500.0,112.80588068105527,-31.395253318655286,-6.0185013050273355,-101.27692768281456,31.558177899403258,55.369546733562579,111.9641919353586,-59.327612810831248,59.411563457992763,-59.411563457992763,59.327612810831248,217.50659562246432,0.0
759640.0783812654,4005767.5119837918,-12500.0,80.837925843001855,-10.235515385325478,-9.5261763542205564,-56.793215221932321,9.9234671850667056,26.90475725656075,65.683966997704729,-29.250093233745545,24.162047561542977,-24.162047561542977,29.250093233745545,128.40158136090665,0.0
764640.0783812654,4005767.5119837918,-12500.0,55.799890037940294,-1.6387885675364722,-7.6545898044482614,-33.272872283868253,2.6041309509925581,14.215578625467975,41.308186581100131,-14.582617665379869,9.4827061591528601,-9.4827061591528601,14.582617665379869,80.415599142380813,0.0
769640.0783812654,4005767.5119837918,-12500.0,38.814968301936297,1.5325795480589295,-5.4200366509471589,-20.327665369247708,0.11755129555984953,7.8822407285322305,27.277507300685407,-7.427014190047414,3.3629830396200386,-3.3629830396200386,7.427014190047414,52.839282112111619,0.0
774640.0783812654,4005767.5119837918,-12500.0,27.491432686856118,2.5042224725809632,-3.7165668995112822,-12.876588690906058,-0.65748868511856229,4.5416177644665821,18.698808769738832,-3.8359970739305584,0.79038047415161361,-0.79038047415161361,3.8359970739305584,36.082479157944853,0.0
779640.0783812654,4005767.5119837918,-12500.0,19.872352533483362,2.609497891496027,-2.5426054413750387,-8.426024909792222,-0.81875556285328077,2.7125328722869488,13.226698312220993,-1.9805688640530088,-0.26906595641677344,0.26906595641677344,1.9805688640530088,25.449682166014917,0.0
784640.0783812654,4005767.5119837918,-12500.0,14.660839290225482,2.3980692373778218,-1.7551089533404058,-5.679698096198484,-0.77007720759325304,1.6764400683657257,9.614486859878113,-0.99819700949397827,-0.6683188972079035,0.6683188972079035,0.99819700949397827,18.459006760896937,0.0
789640.0783812654,4005767.5119837918,-12500.0,11.028813154709502,2.0955043071946009,-1.2276584301328948,-3.9334880031002224,-0.66187501991127229,1.0697830503553172,7.1582646477548417,-0.46876366642289891,-0.77809541783898983,0.77809541783898983,0.46876366642289891,13.720256593257872,0.0
794640.0783812654,4005767.5119837918,-12500.0,8.4486834425003572,1.7913762984283623,-0.87126574563504378,-2.7918711660718949,-0.54870730849551108,0.70306637898896207,5.4435804461847717,-0.18080494127652225,-0.76395542492944468,0.76395542492944468,0.18080494127652225,10.420232203940405,0.0
799640.0783812654,4005767.5119837918,-12500.0,6.5812696305984835,1.5178719916352803,-0.62729579551523396,-2.0260652905278547,-0.44840644335429364,0.47462766707127485,4.218054308622623,-0.024568167559659237,-0.70097307842823198,0.70097307842823198,0.024568167559659237,8.0662380509180807,0.0
804640.0783812654,4005767.5119837918,-12500.0,5.2054881954034045,1.2832777939437912,-0.45783826535055278,-1.5000563742176982,-0.36493014483343755,0.32829986271584227,3.3234296683529729,0.058511700831329116,-0.62316194549029791,0.62316194549029791,-0.058511700831329116,6.3505557232100021,0.0
809640.0783812654,4005767.5119837918,-12500.0,4.1749099001020733,1.0863959133036507,-0.33838841960898064,-1.1308450130942247,-0.29731083069823666,0.23213215099071738,2.6578186016119281,0.1004596434145858,-0.54552977427268645,0.54552977427268645,-0.1004596434145858,5.0757075047658233,0.0
814640.0783812654,4005767.5119837918,-12500.0,3.3909049860071527,0.92273623951605865,-0.25297773607349733,-0.86651440803093904,-0.24314067958623992,0.16742830392836011,2.154027670376478,0.11915876426028063,-0.4742037516309906,0.4742037516309906,-0.11915876426028063,4.111804051345362,0.0
819640.0783812654,4005767.5119837918,-12500.0,2.7859099292939367,0.78711364454750721,-0.19107513878573745,-0.67382541148398467,-0.1998777720155567,0.12295068828863431,1.7667573653816098,0.12476851373330805,-0.41118169700187029,0.41118169700187029,-0.12476851373330805,3.3714716686438702,0.0
824640.0783812654,4005767.5119837918,-12500.0,2.3128750895250678,0.67466776145795726,-0.14564054369608892,-0.53102876473575955,-0.16528334570116204,0.091772618830431238,1.4648453630880636,0.12313650466675634,-0.35659407310055102,0.35659407310055102,-0.12313650466675634,2.7947165011876764,0.0
829640.0783812654,4005767.5119837918,-12500.0,1.9385153937941579,0.58119754711715443,-0.11190088660257207,-0.42360200855467051,-0.13752065279069381,0.06952332454362857,1.2264532947211986,0.1176569838374269,-0.30978674433617986,0.30978674433617986,-0.1176569838374269,2.3395619359669149,0.0
834640.0783812654,4005767.5119837918,-12500.0,1.6389288724510067,0.50320832165537221,-0.086574634835739891,-0.3416640963901808,-0.11513097733784673,0.053384219892079691,1.0360141074150502,0.11030551639066366,-0.26983519119525057,0.26983519119525057,-0.11030551639066366,1.976126431944881,0.0
644640.0783812654,4010767.5119837918,-12500.0,0.9453542798989375,0.84723254135271608,0.026621514594203123,0.21731450275868411,0.19059566685112495,0.038260462390607604,0.99420336826736755,0.30056100989714485,-0.52804619598994085,0.52804619598994085,-0.30056100989714485,1.7993271291880324,0.0
649640.0783812654,4010767.5119837918,-12500.0,1.0847931551798127,1.0085883207244015,0.031451414296459042,0.26339446567501096,0.23539169252251338,0.049020380075273019,1.1765689996061139,0.35828019398531524,-0.63165093999116473,0.63165093999116473,-0.35828019398531524,2.1254270745246129,0.0
654640.0783812654,4010767.5119837918,-12500.0,1.2508914708783172,1.2115200367831429,0.03794594546754218,0.32193531905551515,0.29389420203413774,0.063538089810147122,1.4047319171207742,0.43105484490596824,-0.76240708385418798,0.76240708385418798,-0.43105484490596824,2.5326351458540382,0.0
659640.0783812654,4010767.5119837918,-12500.0,1.4494812491624935,1.4696532782554381,0.046925582657734589,0.39701049652997533,0.37133582770539375,0.083390113530155324,1.6934578120231027,0.52389897695577159,-0.9292851229141792,0.9292851229141792,-0.52389897695577159,3.046885901046108,0.0
664640.0783812654,4010767.5119837918,-12500.0,1.6875288968208118,1.8020566094535371,0.059707061736361006,0.49421827234667559,0.4753631683806388,0.11092367648353053,2.0633649046855882,0.64387263179353593,-1.144842888252547,1.144842888252547,-0.64387263179353593,3.7043143958562004,0.0
669640.0783812654,4010767.5119837918,-12500.0,1.9730402326570697,2.2357980470746632,0.078452308930458653,0.62128326164574621,0.6173446680565815,0.14968030084896564,2.5436767093621677,0.80107271779913813,-1.4269015975820067,1.4269015975820067,-0.80107271779913813,4.5560168839995736,0.0
674640.0783812654,4010767.5119837918,-12500.0,2.3144984192096638,2.8098570734649884,0.10679626793133688,0.78885449910395899,0.81448412451605712,0.20506608296292844,3.1764541721616402,1.0101763494001048,-1.801100154827167,1.801100154827167,-1.0101763494001048,5.6753478318684358,0.0
679640.0783812654,4010767.5119837918,-12500.0,2.7192231487821243,3.581154805939307,0.15100342299137123,1.0114658918448434,1.0932762246008816,0.28539917557573935,4.0231680426327046,1.2928806367890275,-2.3048123834295957,2.3048123834295957,-1.2928806367890275,7.1692129727494844,0.0
684640.0783812654,4010767.5119837918,-12500.0,3.1893353929477972,4.6338482297262722,0.22214734645519535,1.3083982129590379,1.4951817476939191,0.40348039839331884,5.1749444135361404,1.6818102555483241,-2.9931494820515896,2.9931494820515896,-1.6818102555483241,9.1956026768328361,0.0
689640.0783812654,4010767.5119837918,-12500.0,3.7125440066199253,6.0934508510401963,0.34030446833150979,1.7035066420828673,2.0858439959900106,0.57868732562437064,6.7683986419881474,2.2268454712399208,-3.9480334095066727,3.9480334095066727,-2.2268454712399208,11.990555107310302,0.0
694640.0783812654,4010767.5119837918,-12500.0,4.2420178112965425,8.1473251383579477,0.5427432610290911,2.2212074000411488,2.9693333725815547,0.83877389366189459,9.00921531645049,3.0054662743193958,-5.2913886037465314,5.2913886037465314,-3.0054662743193958,15.908048197476827,0.0
699640.0783812654,4010767.5119837918,-12500.0,4.6542509563237022,11.070865000354528,0.8999264742780041,2.8709801067345593,4.3068003346632775,1.217297564839479,12.203521991820288,4.1399028879098703,-7.2026260380702078,7.2026260380702078,-4.1399028879098703,21.472528633731326,0.0
704640.0783812654,4010767.5119837918,-12500.0,4.6668251221382251,15.248503338193167,1.5457425783421763,3.601661021383491,6.3258820417658361,1.7312151778598954,16.785051149139687,5.8269905452877815,-9.9372262916289795,9.9372262916289795,-5.8269905452877815,29.423009369542466,0.0
709640.0783812654,4010767.5119837918,-12500.0,3.7017390697788697,21.145317627617967,2.7275578809872125,4.1894111336184787,9.2485756450452854,2.2883875150883588,23.278737108377825,8.3998364845239113,-13.838352781123172,13.838352781123172,-8.3998364845239113,40.647325313634106,0.0
714640.0783812654,4010767.5119837918,-12500.0,0.75233006536323455,29.10694752306442,4.8507221888194918,4.044627825962869,12.833057899489502,2.3986518568326454,31.992835425407399,12.512982301872057,-19.36645279672231,19.36645279672231,-12.512982301872057,55.655568197743953,0.0
719640.0783812654,4010767.5119837918,-12500.0,-5.4207324131617751,38.845578338104005,8.3095731945669993,2.272237029206158,14.434409086693602,0.62452198654653035,42.005187469718251,19.936047921774218,-27.550001694666875,27.550001694666875,-19.936047921774218,72.866629894049865,0.0
724640.0783812654,4010767.5119837918,-12500.0,-15.26105934328996,49.560143360881696,12.17150560603762,-0.2275253866062758,2.713766750146811,-4.4139820164133967,51.495059312445491,37.085090854591876,-43.423614087983786,43.423614087983786,-37.085090854591876,89.238522377586989,0.0
729640.0783812654,4010767.5119837918,-12500.0,-25.941032386966825,67.643645975226477,8.5786884925611862,7.5263301983812925,-53.693725617284329,-0.57046730662408507,88.475707722194414,85.395147722082257,-90.651309712105657,90.651309712105657,-85.395147722082257,153.3149237686608,0.0
734640.0783812654,4010767.5119837918,-12500.0,-37.601472260262746,137.50303543160658,-32.94403017394464,79.168531995474609,-167.15940413092054,131.74798119535038,244.6735323722545,196.08565940776666,-232.08761290580927,232.08761290580927,-196.08565940776666,432.73920169377868,0.0
739640.0783812654,4010767.5119837918,-12500.0,-158.65433709983151,212.299331520832,-105.27287624123529,-24.081074456523595,-113.56597753594177,662.19342829241441,515.80760522905598,220.87129189237444,-345.06881109405151,345.06881109405151,-220.87129189237444,899.14792339652854,0.0
744640.0783812654,4010767.5119837918,-12500.0,44.584789996950349,122.27338962902986,-95.525157937894022,-309.68977080394455,-41.161821507126398,464.30780902956542,421.24751648390782,69.58510169146804,-176.42662815043161,176.42662815043161,-69.58510169146804,769.58695094520897,0.0
749640.0783812654,4010767.5119837918,-12500.0,131.33893781900758,72.156905043884947,-51.392831323887869,-186.67248450803194,-30.495217682205521,143.45400779480755,212.89696552790161,24.21269985173284,-80.693121813513059,80.693121813513059,-24.21269985173284,398.3730208018298,0.0
754640.0783812654,4010767.5119837918,-12500.0,94.803168219781014,45.017020996200309,-25.669151635172348,-87.458203656075511,-19.419116362837048,49.61909017403832,108.29911012628661,15.176574783408505,-44.531793067840205,44.531793067840205,-15.176574783408505,203.14887397349773,0.0
759640.0783812654,4010767.5119837918,-12500.0,61.174840913519866,28.933289374904835,-13.653843551990173,-44.864410251840333,-12.2976643387804,22.215078206803508,61.501142596159347,10.777859652233726,-27.223852019042699,27.223852019042699,-10.777859652233726,114.91491029031296,0.0
764640.0783812654,4010767.5119837918,-12500.0,40.540655127321187,19.348404122902739,-7.7380844975485594,-25.377417554546142,-7.9981509925066288,11.390763291271773,38.025587758053106,7.7341552079017735,-17.601192059501372,17.601192059501372,-7.7341552079017735,70.853837617967073,0.0
769640.0783812654,4010767.5119837918,-12500.0,27.862696945898932,13.397738996030515,-4.6046480837747739,-15.321695759625237,-5.3211011558917471,6.2450326211950991,24.90260053013068,5.5853474812204968,-11.827610668591698,11.827610668591698,-5.5853474812204968,46.338832568032458,0.0
774640.0783812654,4010767.5119837918,-12500.0,19.749952421785249,9.549294902140856,-2.8498628578934917,-9.6919389161646095,-3.6165826231422691,3.5873750901119736,17.015149794448291,4.0804332698256776,-8.2006127946540506,8.2006127946540506,-4.0804332698256776,31.643584553535998,0.0
779640.0783812654,4010767.5119837918,-12500.0,14.372372742695116,6.9771553860991222,-1.8234151663108764,-6.3653772974291369,-2.5117521619323253,2.1454808353519041,12.029173236551122,3.0253791310559732,-5.8428686191852188,5.8428686191852188,-3.0253791310559732,22.367368120093996,0.0
784640.0783812654,4010767.5119837918,-12500.0,10.703637459118985,5.2106374367949853,-1.2006090400476934,-4.3175729700751795,-1.782209493777049,1.3310886826704422,8.7521456950223797,2.2792254527968789,-4.2651725699640464,4.2651725699640464,-2.2792254527968789,16.275379347579261,0.0
789640.0783812654,4010767.5119837918,-12500.0,8.1376431393675848,3.9683302120660118,-0.81042818010980422,-3.0127923221424515,-1.2908645012493092,0.85389441158315726,6.5275266267731098,1.7446798241250692,-3.1818063072199969,3.1818063072199969,-1.7446798241250692,12.141587746477532,0.0
794640.0783812654,4010767.5119837918,-12500.0,6.3024331240232341,3.0759006228294146,-0.5589558777299124,-2.1558476466787471,-0.95321834852893328,0.56458645939521312,4.9746398278747783,1.3560513705334569,-2.4202463999409876,2.4202463999409876,-1.3560513705334569,9.2565842616643401,0.0
799640.0783812654,4010767.5119837918,-12500.0,4.9629769707675466,2.4222996502587497,-0.39274404285529846,-1.5775500292073696,-0.71657523565488046,0.38359392334142245,3.8637922432831941,1.0691856050238939,-1.8733712718069164,1.8733712718069164,-1.0691856050238939,7.1928880104055439,0.0
804640.0783812654,4010767.5119837918,-12500.0,3.9670783154304128,1.9350921450618053,-0.28039326342434162,-1.1776474790324789,-0.54757537346431073,0.26706778538047982,3.0517245160637683,0.85425518330174433,-1.472975350374699,1.472975350374699,-0.85425518330174433,5.6841204351189614,0.0
809640.0783812654,4010767.5119837918,-12500.0,3.2139901174913144,1.5660132440621337,-0.20291833573089013,-0.89495044815235814,-0.42473649264469182,0.19006248013699023,2.4464761134215558,0.69090900737864769,-1.1746119173176919,1.1746119173176919,-0.69090900737864769,4.5593993516557756,0.0
814640.0783812654,4010767.5119837918,-12500.0,2.6356551286779712,1.2822672124869845,-0.14853527843016659,-0.69109206784386301,-0.33397510919488238,0.13795452480196313,1.9874853538326915,0.56508797701622715,-0.94868638956288232,0.94868638956288232,-0.56508797701622715,3.7062408098433801,0.0
819640.0783812654,4010767.5119837918,-12500.0,2.1852201720467845,1.0611599900517259,-0.10975285812197633,-0.54141474005648837,-0.26589120766451418,0.10192825049709017,1.6339383675444248,0.46694775925005416,-0.77509499622370037,0.77509499622370037,-0.46694775925005416,3.0488642810597724,0.0
824640.0783812654,4010767.5119837918,-12500.0,1.8298553809411244,0.88671949601849187,-0.081703852219993628,-0.42970880431119618,-0.21410041346169326,0.076529681776283304,1.3577497284580875,0.3895001598350627,-0.63992562041745416,0.63992562041745416,-0.3895001598350627,2.5351339421729016,0.0
829640.0783812654,4010767.5119837918,-12500.0,1.5461750075420395,0.74752565951389749,-0.061162333268707632,-0.34509418726408886,-0.17419355641159712,0.058302965131200757,1.1392221188574125,0.32771702658947899,-0.53338397302028628,0.53338397302028628,-0.32771702658947899,2.1284896673623956,0.0
834640.0783812654,4010767.5119837918,-12500.0,1.3172632653404635,0.63529222861914825,-0.045950978116878344,-0.28012710053219542,-0.14307709181839467,0.04500954791173653,0.96429941773584171,0.27793305414600905,-0.44846424164656112,0.44846424164656112,-0.27793305414600905,1.8028431971152676,0.0
644640.0783812654,4015767.5119837918,-12500.0,1.3786192247381144,0.76107617181804499,-0.046867183707755278,0.30597098831890746,0.17135062124117262,0.051711014587353242,1.0796391968403602,0.16730054016391299,-0.40672449332443533,0.40672449332443533,-0.16730054016391299,2.0019630219386273,0.0
649640.0783812654,4015767.5119837918,-12500.0,1.6220042387611773,0.90197158484833817,-0.062726468141090619,0.37889503391111873,0.21047219107642604,0.067542532366352256,1.2817968969009548,0.1927445155307832,-0.48294656379897671,0.48294656379897671,-0.1927445155307832,2.374880538342675,0.0
654640.0783812654,4015767.5119837918,-12500.0,1.9244318740720778,1.0781499352449047,-0.084239608498630561,0.47452138151851464,0.26119618799017358,0.089484633679512871,1.5357747531714572,0.22316483131658341,-0.57833354420624028,0.57833354420624028,-0.22316483131658341,2.8431303391053011,0.0
659640.0783812654,4015767.5119837918,-12500.0,2.3043040498508285,1.3008300118051457,-0.11374858098897721,0.60171426541290229,0.32780081146561751,0.12043190078386369,1.8586524974583178,0.25967947180739936,-0.69897619420390655,0.69897619420390655,-0.25967947180739936,3.4381062723464733,0.0
664640.0783812654,4015767.5119837918,-12500.0,2.7870541925285091,1.5855622068177904,-0.15473279292248709,0.77355557222370441,0.41645934045056399,0.16492880292863552,2.274454753036169,0.30364448487911361,-0.85331307971249837,0.85331307971249837,-0.30364448487911361,4.2039767165119866,0.0
669640.0783812654,4015767.5119837918,-12500.0,3.4083110979588915,1.9541799140847678,-0.21245057764641176,1.0097355438648101,0.53621552885281587,0.23028406124764933,2.8175248050665189,0.35666418112195386,-1.0531907921762906,1.0531907921762906,-0.35666418112195386,5.2039051446635591,0.0
674640.0783812654,4015767.5119837918,-12500.0,4.2186610583406541,2.4377274467240277,-0.2949934598889361,1.3405250491028042,0.70051725504906026,0.32856472016804078,3.5377969314967559,0.42055070266464123,-1.3154649266659177,1.3154649266659177,-0.42055070266464123,6.5297868668336143,0.0
679640.0783812654,4015767.5119837918,-12500.0,5.2908442520278269,3.0808594596984533,-0.41504693976201185,1.813524108463163,0.92963428069162968,0.48027193124299628,4.5091586549307747,0.49717365213826137,-1.6644373904844016,1.6644373904844016,-0.49717365213826137,8.3177251642558279,0.0
684640.0783812654,4015767.5119837918,-12500.0,6.7305663301653169,3.9483889228461146,-0.59287029463717555,2.5053813973009302,1.2544265121226239,0.72133005866584898,5.8428724766947679,0.58810325153478848,-2.1355831641102414,2.1355831641102414,-0.58810325153478848,10.772941765615711,0.0
689640.0783812654,4015767.5119837918,-12500.0,8.6923197152761382,5.1347192818270857,-0.8613653799853469,3.542556422412876,1.721962191334327,1.1168072337293824,7.7092380261657354,0.6939529741975865,-2.781236094410461,2.781236094410461,-0.6939529741975865,14.210131359919341,0.0
694640.0783812654,4015767.5119837918,-12500.0,11.400842939414389,6.7762771536083548,-1.2745919484850992,5.1386500706900922,2.4028038144746304,1.7887025488758894,10.372291702379021,0.81364017418862256,-3.6791709620129498,3.6791709620129498,-0.81364017418862256,19.1183995454195,0.0
699640.0783812654,4015767.5119837918,-12500.0,15.17400809524929,9.0639102256412301,-1.9212666481470837,7.6617116515619621,3.395922597863307,2.9737690167082405,14.243439095371221,0.94567608754341759,-4.9453621707111388,4.9453621707111388,-0.94567608754341759,26.262017554740797,0.0
704640.0783812654,4015767.5119837918,-12500.0,20.423391287030281,12.240984946420365,-2.9421251150653807,11.752613826200777,4.8106223128800565,5.1458270126778256,19.956378027210967,1.1027727111456924,-6.753470694045161,6.753470694045161,-1.1027727111456924,36.819917734665623,0.0
709640.0783812654,4015767.5119837918,-12500.0,27.538554740079828,16.539710239379449,-4.5325793950953708,18.513863613601742,6.639109035719776,9.2723084422943245,28.446148611236925,1.3931581467741418,-9.3736041215048012,9.3736041215048012,-1.3931581467741418,52.512883674836459,0.0
714640.0783812654,4015767.5119837918,-12500.0,36.315796097242711,21.937660098435796,-6.8278543627884245,29.712242791548213,8.1847144605446296,17.318149345686351,40.981152382838445,2.4132493832323716,-13.317507314685763,13.317507314685763,-2.4132493832323716,75.470927418438066,0.0
719640.0783812654,4015767.5119837918,-12500.0,43.704455468496953,27.658527917033428,-9.2065084367106511,47.443568092328476,5.8614657028311496,33.034489217889465,59.214504675133888,7.0463667785599959,-20.167662536718495,20.167662536718495,-7.0463667785599959,107.23613841506128,0.0
724640.0783812654,4015767.5119837918,-12500.0,35.325161808882171,33.104648370427967,-7.1842745879044427,69.411126201090894,-13.716363096530387,61.804211397520319,85.056199212440845,28.009310371479142,-37.299232662977758,37.299232662977758,-28.009310371479142,148.12050542282626,0.0
729640.0783812654,4015767.5119837918,-12500.0,-35.760007882670941,52.978438717614665,18.641752327666527,52.84734667697812,-82.518733858822031,87.317980345797096,126.83727001953325,108.42078562109015,-95.027350696740285,95.027350696740285,-108.42078562109015,220.54201157562187,0.0
734640.0783812654,4015767.5119837918,-12500.0,-120.39245419258107,150.24265099696277,116.98742237556947,-140.29516975965944,-178.79798866680676,-192.92818701868387,301.78092285680498,265.38775151975449,-201.13842577821791,201.13842577821791,-265.38775151975449,549.0920600450512,0.0
739640.0783812654,4015767.5119837918,-12500.0,10.388256279273174,211.57021540211605,223.80013424634379,110.43288259471431,-175.92821948383016,-806.24277999180765,610.91779126415918,305.15078326179707,-171.74473874031128,171.74473874031128,-305.15078326179707,1072.5828593437882,0.0
744640.0783812654,4015767.5119837918,-12500.0,-165.20650232741923,189.94946253708042,138.29846454099936,220.57511300347718,-169.80988958379879,-240.39964016878523,381.38401933558009,311.98179096067895,-234.97386047211049,234.97386047211049,-311.98179096067895,679.19032375819381,0.0
749640.0783812654,4015767.5119837918,-12500.0,-85.672233068763873,130.36256255682628,48.867062597114163,44.158941420640829,-88.395215246198461,-14.022615443937612,175.87833775208188,175.52465883089172,-163.66337358864172,163.66337358864172,-175.52465883089172,306.38076375756395,0.0
754640.0783812654,4015767.5119837918,-12500.0,-21.336691411689777,75.99617985135859,16.48104239375375,-2.4175885296849975,-42.306203282144864,8.6906719680809026,89.266510706290319,86.589955427816619,-90.258019931703046,90.258019931703046,-86.589955427816619,154.62694937782317,0.0
759640.0783812654,4015767.5119837918,-12500.0,0.60294835571990713,45.317051927997539,6.0675669979673383,-9.0470725748161609,-22.531410084639475,7.6484431388373944,51.320003398349435,46.085824232046306,-51.416192154046016,51.416192154046016,-46.085824232046306,89.277363231512851,0.0
764640.0783812654,4015767.5119837918,-12500.0,6.7999832533718063,28.537624444354449,2.4393872288797667,-8.1377275046168283,-13.06911898906732,5.0770502238806952,32.150894026135092,26.657994513429081,-31.141098145504976,31.141098145504976,-26.657994513429081,56.291489126194769,0.0
769640.0783812654,4015767.5119837918,-12500.0,7.8158689165717705,18.841626689374479,1.0498274739729034,-6.2079056608156451,-8.0204447999134416,3.2006408119822982,21.312602630271641,16.42989536093242,-19.848674017622528,19.848674017622528,-16.42989536093242,37.542914031665703,0.0
774640.0783812654,4015767.5119837918,-12500.0,7.2008599348934981,12.926219242099606,0.47616215979304977,-4.5381282092981401,-5.1365268337848979,2.013392053748106,14.72035795760825,10.637441923568009,-13.186189383026498,13.186189383026498,-10.637441923568009,26.066150613866061,0.0
779640.0783812654,4015767.5119837918,-12500.0,6.1764774252062278,9.156238154788312,0.22583596455056079,-3.294081841062598,-3.4094219198868605,1.2859592873512538,10.50591579243625,7.170278745394211,-9.0708012462151935,9.0708012462151935,-7.170278745394211,18.685852185721373,0.0
784640.0783812654,4015767.5119837918,-12500.0,5.1578956333761559,6.6660337655210933,0.11217346856313272,-2.4065385735621683,-2.3349131933372278,0.83934065517483658,7.7075146976351787,5.0004493379355761,-6.4300283203540385,6.4300283203540385,-5.0004493379355761,13.760696267244239,0.0
789640.0783812654,4015767.5119837918,-12500.0,4.2699649826790758,4.9702635340235179,0.059153600283372049,-1.7792207293487539,-1.6438665810009332,0.56084506969810122,5.7904195915778702,3.590646426179481,-4.678940033733201,4.678940033733201,-3.590646426179481,10.372291390589362,0.0
794640.0783812654,4015767.5119837918,-12500.0,3.533499862942759,3.7843419481669378,0.034025223209065085,-1.3338659854676183,-1.1860766839865642,0.38353940011436333,4.4413373920844315,2.6445266474967157,-3.4838360807339113,3.4838360807339113,-2.6445266474967157,7.9791621089002556,0.0
799640.0783812654,4015767.5119837918,-12500.0,2.9347081672446662,2.9352151280488639,0.02204353658861629,-1.0143897156354191,-0.87462932378340308,0.26810731984012115,3.4693285174456632,1.9913506951897564,-2.6470760895050627,2.6470760895050627,-1.9913506951897564,6.2494650770404006,0.0
804640.0783812654,4015767.5119837918,-12500.0,2.4510308787297745,2.314333713296671,0.016341744516846946,-0.7822429105212092,-0.65760514822877369,0.19127385513843306,2.754196208829089,1.5290129669618953,-2.0477217887321846,2.0477217887321846,-1.5290129669618953,4.9733162206161214,0.0
809640.0783812654,4015767.5119837918,-12500.0,2.060307166455245,1.8517189223732049,0.013641936946088187,-0.61123173517147245,-0.50307711206747663,0.13903807072190844,2.218128553275839,1.1944232574410898,-1.6095820638773444,1.6095820638773444,-1.1944232574410898,4.0142969735508407,0.0
814640.0783812654,4015767.5119837918,-12500.0,1.7435689053177146,1.5011437028448185,0.012354892464519207,-0.48352987278367948,-0.39088536281551689,0.10281354365258025,1.8094950117773676,0.94745354921361147,-1.2833857037523466,1.2833857037523466,-0.94745354921361147,3.2815783101029714,0.0
819640.0783812654,4015767.5119837918,-12500.0,1.4854486583655762,1.2313810630495594,0.01170590050481023,-0.38690747454076002,-0.30798480624542091,0.077225414937700979,1.4932586778573111,0.76190401971425525,-1.0364990118143578,1.0364990118143578,-0.76190401971425525,2.7133384758883947,0.0
824640.0783812654,4015767.5119837918,-12500.0,1.273801569474214,1.0209085934455875,0.011320206100509333,-0.31288313011788305,-0.24574370952444013,0.058840369024292481,1.2451600596444548,0.6202633948196602,-0.84683700931815598,0.84683700931815598,-0.6202633948196602,2.2666593433591218,0.0
829640.0783812654,4015767.5119837918,-12500.0,1.0991276854624037,0.85461600325649723,0.011021340467127173,-0.25550280969180833,-0.19833200095469211,0.045421898022547216,1.0480891757817223,0.51057571467732421,-0.69915558878074036,0.69915558878074036,-0.51057571467732421,1.9111998052499126,0.0
834640.0783812654,4015767.5119837918,-12500.0,0.95401741462148326,0.72171397169551033,0.010731222150246642,-0.21053381511826838,-0.16173694389061638,0.035485760033742299,0.88977347618003566,0.42451859297415317,-0.58274109568814858,0.58274109568814858,-0.42451859297415317,1.6251505050516746,0.0
644640.0783812654,4020767.5119837918,-12500.0,1.7677297639409366,0.61789581662361737,-0.10327588746868811,0.38570339416761107,0.13999001459597887,0.063811304728383714,1.1645984068345652,0.019904642200635425,-0.24093106625516597,0.24093106625516597,-0.019904642200635425,2.2060004203317964,0.0
649640.0783812654,4020767.5119837918,-12500.0,2.1008666002806713,0.72062642832507973,-0.13398188752522491,0.48202682648308032,0.16897118380351678,0.084091019125264677,1.3862485863155545,0.0094275934875147072,-0.27621678304946429,0.27621678304946429,-0.0094275934875147072,2.6259006769528868,0.0
654640.0783812654,4020767.5119837918,-12500.0,2.5196996244403524,0.84547570807081218,-0.17516241292092519,0.60965955694638785,0.20543026556809527,0.11248645934341045,1.665568887796036,-0.0072585762222470152,-0.31752348585268897,0.31752348585268897,0.0072585762222470152,3.1553123260854599,0.0
659640.0783812654,4020767.5119837918,-12500.0,3.0523732439088893,0.99801164511421747,-0.23101997227256457,0.78132108183382265,0.25159064004043519,0.15297913130748891,2.021845542479781,-0.033294229220218824,-0.36567917708067688,0.36567917708067688,0.033294229220218824,3.8310141545646532,0.0
664640.0783812654,4020767.5119837918,-12500.0,3.7382888586810159,1.1851977488449583,-0.30771556741339567,1.0160044479340788,0.31034117357049074,0.21189845771074658,2.482327484079156,-0.073491817587985953,-0.42131140618849977,0.42131140618849977,0.073491817587985953,4.7050612178668372,0.0
669640.0783812654,4020767.5119837918,-12500.0,4.6333608309787984,1.4155379143337012,-0.41440168295793112,1.3426458999715456,0.38534140919232751,0.29956039588341454,3.0861625637964787,-0.13529521140822587,-0.48445345742401091,0.48445345742401091,0.13529521140822587,5.8523959224385553,0.0
674640.0783812654,4020767.5119837918,-12500.0,5.81799036248914,1.6989082006458158,-0.56484432413140762,1.806284741121571,0.4809664679710704,0.43324148309149207,3.8905998860037059,-0.23031194454726403,-0.55373876371703767,0.55373876371703767,0.23031194454726403,7.3828845551971494,0.0
679640.0783812654,4020767.5119837918,-12500.0,7.4091598709506838,2.0455264254303245,-0.77996033520509633,2.478623399416469,0.60173500816163705,0.64274188924142106,4.980929585565077,-0.37673045761283108,-0.62478723173216821,0.62478723173216821,0.37673045761283108,9.460687281413751,0.0
684640.0783812654,4020767.5119837918,-12500.0,9.5785236524408823,2.4627663191414135,-1.0916990681519803,3.47648932797274,0.75027080416845415,0.98112527434434038,6.486658653116689,-0.60298645483486213,-0.6870203629912518,0.6870203629912518,0.60298645483486213,12.335925708116886,0.0
689640.0783812654,4020767.5119837918,-12500.0,12.578287198764393,2.9468150421417643,-1.5486024690420326,4.9946112498522135,0.9212829997176829,1.5461265995080429,8.6081405998090652,-0.95274612583174001,-0.71748877150719204,0.71748877150719204,0.95274612583174001,16.397052539309634,0.0
694640.0783812654,4020767.5119837918,-12500.0,16.773805034651694,3.4623256021750901,-2.2223101517127732,7.3641269584483169,1.0848456371161053,2.5241394544661899,11.660585112930287,-1.4894525760616024,-0.66934385239127447,0.66934385239127447,1.4894525760616024,22.25762646978222,0.0
699640.0783812654,4020767.5119837918,-12500.0,22.66841271492736,3.8949874589843967,-3.2093921242682844,11.155199095372218,1.1407818438352997,4.2828188438073038,16.146003265045731,-2.2910335296265227,-0.45223947197309511,0.45223947197309511,2.2910335296265227,30.897319744186518,0.0
704640.0783812654,4020767.5119837918,-12500.0,30.856318467407796,3.9470494278943984,-4.6041764625820951,17.343558888090865,0.79451295178824055,7.5676410862056223,22.866457115812857,-3.3965208574557173,0.091890442338552258,-0.091890442338552258,3.3965208574557173,43.874931605732399,0.0
709640.0783812654,4020767.5119837918,-12500.0,41.672801741319866,2.9352786938616844,-6.3520121913818173,27.51165561740946,-0.77859631819947617,13.905655621961756,33.087190682339106,-4.562834214791164,1.1720219558799603,-1.1720219558799603,4.562834214791164,63.578494282303971,0.0
714640.0783812654,4020767.5119837918,-12500.0,53.802089923179224,-0.44250713409046455,-7.67846338560439,43.744710593381917,-5.8015284093465009,26.314458716691334,48.702760289901633,-4.3398416274051819,2.7320779086218745,-2.7320779086218745,4.3398416274051819,93.208547230477507,0.0
719640.0783812654,4020767.5119837918,-12500.0,59.834069371846745,-7.3900255409851852,-5.2574425370686626,66.458660227738605,-19.752579653480343,49.776925662685485,71.849417398343405,3.0280913894598394,2.6469406314324511,-2.6469406314324511,-3.0280913894598394,135.15919344184158,0.0
724640.0783812654,4020767.5119837918,-12500.0,35.939756532697821,-11.465757605843834,10.553647725347053,83.119928185725868,-52.01080796491911,86.342349472441398,101.18059880700828,35.261885408586409,-10.896627016385782,10.896627016385782,-35.261885408586409,183.57813654324076,0.0
729640.0783812654,4020767.5119837918,-12500.0,-53.740704731819335,33.728307286609486,47.161770571571665,32.829769248557021,-87.561221954537345,94.743083163948242,124.20568380866959,115.38101005419487,-74.80160147181742,74.80160147181742,-115.38101005419487,216.54893951168572,0.0
734640.0783812654,4020767.5119837918,-12500.0,-84.424694884559813,186.20931773208972,16.343936742156625,-133.8572836070596,53.750641695052572,-147.9370046675005,248.78639947276804,87.310250842611964,-146.79279960683718,146.79279960683718,-87.310250842611964,432.47036981137512,0.0
739640.0783812654,4020767.5119837918,-12500.0,64.959425237307542,89.565558667817854,-120.10480979519396,53.625459530411007,373.83170625879313,-571.05016582354904,482.6462183311819,-286.92042900198459,106.34319247093161,-106.34319247093161,286.92042900198459,879.20294244708464,0.0
744640.0783812654,4020767.5119837918,-12500.0,-126.58102674877303,-80.928721214091439,-23.16465696525399,283.73379118887613,214.43789938615186,-347.88002148301865,369.67185486514461,-194.55357696149619,168.185327813339,-168.185327813339,194.55357696149619,694.02300675155254,0.0
749640.0783812654,4020767.5119837918,-12500.0,-168.49292542220917,-22.308732404039265,39.29786939147597,158.56610404468546,36.865016355269184,-98.398251734336398,176.85877038200923,4.277550149819028,25.59697433165416,-25.59697433165416,-4.277550149819028,338.41543212992116,0.0
754640.0783812654,4020767.5119837918,-12500.0,-100.10497570949626,15.831616752188912,32.297216878549804,61.995743960110644,-6.6448457632176936,-24.946681007668602,85.460501679037364,44.524795905000531,-24.641829042050233,24.641829042050233,-44.524795905000531,160.13364997721905,0.0
759640.0783812654,4020767.5119837918,-12500.0,-50.771107232457638,22.069976934457546,19.256043180067401,23.469795378926936,-11.429542713629344,-6.55368212272663,47.192260301469986,38.098605851963683,-28.867506538284218,28.867506538284218,-38.098605851963683,85.253803845904585,0.0
764640.0783812654,4020767.5119837918,-12500.0,-25.023937476026472,19.088776664803369,10.990073058538448,8.8876787196429401,-9.258871056029033,-1.5089606690359132,28.863972628058217,27.018592459193496,-23.237610605559983,23.237610605559983,-27.018592459193496,50.895886169842562,0.0
769640.0783812654,4020767.5119837918,-12500.0,-12.16016124749205,14.816804656860725,6.372833706709474,3.1737406857818669,-6.6333579065554433,-0.065434195734471512,18.922453130358939,18.491611125833664,-17.191608617534506,17.191608617534506,-18.491611125833664,32.961160642431309,0.0
774640.0783812654,4020767.5119837918,-12500.0,-5.6842138397026316,11.167609769547662,3.8130521247121312,0.8813905647138397,-4.6253138572903039,0.30450551621020677,13.02524987952868,12.69815716837862,-12.479019976288596,12.479019976288596,-12.69815716837862,22.579725785006488,0.0
779640.0783812654,4020767.5119837918,-12500.0,-2.3816456762106095,8.392626245248799,2.3621530273132985,-0.028522558743903522,-3.2319449460444076,0.34846233001965965,9.3028098618694557,8.860244264632211,-9.0856638614379186,9.0856638614379186,-8.860244264632211,16.11376442467672,0.0
784640.0783812654,4020767.5119837918,-12500.0,-0.68826568747269845,6.3545822634874245,1.5143570728840137,-0.36335961201081018,-2.2874765567891666,0.30246421182302208,6.8438279181251911,6.3071711285418495,-6.6913472504582447,6.6913472504582447,-6.3071711285418495,11.869573428688755,0.0
789640.0783812654,4020767.5119837918,-12500.0,0.17135069805759151,4.8678315488275272,1.0028400468672376,-0.45717225756411312,-1.6462290234674561,0.24119977463099526,5.1607208861955254,4.5834302057098473,-5.0003713705969144,5.0003713705969144,-4.5834302057098473,8.971218202850018,0.0
794640.0783812654,4020767.5119837918,-12500.0,0.5914045505747032,3.777983621494835,0.68443483608039368,-0.45241026769681719,-1.2057827950682269,0.18644149825967729,3.974544495006608,3.3977250502583782,-3.7945314408716504,3.7945314408716504,-3.3977250502583782,6.9286049004534469,0.0
799640.0783812654,4020767.5119837918,-12500.0,0.77727930583142013,2.9711362647165753,0.48031060008290566,-0.41077628463597987,-0.89853378250224269,0.14268802813627382,3.1175818107354996,2.5660126404073695,-2.9231673880394204,2.9231673880394204,-2.5660126404073695,5.4510269862657594,0.0
804640.0783812654,4020767.5119837918,-12500.0,0.83831517113881582,2.3666009127428911,0.34580981063980815,-0.3589103954733216,-0.68058638768897828,0.10918023502417619,2.4849874713664146,1.9713224206961035,-2.284310062550273,2.284310062550273,-1.9713224206961035,4.3581578184440612,0.0
809640.0783812654,4020767.5119837918,-12500.0,0.83373911190174632,1.9078930276727042,0.25490460708297352,-0.30792637996079425,-0.52338413475601675,0.083924053632357554,2.0090867647520376,1.5383028672365369,-1.8090367138710197,1.8090367138710197,-1.5383028672365369,3.5340726388564581,0.0
814640.0783812654,4020767.5119837918,-12500.0,0.7960205290999518,1.5554428102594418,0.19200472815035291,-0.2620138727753385,-0.40816254993581247,0.064959171336876023,1.6449904354307434,1.217600951049101,-1.4504306587671765,1.4504306587671765,-1.217600951049101,2.902010338215991,0.0
819640.0783812654,4020767.5119837918,-12500.0,0.74305355839621934,1.2813407479027425,0.14752763882999576,-0.22230819708395869,-0.32242231004931315,0.050685587009344196,1.3622052309467478,0.97631710251637505,-1.1762011833625314,1.1762011833625314,-0.97631710251637505,2.4098412881498752,0.0
824640.0783812654,4020767.5119837918,-12500.0,0.68466191413438304,1.0657097965637379,0.11543950000850901,-0.18865340017259369,-0.25771126087529267,0.039884001210140546,1.139575272403395,0.7921311668563118,-0.96383958362451971,0.96383958362451971,-0.7921311668563118,2.0213753691929814,0.0
829640.0783812654,4020767.5119837918,-12500.0,0.62614559190204011,0.89423652734929082,0.091854569764700036,-0.16040601467792026,-0.20822549955970468,0.03165174659616226,0.96214218898685533,0.64964050090922709,-0.79744565582483806,0.79744565582483806,-0.64964050090922709,1.7109932347477823,0.0
834640.0783812654,4020767.5119837918,-12500.0,0.57025007638958591,0.75649464432056202,0.074217541000435927,-0.13679520454052693,-0.16991900440525629,0.02532815166297029,0.819146896218786,0.53804241187285473,-0.66563736191502787,0.66563736191502787,-0.53804241187285473,1.460238954790696,0.0
644640.0783812654,4025767.5119837918,-12500.0,2.0904904089478147,0.42960060426555213,-0.13312152319838572,0.45209471984149835,0.098941323724088329,0.073912213532906126,1.2411998553601209,-0.12828551638610136,-0.041488311881223386,0.041488311881223386,0.12828551638610136,2.3923121466225639,0.0
649640.0783812654,4025767.5119837918,-12500.0,2.4911623595190484,0.48138489777777982,-0.16929015665328428,0.56647973020137943,0.11447220151098587,0.097685523000679425,1.4791660466738981,-0.173262200700811,-0.026592939397654142,0.026592939397654142,0.173262200700811,2.8524044688667756,0.0
654640.0783812654,4025767.5119837918,-12500.0,2.9949435217600588,0.53773233792313568,-0.2166630036950305,0.71817537001785636,0.13199837092561045,0.13103187197025537,1.7791900467468671,-0.23440723078638642,-0.0015120246745777138,0.0015120246745777138,0.23440723078638642,3.4330329982658814,0.0
659640.0783812654,4025767.5119837918,-12500.0,3.6350755369063648,0.59681074753087193,-0.27915714575690914,0.92223388786175298,0.1510384284698664,0.17864702754970127,2.1619605451641908,-0.31820765078744417,0.039352965244129262,-0.039352965244129262,0.31820765078744417,4.1746117370601938,0.0
664640.0783812654,4025767.5119837918,-12500.0,4.4575190482029043,0.65448494450516426,-0.3621412250468124,1.2009878086588619,0.17019585394469577,0.24797515638354278,2.656624549112879,-0.43402433218368786,0.10482118736633025,-0.10482118736633025,0.43402433218368786,5.1341873871417834,0.0
669640.0783812654,4025767.5119837918,-12500.0,5.526393726731472,0.70233373400034593,-0.47290649449144462,1.5881566541455132,0.18619078763503047,0.35109581186136168,3.3048897059279909,-0.59541967694750109,0.20895039064814855,-0.20895039064814855,0.59541967694750109,6.3935662545026144,0.0
674640.0783812654,4025767.5119837918,-12500.0,6.9317542829842758,0.72399468412812373,-0.62112419593717105,2.1355749601339258,0.19190155743874937,0.50810608176939198,4.1674110061488054,-0.82201933916528525,0.37442022818007081,-0.37442022818007081,0.82201933916528525,8.0720022322494582,0.0
679640.0783812654,4025767.5119837918,-12500.0,8.800363367378564,0.68838263948652623,-0.81893781403689581,2.9243515926136334,0.17234798117986172,0.75334125496930526,5.3338593669570917,-1.1418994657909682,0.63823397241559165,-0.63823397241559165,1.1418994657909682,10.34625589042553,0.0
684640.0783812654,4025767.5119837918,-12500.0,11.309510919519555,0.5370548252314874,-1.0796363183420661,4.0835006044297861,0.096312306707289838,1.1471112572246169,6.9389371015193611,-1.5939368324111114,1.0612854251646056,-1.0612854251646056,1.5939368324111114,13.482578161011254,0.0
689640.0783812654,4025767.5119837918,-12500.0,14.701270932362863,0.16073866059289982,-1.4119575318653212,5.8208705508332104,-0.10145862398922106,1.798364913374817,9.1878873351274422,-2.2276731236965484,1.7440203509024257,-1.7440203509024257,2.2276731236965484,17.887695126977004,0.0
694640.0783812654,4025767.5119837918,-12500.0,19.285773340670833,-0.643409880483646,-1.8020290933145997,8.472858799250151,-0.55866466887782096,2.909225181486033,12.396583683200964,-3.0923761423628755,2.8502687706803296,-2.8502687706803296,3.0923761423628755,24.188583776838307,0.0
699640.0783812654,4025767.5119837918,-12500.0,25.395738133611044,-2.244965576392528,-2.1618357102720367,12.576697719330166,-1.5689968995745258,4.862822491024767,17.05179352326271,-4.1895353966579307,4.6361096587193558,-4.6361096587193558,4.1895353966579307,33.349782661904101,0.0
704640.0783812654,4025767.5119837918,-12500.0,33.181696089613709,-5.2838882487237173,-2.1907350287576373,18.944009330767578,-3.7614012024433516,8.3916919530727103,23.891437913156665,-5.3134738194299969,7.4539702794705525,-7.4539702794705525,5.3134738194299969,46.815593398295881,0.0
709640.0783812654,4025767.5119837918,-12500.0,41.957337891600645,-10.719439227800438,-1.028514148944214,28.600967539276244,-8.4590517864661194,14.866043552668062,33.971092735446625,-5.5759934831811222,11.59667080377384,-11.59667080377384,5.5759934831811222,66.562836256969675,0.0
714640.0783812654,4025767.5119837918,-12500.0,48.473668669375158,-19.349022267707639,3.4868354000435402,42.055905334275693,-18.236588410982719,26.603184037056547,48.513696967353532,-2.1548796977194309,16.489941801650197,-16.489941801650197,2.1548796977194309,94.579175293516428,0.0
719640.0783812654,4025767.5119837918,-12500.0,43.564637565287313,-28.98187963432073,15.663796275187376,56.257352710294661,-36.873164032386761,46.259896037363568,67.742417224688438,12.170781167215416,17.827866958419683,-17.827866958419683,-12.170781167215416,130.20879103346289,0.0
724640.0783812654,4025767.5119837918,-12500.0,11.181772715534928,-25.100357321810691,38.504456961374466,56.576751414234266,-63.681771337624433,71.213561681820636,87.182853873454476,49.039958383002102,0.89554099044509528,-0.89554099044509528,-49.039958383002102,162.38561932374481,0.0
729640.0783812654,4025767.5119837918,-12500.0,-45.368615146024744,28.430371171241632,47.621468030736722,12.662208418718322,-67.300102243018671,74.171033075254897,96.06579238245493,95.84598061680984,-57.23250687267398,57.23250687267398,-95.84598061680984,168.26956082950323,0.0
734640.0783812654,4025767.5119837918,-12500.0,-39.579904201107006,115.7296670553758,-44.749149632694682,-56.438133609463478,37.242790868923471,-6.1351050837059766,129.77081749098249,30.341492750642217,-107.82984367624461,107.82984367624461,-30.341492750642217,234.97891982623833,0.0
739640.0783812654,4025767.5119837918,-12500.0,31.878242891738477,56.17268772466123,-194.22698882616169,-4.2318739659576998,198.69534259020469,-127.53841698888439,219.67177830205247,-198.85885504203134,1.3477058031010074,-1.3477058031010074,198.85885504203134,410.42863295248083,0.0
744640.0783812654,4025767.5119837918,-12500.0,-25.114749190586284,-73.773866015177276,-158.63312784486337,101.80740503973365,184.37023539167231,-127.59124726887957,214.38440937651012,-242.29110248764451,114.49805478213031,-114.49805478213031,242.29110248764451,405.02498491039631,0.0
749640.0783812654,4025767.5119837918,-12500.0,-91.440743260336802,-76.146385976860856,-51.612370502894031,101.92205818679722,84.921765168396107,-66.980816712115725,139.30260970517753,-115.09849474413981,84.466742018060998,-84.466742018060998,115.09849474413981,267.21646831010719,0.0
754640.0783812654,4025767.5119837918,-12500.0,-87.354098392257228,-35.273516849659259,-2.2907043955330417,62.781256776637967,27.28703582814947,-29.213676821826677,78.434294533082323,-28.165007375692063,31.639289625824553,-31.639289625824553,28.165007375692063,153.17093909910039,0.0
759640.0783812654,4025767.5119837918,-12500.0,-61.248187730467158,-9.3945817664255333,9.319579223073104,33.816503362490565,5.6807829944867301,-12.537249120929696,45.336711412992514,3.9492608006454013,4.2127955574760581,-4.2127955574760581,-3.9492608006454013,87.791794571763816,0.0
764640.0783812654,4025767.5119837918,-12500.0,-38.898059349663853,1.5939730610651712,9.2815701786111919,17.694892332573428,-1.0369269251035704,-5.4495784904092863,27.971599348437636,11.895997245878041,-5.7290577867993111,5.7290577867993111,-11.895997245878041,52.713543837211176,0.0
769640.0783812654,4025767.5119837918,-12500.0,-23.96365224483193,5.2113672218039779,7.0108607276609574,9.2724181164757464,-2.6226515109081339,-2.3887702034494729,18.186093120659393,11.892431500432677,-8.0804417343282982,8.0804417343282982,-11.892431500432677,33.41657801595818,0.0
774640.0783812654,4025767.5119837918,-12500.0,-14.67244707429265,5.8119527773896644,4.914939909647642,4.9000680273540507,-2.6067574651735175,-1.042732943002707,12.369886975230401,9.8738795280036271,-7.6998786313262286,7.6998786313262286,-9.8738795280036271,22.27595766098263,0.0
779640.0783812654,4025767.5119837918,-12500.0,-8.9981354348682849,5.3340566229696522,3.3833380794844019,2.6051332603722703,-2.180488579280115,-0.44206894289712523,8.7417874740355526,7.7197533554063531,-6.5455857841517995,6.5455857841517995,-7.7197533554063531,15.509696288496858,0.0
784640.0783812654,4025767.5119837918,-12500.0,-5.5287247812613307,4.5628548425526256,2.3364308948539225,1.3812399984043673,-1.7214286423512422,-0.1718478550328135,6.3799162380526813,5.9205697670335846,-5.3275104882922966,5.3275104882922966,-5.9205697670335846,11.202521488666124,0.0
789640.0783812654,4025767.5119837918,-12500.0,-3.3889113600009688,3.7926920409133134,1.6332524785831373,0.71831843566596287,-1.3323115072977165,-0.050821128921396584,4.7844838626353239,4.5300245776821386,-4.2666892650326966,4.2666892650326966,-4.5300245776821386,8.3442905449211278,0.0
794640.0783812654,4025767.5119837918,-12500.0,-2.0546549961658229,3.1188808617447337,1.1600411878088159,0.35490363457457758,-1.0271636397490749,0.001863102020997429,3.6719584721301288,3.4844815703916256,-3.4046798715028221,3.4046798715028221,-3.4844815703916256,6.3779131420989295,0.0
799640.0783812654,4025767.5119837918,-12500.0,-1.2139507694156244,2.5596571702582289,0.83825255674918919,0.15448954891605846,-0.79471519121603285,0.023021367747106069,2.8746111416539097,2.7039520359318949,-2.7236474600018283,2.7236474600018283,-2.7039520359318949,4.9824665057745108,0.0
804640.0783812654,4025767.5119837918,-12500.0,-0.67976152078927821,2.1059133892994244,0.61631060497181978,0.044321607856926126,-0.6192368162032017,0.029722511451839274,2.2894110711576268,2.1199431711935568,-2.1910635920861483,2.1910635920861483,-2.1199431711935568,3.9654126642009122,0.0
809640.0783812654,4025767.5119837918,-12500.0,-0.33857943763498921,1.7409336426074178,0.46082241612503566,-0.015183623125787294,-0.48671465442550654,0.029982708308417278,1.8509157327653172,1.6799777368555247,-1.7751610468168066,1.7751610468168066,-1.6799777368555247,3.2068936764636802,0.0
814640.0783812654,4025767.5119837918,-12500.0,-0.12051852518297132,1.44780377665678,0.35013933246063317,-0.045979445553595774,-0.38612385584593228,0.02758479846307723,1.5163070884758045,1.3455240998293438,-1.4493511326531456,1.4493511326531456,-1.3455240998293438,2.6297855372491257,0.0
819640.0783812654,4025767.5119837918,-12500.0,0.018095376716559922,1.2118349617413693,0.27010595368515522,-0.060449418274303154,-0.30920157503426238,0.024299853993228843,1.2568239390618254,1.0887348425006207,-1.1926937661854791,1.1926937661854791,-1.0887348425006207,2.182978560261247,0.0
824640.0783812654,4025767.5119837918,-12500.0,0.10495326434386247,1.0210405155060307,0.21135456547773565,-0.065678100958738023,-0.24987498010325937,0.020932869579100347,1.0526903685051809,0.88955229678316161,-0.98913232906471615,0.98913232906471615,-0.88955229678316161,1.8317055171997694,0.0
829640.0783812654,4025767.5119837918,-12500.0,0.15785110058736851,0.86591517539684981,0.16760106508981074,-0.065762006615231863,-0.20370803995807948,0.017823820480092623,0.89002172157502601,0.73348671152578671,-0.82648958233846759,0.82648958233846759,-0.73348671152578671,1.5517603088470218,0.0
834640.0783812654,4025767.5119837918,-12500.0,0.18836698732990276,0.73901932394265368,0.13456998516805466,-0.063085422203855226,-0.16745789193688301,0.015091041464939227,0.75888537106114629,0.61000454164621765,-0.69555719603608845,0.69555719603608845,-0.61000454164621765,1.3259379231715289,0.0
644640.0783812654,4030767.5119837918,-12500.0,2.3315329770045836,0.21231025249464477,-0.13078215925046768,0.50205227739213754,0.051494476413219463,0.081556324606971584,1.3032090881802361,-0.26457158832118743,0.17733177063944916,-0.17733177063944916,0.26457158832118743,2.5464859395048922,0.0
649640.0783812654,4030767.5119837918,-12500.0,2.7728076379946045,0.20697659859104403,-0.16140507640302662,0.62800308423407147,0.051823130771229894,0.10766037565154257,1.5522152094435973,-0.33809914814014203,0.24597598291915937,-0.24597598291915937,0.33809914814014203,3.0351678157167274,0.0
654640.0783812654,4030767.5119837918,-12500.0,3.3237596237246545,0.18751644732320102,-0.19940907495821755,0.79417057276900693,0.048184292632361743,0.14413919595485764,1.8653612579400005,-0.43462803263420507,0.34135549736570775,-0.34135549736570775,0.43462803263420507,3.6503339172512566,0.0
659640.0783812654,4030767.5119837918,-12500.0,4.0175535692175846,0.14483743269161978,-0.24621829628518696,1.0161987063793805,0.037321716031964693,0.19596903447604488,2.2635428854935915,-0.56217603538975958,0.47512440995559263,-0.47512440995559263,0.56217603538975958,4.4333944180602076,0.0
664640.0783812654,4030767.5119837918,-12500.0,4.8986910871970082,0.0643503347486514,-0.30298431801971648,1.3168833471301467,0.01357563779778395,0.27094258302089474,2.7758856823505358,-0.73166504381510078,0.66464868187061243,-0.66464868187061243,0.73166504381510078,5.4421465162063765,0.0
669640.0783812654,4030767.5119837918,-12500.0,6.026891185705809,-0.07749888758292843,-0.36976287066533259,1.7298742354435097,-0.032974951193791069,0.38151227183350572,3.4435095729308638,-0.95778951643146415,0.93607898104012588,-0.93607898104012588,0.95778951643146415,6.7583004635198272,0.0
674640.0783812654,4030767.5119837918,-12500.0,7.4817903473320762,-0.31898418386897665,-0.44362742435558977,2.3054346585246055,-0.11992111776785552,0.54799893401908106,4.325198130207176,-1.2597596965343074,1.3291408749089815,-1.3291408749089815,1.2597596965343074,8.4988234111072529,0.0
679640.0783812654,4030767.5119837918,-12500.0,9.3676866737794455,-0.72262900199418745,-0.51447658293651355,3.1193547399702246,-0.27887827152126454,0.80427912083434983,5.5059512430584414,-1.6611364298981504,1.9044977288791505,-1.9044977288791505,1.6611364298981504,10.833057156412481,0.0
684640.0783812654,4030767.5119837918,-12500.0,11.815630717810468,-1.3907544356583432,-0.55585527501416354,4.2864412684536024,-0.56749155203947821,1.2080156980284635,7.109782893358978,-2.1865723184840893,2.754636837597777,-2.754636837597777,2.1865723184840893,14.008307227269704,0.0
689640.0783812654,4030767.5119837918,-12500.0,14.97525812967409,-2.4898221521686574,-0.5050477629776905,5.9797647355295389,-1.0922993848271492,1.859211976979966,9.3183547770533757,-2.8497384500296703,4.0184605149421566,-4.0184605149421566,2.8497384500296703,18.386948806891446,0.0
694640.0783812654,4030767.5119837918,-12500.0,18.976904954736906,-4.2847205110396009,-0.22044513145449102,8.4540943582997841,-2.0521127482264472,2.933672247123313,12.396286862711589,-3.6180881187069289,5.8957453138724851,-5.8957453138724851,3.6180881187069289,24.496145314410608,0.0
699640.0783812654,4030767.5119837918,-12500.0,23.817947399114562,-7.1732610557037084,0.60723508962957395,12.060605698945624,-3.8179677092383186,4.7412832348886731,16.719721069367687,-4.3201597979682385,8.6431167937859783,-8.6431167937859783,4.3201597979682385,33.080894819976294,0.0
704640.0783812654,4030767.5119837918,-12500.0,29.075568567333093,-11.668397958823022,2.6274542430720471,17.202864045736586,-7.0678624687982783,7.8173186475656848,22.789882687043161,-4.420357798898003,12.48821207847805,-12.48821207847805,4.420357798898003,45.114404388033087,0.0
709640.0783812654,4030767.5119837918,-12500.0,33.283389903955317,-18.140028878580811,7.1070130250680723,24.081352204828463,-12.957105386847326,13.0223945902988,31.167521628751171,-2.5299276058594682,17.278064316969207,-17.278064316969207,2.5299276058594682,61.611098379575608,0.0
714640.0783812654,4030767.5119837918,-12500.0,32.90054188813604,-25.790792080880667,16.112256724239039,31.855476700501757,-23.088048370323854,21.473761756596652,42.132799211615968,4.4126433376141581,21.433004090861445,-21.433004090861445,-4.4126433376141581,82.822489507035201,0.0
719640.0783812654,4030767.5119837918,-12500.0,21.81690500021551,-29.927085209184995,31.375897657996514,36.69849890013078,-38.260095517723364,33.651344345429273,54.679714402719441,21.445399602682816,19.682105141882435,-19.682105141882435,-21.445399602682816,106.00489826152048,0.0
724640.0783812654,4030767.5119837918,-12500.0,-4.0795296777378152,-18.253238601892896,48.008379610795004,29.683752448521929,-53.421986297191715,46.256555580917222,64.84759861101891,50.721250007636996,1.2445067080774095,-1.2445067080774095,-50.721250007636996,121.77690186067572,0.0
729640.0783812654,4030767.5119837918,-12500.0,-30.553585511940803,21.930487827798924,40.623455854791182,2.6075212009803335,-48.521563101260142,47.194972441920044,67.303215148055983,72.042504106418974,-40.032179792264117,40.032179792264117,-72.042504106418974,118.75756734981451,0.0
734640.0783812654,4030767.5119837918,-12500.0,-21.028734772542112,64.290185106192141,-26.912646982506491,-26.800586363015739,2.1296500932280384,21.332160020998426,71.950127321469409,29.542455609214311,-70.7359600221737,70.7359600221737,-29.542455609214311,129.0209976570992,0.0
739640.0783812654,4030767.5119837918,-12500.0,12.669662195791304,41.280318961293517,-116.53009397167239,-15.54357705135644,72.261482161784571,-19.139098838864903,96.467233360307716,-80.009196135702723,-33.169195807636271,33.169195807636271,80.009196135702723,187.34155459633538,0.0
744640.0783812654,4030767.5119837918,-12500.0,3.8204736167646027,-24.922289837195454,-129.20583581189618,24.901959991283078,92.924543070147848,-38.41704515349192,108.57460196654324,-139.5442229981046,33.81083297856906,-33.81083297856906,139.5442229981046,208.54232733774637,0.0
749640.0783812654,4030767.5119837918,-12500.0,-32.067319643028938,-52.99935119896179,-78.452326194510533,44.898286975997344,66.011354335379266,-32.913599798777113,89.382947457474501,-109.41579170281983,54.744879055176114,-54.744879055176114,109.41579170281983,172.22046689797625,0.0
754640.0783812654,4030767.5119837918,-12500.0,-49.441624370336484,-42.580815268372838,-32.005153313834619,40.383466709114003,34.642394647633395,-21.039612727361082,61.954140877440246,-57.359716141448573,39.596018563343492,-39.596018563343492,57.359716141448573,120.61347807013998,0.0
759640.0783812654,4030767.5119837918,-12500.0,-46.665175470006993,-24.427723191827823,-8.3145665294422937,28.542559994734059,15.235158239116016,-11.910891712823911,40.201723215283778,-22.323644850668565,20.194748753910105,-20.194748753910105,22.323644850668565,79.22301315960631,0.0
764640.0783812654,4030767.5119837918,-12500.0,-36.504826403853023,-11.290102293870239,0.70021670222853449,18.26921943508248,5.6825451562756459,-6.4123131975072551,26.19307784855533,-5.0361883200867794,7.460893425997881,-7.460893425997881,5.0361883200867794,51.485412076297315,0.0
769640.0783812654,4030767.5119837918,-12500.0,-26.308219812730204,-3.8710044039883393,3.2306588584424136,11.24390333109687,1.4902635782913107,-3.3936152238710857,17.565258525774919,2.0478834474511975,0.88871530368103446,-0.88871530368103446,-2.0478834474511975,33.935902818525484,1.0
774640.0783812654,4030767.5119837918,-12500.0,-18.297730211950924,-0.18350381205607427,3.4023332474791208,6.8411577263690182,-0.18409772355275553,-1.7947168154428781,12.094165862798887,4.3438982068619136,-1.9910294008881166,1.9910294008881166,-4.3438982068619136,22.928863497921377,0.0
779640.0783812654,4030767.5119837918,-12500.0,-12.557383587485464,1.4520104789270059,2.8834863188602236,4.1688388413644573,-0.75738442290609032,-0.95517450038714258,8.5596724858790623,4.6423174798859028,-2.98832984724213,2.98832984724213,-4.6423174798859028,15.939481380084565,0.0
784640.0783812654,4030767.5119837918,-12500.0,-8.5955666545666443,2.0480094562117319,2.2671023790834059,2.5584963762188648,-0.87549080129102896,-0.51215157659688992,6.223558727792839,4.2101749942770175,-3.1166290709254394,3.1166290709254394,-4.2101749942770175,11.404030294276465,0.0
789640.0783812654,4030767.5119837918,-12500.0,-5.8973941294451917,2.1481572331467209,1.7322446905059523,1.5836346382445519,-0.82038723990162199,-0.27573756571169977,4.6399971028840854,3.5812178470310316,-2.8852997396357356,2.8852997396357356,-3.5812178470310316,8.3850904622350324,0.0
794640.0783812654,4030767.5119837918,-12500.0,-4.062503629630692,2.0291257184615406,1.3121856367252434,0.98752598333437069,-0.71114423962800277,-0.14793724177892972,3.5389070369426836,2.962795160818716,-2.5346474309602436,2.5346474309602436,-2.962795160818716,6.3218977691411551,0.0
799640.0783812654,4030767.5119837918,-12500.0,-2.8091583886891947,1.8269184172312669,0.99500807152468629,0.61858900797272476,-0.5956970708594691,-0.078036448189544916,2.754440247765884,2.4237472074644901,-2.1713361499654655,2.1713361499654655,-2.4237472074644901,4.8750878780585936,0.0
804640.0783812654,4030767.5119837918,-12500.0,-1.9468766562054871,1.6059692313151204,0.75900442835136483,0.38744791739016898,-0.49148838414273865,-0.039484161675375634,2.1827743784339622,1.9770980861346206,-1.8383089454128276,1.8383089454128276,-1.9770980861346206,3.8355186060403779,0.0
809640.0783812654,4030767.5119837918,-12500.0,-1.3487535708122287,1.3950170072804529,0.58390612222959393,0.24100990338453718,-0.40324738992035569,-0.018161809265252567,1.7574868296794608,1.6153789470797872,-1.549202819658936,1.549202819658936,-1.6153789470797872,3.071541454122992,0.0
814640.0783812654,4030767.5119837918,-12500.0,-0.93043904984427594,1.2053243359473724,0.45357677768341687,0.14736126650703119,-0.33069950607812465,-0.0064341882256427887,1.4351197606181447,1.3252236021275412,-1.304854098404906,1.304854098404906,-1.3252236021275412,2.4984195454308411,0.0
819640.0783812654,4030767.5119837918,-12500.0,-0.63563881462932459,1.0398324889214894,0.35594016674495127,0.087053839870805519,-0.27185893697034574,-0.00010334216992720534,1.1866073582741687,1.0930541621913892,-1.1010472721717526,1.1010472721717526,-1.0930541621913892,2.0603791810343068,0.0
824640.0783812654,4030767.5119837918,-12500.0,-0.42650203590420294,0.89772430744274301,0.28219420595188055,0.048065414864688176,-0.22438777473484214,0.0031742430865967087,0.99209611008572018,0.90701676224959382,-0.93204978621978285,0.93204978621978285,-0.90701676224959382,1.719903884815426,0.0
829640.0783812654,4030767.5119837918,-12500.0,-0.27734512406906414,0.7766696232035446,0.22598791819514907,0.022858939779639358,-0.18611455837922294,0.0047242138534691743,0.83775345753870456,0.75739765771680212,-0.79214177696873878,0.79214177696873878,-0.75739765771680212,1.4512281128658024,0.0
834640.0783812654,4030767.5119837918,-12500.0,-0.17056786648201414,0.67390413707118557,0.18274679555654669,0.0066455064079630755,-0.15519482282335767,0.0053044012872770028,0.71376224654127007,0.63647322262524231,-0.67620757094919326,0.67620757094919326,-0.63647322262524231,1.2363062724817122,0.0
644640.0783812654,4035767.5119837918,-12500.0,2.483666443407011,-0.016089735744897447,-0.095162363955337836,0.53407578095556751,0.0013225140459294034,0.086517153212710099,1.3464634948745078,-0.37861951770502705,0.39987241591582051,-0.39987241591582051,0.37861951770502705,2.6591987134076325,0.0
649640.0783812654,4035767.5119837918,-12500.0,2.9377013949051309,-0.077773476323788643,-0.10974513907367603,0.66479297300393081,-0.013642840725660669,0.11372471966928986,1.6000916724217618,-0.47159091697974009,0.51991868794795282,-0.51991868794795282,0.47159091697974009,3.1623425370735747,0.0
654640.0783812654,4035767.5119837918,-12500.0,3.4976031124066544,-0.17025075156054542,-0.12404693270518449,0.83558138447770602,-0.038142421414052191,0.15144916909125503,1.9173268829007994,-0.59025576406565772,0.68097037201748389,-0.68097037201748389,0.59025576406565772,3.7921505666674449,0.0
659640.0783812654,4035767.5119837918,-12500.0,4.1920478971398127,-0.30810182735361735,-0.13546661055803913,1.0610992377459432,-0.077748780087266586,0.20453825251361002,2.318034761747104,-0.74208283583887058,0.89904477774747249,-0.89904477774747249,0.74208283583887058,4.588280587226933,0.0
664640.0783812654,4035767.5119837918,-12500.0,5.0576453225605933,-0.51317020373719668,-0.13881441190566346,1.3621167180596672,-0.14147854251789765,0.28043693703654365,2.8294206038895942,-0.93635531930991589,1.1971077741420217,-1.1971077741420217,0.93635531930991589,5.6050430935866178,0.0
669640.0783812654,4035767.5119837918,-12500.0,6.1403684316049514,-0.81834102414749776,-0.12406684629144918,1.7682496847299369,-0.24409838943785128,0.39076385538350811,3.4890680625093538,-1.1839774316225067,1.6082303986691628,-1.6082303986691628,1.1839774316225067,6.9174413912842567,0.0
674640.0783812654,4035767.5119837918,-12500.0,7.4960621585511689,-1.273222871470808,-0.072183483849902336,2.3218470858802309,-0.41008737243812893,0.55393754803638129,4.3492664939465442,-1.4962400566793796,2.1800360504296341,-2.1800360504296341,1.4962400566793796,8.6297426352206124,0.0
679640.0783812654,4035767.5119837918,-12500.0,9.1881163017693854,-1.952410328060572,0.052702158877102494,3.0832707924743876,-0.68048528610676506,0.799581516122715,5.4830473465015421,-1.8810455312601131,2.9805856450812027,-2.9805856450812027,1.8810455312601131,10.8873845974859,0.0
684640.0783812654,4035767.5119837918,-12500.0,11.278017361424252,-2.9666304709065914,0.31781224244082174,4.137345139985527,-1.1247107336205882,1.1759041721737724,6.992199977084371,-2.3332871898158318,4.105065814232578,-4.105065814232578,2.3332871898158318,13.892733374934897,0.0
689640.0783812654,4035767.5119837918,-12500.0,13.799716685167406,-4.4751651953982732,0.84837881823264016,5.5991399279635017,-1.8606391265587394,1.7618677613255822,9.0167455000557073,-2.8123460049674218,5.6801198842162961,-5.6801198842162961,2.8123460049674218,17.923701038229996,0.0
694640.0783812654,4035767.5119837918,-12500.0,16.699968383603096,-6.69154570421939,1.8747814932440532,7.6126103271099428,-3.0872407440234402,2.6863574112144315,11.742894905922096,-3.1925002257359525,7.8556201334699116,-7.8556201334699116,3.1925002257359525,23.349348665262312,0.0
699640.0783812654,4035767.5119837918,-12500.0,19.713662296486469,-9.8564769982682154,3.8089367833076246,10.323795156044492,-5.1320557216209437,4.1550656149364444,15.400485061375306,-3.1605192421490447,10.756023662514275,-10.756023662514275,3.1605192421490447,30.62322089970182,0.0
704640.0783812654,4035767.5119837918,-12500.0,22.135184208429909,-14.108003455844743,7.3421465941448467,13.784057220925764,-8.5004088307533241,6.4767673196816373,20.228702429471841,-2.0253873927111172,14.324824080399672,-14.324824080399672,2.0253873927111172,40.202776858241727,0.0
709640.0783812654,4035767.5119837918,-12500.0,22.492604227164961,-19.094702891468888,13.474559614478633,17.694625583662912,-13.854508786932968,10.0486616817702,26.365709923446232,1.5605186405877536,17.932504080797919,-17.932504080797919,-1.5605186405877536,52.277350793986152,0.0
714640.0783812654,4035767.5119837918,-12500.0,18.384942325435091,-23.107606755125932,23.120257746694794,20.88487630597853,-21.686287346157108,15.176637539936269,33.561386897526923,9.7385710442803504,19.604750084291389,-19.604750084291389,-9.7385710442803504,66.100019578206812,0.0
719640.0783812654,4035767.5119837918,-12500.0,7.4610160621945134,-21.849780135254093,35.378993166759813,20.659737419422903,-31.160673649017138,21.473026414786027,40.62739688205324,24.443462221525472,15.153816142535902,-15.153816142535902,-24.443462221525472,78.805066898623821,0.0
724640.0783812654,4035767.5119837918,-12500.0,-8.7500505774260624,-8.8721627682428608,43.525788015450146,13.228802994738487,-37.742500688165308,26.672526742706204,45.071125505003572,43.082282084896832,-0.70294242810109964,0.70294242810109964,-43.082282084896832,84.678308481134351,0.0
729640.0783812654,4035767.5119837918,-12500.0,-19.686606029993808,16.970114714269304,32.233996122461484,-2.0118018025017173,-31.920717320959533,25.99102949901825,44.849317321218628,51.092770752693667,-26.738053854661242,26.738053854661242,-51.092770752693667,79.645953923636085,0.0
734640.0783812654,4035767.5119837918,-12500.0,-12.311568126800124,38.382478189030628,-9.709295291020462,-15.564416797105212,-6.7983400948517367,15.508864830806919,44.241889306362296,26.061399311035398,-44.444336411759053,44.444336411759053,-26.061399311035398,77.417061088156856,0.0
739640.0783812654,4035767.5119837918,-12500.0,4.9930901419100868,29.84547127889407,-61.410313654711793,-13.275576635400579,26.393641669705218,-0.78259765630985578,50.386048427156446,-28.855080608054539,-31.407492638858837,31.407492638858837,28.855080608054539,96.695902243077285,0.0
744640.0783812654,4035767.5119837918,-12500.0,7.0433879872175407,-2.3852878161823798,-82.658847492406196,3.0156331506430289,44.556864442250685,-12.68659516241714,57.199074706276889,-71.464488911303178,2.0609783774781363,-2.0609783774781363,71.464488911303178,112.54436068146801,0.0
749640.0783812654,4035767.5119837918,-12500.0,-8.141413770348505,-26.861570778956541,-67.486756018740849,17.354314250273859,41.461105728872155,-15.651930685497552,54.749711365873267,-75.137249798150947,25.053905668521203,-25.053905668521203,75.137249798150947,106.57289431338674,0.0
754640.0783812654,4035767.5119837918,-12500.0,-23.062542800021916,-31.521969660257295,-40.656515198317621,21.843254911883641,28.748226872726697,-12.978270648371073,44.378251254807509,-54.603206083890719,28.169654468202047,-28.169654468202047,54.603206083890719,86.488909865219298,0.0
759640.0783812654,4035767.5119837918,-12500.0,-28.842044677651089,-24.847889713514114,-19.775069443380115,19.412024299336657,16.799837251527354,-8.9632284278892946,32.760842440577733,-31.730303813442216,20.981850224492614,-20.981850224492614,31.730303813442216,64.23840881933387,0.0
764640.0783812654,4035767.5119837918,-12500.0,-27.360153803057607,-16.114163692669695,-7.7948987129094345,14.746011225050172,8.7886101367093765,-5.6422101142807453,23.137122683068245,-15.505642510443028,12.534362804221391,-12.534362804221391,15.505642510443028,45.744983731581435,0.0
769640.0783812654,4035767.5119837918,-12500.0,-22.755739791821181,-9.1984076403594184,-2.0054393559997012,10.368757991843328,4.1886974224604083,-3.3954321880279648,16.201920468540948,-6.0830899696480296,6.2404890841837597,-6.2404890841837597,6.0830899696480296,32.135111232224013,0.0
774640.0783812654,4035767.5119837918,-12500.0,-17.693137162930846,-4.6468004583951101,0.43150258101985756,7.0268355088498211,1.7627670785372607,-2.0066252890185887,11.531982242922977,-1.2349693521067411,2.3492820209098713,-2.3492820209098713,1.2349693521067411,22.638162529007701,0.0
779640.0783812654,4035767.5119837918,-12500.0,-13.291566218174932,-1.9253392387530093,1.2732266144659881,4.6907334083373735,0.55551284959074998,-1.1822082908858631,8.3329363935778495,1.0064130350748799,0.19998110623133297,-0.19998110623133297,-1.0064130350748799,16.138617257280373,0.0
784640.0783812654,4035767.5119837918,-12500.0,-9.8224583681129243,-0.39988041184878559,1.4247629326537143,3.1213824049743435,-0.01119729430641418,-0.69989446550356516,6.1252342628032972,1.8894239811810349,-0.87277671330609075,0.87277671330609075,-1.8894239811810349,11.69730044182708,0.0
789640.0783812654,4035767.5119837918,-12500.0,-7.2127245062122149,0.40364647788895114,1.310491840448698,2.0837100621610825,-0.25392438404789797,-0.41787383632937602,4.5862484674242134,2.1096723253945542,-1.3339801960109405,1.3339801960109405,-2.1096723253945542,8.6376499871529067,0.0
794640.0783812654,4035767.5119837918,-12500.0,-5.2921427067337783,0.79058174463638053,1.1166483106915182,1.3997753790002199,-0.33793378949039832,-0.25182538812560568,3.4980908830825448,2.0298742591506618,-1.4678797680541726,1.4678797680541726,-2.0298742591506618,6.5016021240063582,0.0
799640.0783812654,4035767.5119837918,-12500.0,-3.8913020339321287,0.94487000211407535,0.91906055243433193,0.94734497438852205,-0.34733365548851997,-0.15302389241736195,2.7160189628377056,1.8310908165426987,-1.4370847444176713,1.4370847444176713,-1.8310908165426987,4.9864301694854731,0.0
804640.0783812654,4035767.5119837918,-12500.0,-2.8712862402545953,0.97357218182320793,0.74467993529298326,0.64588549660090711,-0.32417009913374545,-0.093534469056410219,2.1442399958237175,1.5999881603730828,-1.3308909939236722,1.3308909939236722,-1.5999881603730828,3.8932186169947061,0.0
809640.0783812654,4035767.5119837918,-12500.0,-2.126806739570581,0.93772471133554136,0.59987843261858542,0.443218314897665,-0.28904245785177979,-0.057292224904385645,1.7190399356260579,1.3756075979104976,-1.1966924443102798,1.1966924443102798,-1.3756075979104976,3.0907498714604671,0.0
814640.0783812654,4035767.5119837918,-12500.0,-1.5809292237261821,0.87155510322619634,0.4830550378911842,0.30566781258295239,-0.25171587686947999,-0.034975461379721802,1.3976135158626277,1.1735559993720051,-1.0586386189930383,1.0586386189930383,-1.1735559993720051,2.4916632616943328,0.0
819640.0783812654,4035767.5119837918,-12500.0,-1.1783743415478294,0.79389376003305046,0.39006398228324568,0.21143292806696826,-0.21653201860650945,-0.021110168706542514,1.1508318600459333,0.99827237286037129,-0.92825368422223509,0.92825368422223509,-0.99827237286037129,2.0370894833167505,0.0
824640.0783812654,4035767.5119837918,-12500.0,-0.8796723671322908,0.71480385654426504,0.31642884839469237,0.14630182884293871,-0.18515789943008712,-0.012438854525179692,0.95858933195263862,0.84915651398239311,-0.81034665535892536,0.81034665535892536,-0.84915651398239311,1.6868164402575077,0.0
829640.0783812654,4035767.5119837918,-12500.0,-0.6566525447400694,0.63939524289887384,0.25815016101778948,0.1009262417270243,-0.15797873029109322,-0.0069965076901544352,0.80680228685169175,0.72357810761659169,-0.70625630288743957,0.70625630288743957,-0.72357810761659169,1.4129822514235,0.0
644640.0783812654,4040767.5119837918,-12500.0,2.5478284083898921,-0.23844459703787016,-0.029454805993589052,0.54825931882158707,-0.04801260975335471,0.088800370147294208,1.3689243228445964,-0.46358991626215867,0.61122359866345133,-0.61122359866345133,0.46358991626215867,2.7259574327243028,0.0
649640.0783812654,4040767.5119837918,-12500.0,2.9893332605330691,-0.34971486726347961,-0.019827651985174173,0.67743250215911444,-0.076888356618293324,0.11595523992819172,1.6205258598837167,-0.5655230887537025,0.77524927424869683,-0.77524927424869683,0.5655230887537025,3.2289743152400572,0.0
654640.0783812654,4040767.5119837918,-12500.0,3.5246405916637098,-0.50409860427565345,2.4423266569203648e-05,0.84396931348163839,-0.1197826499661893,0.15319483832402309,1.9327944565868724,-0.69169849382398052,0.99035758438507981,-0.99035758438507981,0.69169849382398052,3.8534083424465368,0.0
659640.0783812654,4040767.5119837918,-12500.0,4.1751418902063273,-0.71897533972339733,0.037181108467871614,1.0604029425734183,-0.18378481939608657,0.20491952737580726,2.3236803743194914,-0.8473183898682628,1.274510164388533,-1.274510164388533,0.8473183898682628,4.6348927720195405,0.0
664640.0783812654,4040767.5119837918,-12500.0,4.9659879883838665,-1.0190465133662074,0.10343035322111249,1.3438276880872282,-0.27985844429424944,0.27771746887760601,2.8173162928056499,-1.037648257998582,1.652396724707899,-1.652396724707899,1.037648257998582,5.620970539912741,0.0
669640.0783812654,4040767.5119837918,-12500.0,5.9251772990922058,-1.439324066276523,0.21846516079370051,1.7174847838374383,-0.42510796083183905,0.38156089860587317,3.4461271909252313,-1.2666386877862512,2.1577847819728131,-2.1577847819728131,1.2666386877862512,6.8752306731435624,0.0
674640.0783812654,4040767.5119837918,-12500.0,7.0805551921576315,-2.0289788436714158,0.41527888255603318,2.2126424181324347,-0.64640940985496753,0.5316844228636094,4.2532333683186492,-1.5338080179360172,2.8362391012533119,-2.8362391012533119,1.5338080179360172,8.4826142004829332,0.0
679640.0783812654,4040767.5119837918,-12500.0,8.452538941418533,-2.8556640231653212,0.74918862530686936,2.8703965309151669,-0.98616449600589962,0.75150473357986158,5.2953829057059059,-1.8276547868022339,3.7475081388150349,-3.7475081388150349,1.8276547868022339,10.555724071655041,0.0
684640.0783812654,4040767.5119837918,-12500.0,10.038597834712748,-4.0086757268348912,1.3125857733383837,3.7422391135922148,-1.5111761524619434,1.0770408954154855,6.6461337771600517,-2.1123797669563631,4.9654881812664184,-4.9654881812664184,2.1123797669563631,13.241095098988975,0.0
689640.0783812654,4040767.5119837918,-12500.0,11.782829517523158,-5.5961636753096675,2.2578725108184008,4.8864424873811334,-2.3255388351228374,1.5632196512656351,8.3972837138602028,-2.3023089403707555,6.5704760515455121,-6.5704760515455121,2.3023089403707555,16.722182393685749,0.0
694640.0783812654,4040767.5119837918,-12500.0,13.521146363295076,-7.7244956736571888,3.8293794265733405,6.3535315553628742,-3.5869139769687739,2.2917036238965571,10.65445408069886,-2.2155119478965948,8.6216921950484249,-8.6216921950484249,2.2155119478965948,21.21087066294529,0.0
699640.0783812654,4040767.5119837918,-12500.0,14.893828642518784,-10.433814816367972,6.3960916528127836,8.1472072234270403,-5.5196676635700843,3.3771394856607597,13.519113672202382,-1.4979703384210392,11.085739738480996,-11.085739738480996,1.4979703384210392,26.909189740211037,0.0
704640.0783812654,4040767.5119837918,-12500.0,15.236523683696513,-13.542439554980456,10.447399238455908,10.137838137856827,-8.4013400754653489,4.961077105822894,17.046504566646064,0.47511424908579958,13.680403054612785,-13.680403054612785,-0.47511424908579958,33.905426730167967,0.0
709640.0783812654,4040767.5119837918,-12500.0,13.531836061520499,-16.343001449731755,16.439056499102662,11.905316858015659,-12.45999727260174,7.1658646093706215,21.160010808415183,4.6483622937546194,15.594544443700237,-15.594544443700237,-4.6483622937546194,41.949138241921297,0.0
714640.0783812654,4040767.5119837918,-12500.0,8.6705310354577634,-17.181411382742336,24.244706835429618,12.539967784616401,-17.559933468208651,9.9556973925434757,25.466024720263633,12.032795232053532,15.14721612141919,-15.14721612141919,-12.032795232053532,50.065957049544444,0.0
719640.0783812654,4040767.5119837918,-12500.0,0.45890966746357414,-13.34594261029476,31.927754713184353,10.627060276535563,-22.557135334444347,12.85528733225083,29.049806206622062,22.612511183893222,9.8325548122370883,-9.8325548122370883,-22.612511183893222,56.155832699575519,0.0
724640.0783812654,4040767.5119837918,-12500.0,-8.5802621425484151,-2.4865827115554886,34.251176147192432,4.9910154180756958,-24.587156529657957,14.633954573691993,30.613341608592179,33.035348663216105,-2.129898814619045,2.129898814619045,-33.035348663216105,57.323629133948486,0.0
729640.0783812654,4040767.5119837918,-12500.0,-12.66391851809477,13.367010354426426,23.645457408402763,-3.3736188344241489,-19.635686880332102,13.494565400725818,29.627148971870525,34.925719374231662,-18.007300673222499,18.007300673222499,-34.925719374231662,52.722805712334107,0.0
734640.0783812654,4040767.5119837918,-12500.0,-7.5441899179967846,24.695165926910448,-2.4955656688466044,-9.8734976282714388,-6.1374642695343278,8.4691031778242074,28.422196973430299,19.554732517266515,-28.2319721964314,28.2319721964314,-19.554732517266515,49.356721856787225,0.0
739640.0783812654,4040767.5119837918,-12500.0,1.9542643910038955,21.193917738651923,-33.322026203082835,-9.3585459689336279,10.881406492531333,1.1599287672123679,30.382985862576582,-10.154893403359118,-23.540840244434584,23.540840244434584,10.154893403359118,56.413961480566549,0.0
744640.0783812654,4040767.5119837918,-12500.0,5.3250159299414115,4.8484333899367122,-51.227954540606085,-2.1463872464528087,22.625086837955138,-4.9887479574907845,33.323051328813662,-37.178125295594718,-6.970196702793686,6.970196702793686,37.178125295594718,65.88903343442189,0.0
749640.0783812654,4040767.5119837918,-12500.0,-0.54539854744355354,-11.645001212384111,-49.944763522473977,6.1511998109943242,24.98105020693329,-7.7928282845044832,34.156864522317626,-47.510391003160144,8.9143210293014974,-8.9143210293014974,47.510391003160144,67.28515896091433,0.0
754640.0783812654,4040767.5119837918,-12500.0,-9.6615996154676136,-19.5968488537052,-37.35345394952013,11.007541380013011,20.719346330282423,-7.6472754309580546,30.790727548766235,-42.275698811650514,16.225497232531023,-16.225497232531023,42.275698811650514,60.250792227349514,0.0
759640.0783812654,4040767.5119837918,-12500.0,-16.052204374703955,-19.485668041713982,-23.40056506031339,11.921321823948482,14.494252605622904,-6.0943186967938336,25.142765616717419,-30.488989887936519,15.919090220039983,-15.919090220039983,30.488989887936519,49.213916959945159,0.0
764640.0783812654,4040767.5119837918,-12500.0,-18.188163130628105,-15.48690017438404,-12.867310449308082,10.499291470718529,9.0967627606373789,-4.3355836192836099,19.348352205865048,-19.095777145609354,12.161663226331145,-12.161663226331145,19.095777145609354,38.013007917074532,0.0
769640.0783812654,4040767.5119837918,-12500.0,-17.264699679567116,-10.832207106916288,-6.2809145080874487,8.3028564945728807,5.2996962687614984,-2.8963650321837076,14.422846254203158,-10.68796420406702,7.9853866885151223,-7.9853866885151223,10.68796420406702,28.50187060785305,0.0
774640.0783812654,4040767.5119837918,-12500.0,-14.888785816731772,-6.9504627931519289,-2.6049238159605204,6.1915200385849118,2.9066357311031821,-1.8725253004816604,10.611422032048212,-5.2910282946299452,4.6417323377656645,-4.6417323377656645,5.2910282946299452,21.111691302089472,0.0
779640.0783812654,4040767.5119837918,-12500.0,-12.159885245896893,-4.1467173459616573,-0.71771909746736917,4.4751845454229917,1.492198196022098,-1.1932927725498497,7.8686598380638939,-2.1158562591208163,2.3354208870982207,-2.3354208870982207,2.1158562591208163,15.622270457263763,0.0
784640.0783812654,4040767.5119837918,-12500.0,-9.6295284268037094,-2.2738570914173719,0.172706449915911,3.1863653642007761,0.69064314799522653,-0.75792089816905484,5.9143196923841863,-0.37018286529017191,0.88018691271736738,-0.88018691271736738,0.37018286529017191,11.628785954839618,0.0
789640.0783812654,4040767.5119837918,-12500.0,-7.49845709146018,-1.0830806900382079,0.54185574345192311,2.2565345421693341,0.25172694270648782,-0.48290736882712793,4.495030966288347,0.52230720615269366,0.022145400952056693,-0.022145400952056693,-0.52230720615269366,8.7431395413548394,0.0
794640.0783812654,4040767.5119837918,-12500.0,-5.7906447599669084,-0.35401968108310417,0.6526365825296202,1.5985614814306466,0.020473132422693777,-0.30973313552978993,3.4599219655817346,0.92982674786067632,-0.4494226399250793,0.4494226399250793,-0.92982674786067632,6.6546716496626006,0.0
799640.0783812654,4040767.5119837918,-12500.0,-4.4578554957561654,0.07589529449518663,0.64341263624435541,1.1365203103407366,-0.094415034440249818,-0.20030297610345615,2.6992498585881162,1.0725615455472601,-0.68317558198672745,0.68317558198672745,-1.0725615455472601,5.1332086606875755,0.0
804640.0783812654,4040767.5119837918,-12500.0,-3.4318508135846302,0.31717982111583881,0.58436166705852099,0.81233819232864846,-0.14531617207732095,-0.13065040191672708,2.1345390884535869,1.0771855592309452,-0.7761540223885296,0.7761540223885296,-1.0771855592309452,4.0142750348902823,0.0
809640.0783812654,4040767.5119837918,-12500.0,-2.6468140863398637,0.44185735348217314,0.50974150970718979,0.58416098805025196,-0.16183657035872021,-0.08590843215930874,1.7104135162471246,1.0146475020075127,-0.78900369278851445,0.78900369278851445,-1.0146475020075127,3.1822097818611055,0.0
814640.0783812654,4040767.5119837918,-12500.0,-2.0470530092959458,0.49577858008746706,0.43537594476408548,0.4226769837533404,-0.16054265385262059,-0.056881204631596224,1.3879441539830362,0.92372626324226359,-0.7585699062614466,0.7585699062614466,-0.92372626324226359,2.5560625467517566,0.0
819640.0783812654,4040767.5119837918,-12500.0,-1.5882432917493192,0.50772583549260764,0.36785481783148671,0.30762468193692488,-0.15061260364549858,-0.037860763054618579,1.1397058196967873,0.82498926789002214,-0.70674474307986657,0.70674474307986657,-0.82498926789002214,2.0790895464365104,0.0
824640.0783812654,4040767.5119837918,-12500.0,-1.236205028356558,0.49559141457564199,0.30928323216422565,0.22505697442677189,-0.13706043642096391,-0.025278488212007625,0.94626245655854202,0.72884360330881237,-0.64624185366980891,0.64624185366980891,-0.72884360330881237,1.7112993491499164,0.0
829640.0783812654,4040767.5119837918,-12500.0,-0.96501208136338101,0.47039981034543088,0.25969601972250383,0.16536378723816167,-0.12256165271019308,-0.016882489043989507,0.79372683840758318,0.64011281428931199,-0.58422759319114004,0.58422759319114004,-0.64011281428931199,1.4242911329351775,0.0
649640.0783812654,4045767.5119837918,-12500.0,2.9405617279716059,-0.59027957673204479,0.098412080187651074,0.66846184310080703,-0.133787234766718,0.11473255970188036,1.621998336882047,-0.61729871364294286,0.99607253397294659,-0.99607253397294659,0.61729871364294286,3.2359243577489023,0.0
654640.0783812654,4045767.5119837918,-12500.0,3.4257974596475211,-0.79015636135118128,0.15756972749145767,0.8237132096291907,-0.19113395859596619,0.15007455284566124,1.9242502732525406,-0.73754410365073375,1.2492464974878694,-1.2492464974878694,0.73754410365073375,3.8371881340639868,0.0
659640.0783812654,4045767.5119837918,-12500.0,4.0006987038728639,-1.0574046349724062,0.24826059554749647,1.0216323037405821,-0.27321278212740285,0.19839352316546166,2.2980848244006422,-0.87922925430822474,1.5759611729531144,-1.5759611729531144,0.87922925430822474,4.580376473146397,0.0
664640.0783812654,4045767.5119837918,-12500.0,4.6783819824974282,-1.4154180981004341,0.38746951024671578,1.2749478081611356,-0.39145640660712139,0.2651429358774926,2.7631016173840304,-1.0425697695966283,1.9990125658047788,-1.9990125658047788,1.0425697695966283,5.5043802132191875,0.0
669640.0783812654,4045767.5119837918,-12500.0,5.4694570045390725,-1.8951663896239028,0.60160176394795273,1.5998780496887703,-0.56289356928783973,0.358281304986861,3.3444404224441393,-1.2237845917139771,2.5476023674139081,-2.5476023674139081,1.2237845917139771,6.6591299751650119,0.0
674640.0783812654,4045767.5119837918,-12500.0,6.3771726073691344,-2.5365122061233962,0.93167971336099786,2.0164211801402057,-0.81288866643974877,0.4894422885589928,4.0739291777213449,-1.410904971004491,3.2578263919020647,-3.2578263919020647,1.410904971004491,8.1079638101982159,0.0
679640.0783812654,4045767.5119837918,-12500.0,7.3884922738452374,-3.3881427591371764,1.4410560455266848,2.547745514684943,-1.179011348558108,0.67556793091826284,4.9908725460400056,-1.5762133621506766,4.1713437722950406,-4.1713437722950406,1.5762133621506766,9.9293716045100968,0.0
684640.0783812654,4045767.5119837918,-12500.0,8.4586728325547504,-4.5035664946060647,2.2261360977886628,3.2173852690285658,-1.7160868906570965,0.94101977432289596,6.1416088787226037,-1.6631489829250643,5.329580930086288,-5.329580930086288,1.6631489829250643,12.216442726115135,0.0
689640.0783812654,4045767.5119837918,-12500.0,9.4865633702214183,-5.9278861437467834,3.4292954159387117,4.0417218070638592,-2.5016826863456454,1.3198641382175114,7.5760552556563177,-1.564948290853494,6.7582659996639904,-6.7582659996639904,1.564948290853494,15.070463912964245,0.0
694640.0783812654,4045767.5119837918,-12500.0,10.279512646180782,-7.6655147777457184,5.2489442045291481,5.0133475257612528,-3.6390465562200314,1.8571498029502014,9.3381545593060604,-1.093262047261252,8.4331022073593616,-8.4331022073593616,1.093262047261252,18.581787647225212,0.0
699640.0783812654,4045767.5119837918,-12500.0,10.514628131669427,-9.6135103720779735,7.9308014089934566,6.0689709255342175,-5.2492363352131886,2.6059642249031483,11.447050444236819,0.058548271122420559,10.213205421275054,-10.213205421275054,-0.058548271122420559,22.786134463657824,0.0
704640.0783812654,4045767.5119837918,-12500.0,9.7251497633298492,-11.445163846781165,11.701502859313885,7.0366537908202309,-7.4338967978850672,3.6131569104516985,13.87060799748088,2.3318636081988355,11.731255302785133,-11.731255302785133,-2.3318636081988355,27.579868838529098,0.0
709640.0783812654,4045767.5119837918,-12500.0,7.3849808254264326,-12.455172443187656,16.570631460601799,7.5706476410461843,-10.176034999752375,4.8813532342437451,16.466811688743778,6.2247658870376883,12.258536507245513,-12.258536507245513,-6.2247658870376883,32.582739616426252,0.0
714640.0783812654,4045767.5119837918,-12500.0,3.2140339792086761,-11.475506404173197,21.913827115857877,7.1253690089585708,-13.144889798677156,6.2943824618747488,18.880537352785467,11.971184401868197,10.658455154495336,-10.658455154495336,-11.971184401868197,36.977124095983058,0.0
719640.0783812654,4045767.5119837918,-12500.0,-2.2273315412013988,-7.1683413147813813,25.884786685794829,5.0999215444128181,-15.437333987934343,7.5170296399484036,20.535778164959009,18.824417202954663,5.7201376262233143,-5.7201376262233143,-18.824417202954663,39.476903694748891,0.0
724640.0783812654,4045767.5119837918,-12500.0,-6.9838400233412283,0.88534216696013135,25.196790395895807,1.3175660778320766,-15.501380040078899,7.9555759440869007,20.850445594726413,24.156478318691715,-2.7664633490309107,2.7664633490309107,-24.156478318691715,38.813104520346492,0.0
729640.0783812654,4045767.5119837918,-12500.0,-8.2443243402341473,10.520181582520086,16.47848506146028,-3.2730501203416442,-11.748377673251916,6.9590924208723992,19.859757104980631,23.568430379119629,-12.485046518097565,12.485046518097565,-23.568430379119629,35.280651606844287,0.0
734640.0783812654,4045767.5119837918,-12500.0,-4.7892373085963484,16.721593952397299,-0.30438826758543375,-6.4894548517566903,-4.0347290356863947,4.3399473310114187,18.926190536510724,13.695897546676088,-18.531667381746239,18.531667381746239,-13.695897546676088,32.810427748633479,0.0
739640.0783812654,4045767.5119837918,-12500.0,0.69766055445286956,15.051507311920385,-19.399005196670004,-6.3120254356177394,5.2453305987654035,0.81243564204881402,19.688256272398071,-3.4603074522835726,-16.821458992088147,16.821458992088147,3.4603074522835726,35.887391042790043,0.0
744640.0783812654,4045767.5119837918,-12500.0,3.449080174593206,6.2625976659040248,-32.492690874602907,-2.8198471044253672,12.393460117197382,-2.3239795456516563,21.375239379297742,-20.318221948542217,-8.3461272699722553,8.3461272699722553,20.318221948542217,41.472324466439332,0.0
749640.0783812654,4045767.5119837918,-12500.0,1.3501233869506417,-4.1633743985187621,-35.444828849191722,1.8192720199206673,15.220989806202851,-4.1188517605013057,22.103011791712454,-29.761580135019322,1.5461579901733415,-1.5461579901733415,29.761580135019322,44.03990716529745,0.0
754640.0783812654,4045767.5119837918,-12500.0,-3.6627756564315566,-11.226919428798729,-30.44383713104601,5.3677725607430862,14.21874335401999,-4.4982138520338042,21.373346538461654,-30.358231318507642,8.1780616158773736,-8.1780616158773736,30.358231318507642,42.031385690783054,0.0
759640.0783812654,4045767.5119837918,-12500.0,-8.4691454137893256,-13.605495991026011,-22.293495855001446,6.976639559634223,11.269120497705201,-3.9737895022956025,18.801321379850698,-25.288849382969168,10.426726864400216,-10.426726864400216,25.288849382969168,36.821115652121954,0.0
764640.0783812654,4045767.5119837918,-12500.0,-11.334395875787511,-12.638174913592977,-14.583799306883714,6.9910664211101112,8.0202327099366162,-3.1115783280654781,15.51753822513057,-18.441882631493762,9.627208794593038,-9.627208794593038,18.441882631493762,30.391782200973925,0.0
769640.0783812654,4045767.5119837918,-12500.0,-12.138247553209926,-10.177303173937984,-8.7590479380566233,6.13238297227955,5.3061825387732817,-2.2664630651010076,12.30389170781884,-12.223988825739223,7.5210820427412743,-7.5210820427412743,12.223988825739223,24.156365010465269,0.0
774640.0783812654,4045767.5119837918,-12500.0,-11.51612759819044,-7.4953965437682175,-4.8808803016001825,4.9837106567529474,3.3318495874546969,-1.5819944922487748,9.5328466954871161,-7.4957895850522709,5.2646542667619807,-5.2646542667619807,7.4957895850522709,18.792465676814995,0.0
779640.0783812654,4045767.5119837918,-12500.0,-10.16791148313478,-5.1866166552965112,-2.4978073086295236,3.872485126780878,2.0058536504550561,-1.0785894397219318,7.3024024828373379,-4.2472924152225007,3.3732583579254358,-3.3732583579254358,4.2472924152225007,14.473837537694576,0.0
784640.0783812654,4045767.5119837918,-12500.0,-8.5915309014662622,-3.4130509435321925,-1.114973198517464,2.932332202407304,1.1580810938934798,-0.72726184307343644,5.575242758997347,-2.1575073114617034,1.9691767452617874,-1.9691767452617874,2.1575073114617034,11.122675201006823,0.0
789640.0783812654,4045767.5119837918,-12500.0,-7.0670220454566772,-2.136651894087418,-0.35116399649837365,2.1898428527226246,0.63341483851532276,-0.48884056631437117,4.3106640610831457,-0.87741851089384171,1.0012183450451122,-1.0012183450451122,0.87741851089384171,8.5722115030731647,0.0
794640.0783812654,4045767.5119837918,-12500.0,-5.7204221359152374,-1.2552495926573295,0.047932745705529911,1.6251288868181875,0.31654158634577517,-0.32919369737168969,3.3711949792906197,-0.12766236741294307,0.3684998150092092,-0.3684998150092092,0.12766236741294307,6.6476631442217577,0.0
799640.0783812654,4045767.5119837918,-12500.0,-4.5886093557548913,-0.664140931551362,0.23968270025310423,1.2042928035981892,0.12945674561185394,-0.2227623757211559,2.6597740651307888,0.28872817554763719,-0.026176171925815339,0.026176171925815339,-0.28872817554763719,5.1978774406453976,0.0
804640.0783812654,4045767.5119837918,-12500.0,-3.6641365022762016,-0.27718405589430911,0.31727390879835088,0.89383144484751598,0.021963132134986935,-0.15172314476525089,2.1191393074148808,0.50172475822909823,-0.25976043155858825,0.25976043155858825,-0.50172475822909823,4.1028114069845998,0.0
809640.0783812654,4045767.5119837918,-12500.0,-2.9213570957622585,-0.030003500760368944,0.33433981087415876,0.665657768898955,-0.037359002446608364,-0.10408795981274722,1.7057919138115283,0.59385702400004869,-0.38788910996058684,0.38788910996058684,-0.59385702400004869,3.2711743812328655,0.0
814640.0783812654,4045767.5119837918,-12500.0,-2.3299344332595999,0.12314603650454638,0.32108496582154661,0.49792561191391965,-0.067870864903276165,-0.071934312366958533,1.3873166117870874,0.61626844150346671,-0.44882455655610026,0.44882455655610026,-0.61626844150346671,2.6350655064855273,0.0
819640.0783812654,4045767.5119837918,-12500.0,-1.8610618815040938,0.21385570754767017,0.29416464158709332,0.37429054448364313,-0.081394434756756034,-0.050063071419827042,1.1398001971521707,0.60010201494584181,-0.46808811032023495,0.46808811032023495,-0.60010201494584181,2.1445194275715971,0.0
824640.0783812654,4045767.5119837918,-12500.0,-1.4898213179094832,0.26357802612458603,0.26252259984110399,0.28277269043623099,-0.085104588745239657,-0.035064247144554105,0.94565896820613071,0.56403158770569706,-0.4623542811831004,0.4623542811831004,-0.56403158770569706,1.7629016762916108,0.0
829640.0783812654,4045767.5119837918,-12500.0,-1.1956750144420181,0.28673156908162045,0.23077084260377848,0.21468049350366727,-0.083332161772621191,-0.024693712144220926,0.79195033847843566,0.51906290392686194,-0.44234367498308741,0.44234367498308741,-0.51906290392686194,1.463333329979001,0.0
649640.0783812654,4050767.5119837918,-12500.0,2.8103532291571245,-0.78707315471869344,0.23283153794724146,0.64173078247247772,-0.18147821648294613,0.11064397166307441,1.6055865639418214,-0.62923095216723568,1.1719762404543066,-1.1719762404543066,0.62923095216723568,3.1884478427337815,0.0
654640.0783812654,4050767.5119837918,-12500.0,3.2294504247543667,-1.0140480995186434,0.3310613001324712,0.78089785893143704,-0.24864538584409479,0.14307469669993222,1.8899463491348694,-0.73307952996869985,1.4457383145258114,-1.4457383145258114,0.73307952996869985,3.7524146138357319,0.0
659640.0783812654,4050767.5119837918,-12500.0,3.7111761911328278,-1.3076509793949069,0.4724645696631129,0.95443956862091361,-0.34180608833732007,0.18662928063917231,2.2364249732665691,-0.84818269753873698,1.7906583536775065,-1.7906583536775065,0.84818269753873698,4.4395838746599852,0.0
664640.0783812654,4050767.5119837918,-12500.0,4.2582904531773886,-1.6870002371686041,0.67687105666329939,1.1708398688587305,-0.47164981072348483,0.24555980005713818,2.6599616916439976,-0.96998009606040192,2.2250933331188234,-2.2250933331188234,0.96998009606040192,5.2796940083835686,0.0
669640.0783812654,4050767.5119837918,-12500.0,4.8677471058665276,-2.1752549148766187,0.9733288533288692,1.439929759906619,-0.65334494825223954,0.3258150355454893,3.17871060299038,-1.0881821998769781,2.7705189091046947,-2.7705189091046947,1.0881821998769781,6.3089960484504859,0.0
674640.0783812654,4050767.5119837918,-12500.0,5.5256619002110865,-2.7987048884086398,1.4040327438382703,1.7722174596067104,-0.90822625507716015,0.43565773803938579,3.8140859309964581,-1.1825119353958895,3.450111203357606,-3.450111203357606,1.1825119353958895,7.5704686667053931,0.0
679640.0783812654,4050767.5119837918,-12500.0,6.1994294384056223,-3.5835062874984636,2.0292386949042363,2.1771091438725723,-1.2657715607872655,0.58638490772475682,4.590046910757871,-1.2159429673658682,4.2848099670380355,-4.2848099670380355,1.2159429673658682,9.1126171289482922,0.0
684640.0783812654,4050767.5119837918,-12500.0,6.8262523348574504,-4.5477121948500168,2.9323409282381143,2.6590510923853246,-1.7653931036800956,0.79298625758592334,5.5308168975295429,-1.1246004676597443,5.2845735213731384,-5.2845735213731384,1.1246004676597443,10.985280933739091,0.0
689640.0783812654,4050767.5119837918,-12500.0,7.2983752518138862,-5.6847596325735976,4.2223634012902984,3.2100979993703129,-2.4567032215270399,1.0742804819115173,6.6557479940487987,-0.80421503788633775,6.4312210050834624,-6.4312210050834624,0.80421503788633775,13.229726045212304,0.0
694640.0783812654,4050767.5119837918,-12500.0,7.448534252304329,-6.9331948545896394,6.026968903505411,3.7970376747002383,-3.3951658962570876,1.4514788870081028,7.9699985206935349,-0.095766700974551977,7.6482220480228857,-7.6482220480228857,0.095766700974551977,15.858809140882101,0.0
699640.0783812654,4050767.5119837918,-12500.0,7.0465677486405855,-8.1283546859696312,8.4615279734320659,4.3419056894260901,-4.6270588273107611,1.9431254208242692,9.4536746557270632,1.2198354210164348,8.7542552794056121,-8.7542552794056121,-1.2198354210164348,18.821910340319743,0.0
704640.0783812654,4050767.5119837918,-12500.0,5.8313055878074413,-8.9408220156600695,11.549544039069279,4.6987628968514068,-6.1539995109521586,2.5531345897498836,11.05253141660847,3.3934313720019347,9.4069008299524963,-9.4069008299524963,-3.3934313720019347,21.951199573164903,0.0
709640.0783812654,4050767.5119837918,-12500.0,3.6160959682534433,-8.8344094029718931,15.065803398051052,4.6407494688373365,-7.8668402665776691,3.2484552212788214,12.622088897990508,6.5997147996985888,9.0701321017855303,-9.0701321017855303,-6.5997147996985888,24.89682513241338,0.0
714640.0783812654,4050767.5119837918,-12500.0,0.49766481850561978,-7.1308254040203929,18.305037534985352,3.8915694167608028,-9.452824987232308,3.9273275196083386,13.902853281065861,10.695976669174653,7.0899360458916671,-7.0899360458916671,-10.695976669174653,27.089453269097543,0.0
719640.0783812654,4050767.5119837918,-12500.0,-2.8871025626195204,-3.3185060280740122,19.896305759753069,2.2517179936947858,-10.326476670093262,4.3938422922833178,14.576396911941085,14.861686487851468,3.0046457342328701,-3.0046457342328701,-14.861686487851468,27.827461669375847,0.0
724640.0783812654,4050767.5119837918,-12500.0,-5.3072070980325652,2.3395999944011483,17.990042749579615,-0.16570612907314811,-9.7111790865127094,4.3789490834156872,14.424653548186811,17.36086864067261,-2.8721251902276919,2.8721251902276919,-17.36086864067261,26.652340030985819,0.0
729640.0783812654,4050767.5119837918,-12500.0,-5.4731056823247224,8.2376267409100876,11.202833144772255,-2.7213365466471391,-7.0132737137917349,3.6546015051488747,13.638015097654936,15.96781841344615,-8.9349430067008697,8.9349430067008697,-15.96781841344615,24.135853266397771,0.0
734640.0783812654,4050767.5119837918,-12500.0,-3.1499945918782939,11.736743889865622,0.10201774077929116,-4.366533838536979,-2.4013705395853453,2.220724827688338,13.026365713470476,9.4088934498865093,-12.627843989760851,12.627843989760851,-9.4088934498865093,22.576705508357893,0.0
739640.0783812654,4050767.5119837918,-12500.0,0.15922844995452756,10.813259481360193,-12.155163405959035,-4.2580589216938964,2.9237927227613598,0.4130738146427434,13.402113673823564,-1.0416562098947715,-12.035544081505066,12.035544081505066,1.0416562098947715,24.200274097090055,0.0
744640.0783812654,4050767.5119837918,-12500.0,2.1331680820388157,5.8073909510720041,-21.378838571698026,-2.4319772535342188,7.2793555634614426,-1.2346654063868712,14.426708140955615,-11.723527181109278,-7.5132082259215505,7.5132082259215505,11.723527181109278,27.619923917733342,0.0
749640.0783812654,4050767.5119837918,-12500.0,1.5062861989928091,-0.74533161764480371,-25.074753321071586,0.19916023861935633,9.5351616368311252,-2.3034152073411369,15.04887571704135,-18.950387303270865,-1.4742128951822835,1.4742128951822835,18.950387303270865,29.905570342587552,0.0
754640.0783812654,4050767.5119837918,-12500.0,-1.1535694132629484,-6.1049089978751994,-23.646273693645451,2.5469726789932574,9.6542299571173036,-2.6913753791402457,15.048610950661317,-21.281122970347553,3.509360458660014,-3.509360458660014,21.281122970347553,29.741899695491373,0.0
759640.0783812654,4050767.5119837918,-12500.0,-4.3409698175076548,-8.9586687188018352,-19.274321851704872,3.9936016001387689,8.3687225824801068,-2.561628187350895,13.975671598864809,-19.649050452523994,6.2216834094029831,-6.2216834094029831,19.649050452523994,27.412933889232836,0.0
764640.0783812654,4050767.5119837918,-12500.0,-6.8354672075781968,-9.4860448162732371,-14.162500558833555,4.4949528536324141,6.5361937788968616,-2.1619737346000947,12.18788287420923,-15.961998164067037,6.835209504467997,-6.835209504467997,15.961998164067037,23.843326762425583,0.0
769640.0783812654,4050767.5119837918,-12500.0,-8.1724804599378444,-8.5459506745172433,-9.6424092915152517,4.3219817985143862,4.7482469472219035,-1.6911125852661699,10.178049164503809,-11.846119943926347,6.1390578749483353,-6.1390578749483353,11.846119943926347,19.911602542565188,0.0
774640.0783812654,4050767.5119837918,-12500.0,-8.4576731286157347,-6.9798248574076727,-6.1891675896354972,3.7938733071981772,3.2763239407329032,-1.2603295604099962,8.2625781106362073,-8.2133796334371052,4.8941426617888464,-4.8941426617888464,8.2133796334371052,16.19128910544455,0.0
779640.0783812654,4050767.5119837918,-12500.0,-8.0239067439050782,-5.3398555494380755,-3.7768419275017298,3.1486702925586498,2.1760576754089507,-0.91161593650583994,6.5934878273907165,-5.381817476851543,3.5904669515727794,-3.5904669515727794,5.381817476851543,12.957858879924926,0.0
784640.0783812654,4050767.5119837918,-12500.0,-7.2031546107578643,-3.897268516792777,-2.1884897845261992,2.523404954559374,1.4012800199666506,-0.64808535332485007,5.2136419773287761,-3.3371495579315216,2.4618453554045931,-2.4618453554045931,3.3371495579315216,10.286102347514181,0.0
789640.0783812654,4050767.5119837918,-12500.0,-6.2388629532027879,-2.7397525768920574,-1.1858139078725507,1.9794549567183317,0.87636713970009539,-0.45675231187463516,4.1081251104310255,-1.9346149707957871,1.5785943884347007,-1.5785943884347007,1.9346149707957871,8.144098224011346,0.0
794640.0783812654,4050767.5119837918,-12500.0,-5.2795916199800494,-1.8608673399686342,-0.57377723732703989,1.5335131965763642,0.52990252334892196,-0.32098128321436376,3.2386151446592293,-1.0083586864631573,0.92971205600372142,-0.92971205600372142,1.0083586864631573,6.4563198209972263,0.0
799640.0783812654,4050767.5119837918,-12500.0,-4.4020219230865445,-1.2170037417303645,-0.21193396674511014,1.1803433165557442,0.30554176047756465,-0.2257877429436754,2.5791407358283585,-0.41595799444208631,0.47388775274405776,-0.47388775274405776,0.41595799444208631,5.1382850375734108,0.0
804640.0783812654,4050767.5119837918,-12500.0,-3.6369060868652561,-0.75691218197795929,-0.005917943555267393,0.90624571001187293,0.1625587678444137,-0.15937388167672539,2.0788535353340065,-0.049242198320471921,0.1651413030461287,-0.1651413030461287,0.049242198320471921,4.1124560792058187,0.0
809640.0783812654,4050767.5119837918,-12500.0,-2.9890246527405981,-0.43433112699120119,0.1051213012933328,0.69591450086845486,0.072911736982184963,-0.11305400563502555,1.687915428559722,0.16871874472494147,-0.036743346819153158,0.036743346819153158,-0.16871874472494147,3.3137657327520795,0.0
814640.0783812654,4050767.5119837918,-12500.0,-2.4502023464475449,-0.21187805230007331,0.15941805099060677,0.53541836683176902,0.017831342800710779,-0.080661986057577018,1.3812356190685122,0.29055094754489325,-0.16340933052055989,0.16340933052055989,-0.29055094754489325,2.6901465687459689,0.0
819640.0783812654,4050767.5119837918,-12500.0,-2.0069603944388095,-0.061054789103594624,0.18057835713683837,0.41317619873555583,-0.015036933909286666,-0.057905687417938653,1.1394289967752813,0.35138545077624156,-0.23836097165282541,0.23836097165282541,-0.35138545077624156,2.2010253164429074,0.0
824640.0783812654,4050767.5119837918,-12500.0,-1.6446419629497957,0.039143206921458847,0.18298292580629316,0.32001092067433351,-0.033745117642157971,-0.04182647419498306,0.94760841677776664,0.37429335534551317,-0.27845923889117946,0.27845923889117946,-0.37429335534551317,1.815246122307338,0.0
654640.0783812654,4055767.5119837918,-12500.0,2.9662063237414293,-1.1706688528645959,0.50386155214738371,0.72219926299650827,-0.29081774261304005,0.13328970776956869,1.8247741297164335,-0.68795565596167174,1.5761438021863872,-1.5761438021863872,0.68795565596167174,3.6114786173285651,0.0
659640.0783812654,4055767.5119837918,-12500.0,3.3497390651879746,-1.4672779629770998,0.68731553355318409,0.86881908121540774,-0.38846159834747768,0.17137609368644599,2.1377539627732838,-0.76962605005952212,1.9175847397879688,-1.9175847397879688,0.76962605005952212,4.2313476296271162,0.0
664640.0783812654,4055767.5119837918,-12500.0,3.7661923549194585,-1.8373543385959943,0.94176192876625775,1.0464457173792228,-0.52053871837052779,0.22177423718363923,2.5131926872198904,-0.84401468028728388,2.3353107358760905,-2.3353107358760905,0.84401468028728388,4.9754381854945384,0.0
669640.0783812654,4055767.5119837918,-12500.0,4.2037831760608446,-2.2950503778931175,1.2950788584334014,1.2598582668740581,-0.69938152851525026,0.28866675498925487,2.9630231099104258,-0.89664272202555939,2.8421559307547426,-2.8421559307547426,0.89664272202555939,5.8678515826717721,0.0
674640.0783812654,4055767.5119837918,-12500.0,4.6395973280547196,-2.8529716176891342,1.7850681218837352,1.5126743701796153,-0.94126228515716215,0.3775297603070874,3.4999530441873818,-0.90317463615917415,3.4485026059024966,-3.4485026059024966,0.90317463615917415,6.9345639418143383,0.0
679640.0783812654,4055767.5119837918,-12500.0,5.0340900646706492,-3.5174665613902367,2.4613519361523624,1.805350020788143,-1.266928278080288,0.49531001222688625,4.1360382925311887,-0.8244970527461466,4.1572771174240799,-4.1572771174240799,0.8244970527461466,8.2008118045767837,0.0
684640.0783812654,4055767.5119837918,-12500.0,5.3245930677247779,-4.279953166447072,3.3855057661855246,2.1317056238991685,-1.7012961539938436,0.6503465005205894,4.8798748286817615,-0.60062274260091675,4.955036321151832,-4.955036321151832,0.60062274260091675,9.6857936228218051,0.0
689640.0783812654,4055767.5119837918,-12500.0,5.4195885386545353,-5.1024247334867274,4.6263399554533038,2.4733991576339247,-2.2710822401455588,0.85166628575087266,5.7317837507825793,-0.144808025771753,5.7974578252877285,-5.7974578252877285,0.144808025771753,11.393086827290999,0.0
694640.0783812654,4055767.5119837918,-12500.0,5.1982197962044445,-5.8959403681183886,6.2445732159810996,2.7921135045668466,-2.998203218196398,1.1070023807879681,6.6776050882621201,0.65804315045610506,6.5883258270221283,-6.5883258270221283,-0.65804315045610506,13.294941681186256,0.0
699640.0783812654,4055767.5119837918,-12500.0,4.5238236366618336,-6.4943051316699805,8.2578894209725711,3.0205746613011599,-3.8857371138105372,1.4185662602549041,7.6899697774428644,1.9396751408705013,7.1545668543651244,-7.1545668543651244,-1.9396751408705013,15.309395024367632,0.0
704640.0783812654,4055767.5119837918,-12500.0,3.2847350952633039,-6.6341508089221204,10.576243683576401,3.056788709101419,-4.8931387986117345,1.7755630317037068,8.7158641677463411,3.8076935854876188,7.2286871089861018,-7.2286871089861018,-3.8076935854876188,17.272637415398773,0.0
709640.0783812654,4055767.5119837918,-12500.0,1.4740911032784501,-5.9693309649325199,12.905919816982543,2.7715653486938061,-5.9009666195455965,2.1434377933664934,9.6305112974343174,6.2563221207874253,6.4658157131869043,-6.4658157131869043,-6.2563221207874253,18.917995589061526,0.0
714640.0783812654,4055767.5119837918,-12500.0,-0.70048953300544825,-4.1658953848836076,14.65250649238439,2.0450459199534077,-6.6769628599431297,2.453137871684274,10.269320717769794,9.0237346035061066,4.5392349947036736,-4.5392349947036736,-9.0237346035061066,19.889655964098583,0.0
719640.0783812654,4055767.5119837918,-12500.0,-2.7398012980059061,-1.116172196436318,14.914855375958767,0.84400328222683785,-6.8766495953594298,2.5997969613350498,10.473787108226963,11.446902424244303,1.3491431294668841,-1.3491431294668841,-11.446902424244303,19.841091515104477,0.0
724640.0783812654,4055767.5119837918,-12500.0,-3.9360436067679698,2.7738824449714121,12.717046483124914,-0.67803289326744187,-6.1290317658787918,2.4655149659328917,10.190951179740107,12.463808225638253,-2.7025448358475614,2.7025448358475614,-12.463808225638253,18.677718771439096,0.0
729640.0783812654,4055767.5119837918,-12500.0,-3.7201634090253815,6.4408027592231942,7.5531571655160148,-2.1325685854326686,-4.2312628642158865,1.9742522632179522,9.6176463573773532,10.962801610203556,-6.5797578536473909,6.5797578536473909,-10.962801610203556,16.94477135901894,0.0
734640.0783812654,4055767.5119837918,-12500.0,-2.1460243812255571,8.4729705109184348,0.0089712880299138223,-3.0033546617756839,-1.3705458900454526,1.1582100517739464,9.2390443129325259,6.4854748847107349,-8.9133585792871735,8.9133585792871735,-6.4854748847107349,16.015949995222936,0.0
739640.0783812654,4055767.5119837918,-12500.0,-0.072890256098541134,7.8994175887063562,-8.1203298400614674,-2.9179454057699425,1.8238917234694509,0.18163128189889677,9.4682470729925132,-0.17044503307697223,-8.7532927190321566,8.7532927190321566,0.17044503307697223,17.017628087455744,0.0
744640.0783812654,4055767.5119837918,-12500.0,1.2983162254275495,4.896663120869408,-14.600481810235681,-1.8993862814480189,4.533833578603959,-0.71997166938512125,10.126766286330254,-7.1160139631050141,-6.2369861507242907,6.2369861507242907,7.1160139631050141,19.21402581551931,0.0
749640.0783812654,4055767.5119837918,-12500.0,1.2258785479135612,0.71489757606359072,-17.948771486263219,-0.3621404522104088,6.165776804652447,-1.3539371381728678,10.64889645473998,-12.372629173487187,-2.5190498947264652,2.5190498947264652,12.372629173487187,20.996015658750185,0.0
754640.0783812654,4055767.5119837918,-12500.0,-0.16964372362344615,-3.1400433543540136,-18.063738878422434,1.1524887334274205,6.5980556574720302,-1.6506432782453675,10.802561878554192,-14.898653254119283,0.99665787981263243,-0.99665787981263243,14.898653254119283,21.448966808594005,0.0
759640.0783812654,4055767.5119837918,-12500.0,-2.1813759525194367,-5.7088016645133042,-15.903165622386833,2.2607624518183407,6.1075044441151221,-1.658824307170196,10.437186346402882,-14.843275810877053,3.4072606163337129,-3.4072606163337129,14.843275810877053,20.511951083815134,0.0
764640.0783812654,4055767.5119837918,-12500.0,-4.064614482929783,-6.8011306401132892,-12.714391663041802,2.8408290244397087,5.1193513629602014,-1.484492734274202,9.5010650357391491,-13.072816877518241,4.5188830394701807,-4.5188830394701807,13.072816877518241,18.584764982350247,0.0
769640.0783812654,4055767.5119837918,-12500.0,-5.3795696931515433,-6.7370531659813357,-9.4647135635181527,2.9666792290784296,3.9979516208861128,-1.2310189240855807,8.2794748048048277,-10.551330532918332,4.6075461587436548,-4.6075461587436548,10.551330532918332,16.16676730789484,0.0
774640.0783812654,4055767.5119837918,-12500.0,-6.0232176526631696,-5.9893668336473187,-6.675474366673547,2.7905585580484273,2.9660910180082802,-0.9699384809957875,6.996363459648502,-7.9824211979273079,4.0902977839803745,-4.0902977839803745,7.9824211979273079,13.661236717745266,0.0
779640.0783812654,4055767.5119837918,-12500.0,-6.1011861750806,-4.9597298093511073,-4.5128629122705073,2.458491390984765,2.1188967032673212,-0.73871727526114106,5.790889835254303,-5.7416944351173909,3.3208207246302974,-3.3208207246302974,5.7416944351173909,11.320776396092436,0.0
784640.0783812654,4055767.5119837918,-12500.0,-5.7920388589993959,-3.9080714773696039,-2.94330782088231,2.0756548383790152,1.4706264944673386,-0.55048582321173456,4.7307824579026363,-3.9577161299319004,2.5260745082879836,-2.5260745082879836,3.9577161299319004,9.2676693851883485,0.0
789640.0783812654,4055767.5119837918,-12500.0,-5.2646252464896586,-2.9681766684628572,-1.8545123248727844,1.7042997459218245,0.99686671550849637,-0.40486614551104866,3.8361511137418032,-2.6192266437332807,1.8211763527241398,-1.8211763527241398,2.6192266437332807,7.5365218884088625,0.0
794640.0783812654,4055767.5119837918,-12500.0,-4.6459645918107224,-2.1892318921754166,-1.1233325165924688,1.3744942930589465,0.66119744470004216,-0.2956980334913466,3.100507248167816,-1.6555101140766812,1.2471763153928148,-1.2471763153928148,1.6555101140766812,6.1128410786184784,0.0
799640.0783812654,4055767.5119837918,-12500.0,-4.0185146481121796,-1.5734994612578388,-0.64443781766065356,1.0962435396978616,0.42842645249041977,-0.21539672491743733,2.5052573847075057,-0.98253817181949044,0.80478031214288259,-0.80478031214288259,0.98253817181949044,4.9598071899715217,0.0
804640.0783812654,4055767.5119837918,-12500.0,-3.4291948595027373,-1.1018727407840669,-0.33747902130140284,0.86875811761412014,0.26952262787024894,-0.15695976245252813,2.028488254103372,-0.52417296048112039,0.47687389041311262,-0.47687389041311262,0.52417296048112039,4.0340957141466385,0.0
809640.0783812654,4055767.5119837918,-12500.0,-2.900473837933947,-0.74850549641559783,-0.14496601757694585,0.68636792751728137,0.16239483177433828,-0.11465180432396047,1.652660649881722,-0.21912800078770719,0.24117264294636184,-0.24117264294636184,0.21912800078770719,3.2940057415990549,0.0
814640.0783812654,4055767.5119837918,-12500.0,-2.4396462303064324,-0.48804791116559026,-0.027337156942376123,0.54185456709034596,0.090998177723623286,-0.084061316381310189,1.3623577696436602,-0.021166599795194273,0.07630875543122001,-0.07630875543122001,0.021166599795194273,2.7029335734829782,0.0
819640.0783812654,4055767.5119837918,-12500.0,-2.0454386694889641,-0.29859491750013206,0.041964447784608859,0.4281210422763555,0.044004499473757952,-0.061914421940909556,1.1312986225396027,0.10325417460607519,-0.035815633136153914,0.035815633136153914,-0.10325417460607519,2.2303260658044817,0.0
824640.0783812654,4055767.5119837918,-12500.0,-1.7122811767334978,-0.1624274491605758,0.080476356925802142,0.33890337381293928,0.01355468329200237,-0.045831528144334145,0.94556573196179117,0.1778675181962244,-0.10954867013505556,0.10954867013505556,-0.1778675181962244,1.8514209546152003,0.0
654640.0783812654,4060767.5119837918,-12500.0,2.6647739964484476,-1.2624833916557054,0.66242964342494814,0.65398253939521478,-0.31787528098361217,0.12177441817382023,1.7361740623063089,-0.61374337091212505,1.6435151054482975,-1.6435151054482975,0.61374337091212505,3.4281300192368498,0.0
659640.0783812654,4060767.5119837918,-12500.0,2.9546157298887521,-1.5438092479660057,0.87597614142818148,0.77379001384712431,-0.41449719622240749,0.15423239584052953,2.0126087022820629,-0.66037369855732087,1.9645638470749258,-1.9645638470749258,0.66037369855732087,3.9753766376591453,0.0
664640.0783812654,4060767.5119837918,-12500.0,3.2521958232052697,-1.8826572516083129,1.162086794642841,0.91442498630464664,-0.54152993544346484,0.19619943536169143,2.3376746469472436,-0.68858643855920143,2.3455041206342213,-2.3455041206342213,0.68858643855920143,4.6197166788759034,0.0
669640.0783812654,4060767.5119837918,-12500.0,3.5415938357302088,-2.2849308741637757,1.5447484842677943,1.0771324661916928,-0.70821149236326686,0.25044403122464032,2.7182774033024995,-0.68221843989674591,2.7913248370827755,-2.7913248370827755,0.68221843989674591,5.3754257605607423,0.0
674640.0783812654,4060767.5119837918,-12500.0,3.7974577747235805,-2.7520574640022555,2.05409364042371,1.2611936119750731,-0.92585522266148246,0.32034498938352696,3.1605477236558119,-0.61672864801265637,3.3020060641150124,-3.3020060641150124,0.61672864801265637,6.2556111309784459,0.0
679640.0783812654,4060767.5119837918,-12500.0,3.9820327221270642,-3.2762991663225209,2.7259232665895352,1.4622308688766104,-1.2075148112339837,0.40980400571198533,3.6682731986549482,-0.45634541837773512,3.8677179189938515,-3.8677179189938515,0.45634541837773512,7.2692888771950619,0.0
684640.0783812654,4060767.5119837918,-12500.0,4.0428246504809779,-3.8334746601962277,3.5986911462031355,1.6696907256063005,-1.5666846622389987,0.52289491581760472,4.2403490920274418,-0.15155709308421228,4.4614919458092466,-4.4614919458092466,0.15155709308421228,8.4165033677907637,0.0
689640.0783812654,4060767.5119837918,-12500.0,3.9128375704183842,-4.3727815583393514,4.7055136255879839,1.8634804070342215,-2.014205226337725,0.66302383423392419,4.8672193808380113,0.36126302724697368,5.0291246597017514,-5.0291246597017514,-0.36126302724697368,9.680809657009334,0.0
694640.0783812654,4060767.5119837918,-12500.0,3.5168614699818495,-4.8047765168460197,6.0576605653292575,2.0102274287145372,-2.5522218850850003,0.83128666131752715,5.5294244110146513,1.1545066891152391,5.4774391003123313,-5.4774391003123313,-1.1545066891152391,11.018786814721796,0.0
699640.0783812654,4060767.5119837918,-12500.0,2.7888069442132108,-4.9917800937588099,7.6156690771952,2.0607014458403152,-3.1640400732372735,1.0237034998165446,6.2088615558636517,2.2923190584999986,5.6651649942503655,-5.6651649942503655,-2.2923190584999986,12.34749467754289,0.0
704640.0783812654,4060767.5119837918,-12500.0,1.70479987320758,-4.7506295881476088,9.2469539906628828,1.9517158914838322,-3.7997623739572952,1.2272740742789963,6.8505676422182376,3.7945323228277248,5.4061353810861013,-5.4061353810861013,-3.7945323228277248,13.533709923773952,0.0
709640.0783812654,4060767.5119837918,-12500.0,0.33095691638091257,-3.8843984568343837,10.67839287077221,1.6177678268116504,-4.3608533517747636,1.4156387929675507,7.363207593783871,5.5775687856704028,4.5008215692573028,-4.5008215692573028,-5.5775687856704028,14.394116421669802,0.0
714640.0783812654,4060767.5119837918,-12500.0,-1.1308818350991554,-2.2607143636208664,11.471886699923818,1.0176037416692987,-4.693047676942002,1.5467607531428469,7.6521426609138903,7.3833645383649893,2.8129724283396973,-2.8129724283396973,-7.3833645383649893,14.723008005824557,0.0
719640.0783812654,4060767.5119837918,-12500.0,-2.3398775637598024,0.064238760805247916,11.074445537159633,0.17462594678586787,-4.6041724316360373,1.5669531455335917,7.6476337850229079,8.7381021026139543,0.39014700578649286,-0.39014700578649286,-8.7381021026139543,14.370072194378034,0.0
724640.0783812654,4060767.5119837918,-12500.0,-2.9072197575977423,2.7265993456504103,8.9949348814883123,-0.78551987386050792,-3.9229756352142378,1.4256379437514783,7.3632685152829538,9.0147655438142635,-2.4204665740954572,2.4204665740954572,-9.0147655438142635,13.386111026638487,0.0
729640.0783812654,4060767.5119837918,-12500.0,-2.592763764976691,5.0509463547153608,5.0939962479991339,-1.6347677005626624,-2.5939839977528267,1.1001290021180277,6.9600690022231495,7.6595305593122074,-4.966195184892884,4.966195184892884,-7.6595305593122074,12.209716971038782,0.0
734640.0783812654,4060767.5119837918,-12500.0,-1.511675715572117,6.2638512209191468,-0.16135225870509345,-2.1111588035718154,-0.76151805765230596,0.61914916377440121,6.7314213997823007,4.5298180753795148,-6.4903179311980068,6.4903179311980068,-4.5298180753795148,11.674959759205546,0.0
739640.0783812654,4060767.5119837918,-12500.0,-0.1682168781901415,5.8775955142987604,-5.7152061521877657,-2.0415502338876941,1.2313256371791268,0.06612384221612691,6.8924577617747875,0.12702611020120047,-6.4968765932919013,6.4968765932919013,-0.12702611020120047,12.361818178469496,0.0
744640.0783812654,4060767.5119837918,-12500.0,0.78283997634684654,3.9929735764906318,-10.316224607410595,-1.4417589408746265,2.9633427856724466,-0.44826850324704842,7.3369547787110498,-4.5177015000247902,-5.0424316219104295,5.0424316219104295,4.5177015000247902,13.836633697288745,0.0
749640.0783812654,4060767.5119837918,-12500.0,0.90200013173421367,1.2627653202110261,-13.071801549483752,-0.5129424785843244,4.1129171973481728,-0.83105986792349862,7.7456970671135785,-8.2998030808159537,-2.7101887265203413,2.7101887265203413,8.2998030808159537,15.178093292277316,0.0
754640.0783812654,4060767.5119837918,-12500.0,0.17371770037561862,-1.4676317807092811,-13.777897494342154,0.46617306266131692,4.5739278800877274,-1.0402841347998801,7.917359915994469,-10.527050464678723,-0.27899124529230601,0.27899124529230601,10.527050464678723,15.781644730770864,0.0
759640.0783812654,4060767.5119837918,-12500.0,-1.073421443342897,-3.5573931748954579,-12.840419868871665,1.2676204254011463,4.4457428861047168,-1.0880264135006343,7.8730764368670449,-11.109632571880294,1.6478190862990489,-1.6478190862990489,11.109632571880294,15.503877619802468,0.0
764640.0783812654,4060767.5119837918,-12500.0,-2.4097490762766887,-4.7506094087763726,-10.940551019841507,1.7815540867799664,3.935504493365559,-1.0194037324936021,7.4100783770347443,-10.412786789224342,2.8149338740237613,-2.8149338740237613,10.412786789224342,14.500333228750716,0.0
769640.0783812654,4060767.5119837918,-12500.0,-3.5085503055791327,-5.1176339883686541,-8.7145789022759921,2.0081539942917561,3.2544112979369704,-0.88666007397536961,6.6851137047733182,-8.9700997960619357,3.2661330707327765,-3.2661330707327765,8.9700997960619357,13.041044308598963,0.0
774640.0783812654,4060767.5119837918,-12500.0,-4.2185632086698028,-4.8921081750652968,-6.5944082253495635,2.0107922730117878,2.5585594391828241,-0.73222258545651508,5.8440929931671022,-7.2571281864227348,3.1974326074134836,-3.1974326074134836,7.2571281864227348,11.386347903396734,0.0
779640.0783812654,4060767.5119837918,-12500.0,-4.534162380827075,-4.3292820504146716,-4.7961202770545297,1.8699970984117376,1.93676555428108,-0.58318421607263082,4.9943806912892583,-5.5944873329320721,2.8283349728885696,-2.8283349728885696,5.5944873329320721,9.7306597629823663,0.0
784640.0783812654,4060767.5119837918,-12500.0,-4.5300860248485302,-3.6315757433619864,-3.3799521499229028,1.6558653755710027,1.4245244233287873,-0.45308832190418996,4.2018181480244223,-4.1489680944315781,2.3338605932544576,-2.3338605932544576,4.1489680944315781,8.1935420971192574,0.0
789640.0783812654,4060767.5119837918,-12500.0,-4.3055664060348393,-2.9301505993084649,-2.3195728846843364,1.4182639576645812,1.0244580149430551,-0.34626812226252374,3.4989474884819711,-2.9767023445512342,1.8273530023444817,-1.8273530023444817,2.9767023445512342,6.8335481752834859,0.0
794640.0783812654,4060767.5119837918,-12500.0,-3.951709669624218,-2.2954670248932443,-1.5533063628889048,1.1875541119275541,0.7231589711879437,-0.26192680738288737,2.895859500946468,-2.0699472818299705,1.3695146393837305,-1.3695146393837305,2.0699472818299705,5.6678466952209883,0.0
799640.0783812654,4060767.5119837918,-12500.0,-3.5385811651319075,-1.756218816077018,-1.0136996910409846,0.97935841772428656,0.50192350826848964,-0.196996257464264,2.3895121449677617,-1.3918621339062174,0.98499740587744011,-0.98499740587744011,1.3918621339062174,4.6893746140905241,0.0
804640.0783812654,4060767.5119837918,-12500.0,-3.1139339805659745,-1.3164362941089331,-0.64110622465425859,0.79968995891319772,0.34238345032946055,-0.14780307934526471,1.970342906488789,-0.89748381560410262,0.67735678134591104,-0.67735678134591104,0.89748381560410262,3.8790828471505772,0.0
809640.0783812654,4060767.5119837918,-12500.0,-2.7070087103171714,-0.96767523767166153,-0.38794109417546663,0.64900514519197738,0.22885396152568083,-0.11088945421740903,1.6264182451498037,-0.5443113927004033,0.43963325280878124,-0.43963325280878124,0.5443113927004033,3.2136062678943711,0.0
814640.0783812654,4060767.5119837918,-12500.0,-2.3335576133365064,-0.69654693860394479,-0.21843092862576641,0.52494806143018458,0.14890154985832993,-0.083331517110647513,1.3458428886857661,-0.29650384546545838,0.26081972987076218,-0.26081972987076218,0.29650384546545838,2.6695551020789345,0.0
819640.0783812654,4060767.5119837918,-12500.0,-2.0003480200944308,-0.48885376268817077,-0.10666093891453411,0.42402235556046264,0.093098096798493096,-0.062797853633501294,1.1184854377702433,-0.12570012620183671,0.12935940521579589,-0.12935940521579589,0.12570012620183671,2.2256141476963553,0.0
659640.0783812654,4065767.5119837918,-12500.0,2.5560767360192034,-1.5507704627731214,1.0281639962893381,0.67665175991525728,-0.42277535543879508,0.13651103559486175,1.8708494780830729,-0.53586180789358617,1.944783705206844,-1.944783705206844,0.53586180789358617,3.6900389105433726,0.0
664640.0783812654,4065767.5119837918,-12500.0,2.7530436231457371,-1.8453245155380713,1.3278348729783775,0.78432208409634663,-0.53982103511144508,0.17068888634839349,2.1466649746604438,-0.52386987940203511,2.2770857091549477,-2.2770857091549477,0.52386987940203511,4.2373048921314505,0.0
669640.0783812654,4065767.5119837918,-12500.0,2.9236855881902595,-2.1802880740279051,1.7150935899408619,0.90379537677380917,-0.68878897795373661,0.21369648043426884,2.4620195841831514,-0.47016448759143303,2.6513389425096738,-2.6513389425096738,0.47016448759143303,4.8645926557463568,0.0
674640.0783812654,4065767.5119837918,-12500.0,3.0445195403949867,-2.549424392821698,2.2113571738954043,1.0320675928934144,-0.87679108673690787,0.26745144927263431,2.8185146213930579,-0.35270205105622443,3.0603867153216249,-3.0603867153216249,0.35270205105622443,5.576108918532733,0.0
679640.0783812654,4065767.5119837918,-12500.0,3.0841743912922421,-2.9369607770620676,2.8388596547022136,1.1628492351429607,-1.1109470840644999,0.33389251345055387,3.2147997107817883,-0.14206131041013093,3.4871609765823286,-3.4871609765823286,0.14206131041013093,6.3707162998329006,0.0
684640.0783812654,4065767.5119837918,-12500.0,3.0037332500468801,-3.3125087000849804,3.6163013244918729,1.2850252734084806,-1.3968507466805047,0.41459984052217108,3.6446168910624732,0.19855466147314837,3.8995686049277691,-3.8995686049277691,-0.19855466147314837,7.2381254116737548,0.0
689640.0783812654,4065767.5119837918,-12500.0,2.7598716258568992,-3.6252463813223699,4.5505567000006639,1.3809920896090546,-1.7357823284655849,0.51010455093350515,4.0947727168003851,0.71067277043961163,4.2446669322728603,-4.2446669322728603,-0.71067277043961163,8.1537783605845817,0.0
694640.0783812654,4065767.5119837918,-12500.0,2.3128241112935739,-3.7991340576286938,5.6228695220703866,1.4254640277610762,-2.1202314549107366,0.61877735533760037,4.550987888057489,1.4328456066407154,4.4438750812896615,-4.4438750812896615,-1.4328456066407154,9.0728062272357057,0.0
699640.0783812654,4065767.5119837918,-12500.0,1.6411614107699759,-3.733022205399696,6.7689378433027425,1.3859529794692327,-2.5276405961352917,0.73526676987171269,5.0015267421042076,2.3848826506902525,4.3929964406318867,-4.3929964406318867,-2.3848826506902525,9.9245062206649148,0.0
704640.0783812654,4065767.5119837918,-12500.0,0.76355820722044998,-3.3120663015530094,7.8555226825596911,1.2268199553282961,-2.9133021409158388,0.84869773646295588,5.3916460508760338,3.5419014979047176,3.9732963630340992,-3.9732963630340992,-3.5419014979047176,10.61065509763168,0.0
709640.0783812654,4065767.5119837918,-12500.0,-0.23725880726943216,-2.4380584473996816,8.6628449238263201,0.91902237328588199,-3.2053348201371112,0.9413153291607218,5.6644042001005319,4.8005214372500191,3.0810448892040334,-3.0810448892040334,-4.8005214372500191,11.013635123085963,0.0
714640.0783812654,4065767.5119837918,-12500.0,-1.2016053417596875,-1.0821218438599747,8.8911852034297389,0.45629311945141515,-3.3072927697763843,0.9888915160841637,5.7692295575248691,5.9493735514836006,1.6789727617039905,-1.6789727617039905,-5.9493735514836006,11.02300327404803,0.0
719640.0783812654,4065767.5119837918,-12500.0,-1.9118293912660027,0.65105027966371409,8.2155190713034276,-0.12576754796475922,-3.1153494346221668,0.96458231233294522,5.6821120585796665,6.6694915029717308,-0.1405233739286067,0.1405233739286067,-6.6694915029717308,10.589700923749673,0.0
724640.0783812654,4065767.5119837918,-12500.0,-2.1598867424163961,2.4816020268042815,6.4005776517133066,-0.7378645956786577,-2.5534196794388584,0.84716115439638207,5.4383418700081672,6.5961954991068961,-2.1129732169008602,2.1129732169008602,-6.5961954991068961,9.8107286052465312,0.0
729640.0783812654,4065767.5119837918,-12500.0,-1.8524239185688489,3.9857177587962584,3.4493505987251956,-1.2469006049390061,-1.618079326995592,0.63194038411277509,5.1587760961792437,5.45367767066731,-3.8283524521173868,3.8283524521173868,-5.45367767066731,9.0158750717015685,0.0
734640.0783812654,4065767.5119837918,-12500.0,-1.0979501375544258,4.7281175634267862,-0.29542467360201563,-1.5155890411019157,-0.40982088968606617,0.33906522263536903,5.0229355602448518,3.2182520346374686,-4.8548180139986643,4.8548180139986643,-3.2182520346374686,8.7187152629971152,0.0
739640.0783812654,4065767.5119837918,-12500.0,-0.20068581866964302,4.4535113756586471,-4.1926114760572135,-1.4596211769217211,0.87729069457060549,0.012500840810247042,5.1451975871475017,0.20931268972323513,-4.9212764458424534,4.9212764458424534,-0.20931268972323513,9.2213683284932504,0.0
744640.0783812654,4065767.5119837918,-12500.0,0.46561181654535128,3.2233113229150203,-7.5105726839415494,-1.0898627143083677,2.0153464964113472,-0.29276811208855219,5.4574969495669352,-2.9825587418369257,-4.0520953003964255,4.0520953003964255,2.9825587418369257,10.250031972287696,0.0
749640.0783812654,4065767.5119837918,-12500.0,0.63476929349234701,1.3960831182185944,-9.7000694373189287,-0.50975345375418424,2.8238493997402707,-0.52968406128869461,5.7715178485384451,-5.7165790361196489,-2.556642107024405,2.556642107024405,5.7165790361196489,11.255197547938986,0.0
754640.0783812654,4065767.5119837918,-12500.0,0.25849766822394926,-0.54012429289928165,-10.570611612478405,0.13164923564150843,3.2261030283403342,-0.67367433274403521,5.9339570193703866,-7.5424817208666877,-0.87799149532987997,0.87799149532987997,7.5424817208666877,11.840370752360929,0.0
759640.0783812654,4065767.5119837918,-12500.0,-0.5119584156348217,-2.169269350349694,-10.282852670713302,0.69970819153066965,3.2531985456261143,-0.72569803425919299,6.0133178690044131,-8.3215995911162857,0.59437907841209414,-0.59437907841209414,8.3215995911162857,11.864379355515082,0.0
764640.0783812654,4065767.5119837918,-12500.0,-1.4340707895694795,-3.2664664836629105,-9.2025277110739427,1.1132196064270965,3.005382429860556,-0.70490873163282353,5.8087076883914479,-8.1900472375430553,1.6389452758758472,-1.6389452758758472,8.1900472375430553,11.374059014973749,0.0
769640.0783812654,4065767.5119837918,-12500.0,-2.2871077121561547,-3.8022338184944573,-7.7287746769840373,1.3504196333090406,2.6018714505786242,-0.63748897398802362,5.3899466746793063,-7.4302391439431581,2.211034155692694,-2.211034155692694,7.4302391439431581,10.510028917898458,0.0
774640.0783812654,4065767.5119837918,-12500.0,-2.9338157595799781,-3.8750801296884703,-6.1802372687580336,1.4321719508006212,2.1444222904959638,-0.54768441309289018,4.8480450451871642,-6.3419884893642431,2.3844979037498346,-2.3844979037498346,6.3419884893642431,9.4327616289891036,0.0
779640.0783812654,4065767.5119837918,-12500.0,-3.3263680202924961,-3.6322894406949655,-4.7568466766456474,1.3991383097687382,1.7022081112710319,-0.45336885797753523,4.2593589710020625,-5.1643953737716295,2.2808734255237475,-2.2808734255237475,5.1643953737716295,8.2798573954583947,0.0
784640.0783812654,4065767.5119837918,-12500.0,-3.4810610389772507,-3.2141564462441723,-3.5529822755210319,1.2940754041923044,1.31268151770826,-0.36540779476128471,3.6782086024692497,-4.0517722485329273,2.0187759217221455,-2.0187759217221455,4.0517722485329273,7.1499822499939834,0.0
789640.0783812654,4065767.5119837918,-12500.0,-3.4467962025241405,-2.7281521098380876,-2.5904782459754974,1.1523767868183012,0.98975732589277743,-0.28902645537912536,3.1378117010414397,-3.0832920550876999,1.6899833400410067,-1.6899833400410067,3.0832920550876999,6.1034377652005194,0.0
794640.0783812654,4065767.5119837918,-12500.0,-3.2808272204076014,-2.2445316898309371,-1.8508278939079985,0.99919987529358112,0.73297460647676227,-0.22570278660371138,2.65486173253427,-2.2851447129464675,1.3548318512182131,-1.3548318512182131,2.2851447129464675,5.1701626193620056,0.0
799640.0783812654,4065767.5119837918,-12500.0,-3.0348639267100372,-1.8025335410714891,-1.2984553680993107,0.85028655354893068,0.53470523954356786,-0.17480502686830265,2.2347424695504543,-1.6522243804221728,1.0472320504847632,-1.0472320504847632,1.6522243804221728,4.3592307911203871,0.0
804640.0783812654,4065767.5119837918,-12500.0,-2.7494518391624569,-1.4195356533771326,-0.89455814746039131,0.71418653333134796,0.38481562757158644,-0.13473583430057212,1.875954695940276,-1.1642870213067598,0.78244774926521021,-0.78244774926521021,1.1642870213067598,3.6670193616966751,0.0
809640.0783812654,4065767.5119837918,-12500.0,-2.4533311270584002,-1.0993255345700581,-0.60392593934716121,0.5945783209160983,0.27323330358426945,-0.10362020745637826,1.5733332953346539,-0.79611309982226197,0.56417793444897424,-0.56417793444897424,0.79611309982226197,3.0831741332987779,0.0
814640.0783812654,4065767.5119837918,-12500.0,-2.1651390369633439,-0.83823836826981757,-0.39744994529122474,0.49215567706836938,0.19111847974386634,-0.079665241043805873,1.320162794364939,-0.52303745590706185,0.38980926818444345,-0.38980926818444345,0.52303745590706185,2.5945360925796095,0.0
819640.0783812654,4065767.5119837918,-12500.0,-1.8958079827519447,-0.62918333980212404,-0.25235822157566212,0.405967306332429,0.13122763867269716,-0.061314654188814439,1.1094496019423992,-0.32345298821296697,0.25384648439368374,-0.25384648439368374,0.32345298821296697,2.1874873104745953,0.0
659640.0783812654,4070767.5119837918,-12500.0,2.1756480641390805,-1.5041324396511124,1.139641800415502,0.58274322388764455,-0.4168856411563816,0.11919087504046598,1.7209020646357756,-0.40858465092153473,1.873625987325521,-1.873625987325521,0.40858465092153473,3.3910493532953385,0.0
664640.0783812654,4070767.5119837918,-12500.0,2.2923864902006841,-1.7489232922487319,1.4373341422770016,0.66252687082251638,-0.52114111532579599,0.14651650320445919,1.9508883442255596,-0.36476953867626161,2.15250144167512,-2.15250144167512,0.36476953867626161,3.8482241546596523,0.0
669640.0783812654,4070767.5119837918,-12500.0,2.3736873641400971,-2.0146547154768686,1.809794947828816,0.74696985425786333,-0.64996187030582542,0.17999308810812256,2.2075359567153514,-0.27703500950188786,2.4538633720796477,-2.4538633720796477,0.27703500950188786,4.3601612038722672,0.0
674640.0783812654,4070767.5119837918,-12500.0,2.4001177809531709,-2.2908028986668922,2.2702903896125313,0.83220544122643891,-0.80725557516967383,0.22058813069755462,2.4896209488950976,-0.12726303638113667,2.7665531129853793,-2.7665531129853793,0.12726303638113667,4.925470347166204,0.0
679640.0783812654,4070767.5119837918,-12500.0,2.3481363188002833,-2.5584699167527378,2.8297289176608564,0.91180174174357176,-0.99602468178641657,0.26907031853717206,2.7930193450314023,0.10668958538283491,3.0707576897884854,-3.0707576897884854,-0.10668958538283491,5.5374504383069665,0.0
684640.0783812654,4070767.5119837918,-12500.0,2.1917523033757909,-2.7874201166089905,3.4922739369263485,0.97597836942080218,-1.2170015983495834,0.32569915782011782,3.1093928298713287,0.4495982444207145,3.3349766343243079,-3.3349766343243079,-0.4495982444207145,6.1814533946183783,0.0
689640.0783812654,4070767.5119837918,-12500.0,1.9064377374909309,-2.9335997044817317,4.2483506227419578,1.0110305571508436,-1.4665413035818571,0.38974506968200617,3.4258679471435114,0.92513136391353368,3.513440097635856,-3.513440097635856,-0.92513136391353368,6.831813444365741,0.0
694640.0783812654,4070767.5119837918,-12500.0,1.4761682624375752,-2.9387608363229591,5.0647495568524548,0.99943459295488124,-1.7337226888773025,0.45882655563473629,3.7404226017702347,1.548465855297174,3.5455635979036728,-3.5455635979036728,-1.548465855297174,7.4489362083435111,0.0
699640.0783812654,4070767.5119837918,-12500.0,0.90385170839593354,-2.7348419420915686,5.8727220457769116,0.92137251602122239,-1.9969641799922693,0.52812756225020074,4.0326624280184085,2.3142088992727468,3.3600372782229817,-3.3600372782229817,-2.3142088992727468,7.9778585298027682,0.0
704640.0783812654,4070767.5119837918,-12500.0,0.22367365879786305,-2.2564344757951273,6.5573873492077661,0.75855617216401583,-2.2211436116708043,0.58970775075418258,4.2618051463621773,3.1800078323290828,2.8868355741268026,-2.8868355741268026,-3.1800078323290828,8.3506109830258861,0.0
709640.0783812654,4070767.5119837918,-12500.0,-0.48919586926590591,-1.4637578415477497,6.955357478308251,0.50091712589182535,-2.3571848259407342,0.63233321089587025,4.3947566996201335,4.0495751825963806,2.0796141942572817,-2.0796141942572817,-4.0495751825963806,8.4958457390924007,0.0
714640.0783812654,4070767.5119837918,-12500.0,-1.1196505982450538,-0.37434238786250845,6.870691571836864,0.15552075908273469,-2.34689201920721,0.64244250086376653,4.4068351424567753,4.7640365367611839,0.94696834048741607,-0.94696834048741607,-4.7640365367611839,8.3598729970329746,0.0
719640.0783812654,4070767.5119837918,-12500.0,-1.5336061596659902,0.90669580552840157,6.1182825445181903,-0.24519362147250717,-2.1354423626971322,0.60680454332372979,4.295971342932642,5.1150770087355895,-0.41693910427832837,0.41693910427832837,-5.1150770087355895,7.9423905770679522,0.0
724640.0783812654,4070767.5119837918,-12500.0,-1.6219350151200302,2.177265558558545,4.5935471962562868,-0.64118084525417895,-1.6910956209542867,0.51683652680940673,4.1003436151713153,4.891543813819978,-1.8210008102593163,1.8210008102593163,-4.891543813819978,7.3448808104347743,0.0
729640.0783812654,4070767.5119837918,-12500.0,-1.3551792258621373,3.1708404367074725,2.3470027500452431,-0.95417957540083564,-1.0262022138450211,0.37338267630050753,3.9073190957657902,3.9567027530332433,-3.0056080562550682,3.0056080562550682,-3.9567027530332433,6.8079338331486614,0.0
734640.0783812654,4070767.5119837918,-12500.0,-0.81969635043133449,3.6356664982632676,-0.37733027444000661,-1.1098909034879174,-0.20835734181913218,0.189581508922507,3.8282076745155131,2.3280215859377127,-3.7165307851157263,3.7165307851157263,-2.3280215859377127,6.6519082761813335,0.0
739640.0783812654,4070767.5119837918,-12500.0,-0.20410737236439969,3.4330902534780754,-3.1784927307396575,-1.0655173078093909,0.64888707443803317,-0.010559992125959891,3.924812559504121,0.21255808535976706,-3.7993424485041984,3.7993424485041984,-0.21255808535976706,7.0347412257927591,0.0
744640.0783812654,4070767.5119837918,-12500.0,0.26947457610918374,2.6022742226265048,-5.6121902020104359,-0.82848679725152263,1.4166945815373611,-0.19834836645732135,4.1514626268844896,-2.03709234208142,-3.2648420560561253,3.2648420560561253,2.03709234208142,7.775409716860338,0.0
749640.0783812654,4070767.5119837918,-12500.0,0.43572946729136097,1.3491702201953795,-7.332022774999678,-0.45474023502498528,1.9902027480725741,-0.34887776768626533,4.3925523663195989,-4.035629001517651,-2.2844627864387097,2.2844627864387097,4.035629001517651,8.5336285735041368,0.0
754640.0783812654,4070767.5119837918,-12500.0,0.24611245476943458,-0.036033563862021778,-8.186426958597206,-0.027014880010792504,2.3170487874141426,-0.4477248513112414,4.5456397935539705,-5.4896981125792248,-1.1173624498179948,1.1173624498179948,5.4896981125792248,9.04712941487373,0.0
759640.0783812654,4070767.5119837918,-12500.0,-0.23131290577590738,-1.2842711659161361,-8.2287995086300327,0.37436637638160486,2.4028716295708721,-0.49298548695765487,4.6543483395171705,-6.2715767785613954,-0.013222887660285565,0.013222887660285565,6.2715767785613954,9.1992078777976332,0.0
764640.0783812654,4070767.5119837918,-12500.0,-0.86058714630275956,-2.2214375205147734,-7.6534281409683347,0.69341062320550362,2.2959104236227779,-0.49270669973464098,4.5881815071409395,-6.4172882239785345,0.85843085036634603,-0.85843085036634603,6.4172882239785345,8.9909621871095933,0.0
769640.0783812654,4070767.5119837918,-12500.0,-1.4989135491813737,-2.7872515916085256,-6.7048939359204613,0.90583065658723116,2.0627744214426129,-0.46002295596293852,4.355759295130885,-6.0704324713888376,1.4292023720240397,-1.4292023720240397,6.0704324713888376,8.4925253184985543,0.0
774640.0783812654,4070767.5119837918,-12500.0,-2.0394496556476001,-3.0108551860785586,-5.6049837135184353,1.0140457313873832,1.767477497580721,-0.4085733106312287,4.0123432553216682,-5.4123049286045166,1.7125072280322595,-1.7125072280322595,5.4123049286045166,7.8000178927300281,0.0
779640.0783812654,4070767.5119837918,-12500.0,-2.4261255846089185,-2.9697975043426301,-4.5155699072580724,1.0365708759717043,1.4595701723730399,-0.34962270711287696,3.6098849956594252,-4.6088451707468963,1.7678657861980014,-1.7678657861980014,4.6088451707468963,7.0064215819082305,0.0
784640.0783812654,4070767.5119837918,-12500.0,-2.647396524529567,-2.7538174501005965,-3.5330446544753173,0.99777843793372278,1.1710002053917847,-0.29101087015485116,3.189728451746658,-3.7843584429163419,1.6685099596327515,-1.6685099596327515,3.7843584429163419,6.1866627540688013,0.0
789640.0783812654,4070767.5119837918,-12500.0,-2.7209044593872811,-2.4423668348112515,-2.7005316770140593,0.92093651176767333,0.91839054953405341,-0.23734582632580889,2.7807814526925694,-3.017097843894835,1.4808393728891809,-1.4808393728891809,3.017097843894835,5.3933333461294515,0.0
794640.0783812654,4070767.5119837918,-12500.0,-2.6781550952119164,-2.0952978574763925,-2.0254395314470375,0.82479962329033707,0.70738431463086437,-0.19076155581694335,2.4007730315666778,-2.3469142865551182,1.2555446890759274,-1.2555446890759274,2.3469142865551182,4.6585924963196677,0.0
799640.0783812654,4070767.5119837918,-12500.0,-2.5533940023392505,-1.7522258994889486,-1.4951483972833424,0.7227665074015075,0.53691593631015311,-0.15176221034799703,2.0587628932319486,-1.7867467487810937,1.0265375628515991,-1.0265375628515991,1.7867467487810937,3.998637266027151,0.0
804640.0783812654,4070767.5119837918,-12500.0,-2.3772872555362086,-1.4360753755812505,-1.0882695900583077,0.62344223747655114,0.40249968305261513,-0.11992177929922483,1.7577887143913349,-1.3332610419040765,0.81371246087696303,-0.81371246087696303,1.3332610419040765,3.4185490441041613,0.0
809640.0783812654,4070767.5119837918,-12500.0,-2.1742869674098766,-1.1577343904965982,-0.78152588879349838,0.53172173293396519,0.29838813801907038,-0.094373913462489342,1.4970834511990632,-0.97481653000407209,0.62680073802033198,-0.62680073802033198,0.97481653000407209,2.9163910898600873,0.0
814640.0783812654,4070767.5119837918,-12500.0,-1.9622980726561594,-0.92028542611835862,-0.55335919599804295,0.44990640865801435,0.21881617098540682,-0.074116443720990535,1.273738925361189,-0.69667761337294842,0.46892474834132458,-0.46892474834132458,0.69667761337294842,2.4862966023977995,0.0
664640.0783812654,4075767.5119837918,-12500.0,1.8829098546517846,-1.6148703355938987,1.4947498271858117,0.55271011908415923,-0.4908903952841836,0.1244472318342562,1.7583754035879335,-0.22086825824436562,1.992228440332787,-1.992228440332787,0.22086825824436562,3.4674339608566829,0.0
669640.0783812654,4075767.5119837918,-12500.0,1.9009132077356399,-1.8160087153211357,1.8390940195068168,0.60992275192646095,-0.59939703190606963,0.15011796587083495,1.9640227427625754,-0.11171935142976097,2.2255196908830044,-2.2255196908830044,0.11171935142976097,3.879224601419176,0.0
674640.0783812654,4075767.5119837918,-12500.0,1.8660895173613612,-2.0109365329889521,2.2505026727532123,0.66332479224156171,-0.72770351130277944,0.18033269924076473,2.1836482419976031,0.053687341036881664,2.4534753478786389,-2.4534753478786389,-0.053687341036881664,4.3217855548116297,0.0
679640.0783812654,4075767.5119837918,-12500.0,1.7622774048086773,-2.1809441813518635,2.7315137367528242,0.70723609801739939,-0.87622546855760752,0.21522047784060047,2.4119645460405708,0.2906634771867409,2.6565962227716176,-2.6565962227716176,-0.2906634771867409,4.7859881383498077,0.0
684640.0783812654,4075767.5119837918,-12500.0,1.5739390276248317,-2.2994261467839006,3.2769221776611133,0.7338748003377118,-1.043074867065279,0.25442860937036588,2.6404053795326514,0.61410809850493209,2.8071225879099964,-2.8071225879099964,-0.61410809850493209,5.256441512842744,0.0
689640.0783812654,4075767.5119837918,-12500.0,1.2897107853664238,-2.3315159299370221,3.8686096791811417,0.73336622097051962,-1.2226412453628384,0.29682349809246961,2.8600929685057044,1.0348369989527344,2.8685228083275556,-2.8685228083275556,-1.0348369989527344,5.7099065734915238,0.0
694640.0783812654,4075767.5119837918,-12500.0,0.90764903752016368,-2.2358589573554251,4.4692573472401662,0.69435695163071098,-1.4039117399824779,0.34013341685923898,3.0772892526868807,1.5536466330946104,2.7970543811405122,-2.7970543811405122,-1.5536466330946104,6.1143185363029309,0.0
699640.0783812654,4075767.5119837918,-12500.0,0.44170131226848186,-1.970033274840487,5.0162230801809828,0.6056126134979517,-1.5688924033789244,0.38060543379678519,3.2615262174782482,2.1530931230564248,2.5468998534912553,-2.5468998534912553,-2.1530931230564248,6.429395763400322,0.0
704640.0783812654,4075767.5119837918,-12500.0,-0.072256712633760323,-1.5009629156059838,5.4183208119322757,0.45890958973699303,-1.6918668900528955,0.41282436701425634,3.3896698208012244,2.7881756546587138,2.0802574636676887,-2.0802574636676887,-2.7881756546587138,6.6103005764713387,0.0
709640.0783812654,4075767.5119837918,-12500.0,-0.57403033985772045,-0.82037134581876459,5.5598047029674245,0.2531711891184838,-1.7406130721566846,0.42992201147765957,3.4430980431484643,3.3791346398505007,1.3825619138493868,-1.3825619138493868,-3.3791346398505007,6.616214214443378,0.0
714640.0783812654,4075767.5119837918,-12500.0,-0.98465788346523442,0.037617807100684623,5.3163797302795217,-0.00096483393558873258,-1.6807955272571911,0.42443007958735057,3.411685060448399,3.8118601169427286,0.48020995217571749,-0.48020995217571749,-3.8118601169427286,6.4256794617741928,0.0
719640.0783812654,4075767.5119837918,-12500.0,-1.2232372682064769,0.98378781662169834,4.5856793087744485,-0.27799910929065474,-1.4841055556060558,0.38991019045944453,3.3028558716622025,3.9522890167246794,-0.54587844736486835,0.54587844736486835,-3.9522890167246794,6.0595537234359371,0.0
724640.0783812654,4075767.5119837918,-12500.0,-1.2338149394003384,1.8761750865706699,3.3279441327196557,-0.53841987848997952,-1.1389980222063283,0.32315820473290546,3.1507137285928901,3.6781069638578336,-1.5606709827679857,1.5606709827679857,-3.6781069638578336,5.608298412634519,0.0
729640.0783812654,4075767.5119837918,-12500.0,-1.0135359616195523,2.545576629130109,1.6030007934203558,-0.73555712867061718,-0.66045057118047423,0.22629399206233716,3.0173933065326168,2.9225689532524122,-2.3976268141194925,2.3976268141194925,-2.9225689532524122,5.2450911454965272,0.0
734640.0783812654,4075767.5119837918,-12500.0,-0.6270816227405408,2.8424654630357171,-0.41690131422311899,-0.82794089111817837,-0.093542402514074682,0.1076957376957858,2.9728572240213529,1.7140738275912026,-2.9026054171714692,2.9026054171714692,-1.7140738275912026,5.1721539444996898,0.0
739640.0783812654,4075767.5119837918,-12500.0,-0.19449329083783432,2.6890152045093618,-2.4740866635205858,-0.79302348737008865,0.49317922674539183,-0.019080058940120079,3.050849698864543,0.18943765332533458,-2.9843214934731348,2.9843214934731348,-0.18943765332533458,5.4713737673008405,0.0
744640.0783812654,4075767.5119837918,-12500.0,0.14746460412881701,2.1110674636643791,-4.2895580488700356,-0.6358847950688028,1.0240156762985739,-0.13839211401967766,3.2197551423528141,-1.4330643994964776,-2.6475931624238074,2.6475931624238074,1.4330643994964776,6.0190714894193329,0.0
749640.0783812654,4075767.5119837918,-12500.0,0.29346301008778836,1.2316651670149046,-5.639365652743157,-0.38814200531283749,1.4360295776825718,-0.23651083284016919,3.4060666798825019,-2.91403800671663,-1.9911770566549962,1.9911770566549962,2.91403800671663,6.5973166480424839,0.0
754640.0783812654,4075767.5119837918,-12500.0,0.20323013069825413,0.22841333671222741,-6.4095020072871653,-0.097361863727790335,1.6940370426006941,-0.30484568097205422,3.5415686348135873,-4.0601993530677358,-1.1709260677577851,1.1709260677577851,4.0601993530677358,7.0299956309078881,0.0
759640.0783812654,4075767.5119837918,-12500.0,-0.094227160511706445,-0.72339722998228728,-6.6079747226566452,0.18771379184704473,1.7949635520521292,-0.34117836132466822,3.6506718805107665,-4.7688511659315171,-0.3477908849642497,0.3477908849642497,4.7688511659315171,7.226521773041414,0.0
764640.0783812654,4075767.5119837918,-12500.0,-0.52274075026330658,-1.495693103791484,-6.3367360529682353,0.42945969863012773,1.7617253735227245,-0.34878475400530901,3.6564103358544644,-5.0351690602402943,0.35493806988207144,-0.35493806988207144,5.0351690602402943,7.1707608222002808,0.0
769640.0783812654,4075767.5119837918,-12500.0,-0.99175136019627053,-2.0260327177259345,-5.7439547012932444,0.60715677587221484,1.6314428476866143,-0.33428235404566248,3.5362592584720227,-4.9284488202535623,0.87090955218702204,-0.87090955218702204,4.9284488202535623,6.8953092435388568,0.0
774640.0783812654,4075767.5119837918,-12500.0,-1.4237135591306611,-2.3112043267284523,-4.9792661471046147,0.71627138363538667,1.4437015846463277,-0.30530991188635387,3.3230088839031335,-4.55517755010065,1.1871289885375442,-1.1871289885375442,4.55517755010065,6.4564910832136535,0.0
779640.0783812654,4075767.5119837918,-12500.0,-1.7681993383252728,-2.3872950417696464,-4.1651111149272912,0.76382416265277309,1.232475131691545,-0.26880651333494582,3.0511033524812294,-4.0256849605673342,1.3273355945444691,-1.3273355945444691,4.0256849605673342,5.9154101280352922,0.0
784640.0783812654,4075767.5119837918,-12500.0,-2.0033422618150176,-2.3079757958800307,-3.3859143251991148,0.76282595016655685,1.0225222695420737,-0.23012994037887741,2.7506171049239629,-3.4329395435821031,1.3329903885123704,-1.3329903885123704,3.4329395435821031,5.3263499466693229,0.0
789640.0783812654,4075767.5119837918,-12500.0,-2.129653832543021,-2.1280139650993575,-2.6900292434831328,0.72773289667588992,0.82922738131655671,-0.19287249310784632,2.4447737400529199,-2.8440258031501076,1.2484451799168816,-1.2484451799168816,2.8440258031501076,4.7315364481761728,0.0
794640.0783812654,4075767.5119837918,-12500.0,-2.161428475381737,-1.8939110596772664,-2.0978948266202848,0.67160961529111918,0.66030640320549161,-0.15909167117170969,2.1496818973430556,-2.3005745136239399,1.1122556407374962,-1.1122556407374962,2.3005745136239399,4.1602960001782012,0.0
799640.0783812654,4075767.5119837918,-12500.0,-2.1190901007462197,-1.6404600698055762,-1.611441336649696,0.60484337127539056,0.51808065263990477,-0.12970177139138561,1.8752798426846804,-1.8237004988037071,0.95373216918187098,-0.95373216918187098,1.8237004988037071,3.6306362510010795,0.0
804640.0783812654,4075767.5119837918,-12500.0,-2.0238234144532345,-1.3910191929190159,-1.2220957719570642,0.53491782818475253,0.40155775436479074,-0.10486475211067291,1.6267351365927638,-1.4201256489737517,0.79284460019830982,-0.79284460019830982,1.4201256489737517,3.151768976356434,0.0
809640.0783812654,4075767.5119837918,-12500.0,-1.8945152914093748,-1.1595416603029505,-0.91652614697467272,0.46675498914331304,0.30801580699601827,-0.084306009802461696,1.4058422010826692,-1.087656863913101,0.64175963366916777,-0.64175963366916777,1.087656863913101,2.7266770694316835,0.0
669640.0783812654,4080767.5119837918,-12500.0,1.5050807665665089,-1.6055424984557189,1.8161099620953132,0.49323363188654196,-0.54314081142834569,0.12429465818498235,1.7372088045293794,0.022690598961479957,1.9866835850432776,-1.9866835850432776,-0.022690598961479957,3.4323342557346215,0.0
674640.0783812654,4080767.5119837918,-12500.0,1.4340869565721293,-1.7336773399400631,2.1727382228215602,0.52394539301469878,-0.6456852588844374,0.14652235308711128,1.9057199352356213,0.19101820231479394,2.1441146222502567,-2.1441146222502567,-0.19101820231479394,3.7743457139340726,0.0
679640.0783812654,4080767.5119837918,-12500.0,1.3060463252497254,-1.8285166176996928,2.5745082218418167,0.54398878130876127,-0.76026616377288125,0.17134864262565999,2.0747573857119197,0.41737487298887288,2.2680717281254652,-2.2680717281254652,-0.41737487298887288,4.1216573795177771,0.0
684640.0783812654,4080767.5119837918,-12500.0,1.113009694237324,-1.8684466692914421,3.0110500946199403,0.54757676093925123,-0.88384908810531371,0.1982015493466599,2.2365131751817628,0.70931179977375358,2.3357775697069449,-2.3357775697069449,-0.70931179977375358,4.4600607112458963,0.0
689640.0783812654,4080767.5119837918,-12500.0,0.85194120283285335,-1.8276491828871937,3.4611683507448059,0.52799869283617851,-1.0105307732857252,0.22594813482510784,2.3918808329004362,1.0692475643059098,2.3197260360340368,-2.3197260360340368,-1.0692475643059098,4.7701217526759372,0.0
694640.0783812654,4080767.5119837918,-12500.0,0.52820496137965323,-1.6785821104285714,3.8893019759818288,0.4783272484307563,-1.1306732227642935,0.25272156481061148,2.537592025003288,1.4901855137215954,2.1899812237599043,-2.1899812237599043,-1.4901855137215954,5.0272617844397809,0.0
699640.0783812654,4080767.5119837918,-12500.0,0.15914035008496943,-1.3969014053495057,4.2430382622338527,0.39272816527490007,-1.2303336801647731,0.27580093875699141,2.6499061417038763,1.9506029648658085,1.918901953081853,-1.918901953081853,-1.9506029648658085,5.2031982139009285,0.0
704640.0783812654,4080767.5119837918,-12500.0,-0.22358912067453479,-0.96912020825727274,4.4535629583364207,0.26841892323412403,-1.2914560899553127,0.29163170974356972,2.7157781916545778,2.4097163355925,1.4886513882290291,-1.4886513882290291,-2.4097163355925,5.2696055338336087,0.0
709640.0783812654,4080767.5119837918,-12500.0,-0.57482231795378524,-0.40223908410522957,4.4414168701652965,0.10805676585343647,-1.2933944136071716,0.29609603369141974,2.7253939144927624,2.8053756758228552,0.90084919660985807,-0.90084919660985807,-2.8053756758228552,5.2049442423733518,0.0
714640.0783812654,4080767.5119837918,-12500.0,-0.84190983993884627,0.2671494228075893,4.1295068938963677,-0.07807785844915989,-1.2162191002976726,0.28512273019666146,2.6764461088320162,3.0576437926661795,0.18605275344636696,-0.18605275344636696,-3.0576437926661795,5.0052172555144914,0.0
719640.0783812654,4080767.5119837918,-12500.0,-0.97670462398626545,0.96861784411603469,3.463247367239112,-0.27115937951253477,-1.0457467152991131,0.25563535411093646,2.5796344622750635,3.0807621671937326,-0.59108100767582417,0.59108100767582417,-3.0807621671937326,4.6985431311389494,0.0
724640.0783812654,4080767.5119837918,-12500.0,-0.95153060311868831,1.6034757191314006,2.4338379500272667,-0.44533204174819413,-0.77930646450538987,0.20666572571061737,2.4631220793940272,2.8037414505209255,-1.3358462874939971,1.3358462874939971,-2.8037414505209255,4.3602222731610594,0.0
729640.0783812654,4080767.5119837918,-12500.0,-0.77357423662460378,2.0628912291954595,1.0963614195327429,-0.57228406034789603,-0.43023807560071775,0.14026716429924119,2.3708455417184888,2.1952080364588467,-1.9397251618849323,1.9397251618849323,-2.1952080364588467,4.1142852425786058,0.0
734640.0783812654,4080767.5119837918,-12500.0,-0.49016394175958888,2.2557877624230214,-0.42738661391476773,-0.62818791675648744,-0.028703269101457558,0.061771223802867231,2.3473674158968532,1.283326289993497,-2.3066587562626322,2.3066587562626322,-1.283326289993497,4.0897422292338277,0.0
739640.0783812654,4080767.5119837918,-12500.0,-0.17958948198797126,2.1371840723331217,-1.9676219547953642,-0.60076580860474116,0.38271764417023724,-0.020923324737379883,2.4111638687772494,0.16025329104497077,-2.3808635717930193,2.3808635717930193,-0.16025329104497077,4.3279070747552266,0.0
744640.0783812654,4080767.5119837918,-12500.0,0.071248915704061819,1.7246025221934205,-3.3438545197123282,-0.49351056112875924,0.75799902264082986,-0.098952859329130602,2.5398344598844118,-1.0345172650994374,-2.1644343623236422,2.1644343623236422,1.0345172650994374,4.7421251151425139,0.0
749640.0783812654,4080767.5119837918,-12500.0,0.19358380070851311,1.0941555826544169,-4.407827808053451,-0.32499829641066869,1.0582156780763674,-0.16446502945024402,2.6851745952095025,-2.1477676005696722,-1.7162577122119118,1.7162577122119118,2.1477676005696722,5.1885951830512029,0.0
754640.0783812654,4080767.5119837918,-12500.0,0.15619727250635476,0.35756118640666285,-5.0755243316809961,-0.12347861773448751,1.2597104591873456,-0.21224314808386888,2.8010605826809312,-3.0501875231913553,-1.1325867292500187,1.1325867292500187,3.0501875231913553,5.5469797020659888,0.0
759640.0783812654,4080767.5119837918,-12500.0,-0.030136650340047203,-0.36953835016205666,-5.3371737628148681,0.080878935670909383,1.3571183602835368,-0.2404322700660125,2.9003941182397273,-3.6634147206395404,-0.51836690674500052,0.51836690674500052,3.6634147206395404,5.7486895217316887,0.0
764640.0783812654,4080767.5119837918,-12500.0,-0.32272022626585251,-0.99488789841209557,-5.2451397775943729,0.26295551502820697,1.3610006802954622,-0.25026239950818818,2.9413011891516776,-3.9682199692643576,0.038600096929709782,-0.038600096929709782,3.9682199692643576,5.7728626654550093,0.0
769640.0783812654,4080767.5119837918,-12500.0,-0.66457890681983911,-1.4640167350894817,-4.8886678807598729,0.40669452904271169,1.2920490977473595,-0.24508022575456845,2.888056680692078,-3.9950861059016747,0.48233018707513509,-0.48233018707513509,3.9950861059016747,5.6325230129261596,0.0
774640.0783812654,4080767.5119837918,-12500.0,-1.0014013434526849,-1.760679021094363,-4.367034164440069,0.50571431077888052,1.1745675619020906,-0.22917070415982652,2.7595095516071835,-3.8049892461556523,0.7906473319215197,-0.7906473319215197,3.8049892461556523,5.359935525891073,0.0
779640.0783812654,4080767.5119837918,-12500.0,-1.2924592711626124,-1.897862102375474,-3.7693875859568511,0.56146058943940491,1.0313060847335869,-0.20676441921903949,2.5781248166641908,-3.4692606674219673,0.96822844372535011,-0.96822844372535011,3.4692606674219673,4.9945197856027388,0.0
784640.0783812654,4080767.5119837918,-12500.0,-1.5143858103048318,-1.9054522596563419,-3.164154415585104,0.58031716266839639,0.88049113143524838,-0.1814170077349434,2.365194395887884,-3.0543912887119067,1.036120178065282,-1.036120178065282,3.0543912887119067,4.5744918000637078,0.0
789640.0783812654,4080767.5119837918,-12500.0,-1.6595848142703935,-1.8191761852470827,-2.5967058470265978,0.57083267971573948,0.73488104857219061,-0.1557580946138323,2.1385358153162586,-2.6136617820000034,1.0219837391146318,-1.0219837391146318,2.6136617820000034,4.1321743152551571,0.0
794640.0783812654,4080767.5119837918,-12500.0,-1.7319536564136719,-1.6729697632643981,-2.0921967581526402,0.54167069239509202,0.6021808076246985,-0.13150548796937642,1.9116703391463106,-2.1846411484721768,0.9531573827492128,-0.9531573827492128,2.1846411484721768,3.6921985216405657,0.0
799640.0783812654,4080767.5119837918,-12500.0,-1.7421348492121316,-1.4949464814256268,-1.6605832283512585,0.50040818504926798,0.48611053750160066,-0.10962123463158797,1.6939530513181007,-1.7904553926418525,0.85282730806720641,-0.85282730806720641,1.7904553926418525,3.2715971028372608,0.0
804640.0783812654,4080767.5119837918,-12500.0,-1.7035639308434967,-1.3061205491605306,-1.3017766989874466,0.45303282974307135,0.38761132475187826,-0.090512681071664949,1.491200373737062,-1.4428083136853769,0.73863943826278278,-0.73863943826278278,1.4428083136853769,2.8808957697400701,0.0
674640.0783812654,4085767.5119837918,-12500.0,1.0909448624555347,-1.4737424045892411,2.0558832765323629,0.41091500836600836,-0.56619153593478555,0.11858448584428365,1.6576312844712011,0.28938831721567781,1.8529048333692142,-1.8529048333692142,-0.28938831721567781,3.2861650519002246,0.0
679640.0783812654,4085767.5119837918,-12500.0,0.95654220882381014,-1.5134656779472533,2.3835502652603124,0.41567765095905296,-0.65315204234916446,0.13608819521816859,1.7807201088616358,0.49705226804198932,1.9174758471866096,-1.9174758471866096,-0.49705226804198932,3.5426279572790853,0.0
684640.0783812654,4085767.5119837918,-12500.0,0.77416457397384864,-1.5005864448464936,2.7247146274809846,0.40601574792631412,-0.743176249751062,0.15430506213533007,1.8928680021350999,0.7524637854650682,1.9276650112736831,-1.9276650112736831,-0.7524637854650682,3.7821550129896417,0.0
689640.0783812654,4085767.5119837918,-12500.0,0.54552356330335483,-1.4170089151840355,3.0584245774512673,0.37759454021367661,-0.83088744794993386,0.17226241207685133,2.0051466745107538,1.053074252770108,1.8637078069793587,-1.8637078069793587,-1.053074252770108,3.9893058644822594,0.0
694640.0783812654,4085767.5119837918,-12500.0,0.2790440996092694,-1.2455196920400311,3.3536167269146295,0.32645330344065171,-0.90846167002738887,0.18853660040886261,2.0996778060762331,1.3884187196914164,1.7061097560750009,-1.7061097560750009,-1.3884187196914164,4.1459668755408083,0.0
699640.0783812654,4085767.5119837918,-12500.0,-0.0084253474861454743,-0.97368495192407623,3.568665023614241,0.2499611912419967,-0.96556061895843481,0.20123437984794634,2.1648966438856592,1.737200265515042,1.4394418021979321,-1.4394418021979321,-1.737200265515042,4.2329790700253058,0.0
704640.0783812654,4085767.5119837918,-12500.0,-0.29118460437895488,-0.59906365590417865,3.6533229893273949,0.14805611602811614,-0.98983792981964858,0.20807441217012443,2.1931028364167151,2.0652553086228886,1.0575361392788374,-1.0575361392788374,-2.0652553086228886,4.2332965587462894,0.0
709640.0783812654,4085767.5119837918,-12500.0,-0.53659829582111662,-0.13486543414917584,3.5542238326177631,0.024549991148926965,-0.96827851493051387,0.20661609808755996,2.1797728943637806,2.3258153543221547,0.56930198087782191,-0.56930198087782191,-2.3258153543221547,4.1371366236409743,0.0
714640.0783812654,4085767.5119837918,-12500.0,-0.710157734451759,0.38572958638539478,3.2245030739360292,-0.11191876489705781,-0.88948682693413839,0.19465914442358073,2.1265403236766582,2.4636290744371796,0.0034822137093373229,-0.0034822137093373229,-2.4636290744371796,3.9493798964391198,0.0
719640.0783812654,4085767.5119837918,-12500.0,-0.78354322076403327,0.90906852629409174,2.6366710489768046,-0.24785100431576068,-0.74670985752175556,0.1707810036796252,2.0444410441698713,2.4239064486384772,-0.59006012011866049,0.59006012011866049,-2.4239064486384772,3.6987620898584836,0.0
724640.0783812654,4085767.5119837918,-12500.0,-0.74396459614997856,1.3666304077125804,1.795782884805788,-0.36627902494384545,-0.54091345454491269,0.13489792368129386,1.9558558011833582,2.1654088237247837,-1.1448577869273686,1.1448577869273686,-2.1654088237247837,3.4458535672683426,0.0
729640.0783812654,4085767.5119837918,-12500.0,-0.60147245216094114,1.6873746452614795,0.7481162739977486,-0.44971053220934887,-0.28282285740389479,0.088661418384495122,1.8918492547088892,1.6746165477012935,-1.5890182713571019,1.5890182713571019,-1.6746165477012935,3.2794301597357656,0.0
734640.0783812654,4085767.5119837918,-12500.0,-0.39046012590765006,1.8145034817133003,-0.41961316062503351,-0.48408104025684723,0.0071987753982700638,0.035489256911326886,1.8811623885939783,0.97588710738554063,-1.8611369976896559,1.8611369976896559,-0.97588710738554063,3.2825490059497198,0.0
739640.0783812654,4085767.5119837918,-12500.0,-0.16316111366759298,1.7213371678859426,-1.5929452465752478,-0.46250700980282328,0.30200012777474239,-0.019880986691327009,1.933833840330101,0.13246575404266403,-1.9260925882134594,1.9260925882134594,-0.13246575404266403,3.4747700476617744,0.0
744640.0783812654,4085767.5119837918,-12500.0,0.023642976285945281,1.4200303492929676,-2.6519771664264824,-0.3874108822438746,0.57273180878216046,-0.072249644926471124,2.0336909911937302,-0.76395655614574309,-1.7847156356548846,1.7847156356548846,0.76395655614574309,3.7941206678482082,0.0
749640.0783812654,4085767.5119837918,-12500.0,0.12401555637938308,0.95914053629456708,-3.4963618151755789,-0.27008697606617932,0.79465050371144941,-0.11697423475259923,2.1482506179173435,-1.6126560277262538,-1.4732144709794162,1.4732144709794162,1.6126560277262538,4.1431673033400003,0.0
754640.0783812654,4085767.5119837918,-12500.0,0.11440104102591474,0.41075578355530779,-4.0644937867004591,-0.12781948075793426,0.95171917704813391,-0.15081989167583626,2.2457741929599999,-2.3256639928007465,-1.0525347990043294,1.0525347990043294,2.3256639928007465,4.4382041769739402,0.0
759640.0783812654,4085767.5119837918,-12500.0,-0.0027595792303668786,-0.14768728423829638,-4.3409645600861282,0.020329348536336382,1.0386140576238976,-0.17238584167769097,2.332485377725988,-2.8444363570152547,-0.59207871705337545,0.59207871705337545,2.8444363570152547,4.6277158468617507,0.0
764640.0783812654,4085767.5119837918,-12500.0,-0.20356820497271999,-0.65016787548976607,-4.3515672921241464,0.15753911099316076,1.0598806129980212,-0.18203891714533221,2.388434125912259,-3.1466816857050883,-0.15396368283012918,0.15396368283012918,3.1466816857050883,4.6913020216523904,0.0
769640.0783812654,4085767.5119837918,-12500.0,-0.45224482042557307,-1.0524672471626315,-4.1498380098077376,0.27188167192617241,1.0270495310669285,-0.18147145483193425,2.3744244848590093,-3.2431417037537074,0.2173812714870329,-0.2173812714870329,3.2431417037537074,4.6320661080772769,0.0
774640.0783812654,4085767.5119837918,-12500.0,-0.71144420300911893,-1.3347438328823531,-3.8010677473617243,0.35719125276156066,0.95501566040162134,-0.17309766641581606,2.3006505869894087,-3.167726832823198,0.49863123891777428,-0.49863123891777428,3.167726832823198,4.4679328083574497,0.0
779640.0783812654,4085767.5119837918,-12500.0,-0.95002040465363102,-1.4979511893540052,-3.3687466914965736,0.41245323650315835,0.85882728469265546,-0.15948902459224706,2.1815878239972979,-2.9656189270744733,0.68522816942146414,-0.68522816942146414,2.9656189270744733,4.2239714691058481,0.0
784640.0783812654,4085767.5119837918,-12500.0,-1.1469261277145693,-1.5571414154966321,-2.9059262634005192,0.44036684269779525,0.75151443382959382,-0.14296865906725043,2.0320579287539902,-2.6830150064262508,0.78592582539011069,-0.78592582539011069,2.6830150064262508,3.92659295885626,0.0
789640.0783812654,4085767.5119837918,-12500.0,-1.2916451392163533,-1.5344510179954283,-2.4516159658680121,0.44572617122732716,0.64305364907600515,-0.12539474844192156,1.8653491417026984,-2.3603124463165286,0.81675021427474359,-0.81675021427474359,2.3603124463165286,3.5998163770304061,0.0
794640.0783812654,4085767.5119837918,-12500.0,-1.3824079570538188,-1.453487480375407,-2.0309408075966715,0.43404717107265284,0.54022960754792926,-0.10810185567910149,1.6922953116782804,-2.0288607416446358,0.79599837503678161,-0.79599837503678161,2.0288607416446358,3.2633560578351846,0.0
799640.0783812654,4085767.5119837918,-12500.0,-1.4235028636856351,-1.3357105611155171,-1.6574169870157531,0.41061879229462533,0.44704127796384269,-0.091944822768425,1.5210377877987806,-1.7104482495907591,0.74089805450685198,-0.74089805450685198,1.7104482495907591,2.9320576503238489,0.0
679640.0783812654,4090767.5119837918,-12500.0,0.6921116152686364,-1.2401131917135715,2.1774124020637688,0.31592815458904538,-0.5572609429829567,0.10800783590657638,1.5269808280445785,0.54015999368046308,1.6094880405112779,-1.6094880405112779,-0.54015999368046308,3.0429523020367411,0.0
684640.0783812654,4090767.5119837918,-12500.0,0.52790238497143049,-1.1939335261815955,2.4383526718804664,0.29938874830521489,-0.62182776695810549,0.12025268972452077,1.6071706780073454,0.75860383015005395,1.5817037626681385,-1.5817037626681385,-0.75860383015005395,3.2093823436863067,0.0
689640.0783812654,4090767.5119837918,-12500.0,0.33358470341172891,-1.0883909061282533,2.6794418072295376,0.26816484526902351,-0.68136004650269955,0.13172763848518354,1.6853462648125568,1.0052988034821413,1.4907748584820524,-1.4907748584820524,-1.0052988034821413,3.3435902322443738,0.0
694640.0783812654,4090767.5119837918,-12500.0,0.1182292074437825,-0.91352800993197703,2.8749517990588367,0.22018387153743502,-0.72978877891543437,0.14139282239680234,1.7446578054744337,1.2688997845618841,1.3246741923210732,-1.3246741923210732,-1.2688997845618841,3.4326401517888772,0.0
699640.0783812654,4090767.5119837918,-12500.0,-0.10346141063408823,-0.66432019232448991,2.9929368777389262,0.15461048432244207,-0.75966124258186252,0.14796318490520832,1.7794761851488921,1.5303390345106749,1.0757920483340904,-1.0757920483340904,-1.5303390345106749,3.4640032866640205,0.0
704640.0783812654,4090767.5119837918,-12500.0,-0.31159500989525257,-0.34403326385224137,2.9975308723894156,0.072592028401846295,-0.7626814760571663,0.14999424339247172,1.7854739204940304,1.7622541348785072,0.74435500956751155,-0.74435500956751155,-1.7622541348785072,3.4280980686020808,0.0
709640.0783812654,4090767.5119837918,-12500.0,-0.48311923179771404,0.032633025678472628,2.8534884399934914,-0.022066314763844169,-0.73074411794134475,0.14605031928735174,1.7612140577143629,1.9301649840355104,0.34177642589518997,-0.34177642589518997,-1.9301649840355104,3.3220670577239768,0.0
714640.0783812654,4090767.5119837918,-12500.0,-0.59566505103029777,0.43777356343680646,2.532950521191581,-0.12255145220681729,-0.65744959817836701,0.13495505233908212,1.7101026366756245,1.9961335400273796,-0.10716996754643082,0.10716996754643082,-1.9961335400273796,3.1548257127293238,0.0
719640.0783812654,4090767.5119837918,-12500.0,-0.63280179077014986,0.83122767748749526,2.0235155898819781,-0.21930658706849321,-0.53989491422831415,0.11609252180526565,1.6422481659322379,1.9251147792577641,-0.56469336490977029,0.56469336490977029,-1.9251147792577641,2.9528169241394289,0.0
724640.0783812654,4090767.5119837918,-12500.0,-0.58945940525542062,1.165236702624429,1.335632451517758,-0.30111395859119872,-0.3803082531431044,0.089689994205536874,1.5750836459201267,1.6932075992434965,-0.98390190785018405,0.98390190785018405,-1.6932075992434965,2.7638811941179244,0.0
729640.0783812654,4090767.5119837918,-12500.0,-0.47560216365514413,1.3927134165110262,0.50660599662443906,-0.35696479360147215,-0.18694441408740797,0.056986782995553056,1.5306376584951285,1.2958030152853977,-1.3163653472523307,1.3163653472523307,-1.2958030152853977,2.651667185341517,0.0
734640.0783812654,4090767.5119837918,-12500.0,-0.31625449664792959,1.4774542720780577,-0.40123569542120763,-0.37834845521720761,0.026286204159631926,0.020199889027785346,1.5276597571218224,0.75281116154729988,-1.5219008264965903,1.5219008264965903,-0.75281116154729988,2.6700458024799558,0.0
739640.0783812654,4090767.5119837918,-12500.0,-0.1470044311985875,1.4032691465719505,-1.3090982312225858,-0.36130521031866808,0.24165170455585344,-0.017752343757436912,1.571473766958889,0.10841370194614997,-1.5777931317607226,1.5777931317607226,-0.10841370194614997,2.8269550843150024,0.0
744640.0783812654,4090767.5119837918,-12500.0,-0.0058919302122166992,1.1787571177685383,-2.1354135917122967,-0.30753296542291186,0.44057006000223148,-0.053723677175480926,1.6502145840218927,-0.57559196640600152,-1.4842852148624952,1.4842852148624952,0.57559196640600152,3.0772929950520593,0.0
749640.0783812654,4090767.5119837918,-12500.0,0.075740061946837273,0.83575960428878793,-2.8108544251254464,-0.22411068926230196,0.60691560881488771,-0.084886079625359323,1.741460277456315,-1.2313718816391501,-1.2642604722774993,1.2642604722774993,1.2313718816391501,3.3534705568541434,0.0
754640.0783812654,4090767.5119837918,-12500.0,0.080283746998167857,0.42190050663899248,-3.2901382885476123,-0.12190471926323901,0.72969044480167,-0.10919112732365917,1.8229869956330766,-1.7980627520348591,-0.95721134565314436,0.95721134565314436,1.7980627520348591,3.5962427565505806,0.0
759640.0783812654,4090767.5119837918,-12500.0,0.0065678172069732425,-0.010145122756325665,-3.5573584598172623,-0.013206682890338986,0.80433790869378818,-0.1256227754457353,1.8972597633489174,-2.2322220298033324,-0.60973672844429316,0.60973672844429316,2.2322220298033324,3.7669135599547707,0.0
764640.0783812654,4090767.5119837918,-12500.0,-0.13212473622803239,-0.41308084764814479,-3.6241461893060745,0.090629774816839384,0.83250558071396141,-0.13419960407115525,1.9574015792127155,-2.5129940854758663,-0.265826524937119,0.265826524937119,2.5129940854758663,3.8474300389876115,0.0
769640.0783812654,4090767.5119837918,-12500.0,-0.31329825698267705,-0.75223223424101981,-3.5224531104631476,0.18090954928803551,0.82059706956816003,-0.13577090581336679,1.9657878014181174,-2.6414764850046093,0.040296542393958745,-0.040296542393958745,2.6414764850046093,3.8361161406006787,0.0
774640.0783812654,4090767.5119837918,-12500.0,-0.51150111827056122,-1.0084053077462327,-3.2950314588699992,0.25237576064598577,0.77774823063170051,-0.13170382863996957,1.9271870207486814,-2.6357431440036367,0.28748339466353023,-0.28748339466353023,2.6357431440036367,3.7424411439222416,0.0
779640.0783812654,4090767.5119837918,-12500.0,-0.70362250651526326,-1.1768484517906701,-2.9865236000678488,0.30311418901183623,0.71385700531597018,-0.12356320932983116,1.8508192371518275,-2.5239080126291764,0.46737722359400879,-0.46737722359400879,2.5239080126291764,3.5821294138219058,0.0
784640.0783812654,4090767.5119837918,-12500.0,-0.87216685426286611,-1.2637890769213453,-2.6369710973897158,0.33387583228312923,0.63808260209561118,-0.11285565366607135,1.7468887562673601,-2.337429752206539,0.58177206584810892,-0.58177206584810892,2.337429752206539,3.3732001234516074,0.0
789640.0783812654,4090767.5119837918,-12500.0,-1.0063999564099326,-1.282160313657452,-2.2782713164841959,0.34716332915075571,0.5579622551790212,-0.10086790184919012,1.6251293171637016,-2.10602520125697,0.63904489008125398,-0.63904489008125398,2.10602520125697,3.1331618726022095,0.0
794640.0783812654,4090767.5119837918,-12500.0,-1.1018768294600929,-1.2477147178503816,-1.933170522866634,0.34635323624501124,0.47908609625059662,-0.08859514698672083,1.4939695461336941,-1.8546282860239307,0.6507697376461854,-0.6507697376461854,1.8546282860239307,2.8773167799311739,0.0
689640.0783812654,4095767.5119837918,-12500.0,0.18865043180192953,-0.82872908176153337,2.3339552166485107,0.18889372385944234,-0.55829014720992765,0.1011379630303004,1.4211338698116953,0.93964077562208814,1.1889972057481106,-1.1889972057481106,-0.93964077562208814,2.8107319020306982,0.0
694640.0783812654,4095767.5119837918,-12500.0,0.016621115544675141,-0.66139807868047673,2.4563252723166742,0.14607233669672048,-0.58705459123465664,0.10667717639713437,1.4565623278559352,1.144758745275527,1.026011661351895,-1.026011661351895,-1.144758745275527,2.8549622130638515,0.0
699640.0783812654,4095767.5119837918,-12500.0,-0.15339653935393971,-0.43986238562002922,2.507936695225812,0.091198301491377448,-0.59985421359415558,0.10968316091495903,1.4720691225324538,1.3390212287398142,0.80091142894411038,-0.80091142894411038,-1.3390212287398142,2.8524771940610067,0.0
704640.0783812654,4095767.5119837918,-12500.0,-0.30644724152560854,-0.16993942754818961,2.463607005331089,0.025834348660548925,-0.59118231803085419,0.10924898169307153,1.4654756459342686,1.5011017891101486,0.51712029796318149,-0.51712029796318149,-1.5011017891101486,2.7985054688660647,0.0
709640.0783812654,4095767.5119837918,-12500.0,-0.42647996748455885,0.13442469353381264,2.3004011720037187,-0.046673190508022759,-0.5560459885338418,0.10453537160991809,1.4370689243029633,1.6058809418219087,0.18615075387268276,-0.18615075387268276,-1.6058809418219087,2.6940951923085628,0.0
714640.0783812654,4095767.5119837918,-12500.0,-0.49911399794382055,0.45066455659322419,2.0022501849962779,-0.12112110926672098,-0.49094492377929988,0.094924208612056124,1.3908543815500518,1.6273732851633058,-0.17157248736953823,0.17157248736953823,-1.6273732851633058,2.5495461605860288,0.0
719640.0783812654,4095767.5119837918,-12500.0,-0.51500589766026261,0.74895105796205474,1.5649553591100474,-0.19076980204402422,-0.39492438906093669,0.080186491721867259,1.335575912557581,1.5431186146169593,-0.52762366314686171,0.52762366314686171,-1.5431186146169593,2.3879643910270545,0.0
724640.0783812654,4095767.5119837918,-12500.0,-0.47298434008190882,0.99577004827225657,1.0003058614080185,-0.24812940999959146,-0.27043994002850907,0.060624862110533057,1.284672629926066,1.3393755171304509,-0.84866371981701494,0.84866371981701494,-1.3393755171304509,2.2467651084108025,0.0
729640.0783812654,4095767.5119837918,-12500.0,-0.38185677344778302,1.1594321143283381,0.33778961713774347,-0.28614553984237084,-0.1237230501093244,0.037142301039002984,1.2538374502008804,1.0158537179703,-1.1015307175093967,1.1015307175093967,-1.0158537179703,2.1717109505636838,0.0
734640.0783812654,4095767.5119837918,-12500.0,-0.25993058660055141,1.2163901445656156,-0.37731218057797949,-0.29954928436175199,0.035600006864231419,0.011197004169796783,1.2554265201480019,0.58841332922927281,-1.2593561884616822,1.2593561884616822,-0.58841332922927281,2.1979354749395372,0.0
739640.0783812654,4095767.5119837918,-12500.0,-0.13192566139403752,1.1566207732386455,-1.0897099418754361,-0.28601100063662011,0.19569318209050512,-0.015368738402297272,1.2921142485159725,0.088438782217514444,-1.3070875202961045,1.3070875202961045,-0.088438782217514444,2.3272691752619497,0.0
744640.0783812654,4095767.5119837918,-12500.0,-0.023903824942756349,0.98631445092341374,-1.7427167425296815,-0.24673440579653177,0.3442917533101123,-0.040597473785749037,1.3550710712602303,-0.44147720009688829,-1.2447007448625218,1.2447007448625218,0.44147720009688829,2.5263799967160119,0.0
749640.0783812654,4095767.5119837918,-12500.0,0.042327812032519035,0.72687101129231224,-2.2875234588953779,-0.18627850299499937,0.47064531269126925,-0.062719340000274237,1.4284861639213875,-0.95464257693947341,-1.0870186769740182,1.0870186769740182,0.95464257693947341,2.7473882292831981,0.0
754640.0783812654,4095767.5119837918,-12500.0,0.053617811788078236,0.41044060935471743,-2.6906375700815324,-0.11164606721031049,0.56711296821740764,-0.080410649029985959,1.4965370814378878,-1.4082500404440741,-0.86018387191375245,0.86018387191375245,1.4082500404440741,2.9476640369723257,0.0
759640.0783812654,4095767.5119837918,-12500.0,0.0074204902160727179,0.073422927217160011,-2.9376380668539026,-0.0309195369689646,0.63002287223599862,-0.092945839382054696,1.5596837357731361,-1.7700457808825585,-0.59596808275559066,0.59596808275559066,1.7700457808825585,3.0980132145469361,0.0
764640.0783812654,4095767.5119837918,-12500.0,-0.089003563011921166,-0.25012253412399593,-3.0327077268818252,0.048156450739925097,0.65966549311082578,-0.10021799286475773,1.6183746411833444,-2.0220843792903613,-0.3256846156624158,0.3256846156624158,2.0220843792903613,3.1831783911439193,0.0
769640.0783812654,4095767.5119837918,-12500.0,-0.22148082689618731,-0.53346104900383962,-2.9947475556414931,0.11928803710237849,0.6595625649254504,-0.10264453188265615,1.6389406610984214,-2.1610859308839103,-0.075319014877988755,0.075319014877988755,2.1610859308839103,3.1994053303480916,0.0
774640.0783812654,4095767.5119837918,-12500.0,-0.37272509183876407,-0.75968872273424048,-2.8516882798842058,0.17824223839001593,0.63532677123016235,-0.10100301025514011,1.6227078260987402,-2.1959964290617764,0.13720885304401009,-0.13720885304401009,2.1959964290617764,3.1512366598912029,0.0
779640.0783812654,4095767.5119837918,-12500.0,-0.52587646937626253,-0.92180632929900641,-2.6346956686951293,0.22294290531781913,0.59345731387264,-0.09624892208520415,1.5754645457777012,-2.1439804597442578,0.30257687463544292,-0.30257687463544292,2.1439804597442578,3.0483718865255627,0.0
784640.0783812654,4095767.5119837918,-12500.0,-0.66701934923182538,-1.0210459250681445,-2.3734960317990836,0.25317850288548971,0.54033245230025384,-0.089356988487809569,1.5041806633266244,-2.0261353466931649,0.4189269694133233,-0.4189269694133233,2.0261353466931649,2.9029818641293201,0.0
789640.0783812654,4095767.5119837918,-12500.0,-0.78643684149975412,-1.0643539377931102,-2.0933723158500941,0.27010248461043174,0.4815284026005619,-0.08120818204942909,1.4159019391848535,-1.8638701669427573,0.48984859268955827,-0.48984859268955827,1.8638701669427573,2.7276618059407673,0.0
699640.0783812654,4100767.5119837918,-12500.0,-0.17573763423234898,-0.27801693991393217,2.1026477417501908,0.049264326564110263,-0.47574933367387146,0.081984736587456308,1.2257286742796791,1.1670610183648038,0.59340638658489675,-0.59340638658489675,-1.1670610183648038,2.363988858877903,0.0
704640.0783812654,4100767.5119837918,-12500.0,-0.28835857219653926,-0.052440061666666177,2.0301498514317498,-0.0025845470839147922,-0.46116336519485346,0.080384012941288371,1.212465221769786,1.2787482349242387,0.35229422290587803,-0.35229422290587803,-1.2787482349242387,2.3027819008286827,0.0
709640.0783812654,4100767.5119837918,-12500.0,-0.37247841252238395,0.19325034526310092,1.8631301322142786,-0.058241710441384938,-0.4265917625432743,0.07571882672693668,1.1836233239087823,1.3407607767800009,0.080236911950835044,-0.080236911950835044,-1.3407607767800009,2.2056717178049858,0.0
714640.0783812654,4100767.5119837918,-12500.0,-0.4189229851909434,0.44119572552915254,1.592748366425764,-0.11379886868226764,-0.37020227962197577,0.067674127338863299,1.1432017552097891,1.3353015150375238,-0.20632876035186443,0.20632876035186443,-1.3353015150375238,2.0829511855801406,0.0
719640.0783812654,4100767.5119837918,-12500.0,-0.42255202495852762,0.6692846368672114,1.2191003641884779,-0.16449715960840477,-0.29198561258846389,0.056200505670247071,1.0985309980090112,1.2479517961878037,-0.48605985492902487,0.48605985492902487,-1.2479517961878037,1.9542394511757586,0.0
724640.0783812654,4100767.5119837918,-12500.0,-0.38406552779177883,0.8538003795544673,0.75348629835581882,-0.2052798841444764,-0.1942091958376039,0.041585849631721787,1.05992090364935,1.0709496170871786,-0.73503560764316611,0.73503560764316611,-1.0709496170871786,1.8486479228649102,0.0
729640.0783812654,4100767.5119837918,-12500.0,-0.31085518315720362,0.97309791850580374,0.21901564466109288,-0.23154769741749359,-0.081542162173231084,0.024480451663009412,1.0386115874880508,0.80596514410302933,-0.93018946465150854,0.93018946465150854,-0.80596514410302933,1.7991880307262587,0.0
734640.0783812654,4100767.5119837918,-12500.0,-0.21641751926412833,1.0115747338320935,-0.35104630780453577,-0.2399695769136333,0.039264739217156314,0.005857561572220644,1.0428172079001821,0.46548855476322737,-1.0531960689661282,1.0531960689661282,-0.46548855476322737,1.8288486613912298,0.0
739640.0783812654,4100767.5119837918,-12500.0,-0.11823102072971459,0.96291616420711312,-0.91721770876694764,-0.22914784887963338,0.1601514879897607,-0.013093360168422752,1.0737252253484451,0.072164734456093171,-1.0938583843068872,1.0938583843068872,-0.072164734456093171,1.936370721648458,0.0
744640.0783812654,4100767.5119837918,-12500.0,-0.034515405837386832,0.83164947384774801,-1.4393373149388626,-0.19994606271746074,0.27284287838065469,-0.031123525705418497,1.1246806745980968,-0.34405354046942693,-1.0520403917286436,1.0520403917286436,0.34405354046942693,2.0967805377664717,0.0
749640.0783812654,4100767.5119837918,-12500.0,0.019282294272654786,0.63247781976980955,-1.8824402081589577,-0.15537253099606263,0.37002247931750804,-0.047097926199036952,1.1843194975898106,-0.75038511591041857,-0.93755836690758276,0.93755836690758276,0.75038511591041857,2.2755162939879701,0.0
754640.0783812654,4100767.5119837918,-12500.0,0.033302785761085384,0.38754070067163982,-2.2215514515805372,-0.10004323908032668,0.44630994635321786,-0.060144546591268923,1.2411995820749326,-1.1162462144603369,-0.76806075116596972,0.76806075116596972,1.1162462144603369,2.4414251903320627,0.0
759640.0783812654,4100767.5119837918,-12500.0,0.004664069023353804,0.1223797207422589,-2.4443254401245302,-0.039372508708367733,0.49882768102385833,-0.069747326600931248,1.2948087151501915,-1.4175842858766532,-0.56553850083631796,0.56553850083631796,1.4175842858766532,2.5723378631140141,0.0
764640.0783812654,4100767.5119837918,-12500.0,-0.062798568037078534,-0.13829374062994629,-2.5511331123794192,0.021294539900933562,0.52726906173421362,-0.0757677902886041,1.3493283078452007,-1.6395591297660701,-0.3524472372409897,0.3524472372409897,1.6395591297660701,2.6556504062693889,0.0
769640.0783812654,4100767.5119837918,-12500.0,-0.16013971751371128,-0.37401754562080064,-2.5529781319070537,0.077404376193891455,0.53353121365522349,-0.078401952831923014,1.3759117151521683,-1.7772077975692993,-0.14840313926012028,0.14840313926012028,1.7772077975692993,2.6869220971774772,0.0
774640.0783812654,4100767.5119837918,-12500.0,-0.27562278910105603,-0.57058630634075302,-2.468076638533431,0.12564581507634134,0.52106612742545677,-0.078092984289803144,1.3736901182858612,-1.8343094803797444,0.031938972910740437,-0.031938972910740437,1.8343094803797444,2.667872453014855,0.0
779640.0783812654,4100767.5119837918,-12500.0,-0.39706173632534281,-0.7205469969474132,-2.3181041097820612,0.16409827735720345,0.4941434501595231,-0.075426901046771716,1.3462198149342417,-1.8210902947585261,0.17965743476732166,-0.17965743476732166,1.8210902947585261,2.6043442210203485,0.0
709640.0783812654,4105767.5119837918,-12500.0,-0.32357686664004359,0.22417903547028881,1.5163389884750271,-0.062189289451787901,-0.32989717073444819,0.055469250408710973,0.98357243340420275,1.1239928609390755,0.0087448597870815048,-0.0087448597870815048,-1.1239928609390755,1.8222022458970508,0.0
714640.0783812654,4105767.5119837918,-12500.0,-0.35279144134079393,0.41960948272313281,1.2748177296455321,-0.10397144617584672,-0.2817324790808115,0.048855435367397032,0.94890721650205201,1.1027688789876942,-0.22219643721232818,0.22219643721232818,-1.1027688789876942,1.7191491486081858,0.0
719640.0783812654,4105767.5119837918,-12500.0,-0.34954605491747676,0.59551989157015228,0.95604170590930182,-0.14127705205065696,-0.21799441724691243,0.03991757787833751,0.91296492078893954,1.0178232379331866,-0.44401892817222971,0.44401892817222971,-1.0178232379331866,1.616829152431962,0.0
724640.0783812654,4105767.5119837918,-12500.0,-0.3153475012356618,0.73497100860840237,0.57009618726962563,-0.17065212272336924,-0.14062702212164205,0.028900158245588038,0.88364200556516015,0.86491981200622681,-0.63939022828092373,0.63939022828092373,-0.86491981200622681,1.5378382648083355,0.0
729640.0783812654,4105767.5119837918,-12500.0,-0.2562407536094326,0.82296713596133997,0.1350466305654357,-0.18904831600816605,-0.053125184313472601,0.016270261273193819,0.8690356540896147,0.64648882287763332,-0.79202434291343082,0.79202434291343082,-0.64648882287763332,1.5060701582839133,0.0
734640.0783812654,4105767.5119837918,-12500.0,-0.18226335854891193,0.84899167581303536,-0.32439528860167272,-0.19431890247392242,0.039714160573203428,0.0026870933288491768,0.87464566160781188,0.37232824141785398,-0.88919263040965402,0.88919263040965402,-0.37232824141785398,1.5365764764258945,0.0
739640.0783812654,4105767.5119837918,-12500.0,-0.10597734880622635,0.80900640747574304,-0.77957969025351403,-0.1856111873238159,0.13230098904652024,-0.011065351561987713,0.90083434579995614,0.059016513083405941,-0.9238477117893924,0.9238477117893924,-0.059016513083405941,1.6266593499860604,0.0
744640.0783812654,4105767.5119837918,-12500.0,-0.040354978916070122,0.70636965709206312,-1.2015524757900224,-0.16355194094830516,0.21893955976732135,-0.024172080181425235,0.94252654752399501,-0.27199642217182041,-0.89581540746096244,0.89581540746096244,0.27199642217182041,1.7573726515736205,0.0
749640.0783812654,4105767.5119837918,-12500.0,0.0034801005962964574,0.55138689956555642,-1.5648642232341861,-0.13017023579198483,0.29455594531295365,-0.03588888852862001,0.99141344390235131,-0.59727892801041105,-0.8117279826020446,0.8117279826020446,0.59727892801041105,1.9033430403951364,0.0
754640.0783812654,4105767.5119837918,-12500.0,0.018091589718778962,0.35958478699545171,-1.8507245099217433,-0.088572224693401869,0.35531122291486983,-0.045630872680397207,1.0391004680663494,-0.89465560308071956,-0.68371723382119631,0.68371723382119631,0.89465560308071956,2.0414763217618761,0.0
759640.0783812654,4105767.5119837918,-12500.0,0.00071792521272231438,0.14915002436666555,-2.0488558458813788,-0.042448616429051823,0.39897739004227928,-0.053030056529586124,1.0846806156588358,-1.1460695724106706,-0.52722439034296276,0.52722439034296276,1.1460695724106706,2.1548022537534126,0.0
764640.0783812654,4105767.5119837918,-12500.0,-0.04675051969042162,-0.061830915063563058,-2.1577911379222576,0.0044660719534601124,0.4250231577899567,-0.05795377106854549,1.1339380635590395,-1.3394943299956337,-0.35849455832549848,0.35849455832549848,1.3394943299956337,2.2330316978253411,0.0
769640.0783812654,4105767.5119837918,-12500.0,-0.11866712101979809,-0.25772581217437829,-2.1837535293493082,0.04886661845890624,0.43442936219738504,-0.060485200027069683,1.1628621686772804,-1.4696168451365519,-0.19232226928909157,0.19232226928909157,1.4696168451365519,2.2717253219193556,0.0
729640.0783812654,4110767.5119837918,-12500.0,-0.21362861292462595,0.70099177024737902,0.075517453271749982,-0.15565330786996631,-0.033836732895266924,0.010871096794896323,0.73381010331032059,0.52381014398196113,-0.67948795547860041,0.67948795547860041,-0.52381014398196113,1.2725483784236606,0.0
734640.0783812654,4110767.5119837918,-12500.0,-0.15506928996979438,0.71853428097759287,-0.2985053448594579,-0.15890982385057359,0.038391057121654026,0.00081722301048622664,0.74007338902304909,0.30083958390804322,-0.75718829766494078,0.75718829766494078,-0.30083958390804322,1.3024159889118507,0.0
739640.0783812654,4110767.5119837918,-12500.0,-0.095101837566341607,0.68539598637750621,-0.66832789515036317,-0.15185588607120026,0.11022362631396321,-0.0093192681324908572,0.76238465233309793,0.048421762962667869,-0.78678495890901101,0.78678495890901101,-0.048421762962667869,1.3784233437598117,0.0
744640.0783812654,4110767.5119837918,-12500.0,-0.043116982506074389,0.60410073092619854,-1.0127421352831187,-0.13495162818376988,0.1776690944418883,-0.018995397581995834,0.79683148379257818,-0.21782748963355558,-0.76810037809009046,0.76810037809009046,0.21782748963355558,1.48603213617635,0.0
749640.0783812654,4110767.5119837918,-12500.0,-0.0072473004915144844,0.48200316718927044,-1.3129515372004512,-0.10959302485331655,0.23714768735175579,-0.027713262637437841,0.83724439705467069,-0.48088341406995772,-0.70569764071226804,0.70569764071226804,0.48088341406995772,1.6063281251238144,0.0
709640.0783812654,3920767.5119837918,-17500.0,-0.016106232348289305,-0.21696775357751177,-2.2651890768593717,-0.080130391068672785,-0.69504473169061542,-0.16267022693899338,1.2732197185696981,-0.77600161827881986,-0.77772873067894688,0.77772873067894688,0.77600161827881986,2.521897950805303,0.0
714640.0783812654,3920767.5119837918,-17500.0,0.047839178468595929,-0.0099136892633755764,-2.225055780271207,-0.017549301579098408,-0.68640696115771482,-0.16169710251098243,1.2467233817472165,-0.63863219439081709,-0.94344507587376558,0.94344507587376558,0.63863219439081709,2.4795937805292771,0.0
719640.0783812654,3920767.5119837918,-17500.0,0.083080237009847749,0.2070231977531746,-2.1031768763505201,0.047846183835814397,-0.65518200842293095,-0.15601675497711204,1.2135156587835967,-0.46631455866340532,-1.0890963442177335,1.0890963442177335,0.46631455866340532,2.3952857899239457,0.0
724640.0783812654,3920767.5119837918,-17500.0,0.085440075012077413,0.41767867893361488,-1.89630997915142,0.11158793223184391,-0.60041695182577759,-0.14539119408840945,1.167927809746983,-0.26786950989928682,-1.1990139646759324,1.1990139646759324,0.26786950989928682,2.2727494486667128,0.0
729640.0783812654,3920767.5119837918,-17500.0,0.054852780952928885,0.60445390659019516,-1.6087710959225894,0.16882036640325243,-0.52314864656296267,-0.12998024796923485,1.1103795344125311,-0.055948143215770019,-1.2586092030214509,1.2586092030214509,0.055948143215770019,2.1206044080065345,0.0
734640.0783812654,3920767.5119837918,-17500.0,-0.0041327731370337621,0.75068744422839717,-1.2529140009472428,0.21492186387961529,-0.42653749609994368,-0.11037365914277095,1.0464364933956538,0.15427109232810698,-1.2566889021840704,1.2566889021840704,-0.15427109232810698,1.9527011811706239,0.0
739640.0783812654,3920767.5119837918,-17500.0,-0.082736893227240357,0.84315985170374763,-0.84827864837115652,0.24616250325488581,-0.3156624423253177,-0.087556699048533623,0.98350990178419362,0.34701329483872473,-1.187502834598728,1.187502834598728,-0.34701329483872473,1.7876967080226003,0.0
744640.0783812654,3920767.5119837918,-17500.0,-0.16922639573537926,0.87416660557425707,-0.41943694928697606,0.26025552794434631,-0.19698166835339506,-0.062808933585986923,0.9294518421955783,0.50809549270392129,-1.052010496173903,1.052010496173903,-0.50809549270392129,1.647016297688993,0.0
749640.0783812654,3920767.5119837918,-17500.0,-0.25082803499118855,0.84265937891364118,0.0070840312995708483,0.25667477464227068,-0.077550987203664795,-0.037552851167188879,0.89066459601407821,0.62689426307129148,-0.85801244286155942,0.85801244286155942,-0.62689426307129148,1.550132725898038,0.0
754640.0783812654,3920767.5119837918,-17500.0,-0.31582666278597676,0.75419008964738388,0.40616390532132607,0.23666730805399017,0.035842609574146193,-0.013182392877452962,0.87009968388112535,0.69765582957264372,-0.6190805859072076,0.6190805859072076,-0.69765582957264372,1.5075324282527067,0.0
759640.0783812654,3920767.5119837918,-17500.0,-0.35535092814195607,0.61971479958581921,0.75703468638710392,0.2029702742384393,0.1374560549098649,0.0090941641983497603,0.86628265532517679,0.71989323623542478,-0.35254046765467717,0.35254046765467717,-0.71989323623542478,1.5156619342655429,0.0
764640.0783812654,3920767.5119837918,-17500.0,-0.36446711803727749,0.45360536947038393,1.0452596997968084,0.15931454594648781,0.22313173526176003,0.028368287736076594,0.87416832073805839,0.69786764620454345,-0.076989056269673728,0.076989056269673728,-0.69786764620454345,1.5590506507379969,0.0
699640.0783812654,3925767.5119837918,-17500.0,-0.27267832020285687,-0.71062252066370668,-2.432485555592705,-0.24784536481175495,-0.7870633892518446,-0.1945604643645448,1.4777905980149184,-1.0792931204014427,-0.45363666391872082,0.45363666391872082,1.0792931204014427,2.8977975455502372,0.0
704640.0783812654,3925767.5119837918,-17500.0,-0.14683953151589696,-0.53819307016580031,-2.5691633466451069,-0.19175552287027431,-0.83025105919494224,-0.20519366563962996,1.5048492972036693,-1.0240071457207656,-0.65187891756412464,0.65187891756412464,1.0240071457207656,2.962586979207952,0.0
709640.0783812654,3925767.5119837918,-17500.0,-0.034060473701046999,-0.32176836984391727,-2.6359215248600019,-0.12262842788395932,-0.85301245831995298,-0.21137962932642093,1.5058882949519257,-0.91834676083667321,-0.86348464089387622,0.86348464089387622,0.91834676083667321,2.9796596811486178,0.0
714640.0783812654,3925767.5119837918,-17500.0,0.05346495657883571,-0.071396762201361569,-2.6135374809572252,-0.043476073938125588,-0.84987214013856027,-0.21190356801298335,1.4814963808483703,-0.76136009629516777,-1.073101224224148,1.073101224224148,0.76136009629516777,2.9433645573493652,0.0
719640.0783812654,3925767.5119837918,-17500.0,0.10509115213035564,0.19663119770146023,-2.4874922021645673,0.040943660510239802,-0.81666632261734851,-0.20581789663683103,1.4445019863753008,-0.55771658431166571,-1.2612897392646376,1.2612897392646376,0.55771658431166571,2.8520076336271352,0.0
724640.0783812654,3925767.5119837918,-17500.0,0.11397465819331902,0.46089484910427664,-2.2512526290279258,0.12444253356403082,-0.75143756074912094,-0.19263342348425924,1.3914848245193261,-0.3183064286302939,-1.4065383968995826,1.4065383968995826,0.3183064286302939,2.7093940422325868,0.0
729640.0783812654,3925767.5119837918,-17500.0,0.078995286364544434,0.69730337594257219,-1.9088411725247809,0.20007943423597818,-0.65513867571272988,-0.17247352657497725,1.322187111438514,-0.059712668183434237,-1.4882883390997375,1.4882883390997375,0.059712668183434237,2.5261161620351591,0.0
734640.0783812654,3925767.5119837918,-17500.0,0.0057278349969552998,0.88259922860512596,-1.475872749047803,0.26111850875405401,-0.53192942298428858,-0.14614584904433617,1.243691068979351,0.19758885579793994,-1.4904565991768506,1.4904565991768506,-0.19758885579793994,2.3202433757094414,0.0
739640.0783812654,3925767.5119837918,-17500.0,-0.09398117352566529,0.99819340162280845,-0.97850706701000734,0.30208034683374368,-0.38891826476780678,-0.11509944905016249,1.1659254133443597,0.43207829273281839,-1.4046435016727012,1.4046435016727012,-0.43207829273281839,2.1168024081731809,0.0
744640.0783812654,3925767.5119837918,-17500.0,-0.20389111399545218,1.0333899177876342,-0.45029573368652132,0.31963780208754866,-0.23533899210435894,-0.081262762945931918,1.0995301415036143,0.6244980164626508,-1.2321494217420907,1.2321494217420907,-0.6244980164626508,1.9448165993299957,0.0
749640.0783812654,3925767.5119837918,-17500.0,-0.30629062381450273,0.9871424129572085,0.072472621738380108,0.3131277104395766,-0.081314081905118019,-0.046791370406191628,1.053034484716961,0.76081986723926154,-0.98418126578721543,0.98418126578721543,-0.76081986723926154,1.8302584348999165,0.0
754640.0783812654,3925767.5119837918,-17500.0,-0.38520581834145357,0.8678905123084345,0.55586328494332171,0.28455237569348402,0.063520053911781657,-0.013780663663429456,1.0299372998908507,0.83414419386141003,-0.6801357493404292,0.6801357493404292,-0.83414419386141003,1.7857063993794786,0.0
759640.0783812654,3925767.5119837918,-17500.0,-0.42905625448537343,0.69159523430072223,0.97265096310301691,0.23809220819132063,0.19121768426780089,0.015992860859240465,1.0275025777327578,0.84512692345127793,-0.34440968104332631,0.34440968104332631,-0.84512692345127793,1.8037991831701854,0.0
764640.0783812654,3925767.5119837918,-17500.0,-0.43214714740989002,0.47859493940543529,1.3050557976842261,0.17928376366583498,0.29631798761129291,0.041250325303083271,1.038359746015298,0.80097749156429543,-0.0025770756422952568,0.0025770756422952568,-0.80097749156429543,1.86187866333434,0.0
769640.0783812654,3925767.5119837918,-17500.0,-0.39479830454861042,0.25014692077864548,1.5455133372969483,0.11408687813405792,0.37612411108456761,0.061284466755666803,1.0537137376246233,0.71345418799552851,0.32214943973045629,-0.32214943973045629,-0.71345418799552851,1.9336633587532324,0.0
774640.0783812654,3925767.5119837918,-17500.0,-0.32232082070436124,0.025449462736017194,1.695685497929482,0.048053421551633883,0.43050645047116615,0.075933820247385139,1.0660359281029861,0.59646850403564866,0.61147787000661691,-0.61147787000661691,-0.59646850403564866,1.9980374646989993,0.0
689640.0783812654,3930767.5119837918,-17500.0,-0.67212160661619291,-1.1071528728908462,-2.2298638724168383,-0.40785317366626334,-0.77419699739976089,-0.20570426861485375,1.5667150513374237,-1.1915931246052271,-0.088095276027207903,0.088095276027207903,1.1915931246052271,3.0569923386828441,0.0
694640.0783812654,3930767.5119837918,-17500.0,-0.53134654322960007,-1.0381382150405716,-2.5084873292141068,-0.38093540732516462,-0.86513508606444123,-0.22845204116272305,1.6585334654773027,-1.2420507300179222,-0.25097234218121606,0.25097234218121606,1.2420507300179222,3.242468227529252,0.0
699640.0783812654,3930767.5119837918,-17500.0,-0.37447107759648085,-0.90979204560574223,-2.7599340854893279,-0.33506229229868961,-0.94732701282444132,-0.24921438471402654,1.7312355506063057,-1.2492844339140057,-0.45428416493928991,0.45428416493928991,1.2492844339140057,3.3936954097390006,0.0
704640.0783812654,3930767.5119837918,-17500.0,-0.2136318276952765,-0.71792029048548212,-2.9584768284608818,-0.26917994876924045,-1.0129789330726096,-0.26618976372027647,1.7779060329156275,-1.2015949661852916,-0.69293034033405254,0.69293034033405254,1.2015949661852916,3.497807048479896,0.0
709640.0783812654,3930767.5119837918,-17500.0,-0.064425089285178802,-0.46493559078266894,-3.0755665271764361,-0.18423439576239553,-1.0535067173681385,-0.27738543421380152,1.7924451051166408,-1.090190242968047,-0.95508405408519192,0.95508405408519192,1.090190242968047,3.5427422439898475,0.0
714640.0783812654,3930767.5119837918,-17500.0,0.055933669180103937,-0.16180910388156985,-3.0832877688480669,-0.083713685112245653,-1.0605425752819708,-0.28084007619609552,1.7735631422494302,-0.91170059750590826,-1.2215346149670114,1.2215346149670114,0.91170059750590826,3.5191962995518726,0.0
719640.0783812654,3930767.5119837918,-17500.0,0.13151637239572214,0.17116379498232062,-2.9590555499493405,0.026155091471980443,-1.0272870762028579,-0.27492508781975405,1.733524023020357,-0.67045595465254859,-1.4664687942993155,1.4664687942993155,0.67045595465254859,3.422950848919553,0.0
724640.0783812654,3930767.5119837918,-17500.0,0.15118512469492962,0.50549395438457478,-2.690776270105625,0.13674789195036335,-0.94998744627513854,-0.25867798668342346,1.6719337899477749,-0.37977342519525015,-1.6601030925288529,1.6601030925288529,0.37977342519525015,3.2573022604255017,0.0
729640.0783812654,3930767.5119837918,-17500.0,0.11180493820785349,0.80785442038981958,-2.2812016244312847,0.23801251356960829,-0.82918883132131305,-0.23209088792257002,1.5879815993454578,-0.061538846703817263,-1.7730914982301749,1.7730914982301749,0.061538846703817263,3.0351768147359879,0.0
734640.0783812654,3930767.5119837918,-17500.0,0.020087335505862038,1.0453069951373251,-1.7500354136684995,0.31996418580615521,-0.67035949787392746,-0.19626590519649526,1.4907099834934272,0.25627460597402751,-1.7819611283322618,1.7819611283322618,-0.25627460597402751,2.7803683983775214,0.0
739640.0783812654,3930767.5119837918,-17500.0,-0.10778962261327295,1.1912793642360566,-1.1327256633562657,0.37439948791331595,-0.48359114235025374,-0.15336916751956206,1.3936002872549709,0.54387273822837279,-1.6742343624266438,1.6742343624266438,-0.54387273822837279,2.5269350889416979,0.0
744640.0783812654,3930767.5119837918,-17500.0,-0.24898113510217171,1.2306875591538726,-0.47578235006658914,0.39638601897186299,-0.28232108476378898,-0.10636696505348085,1.3112933027536227,0.77473407330001798,-1.4517106351228457,1.4517106351228457,-0.77473407330001798,2.3148173744877245,0.0
749640.0783812654,3930767.5119837918,-17500.0,-0.37853645174350808,1.162696189940803,0.17040833745792172,0.38510706145249762,-0.081330995687335067,-0.058594600266131829,1.255289188475724,0.9301726559786121,-1.130796197251299,1.130796197251299,-0.9301726559786121,2.1790884761594707,0.0
754640.0783812654,3930767.5119837918,-17500.0,-0.47440565132061502,1.0003270670519366,0.75944581946016787,0.34383009572542322,0.10548378418671477,-0.013262532619173432,1.2296191376193981,1.0021227903090943,-0.73968372246580749,0.73968372246580749,-1.0021227903090943,2.1344931309826882,0.0
759640.0783812654,3930767.5119837918,-17500.0,-0.52144737870341462,0.76716597971637301,1.2554486349784635,0.27904852898735011,0.2670203840780076,0.026979057319759223,1.2294382062118241,0.99349882203442241,-0.31320457380350175,0.31320457380350175,-0.99349882203442241,2.1672030531614594,0.0
764640.0783812654,3930767.5119837918,-17500.0,-0.51343797844859651,0.49230591497507975,1.6368192979123493,0.19909319579883181,0.39613658118388412,0.060322982462205015,1.243949955073187,0.91629375447756745,0.11315177502534757,-0.11315177502534757,-0.91629375447756745,2.2440714182424935,0.0
769640.0783812654,3930767.5119837918,-17500.0,-0.45285222586869256,0.20503508110500293,1.8968003827441382,0.11262329036922572,0.48993246553704395,0.08589622212537569,1.2612871957522431,0.7882340731109525,0.50849466240992536,-0.50849466240992536,-0.7882340731109525,2.3301324442132727,0.0
774640.0783812654,3930767.5119837918,-17500.0,-0.3489025490785963,-0.069439156799600332,2.0413485066058668,0.027361590952293569,0.54926306640530398,0.10367874982671377,1.2720774211648234,0.62906192315158027,0.8499917608125479,-0.8499917608125479,-0.62906192315158027,2.3996099936548769,0.0
779640.0783812654,3930767.5119837918,-17500.0,-0.2147099135099482,-0.31253043201502634,2.0854268376815552,-0.050712490170203121,0.57776730191942793,0.11430798057512831,1.2706878502126482,0.45735901355123065,1.1241840512037173,-1.1241840512037173,-0.45735901355123065,2.438089815226526,0.0
784640.0783812654,3930767.5119837918,-17500.0,-0.064476344425014792,-0.51302233514034867,2.0488981395236907,-0.11767300448935161,0.58073586375128583,0.1188378885481962,1.2549091182632954,0.28842887129190908,1.3264485683442557,-1.3264485683442557,-0.28842887129190908,2.4403735743246115,0.0
684640.0783812654,3935767.5119837918,-17500.0,-1.0023735035382062,-1.3274721619330889,-2.0764734413932722,-0.52663416964881338,-0.77963390514787889,-0.22438831885217966,1.6648482310713573,-1.2131424512443147,0.1031523886590664,-0.1031523886590664,1.2131424512443147,3.246020672890122,0.0
689640.0783812654,3935767.5119837918,-17500.0,-0.87400146065408901,-1.3373083544209103,-2.4289255093090238,-0.52466032067580926,-0.90235948970040225,-0.25704378675040401,1.8034737008714314,-1.3276455514876337,-0.02464312737039509,0.02464312737039509,1.3276455514876337,3.5201551243195346,0.0
694640.0783812654,3935767.5119837918,-17500.0,-0.70968987741070755,-1.2867335955347401,-2.7861044698120692,-0.50173349102560405,-1.026070041661469,-0.29001265329851406,1.9301279709811467,-1.409984180107466,-0.20425517856881725,0.20425517856881725,1.409984180107466,3.7735618666042683,0.0
699640.0783812654,3935767.5119837918,-17500.0,-0.51766295103532967,-1.1618573202891049,-3.122696070012835,-0.4536243750189996,-1.1425084070817493,-0.32126683612832985,2.0360141255983346,-1.4432638946501273,-0.43882779338126177,0.43882779338126177,1.4432638946501273,3.9899155715893513,0.0
704640.0783812654,3935767.5119837918,-17500.0,-0.31248940297304167,-0.95336543288636599,-3.4054665466739169,-0.37764889159826465,-1.2409940764996203,-0.34818290108394678,2.1114812491776944,-1.410402015560102,-0.72492076604402633,0.72492076604402633,1.410402015560102,4.1511630128185892,0.0
709640.0783812654,3935767.5119837918,-17500.0,-0.11465774439501211,-0.66028167168122209,-3.5953329680483068,-0.27380338554914319,-1.30908995853753,-0.36769563824594242,2.1474266128350501,-1.2971625619687654,-1.0498546134293303,1.0498546134293303,1.2971625619687654,4.239381506638253,0.0
714640.0783812654,3935767.5119837918,-17500.0,0.051603811418615378,-0.29349893439146379,-3.6518446980129542,-0.14580818071001669,-1.3339881933669053,-0.37662198165721977,2.1396359747989613,-1.0959822092492475,-1.3900016702181732,1.3900016702181732,1.0959822092492475,4.2395488518330646,0.0
719640.0783812654,3935767.5119837918,-17500.0,0.16241753358754446,0.12217297763038734,-3.5399983391135783,-0.001691342548255026,-1.3045831458322721,-0.37215010933079107,2.098582719251787,-0.80978895684706964,-1.711123012949662,1.711123012949662,0.80978895684706964,4.1430728906921441,0.0
724640.0783812654,3935767.5119837918,-17500.0,0.19969940315333784,0.54879731446278479,-3.2383649231301135,0.14647841297259073,-1.213925958084715,-0.35242528096287512,2.027341961184713,-0.45457514246865149,-1.9716652513804813,1.9716652513804813,0.45457514246865149,3.9516629090769015,0.0
729640.0783812654,3935767.5119837918,-17500.0,0.15657062358856522,0.93978974856305808,-2.7465052412630944,0.2839512987835921,-1.0614675188865264,-0.31709623452075802,1.9250315284141497,-0.059396776129553963,-2.1291822668613793,2.1291822668613793,0.059396776129553963,3.6808637792652341,0.0
734640.0783812654,3935767.5119837918,-17500.0,0.040835585830924045,1.2477815926585101,-2.0891225799868987,0.39565698299674473,-0.85434600934904359,-0.26764834378799524,1.8032681641775326,0.33701548465984232,-2.1488388169628925,2.1488388169628925,-0.33701548465984232,3.3622994546349014,0.0
739640.0783812654,3935767.5119837918,-17500.0,-0.12513302892473757,1.4341088964782338,-1.3148689370250148,0.46905854980645001,-0.60710651053490217,-0.2073758648664123,1.6806298336122452,0.69274509400416495,-2.0117600357026748,2.0117600357026748,-0.69274509400416495,3.0430537056874871,0.0
744640.0783812654,3935767.5119837918,-17500.0,-0.30862988594378793,1.4771367932393009,-0.48928539938967691,0.49669346647887247,-0.33968401421166133,-0.14094445267147646,1.5776041562723557,0.97070532122896891,-1.7204988240390859,1.7204988240390859,-0.97070532122896891,2.7790495357946434,0.0
749640.0783812654,3935767.5119837918,-17500.0,-0.47389735413187722,1.376695555767607,0.31653640261798605,0.47760426023076086,-0.074083966438109994,-0.073633687210193186,1.5098896018692414,1.1458054225890182,-1.2995715194780191,1.2995715194780191,-1.1458054225890182,2.6182569322287832,0.0
754640.0783812654,3935767.5119837918,-17500.0,-0.5901134781316375,1.1532114214148996,1.0383543949055223,0.41722176888302193,0.1693263463174747,-0.010464288420039377,1.4818729244858713,1.2090770839919431,-0.79070395338401744,0.79070395338401744,-1.2090770839919431,2.5771858118841089,0.0
759640.0783812654,3935767.5119837918,-17500.0,-0.63752652441459579,0.84206355449080572,1.6287184812236399,0.3258159238508026,0.37489082118793288,0.044551885426658333,1.4851824632306414,1.1677137364019434,-0.24433858167035616,0.24433858167035616,-1.1677137364019434,2.6310931406047993,0.0
764640.0783812654,3935767.5119837918,-17500.0,-0.61008053060646317,0.48530652209662573,2.0620767455991391,0.21610038503036269,0.53337697525404826,0.088861888859057311,1.5039661629819161,1.0414857824991524,0.28986974392232578,-0.28986974392232578,-1.0414857824991524,2.7315562096131529,0.0
769640.0783812654,3935767.5119837918,-17500.0,-0.51435095092415961,0.12343825034617836,2.3345741246287144,0.10075881399079703,0.6421359263887122,0.12146357980648362,1.5222844380550944,0.85711938637842433,0.77088838651970093,-0.77088838651970093,-0.85711938637842433,2.8323894344203637,0.0
774640.0783812654,3935767.5119837918,-17500.0,-0.36586969537485159,-0.21068799743856451,2.4597741910984112,-0.0094770020139084404,0.70401490488810503,0.14269710079616915,1.5286968460264221,0.64252786325111488,1.1708387700590457,-1.1708387700590457,-0.64252786325111488,2.9027958242488912,0.0
779640.0783812654,3935767.5119837918,-17500.0,-0.18445964124509578,-0.49489655684914713,2.4623715796210002,-0.10689036718164713,0.7255941180282498,0.1538609544829258,1.5172861834528943,0.4223304148683118,1.4759678510105423,-1.4759678510105423,-0.4223304148683118,2.9280033729307782,0.0
784640.0783812654,3935767.5119837918,-17500.0,0.0099915245351174624,-0.71789195168318132,2.3718745785960595,-0.18700469951904389,0.71532482101442851,0.15678546254315306,1.4866910715038373,0.21529388952044315,1.684864576713279,-1.684864576713279,-0.21529388952044315,2.9050675622358861,0.0
789640.0783812654,3935767.5119837918,-17500.0,0.20049062254146446,-0.87752865221065601,2.2175572439576774,-0.24819997340616023,0.68197154375080438,0.15346129689401428,1.4385711573006672,0.033603638584673079,1.8051759229923219,-1.8051759229923219,-0.033603638584673079,2.8382856871533266,0.0
794640.0783812654,3935767.5119837918,-17500.0,0.37443585056610945,-0.97819233314626131,2.0251937537681814,-0.29101271451443478,0.633541769671633,0.14577204159972049,1.3762128239502454,-0.11654934509977366,1.8499913938235772,-1.8499913938235772,0.11654934509977366,2.7356039234516802,0.0
674640.0783812654,3940767.5119837918,-17500.0,-1.3933843849703411,-1.3251013152513207,-1.4528991644953444,-0.58761830983579622,-0.60942846872004197,-0.1961744603940711,1.5315573850862811,-0.97070263741958984,0.29471135648301539,-0.29471135648301539,0.97070263741958984,2.9876212601092313,0.0
679640.0783812654,3940767.5119837918,-17500.0,-1.3571235929857244,-1.4537960170184763,-1.7949868366742299,-0.63085916727355873,-0.7397645936664865,-0.23376774439246201,1.7096477494164419,-1.139295071247618,0.26124935976557206,-0.26124935976557206,1.139295071247618,3.3349366147869817,0.0
684640.0783812654,3940767.5119837918,-17500.0,-1.2739595623988786,-1.553617120406841,-2.1857988296757056,-0.66206580565012885,-0.88685592407100644,-0.27592053704781627,1.8936302343159981,-1.3084605086109504,0.18708097553145209,-0.18708097553145209,1.3084605086109504,3.6950366808379784,0.0
689640.0783812654,3940767.5119837918,-17500.0,-1.1388365003239103,-1.6055419873162515,-2.6167004531217195,-0.67467128977237911,-1.0473734152490093,-0.32174529040823274,2.0769155376413164,-1.4646686043038457,0.05943914659516325,-0.05943914659516325,1.4646686043038457,4.0557467910767935,0.0
694640.0783812654,3940767.5119837918,-17500.0,-0.95160512108380502,-1.5878633130002464,-3.0697676574960782,-0.66137379269375307,-1.2148434762246503,-0.36953576947390243,2.2504261400882219,-1.5895442916541689,-0.13362527956231451,0.13362527956231451,1.5895442916541689,4.4002323067535212,0.0
699640.0783812654,3940767.5119837918,-17500.0,-0.71948824067385198,-1.4787994493282697,-3.5154953021783975,-0.61503625027537701,-1.3789468828973666,-0.41658492306055617,2.4026317551619538,-1.6605512814993206,-0.4002514494429269,0.4002514494429269,1.6605512814993206,4.7070331889440311,0.0
704640.0783812654,3940767.5119837918,-17500.0,-0.45904416655592645,-1.2608063108110996,-3.9118341309766129,-0.53011107475603525,-1.525267644345913,-0.45911496622398973,2.5201604109110489,-1.653185795338056,-0.74070458623282331,0.74070458623282331,1.653185795338056,4.9510392002668793,0.0
709640.0783812654,3940767.5119837918,-17500.0,-0.19659530204119088,-0.92634265329929921,-4.2058402911016302,-0.4044941234816668,-1.6358899696752416,-0.4924197042013414,2.5895047143200505,-1.5450251825104226,-1.1428511207626109,1.1428511207626109,1.5450251825104226,5.1057919618437078,0.0
714640.0783812654,3940767.5119837918,-17500.0,0.034003390529706787,-0.48401866912615665,-4.3391398361419897,-0.24146028660385807,-1.6912061236969649,-0.5113117754665909,2.6018806529633327,-1.3214456665651264,-1.5784907275786897,1.5784907275786897,1.3214456665651264,5.1473561049698908,0.0
719640.0783812654,3940767.5119837918,-17500.0,0.19693042737891023,0.036869543761044038,-4.2576309054382104,-0.051056985767702831,-1.6730497450668533,-0.5109073338318878,2.5641477737607765,-0.98195139791969344,-2.0024597904387393,2.0024597904387393,0.98195139791969344,5.0596668989757791,0.0
724640.0783812654,3940767.5119837918,-17500.0,0.26281577460217981,0.58593820042450995,-3.9242614412190902,0.14981524151425443,-1.5687806398762603,-0.48766132218323399,2.4825991264450722,-0.54511520425811821,-2.3564161023745802,2.3564161023745802,0.54511520425811821,4.8407694185093062,0.0
729640.0783812654,3940767.5119837918,-17500.0,0.21791702238257205,1.0974315811309066,-3.3317270339235372,0.33923382359103216,-1.3753419889952689,-0.44041564130653016,2.3572258693001622,-0.049681293448965658,-2.5781361217861485,2.5781361217861485,0.049681293448965658,4.508828222818928,0.0
734640.0783812654,3940767.5119837918,-17500.0,0.070688390714153657,1.5021202567475525,-2.5105465940960032,0.49401190338145828,-1.1018912310753812,-0.37111385046349382,2.2031406367034685,0.44996246108311255,-2.6149949452985783,2.6149949452985783,-0.44996246108311255,4.1062513075098526,0.0
739640.0783812654,3940767.5119837918,-17500.0,-0.14752641044287862,1.7426581713298079,-1.5283977590363813,0.59455686051208501,-0.76972922420286538,-0.28485709820483118,2.0463712253152591,0.89381007071032104,-2.4378750435874745,2.4378750435874745,-0.89381007071032104,3.6992627252445764,0.0
744640.0783812654,3940767.5119837918,-17500.0,-0.38899376138869618,1.7874464277416888,-0.47930801481939156,0.62932586081664299,-0.40906140855631756,-0.18916571737652252,1.9161217184590231,1.2291448760380159,-2.0505100410202752,2.0505100410202752,-1.2291448760380159,3.3676662918827911,0.0
749640.0783812654,3940767.5119837918,-17500.0,-0.6015074328883433,1.6379375183436369,0.53467071364242846,0.59731761134741967,-0.053341116585453513,-0.092607739103602121,1.8340859390896522,1.422054595501048,-1.4903684275580129,1.4903684275580129,-1.422054595501048,3.1779077583781636,0.0
754640.0783812654,3940767.5119837918,-17500.0,-0.741440521728571,1.3267597955379289,1.4234697001009831,0.50774647202552647,0.26706095964991228,-0.003208962395225055,1.8044580378477386,1.4635958746834805,-0.82041339700919824,0.82041339700919824,-1.4635958746834805,3.1467246190504099,0.0
759640.0783812654,3940767.5119837918,-17500.0,-0.78326258633365753,0.90781646754635381,2.124342192942585,0.37716979945156071,0.52990551220334647,0.072870432454426509,1.8129523568006922,1.3689022744370369,-0.11475910720585614,0.11475910720585614,-1.3689022744370369,3.2310053831424201,0.0
764640.0783812654,3940767.5119837918,-17500.0,-0.72275227820049481,0.44249209653916022,2.6085632057152486,0.22526445408016849,0.72355818933899618,0.13205212957308585,1.8362668284371679,1.1704210706639226,0.55666512504518773,-0.55666512504518773,-1.1704210706639226,3.360203806167704,0.0
769640.0783812654,3940767.5119837918,-17500.0,-0.57403315112218123,-0.013184146468583813,2.8792465541753165,0.070724347752567196,0.84669808593494345,0.17337122075974215,1.8531891809546139,0.90840859307334632,1.1397630983183877,-1.1397630983183877,-0.90840859307334632,3.4740434482724019,0.0
774640.0783812654,3940767.5119837918,-17500.0,-0.36278006864499751,-0.41703382808558809,2.9630413490164824,-0.071631847519665434,0.90600933359816493,0.19798145423200267,1.8502038702927022,0.62202704714304025,1.6018384971549766,-1.6018384971549766,-0.62202704714304025,3.5369835521912916,0.0
779640.0783812654,3940767.5119837918,-17500.0,-0.11859578257205888,-0.7438834737580684,2.899587904422277,-0.1921465954443751,0.91300454537657738,0.20840540141157202,1.8217920013023978,0.34322893506298269,1.9312969646024654,-1.9312969646024654,-0.34322893506298269,3.5356744212790248,0.0
784640.0783812654,3940767.5119837918,-17500.0,0.13115509457286503,-0.98434405268956837,2.7319668990856711,-0.28621563140581496,0.88099500170853928,0.20778266892021013,1.7683409083945987,0.094031819370977932,2.1333966919037368,-2.1333966919037368,-0.094031819370977932,3.4715723112179449,0.0
789640.0783812654,3940767.5119837918,-17500.0,0.36503588469167925,-1.1410776806413383,2.4998990475054219,-0.35330923635703981,0.82280872120673521,0.1992766177463523,1.6937055025577834,-0.11340856117804488,2.2243885475091281,-2.2243885475091281,0.11340856117804488,3.354204802297343,0.0
794640.0783812654,3940767.5119837918,-17500.0,0.56883029323490075,-1.2243395108501738,2.2360289142404701,-0.39566469946908089,0.74942743915993215,0.18569635418090583,1.6032468420881283,-0.27503282961819342,2.2258937459390236,-2.2258937459390236,0.27503282961819342,3.1963574688058589,0.0
799640.0783812654,3940767.5119837918,-17500.0,0.73511084692275719,-1.248000742310085,1.9647406910083662,-0.41704245834162462,0.66942459780737762,0.16931655526693073,1.5085299571194035,-0.39247669901656157,2.1605380711477871,-2.1605380711477871,0.39247669901656157,3.0110644216982063,0.0
669640.0783812654,3945767.5119837918,-17500.0,-1.6496595014003403,-1.2681977237865942,-1.1020473166034546,-0.63268005290838736,-0.52282179436195875,-0.18972257710594154,1.4887727946011922,-0.78930314945326008,0.34105517526553503,-0.34105517526553503,0.78930314945326008,2.9116442284307773,0.0
674640.0783812654,3945767.5119837918,-17500.0,-1.6875181300193396,-1.4562351136648874,-1.4189313812806807,-0.70501810280797539,-0.6559591185589031,-0.23182429951830996,1.6927892537431461,-0.97244357991186559,0.35630674669741885,-0.35630674669741885,0.97244357991186559,3.308181386653084,0.0
679640.0783812654,3945767.5119837918,-17500.0,-1.6806622805363587,-1.6388170786174754,-1.8030622607074078,-0.77293331267575993,-0.81460973016460825,-0.28143822657054185,1.9143458641120246,-1.1742176828802531,0.34283104449990742,-0.34283104449990742,1.1742176828802531,3.7395566196109358,0.0
684640.0783812654,3945767.5119837918,-17500.0,-1.6165097165398041,-1.7983429268962976,-2.2569512798766658,-0.82961612893894543,-0.99922095935405686,-0.33866939168561488,2.1492093715825327,-1.3859604038928937,0.28548192289050733,-0.28548192289050733,1.3859604038928937,4.1980533031865379,0.0
689640.0783812654,3945767.5119837918,-17500.0,-1.4844356718181773,-1.9108591898312062,-2.7756859734898276,-0.8661218545413033,-1.2074332217711716,-0.40283235733093958,2.3901548473026977,-1.5928839339831096,0.16632771164910876,-0.16632771164910876,1.5928839339831096,4.6703477775789954,0.0
694640.0783812654,3945767.5119837918,-17500.0,-1.2790056564901111,-1.9466872512428972,-3.3427760988909596,-0.8716864898134743,-1.4326502443159952,-0.47205625548366265,2.6263202913508348,-1.7729547608949314,-0.033451632696524958,0.033451632696524958,1.7729547608949314,5.1362846530019315,0.0
699640.0783812654,3945767.5119837918,-17500.0,-1.0040155974564646,-1.8731004147502082,-3.9258032393575619,-0.83474931683250131,-1.6625860866300426,-0.54288219799008963,2.8428973329270129,-1.8968959492984561,-0.32983432817950042,0.32983432817950042,1.8968959492984561,5.5682432730381555,0.0
704640.0783812654,3945767.5119837918,-17500.0,-0.67648527694589844,-1.6598221982953736,-4.4732368566933634,-0.7449154584302129,-1.8782589793824769,-0.60997904327928842,3.0215728778698003,-1.9302817727644075,-0.73014390275543717,0.73014390275543717,1.9302817727644075,5.9317408891950096,0.0
709640.0783812654,3945767.5119837918,-17500.0,-0.32899487804167432,-1.2875162329842629,-4.9145537251202889,-0.59588130975451392,-2.0541450614478256,-0.66616900617343267,3.1424666105551391,-1.838626454490299,-1.225670297075024,1.225670297075024,1.838626454490299,6.1880334584899792,0.0
714640.0783812654,3945767.5119837918,-17500.0,-0.0082162430729553863,-0.75812136474134972,-5.1661380652613413,-0.38891172410821179,-2.1602974014081697,-0.7029809877573705,3.18967959999893,-1.5957025221057139,-1.7845135362447961,1.7845135362447961,1.5957025221057139,6.2993625806457336,0.0
719640.0783812654,3945767.5119837918,-17500.0,0.23219944645830601,-0.10402950071679523,-5.1446298794756666,-0.13586513120999466,-2.1669503744569294,-0.71187774287737215,3.1636279593311802,-1.1938841077895677,-2.3478475353116814,2.3478475353116814,1.1938841077895677,6.2370104706384364,0.0
724640.0783812654,3945767.5119837918,-17500.0,0.34447642068081602,0.60844732014074987,-4.7868762007719834,0.13971645900082835,-2.0513016759496763,-0.68608742891258456,3.0723248451305571,-0.65339761081398318,-2.8334265636786418,2.8334265636786418,0.65339761081398318,5.9914403319036831,0.0
729640.0783812654,3945767.5119837918,-17500.0,0.30235193099666163,1.2856940731550803,-4.0717747295514872,0.40485630954217755,-1.8049155852564687,-0.62264001145528303,2.9179844469027394,-0.025996966773762953,-3.1488132487845841,3.1488132487845841,0.025996966773762953,5.5826943918612981,0.0
734640.0783812654,3945767.5119837918,-17500.0,0.11355288794287328,1.8248134727046004,-3.0359156679475845,0.6231489856951119,-1.4391052776055517,-0.52391312567434467,2.7207235340260705,0.6108037184120545,-3.2129982900152805,3.2129982900152805,-0.6108037184120545,5.0681046302766042,0.0
739640.0783812654,3945767.5119837918,-17500.0,-0.17742447423936752,2.1389749755920304,-1.7747725513184662,0.76322342939809162,-0.98559127021416992,-0.39795496853014328,2.5177007259508501,1.1694647529596338,-2.9801033580538281,2.9801033580538281,-1.1694647529596338,4.5426019989878297,0.0
744640.0783812654,3945767.5119837918,-17500.0,-0.49942255742917158,2.1811247928801549,-0.42589922665668017,0.80679260545400355,-0.49121275152292049,-0.25721749738409316,2.351400341458469,1.5737318487672103,-2.4557966574698349,2.4557966574698349,-1.5737318487672103,4.1224737914638441,0.0
749640.0783812654,3945767.5119837918,-17500.0,-0.77467533228373731,1.9563298758825769,0.86147487837463776,0.75312720896009089,-0.0079975238670382618,-0.11598940916066211,2.2521454816514348,1.7776009245970079,-1.6987690918605369,1.6987690918605369,-1.7776009245970079,3.9008484916600761,0.0
754640.0783812654,3945767.5119837918,-17500.0,-0.94069091953096517,1.517754823094891,1.9595230120036586,0.61822347226191621,0.41795714960794117,0.012597193263863432,2.2225693682862735,1.7745602732588337,-0.80600950566817864,0.80600950566817864,-1.7745602732588337,3.8905865932973231,0.0
759640.0783812654,3945767.5119837918,-17500.0,-0.96518451639813263,0.94884290202023391,2.7857698918232012,0.4293187439506822,0.75493390103961744,0.11896082902562548,2.238432412215432,1.5943369753546572,0.11202753800223475,-0.11202753800223475,-1.5943369753546572,4.0177205271982972,0.0
764640.0783812654,3945767.5119837918,-17500.0,-0.84941391677606382,0.33992633139661688,3.3112512930633886,0.21727769875896949,0.9890345434339215,0.19819540145341472,2.265527769058691,1.2900736564026363,0.95650980858504819,-0.95650980858504819,-1.2900736564026363,4.1800376959938408,0.0
769640.0783812654,3945767.5119837918,-17500.0,-0.62110199943832867,-0.23181930607813547,3.5536790921747947,0.0097311309286112167,1.122620322565471,0.24985792925753547,2.2761008669394776,0.92219257524809062,1.6573326765328276,-1.6573326765328276,-0.92219257524809062,4.30042267004794,0.0
774640.0783812654,3945767.5119837918,-17500.0,-0.32201031949203529,-0.7137433916952437,3.5616996364959199,-0.17316962223934337,1.1695449901291579,0.27683826857516008,2.255076202670939,0.54485174813736492,2.1790221389581883,-2.1790221389581883,-0.54485174813736492,4.3402565504401025,0.0
779640.0783812654,3945767.5119837918,-17500.0,0.0043327607888830741,-1.0798600542435388,3.3974521221302587,-0.3200110449931759,1.149478795349298,0.28389993677074954,2.1986758482166486,0.19810688574978275,2.517136338949018,-2.517136338949018,-0.19810688574978275,4.2909475560131289,0.0
784640.0783812654,3945767.5119837918,-17500.0,0.32126106486107009,-1.3264845449025275,3.1225416857690544,-0.42711930566032108,1.0830721635349891,0.27636937636443626,2.1104854135255158,-0.094142511558319208,2.689389666333744,-2.689389666333744,0.094142511558319208,4.1617370146933004,0.0
789640.0783812654,3945767.5119837918,-17500.0,0.60303012425606295,-1.4650124956589632,2.7894442301199236,-0.49642593666478096,0.98875937632542776,0.25921676536339922,1.9977385621578678,-0.32217443034391691,2.7256788544071902,-2.7256788544071902,0.32217443034391691,3.9700590584582551,0.0
794640.0783812654,3945767.5119837918,-17500.0,0.83515708312668147,-1.5147386594578518,2.4379822145432573,-0.53315738979634641,0.88121610057160871,0.23656314978356949,1.869032845661893,-0.48659153957826162,2.6597451910726635,-2.6597451910726635,0.48659153957826162,3.7353045354807879,0.0
799640.0783812654,3945767.5119837918,-17500.0,1.0125470216771733,-1.4972612878373417,2.095341023998492,-0.54391377038100164,0.7710518237119981,0.21152402938515699,1.7445835667986085,-0.59426391914747434,2.5235269727685474,-2.5235269727685474,0.59426391914747434,3.4753254499351249,0.0
804640.0783812654,3945767.5119837918,-17500.0,1.1367840016976827,-1.4328956362156402,1.7780087618626963,-0.53534337650584563,0.6652381560600148,0.1862669946710932,1.6141269161636378,-0.65498983049444326,2.3441307953916368,-2.3441307953916368,0.65498983049444326,3.2048587381594142,0.0
664640.0783812654,3950767.5119837918,-17500.0,-1.8202887230544229,-1.1072422288257704,-0.73913630114559603,-0.6408154327445843,-0.41378360380163759,-0.17459561695198478,1.3961082393510607,-0.56124308445927595,0.31914342652767608,-0.31914342652767608,0.56124308445927595,2.7425337190693533,0.0
669640.0783812654,3950767.5119837918,-17500.0,-1.9399539488411692,-1.3277498430613452,-1.0003407608892783,-0.73715400105122131,-0.53748015358003387,-0.21822965100196123,1.6135422215577668,-0.73397242196059997,0.37138816130661823,-0.37138816130661823,0.73397242196059997,3.1646570733649964,0.0
674640.0783812654,3950767.5119837918,-17500.0,-2.0285161045169411,-1.5671535279658582,-1.33459825706022,-0.83871599379486517,-0.69204707883499628,-0.27183764553726586,1.85923078361736,-0.93857678464688798,0.4110929509710613,-0.4110929509710613,0.93857678464688798,3.6419063999085695,0.0
679640.0783812654,3950767.5119837918,-17500.0,-2.0692004224199687,-1.8142729951196717,-1.7544191481999645,-0.94037065002175546,-0.88202614023331294,-0.33679279706305737,2.1325070604541869,-1.1732744963312387,0.42499925984382564,-0.42499925984382564,1.1732744963312387,4.1733145901200883,0.0
684640.0783812654,3950767.5119837918,-17500.0,-2.0430566107277737,-2.0501527303003035,-2.2692192900225812,-1.0340108062154352,-1.1105082517897449,-0.4140137018171296,2.4300194577446463,-1.4310172190109114,0.39456085976723276,-0.39456085976723276,1.4310172190109114,4.7528894887433362,0.0
689640.0783812654,3950767.5119837918,-17500.0,-1.9313271363385369,-2.2462325338651925,-2.8810579824229712,-1.1079821312505935,-1.3774834709336552,-0.50346984415009255,2.744548662078917,-1.6969922273538489,0.29583824690980409,-0.29583824690980409,1.6969922273538489,5.3673813333169624,0.0
694640.0783812654,3950767.5119837918,-17500.0,-1.7196511887568295,-2.3636963000241735,-3.5785877250082736,-1.146995115229257,-1.6775711532053919,-0.60350470215267038,3.0637595717042969,-1.9461660698477037,0.10097928373607057,-0.10097928373607057,1.9461660698477037,5.9939121123561963,0.0
699640.0783812654,3950767.5119837918,-17500.0,-1.4041894286106593,-2.3554256532091111,-4.3296670995861657,-1.1330221477464038,-1.9973290909519907,-0.71003384152270499,3.3692205934355739,-2.1418649028140684,-0.21762632458468534,0.21762632458468534,2.1418649028140684,6.5980517071782661,0.0
704640.0783812654,3950767.5119837918,-17500.0,-0.99886103018675454,-2.172263813608851,-5.0742665069484545,-1.0477542594941058,-2.3127616799119886,-0.8157968000397442,3.6363105201717563,-2.2369863461632935,-0.67955623699591583,0.67955623699591583,2.2369863461632935,7.1333484588469638,0.0
709640.0783812654,3950767.5119837918,-17500.0,-0.54144389660679004,-1.774817089160416,-5.7209195434383018,-0.87699402080878297,-2.5882053993220051,-0.91000231945264287,3.8361193439717018,-2.1797526485390462,-1.2848925950317831,1.2848925950317831,2.1797526485390462,7.5437105005677383,0.0
714640.0783812654,3950767.5119837918,-17500.0,-0.094755370427673014,-1.1501578954957932,-6.1513725395594943,-0.61669194737505717,-2.7782263398686249,-0.97884029501477265,3.9417686931136853,-1.9253103990762268,-2.0011366506644395,2.0011366506644395,1.9253103990762268,7.7701219403742181,0.0
719640.0783812654,3950767.5119837918,-17500.0,0.26131715512543208,-0.32936319629853844,-6.2378316966354621,-0.27915350616300949,-2.8340295551323247,-1.007302564396569,3.9427024756223705,-1.4523048998365102,-2.7535227508107498,2.7535227508107498,1.4523048998365102,7.7625881212376733,0.0
724640.0783812654,3950767.5119837918,-17500.0,0.44893446075060051,0.6020241968982174,-5.8736264713954522,0.10334124099633551,-2.7146040617999687,-0.98240168065500333,3.8450519678937032,-0.77987225414761996,-3.4260772971206142,3.4260772971206142,0.77987225414761996,7.4966894824463139,0.0
729640.0783812654,3950767.5119837918,-17500.0,0.41899538657688795,1.5098840475381305,-5.0108737294385675,0.48068124130557627,-2.4003276131224722,-0.89717249664683685,3.6545463933445661,0.023032269183426823,-3.8797295990543108,3.8797295990543108,-0.023032269183426823,6.9918729967365971,0.0
734640.0783812654,3950767.5119837918,-17500.0,0.17502968304238223,2.2386035512457538,-3.6908190903609759,0.79448181918946048,-1.9040520841106727,-0.7540590273206188,3.3988939732246219,0.84422251992536079,-3.9872902089778384,3.9872902089778384,-0.84422251992536079,6.3261489706017198,0.0
739640.0783812654,3950767.5119837918,-17500.0,-0.21896109686186258,2.6537572157150136,-2.0501167271689891,0.99317497349814443,-1.2738419737484334,-0.56600330057715342,3.1323273978903394,1.5533487796724976,-3.6748146413248284,3.6748146413248284,-1.5533487796724976,5.6384902885750492,0.0
744640.0783812654,3950767.5119837918,-17500.0,-0.65440287637618122,2.6838307825857499,-0.29432479250877258,1.04703108631344,-0.58420142510145301,-0.35424214072294741,2.9180503899631551,2.0380529484730561,-2.9513119684159168,2.9513119684159168,-2.0380529484730561,5.1022750418043517,0.0
749640.0783812654,3950767.5119837918,-17500.0,-1.0129318560448197,2.3416716094952643,1.3540101860665281,0.95645848144408907,0.081935448615250844,-0.14332405599399217,2.7988349381768245,2.2360419323410659,-1.9112288084469744,1.9112288084469744,-2.2360419323410659,4.8492450554784279,0.0
754640.0783812654,3950767.5119837918,-17500.0,-1.2041094975336497,1.7157856113075487,2.7114751370216559,0.74993766938423212,0.65334573961652898,0.044731717887105976,2.7726004506325888,2.1488647031348478,-0.70724609358607526,0.70724609358607526,-2.1488647031348478,4.8786295432034947,0.0
759640.0783812654,3950767.5119837918,-17500.0,-1.1890161685791627,0.93739310673809906,3.6714934904633756,0.47321704114350516,1.084896946450461,0.19487482962478114,2.798310025232531,1.8329827286214058,0.49383069944360358,-0.49383069944360358,-1.8329827286214058,5.0648018365719096,0.0
764640.0783812654,3950767.5119837918,-17500.0,-0.98199984768846227,0.14012084528243415,4.2125018138223167,0.17528277655771393,1.3618987150312378,0.30071867349218184,2.8260479292359255,1.3752776835897937,1.5525544806615001,-1.5525544806615001,-1.3752776835897937,5.2612269353856176,0.0
769640.0783812654,3950767.5119837918,-17500.0,-0.63487833588561149,-0.57107472292285877,4.3807599250291576,-0.10314268408058616,1.4953197768103657,0.36357504085783449,2.8205867018259307,0.86567753393145219,2.3811780887810587,-2.3811780887810587,-0.86567753393145219,5.372512756041762,0.0
774640.0783812654,3950767.5119837918,-17500.0,-0.21446385203979493,-1.1338214045970911,4.2610487928548348,-0.33549659364143269,1.5121109318464745,0.38992077287192378,2.7669026401928272,0.37717143932169672,2.9474404378737189,-2.9474404378737189,-0.37717143932169672,5.3613737432210904,0.0
779640.0783812654,3950767.5119837918,-17500.0,0.21668031306547428,-1.5266396013236014,3.9484347055845834,-0.50978731145215428,1.4451978561505778,0.38857608437664615,2.6654086021078807,-0.042981516551085619,3.2634784810659268,-3.2634784810659268,0.042981516551085619,5.2298557779964057,0.0
784640.0783812654,3950767.5119837918,-17500.0,0.61143905846610547,-1.7582579906369054,3.5286274724820563,-0.62553421672341036,1.3260089979398,0.36846547169982341,2.5251254335203384,-0.37263237903679558,3.3686845832484127,-3.3686845832484127,0.37263237903679558,5.0001016370274218,0.0
789640.0783812654,3950767.5119837918,-17500.0,0.94138440365963405,-1.8546849724610202,3.068362104225423,-0.68951329692004204,1.1803538252164287,0.33727196032700768,2.3583783401891703,-0.60888743977928117,3.3135755191431344,-3.3135755191431344,0.60888743977928117,4.7010083958351174,0.0
794640.0783812654,3950767.5119837918,-17500.0,1.1946843354341905,-1.8483208415482113,2.613551383328093,-0.71188908367619208,1.0271049315565921,0.30089318982694502,2.1849375652299239,-0.76087068628105459,3.1481920200347817,-3.1481920200347817,0.76087068628105459,4.3605365196643628,0.0
799640.0783812654,3950767.5119837918,-17500.0,1.3716367899241837,-1.7707017241045451,2.1919266921694436,-0.70343393456318692,0.87865037467105112,0.26343904648593053,2.01235222287464,-0.84345697995008662,2.9155803958539162,-2.9155803958539162,0.84345697995008662,4.0020884937460908,0.0
804640.0783812654,3950767.5119837918,-17500.0,1.4799575233414186,-1.6486832071031003,1.8174129992398182,-0.67389671458733169,0.74216293181205906,0.22750820994247178,1.8369542426203562,-0.87286657724611261,2.6493027614529945,-2.6493027614529945,0.87286657724611261,3.6434116031478903,0.0
809640.0783812654,3950767.5119837918,-17500.0,1.5309204841645851,-1.5031272921833103,1.4945313127760078,-0.6312751729680427,0.62104413804893788,0.19455458852786811,1.6656425054909916,-0.86408475690369824,2.3735034507350079,-2.3735034507350079,0.86408475690369824,3.2968706673074744,0.0
664640.0783812654,3955767.5119837918,-17500.0,-2.070518715104313,-1.0878278509662584,-0.59647358848468945,-0.72224588224319997,-0.39959058861599528,-0.1945423688774644,1.4795202195867827,-0.45959101556681448,0.30822528315509423,-0.30822528315509423,0.45959101556681448,2.9190522528555629,0.0
669640.0783812654,3955767.5119837918,-17500.0,-2.2541647021106845,-1.3459913567496422,-0.85083814663258839,-0.84793496112055777,-0.53533796085429619,-0.24792296542464626,1.7325020595590364,-0.63773254985493211,0.38136663009862526,-0.38136663009862526,0.63773254985493211,3.4103868564624333,0.0
674640.0783812654,3955767.5119837918,-17500.0,-2.4127071823786852,-1.6394223354215283,-1.1893629885345094,-0.98633659582202571,-0.71044317049744365,-0.31530314285591865,2.0248399751599462,-0.8575462885690297,0.4490892113939115,-0.4490892113939115,0.8575462885690297,3.978154419533364,0.0
679640.0783812654,3955767.5119837918,-17500.0,-2.5248814605941505,-1.9596277338145542,-1.6319313624663299,-1.1327224856986358,-0.93302945471879162,-0.39938653291205201,2.3581873454472428,-1.1208618853096968,0.49761058548228704,-0.49761058548228704,1.1208618853096968,4.6258364438716182,0.0
684640.0783812654,3955767.5119837918,-17500.0,-2.5641835187863289,-2.2884892093885689,-2.1976009142179849,-1.2782795776160134,-1.2104839792341766,-0.50260642162723446,2.7312810319327316,-1.4240936274077654,0.50567214166304009,-0.50567214166304009,1.4240936274077654,5.3514580857715872,0.0
689640.0783812654,3955767.5119837918,-17500.0,-2.5008652542146863,-2.594532075200604,-2.8996997746609052,-1.4087478681050505,-1.5473441816888787,-0.6264337440054748,3.1381601576145401,-1.7545496778803427,0.44312810678978853,-0.44312810678978853,1.7545496778803427,6.1442228344090388,0.0
694640.0783812654,3955767.5119837918,-17500.0,-2.3067290684478414,-2.8298680156930378,-3.7377722512261893,-1.5034231517552583,-1.9419680976790004,-0.77029651253888343,3.5660106680091594,-2.0860499729839304,0.27115756911018574,-0.27115756911018574,2.0860499729839304,6.9804178729072532,0.0
699640.0783812654,3955767.5119837918,-17500.0,-1.9635905795159618,-2.9299003923220246,-4.6861689780454263,-1.5353377853256716,-2.3819742268543043,-0.93010628946060281,3.9930047139660694,-2.37498866568516,-0.054042180614636948,0.054042180614636948,2.37498866568516,7.8192329445657096,0.0
704640.0783812654,3955767.5119837918,-17500.0,-1.4752148438232835,-2.8189492924932282,-5.6807006385145229,-1.4737943829435203,-2.8390799312598674,-1.0965880373103056,4.3869899656389091,-2.5591819867262089,-0.5718170093780679,0.5718170093780679,2.5591819867262089,8.5999150137090936,0.0
709640.0783812654,3955767.5119837918,-17500.0,-0.88015598260884476,-2.4252053041357255,-6.6076991250452446,-1.2904577008050104,-3.2650733137760737,-1.2539535875732357,4.7066807563142561,-2.5630333062120454,-1.3003274072183606,1.3003274072183606,2.5630333062120454,9.2426376081883372,0.0
714640.0783812654,3955767.5119837918,-17500.0,-0.25947270250997212,-1.7063646542748918,-7.3034413868105839,-0.96937857106617753,-3.5919622525417023,-1.3798683075334448,4.908517153188888,-2.312603243189848,-2.2139563331971504,2.2139563331971504,2.312603243189848,9.6561614264989668,0.0
719640.0783812654,3955767.5119837918,-17500.0,0.26940914335098815,-0.68158212862848111,-7.573772065567284,-0.51918578133373017,-3.7399507844655306,-1.447860662167447,4.9636205984831685,-1.761385815140881,-3.2219520257718015,3.2219520257718015,1.761385815140881,9.7549817336106095,0.0
724640.0783812654,3955767.5119837918,-17500.0,0.57967710444248277,0.54316483008123728,-7.2397849768593101,0.017406156573674988,-3.6353168947827905,-1.4328642437307064,4.8691193189107826,-0.92094892234669778,-4.1617531701405515,4.1617531701405515,0.92094892234669778,9.4863005938659875,0.0
729640.0783812654,3955767.5119837918,-17500.0,0.58046776213273787,1.7752741161393535,-6.2026169640898612,0.56374129293891007,-3.235497356084688,-1.3191428769705524,4.6342398598664225,0.11773320007848387,-4.8217802290380281,4.8217802290380281,-0.11773320007848387,8.862678815884431,0.0
734640.0783812654,3955767.5119837918,-17500.0,0.26304589212079366,2.7752677156659713,-4.5025612497942422,1.0241202495624049,-2.5521472219822452,-1.1078306948454457,4.2986639896893424,1.1897155520578153,-4.9982217440825485,4.9982217440825485,-1.1897155520578153,7.9906458224472212,0.0
739640.0783812654,3955767.5119837918,-17500.0,-0.27937699076581024,3.3300423530377983,-2.3381332667171466,1.3113369104739052,-1.6594025962950287,-0.8201357788953314,3.9436565819843041,2.0965534166637663,-4.5689884688354638,4.5689884688354638,-2.0965534166637663,7.0784756515109368,0.0
744640.0783812654,3955767.5119837918,-17500.0,-0.87683426758889071,3.3285811254241864,-0.023722209195175523,1.3757080080894801,-0.67913481273865883,-0.49347849799413834,3.6655910153942548,2.6694795460697414,-3.5492219513805274,3.5492219513805274,-2.6694795460697414,6.3912020135760059,0.0
749640.0783812654,3955767.5119837918,-17500.0,-1.3449916963317616,2.8003404514761607,2.1018874583836693,1.2210212431269796,0.25290858107419312,-0.17142160550917898,3.5250263341723267,2.8252005386704604,-2.0954527493845378,2.0954527493845378,-2.8252005386704604,6.1158298860250602,0.0
754640.0783812654,3955767.5119837918,-17500.0,-1.5520842897551597,1.8960716114353158,3.7733562550041921,0.89940293459128595,1.0248102560413912,0.10817735861842077,3.5081525227273285,2.5859247860368937,-0.45348940832582807,0.45348940832582807,-2.5859247860368937,6.215939897204537,0.0
759640.0783812654,3955767.5119837918,-17500.0,-1.4561172465417458,0.82517408713502194,4.8581935773144176,0.48931015936477212,1.5732622513454599,0.32159181800406278,3.5456204835000555,2.0570562682103963,1.1220071551090258,-1.1220071551090258,-2.0570562682103963,6.4801416314338738,0.0
764640.0783812654,3955767.5119837918,-17500.0,-1.0999864524734877,-0.21468020040463692,5.3597448937912393,0.069147760948633827,1.8877011302600197,0.46150668932743194,3.5656228317562841,1.3800708338075118,2.4364331234495404,-2.4364331234495404,-1.3800708338075118,6.7024187707246732,0.0
769640.0783812654,3955767.5119837918,-17500.0,-0.57745722116076459,-1.0846147528199006,5.3776606477857793,-0.30183895587357029,1.9977064875401498,0.53393459470405069,3.5258793975952778,0.68651673733446739,3.387456362904727,-3.387456362904727,-0.68651673733446739,6.7716418040525799,0.0
774640.0783812654,3955767.5119837918,-17500.0,0.0068106212198886362,-1.718106521190214,5.0544217279128407,-0.59074916029095026,1.9536415670813148,0.55260283931928722,3.41516846216981,0.070316518925201521,3.9599969767670533,-3.9599969767670533,-0.070316518925201521,6.6613879973492773,0.0
779640.0783812654,3955767.5119837918,-17500.0,0.56605216589274998,-2.10920071690088,4.5312266551831204,-0.78840813996394865,1.8094147382947892,0.533566418336057,3.2423042739884722,-0.41892901617663281,4.199476193812731,-4.199476193812731,0.41892901617663281,6.3941665582995091,0.0
784640.0783812654,3955767.5119837918,-17500.0,1.0438303757360263,-2.2900494961768629,3.9227498273717325,-0.9019329859305667,1.6115948367949855,0.49152844535256973,3.025069652976152,-0.76845668101385223,4.1807680042505808,-4.1807680042505808,0.76845668101385223,6.01235316444152,0.0
789640.0783812654,3955767.5119837918,-17500.0,1.4135795020306174,-2.3093651958715755,3.3090989833879019,-0.94682852306168364,1.3949325262970969,0.43807451328044333,2.7848732944957506,-0.98944524700751102,3.9837382754652122,-3.9837382754652122,0.98944524700751102,5.560589774146429,0.0
794640.0783812654,3955767.5119837918,-17500.0,1.6714999760016491,-2.2172133438660224,2.7385992780338317,-0.94093318306280427,1.182298021942455,0.38133054959123258,2.5489951299248603,-1.1048657383357681,3.6787048823244461,-3.6787048823244461,1.1048657383357681,5.0771678722840603,0.0
799640.0783812654,3955767.5119837918,-17500.0,1.8279310764766616,-2.0567530135329313,2.2352085382457512,-0.90076337986080612,0.98681615589731719,0.32640460698045709,2.3114808612144961,-1.1407536408066032,3.3204381789202628,-3.3204381789202628,1.1407536408066032,4.5911039860673348,0.0
804640.0783812654,3955767.5119837918,-17500.0,1.9000321878866433,-1.8612338112407203,1.8065030909029756,-0.83984544653783921,0.8146008216888444,0.27611361090354242,2.0798540255186122,-1.1211497421442833,2.9477025043973462,-2.9477025043973462,1.1211497421442833,4.1222923376671856,0.0
809640.0783812654,3955767.5119837918,-17500.0,1.9067071498220647,-1.6541264597070007,1.4503044917069885,-0.76834448290324231,0.667230689546361,0.23170288947483281,1.8611581704565234,-1.0658587749425514,2.5855737168849284,-2.5855737168849284,1.0658587749425514,3.6830041281932973,0.0
814640.0783812654,3955767.5119837918,-17500.0,1.8656365653188465,-1.4507030820411524,1.1594287608540461,-0.69337982462733971,0.54364944657130299,0.1934320042194011,1.6593389244748555,-0.98997276445134097,2.248651369305759,-2.248651369305759,0.98997276445134097,3.2797382286003232,0.0
659640.0783812654,3960767.5119837918,-17500.0,-2.057390052892798,-0.77713511301625915,-0.25498234577040368,-0.66354043088570724,-0.25973420501668965,-0.16383697939827113,1.306500653608953,-0.18966718709458624,0.18625395592284416,-0.18625395592284416,0.18966718709458624,2.5992926662840889,0.0
664640.0783812654,3960767.5119837918,-17500.0,-2.3155428437078491,-1.0148932299299243,-0.41893091020611051,-0.79967125327031507,-0.36629208686708031,-0.21294608461728728,1.5491380704346782,-0.32050405994973513,0.26777368157161224,-0.26777368157161224,0.32050405994973513,3.0726530354245902,0.0
669640.0783812654,3960767.5119837918,-17500.0,-2.5780090927685744,-1.3045404867086241,-0.65131037997234587,-0.95919884166289782,-0.51003726440387298,-0.2770506780331381,1.8386107049530529,-0.49374144692390909,0.35997303781342316,-0.35997303781342316,0.49374144692390909,3.6358496766965014,0.0
674640.0783812654,3960767.5119837918,-17500.0,-2.8282434039416944,-1.6491108934421514,-0.97546697898155099,-1.1422102775556944,-0.7020781766717582,-0.36029638129251601,2.1810916885675029,-0.7177951612452087,0.45661815944104783,-0.45661815944104783,0.7177951612452087,4.3014373638846077,0.0
679640.0783812654,3960767.5119837918,-17500.0,-3.0414473147753132,-2.0456378821961332,-1.4195643903599635,-1.3457039358670393,-0.95536752700831085,-0.46746091505715887,2.5818664845203902,-0.99948101775961806,0.54505484766644274,-0.54505484766644274,0.99948101775961806,5.0799652790448864,0.0
684640.0783812654,3960767.5119837918,-17500.0,-3.1833499083357397,-2.4804756717523353,-2.0148218977823449,-1.5615590649322442,-1.283695093720586,-0.60357697478679073,3.0435484173517304,-1.3409519380363777,0.60304062484958232,-0.60304062484958232,1.3409519380363777,5.9769095075639944,0.0
689640.0783812654,3960767.5119837918,-17500.0,-3.2107828057876837,-2.9230820241719964,-2.7907754434330867,-1.7739578494112811,-1.6993356154303318,-0.7730794424989299,3.563577818137901,-1.7348172699199154,0.59532307410588003,-0.59532307410588003,1.7348172699199154,6.9880025778608257,0.0
694640.0783812654,3960767.5119837918,-17500.0,-3.0759310874895034,-3.3191241014625366,-3.7657690715665035,-1.9566899146657777,-2.2086362006934559,-0.97823063192203175,4.1308195617449153,-2.1573339036454993,0.47129365523028688,-0.47129365523028688,2.1573339036454993,8.0927856371748241,0.0
699640.0783812654,3960767.5119837918,-17500.0,-2.7365639725344919,-3.5854449731789311,-4.9310414558685709,-2.0714541778258262,-2.8049556907313566,-1.2166230328758225,4.7215120405982889,-2.5605758262168248,0.16642669842700131,-0.16642669842700131,2.5605758262168248,9.2468249433773977,0.0
704640.0783812654,3960767.5119837918,-17500.0,-2.173825204822371,-3.6118872222056377,-6.2284690584594546,-2.0692255572862668,-3.4591446248358064,-1.4778239206996426,5.2955829019124536,-2.8664969187077096,-0.38822843905124471,0.38822843905124471,2.8664969187077096,10.374290705455369,0.0
709640.0783812654,3960767.5119837918,-17500.0,-1.4159606890415337,-3.2771974408023414,-7.5264824670831008,-1.8975395460090907,-4.1096299542119024,-1.7398622117807772,5.795695052808493,-2.9686300981271567,-1.2437742939879617,1.2437742939879617,2.9686300981271567,11.364567504018387,0.0
714640.0783812654,3960767.5119837918,-17500.0,-0.55978683349877478,-2.4854366735285853,-8.6061944030828279,-1.5160640429630812,-4.6571883607292062,-1.9672796429142443,6.1535918024705207,-2.7492566562480976,-2.3968758097061871,2.3968758097061871,2.7492566562480976,12.078749819082852,0.0
719640.0783812654,3960767.5119837918,-17500.0,0.22634938391797604,-1.2212896793695738,-9.1772872808100097,-0.91950261606314687,-4.9723482235665202,-2.11344714399022,6.3102112402309309,-2.1176115207244566,-3.7468981532735937,3.7468981532735937,2.1176115207244566,12.372723026530871,0.0
724640.0783812654,3960767.5119837918,-17500.0,0.73667248382166228,0.39446253305286416,-8.9421002497513147,-0.16013295901536889,-4.9226591601110403,-2.129665547990216,6.2405709207356157,-1.063885172060167,-5.069685399292081,5.069685399292081,1.063885172060167,12.140566310381685,0.0
729640.0783812654,3960767.5119837918,-17500.0,0.80374882017166183,2.0864768614645253,-7.7059336136372067,0.64475169127206866,-4.4187747520898837,-1.9808817706513349,5.953410522603356,0.29457248388304258,-6.0406515275309927,6.0406515275309927,-0.29457248388304258,11.373500906398407,0.0
734640.0783812654,3960767.5119837918,-17500.0,0.38848558357630159,3.4799157279939466,-5.4927660571594377,1.334817879236097,-3.4629523155867799,-1.6627628844364843,5.507290445507329,1.7113846542735471,-6.3264046719040996,6.3264046719040996,-1.7113846542735471,10.216829531474637,0.0
739640.0783812654,3960767.5119837918,-17500.0,-0.37186773305891579,4.2283629548109642,-2.5952991506165906,1.7580435336321696,-2.1716078880752847,-1.2106907458293537,5.0278725565432874,2.8771430321088323,-5.7201980234135599,5.7201980234135599,-2.8771430321088323,8.9910599689310722,0.0
744640.0783812654,3960767.5119837918,-17500.0,-1.203611909257891,4.15578236650527,0.49335800361558102,1.8289643282822476,-0.75032622798329318,-0.69301847399400274,4.6661077456669569,3.5333932933118919,-4.2492282192501207,4.2492282192501207,-3.5333932933118919,8.1123259281683797,0.0
749640.0783812654,3960767.5119837918,-17500.0,-1.8127174469124947,3.3273368189890058,3.2465339267297186,1.5604795171667971,0.57237283089052005,-0.18979772729706654,4.5070521964182424,3.5726214654360198,-2.1813660315211894,2.1813660315211894,-3.5726214654360198,7.843517445722787,0.0
754640.0783812654,3960767.5119837918,-17500.0,-2.0073100807157571,2.005993193947345,5.2793701506757147,1.0508616451767185,1.6181205105230307,0.23226857929204422,4.5098077337973166,3.0653574968556772,0.078662974031267652,-0.078662974031267652,-3.0653574968556772,8.0642561005038953,0.0
759640.0783812654,3960767.5119837918,-17500.0,-1.7551101745417774,0.52993727945011193,6.4410678863483781,0.43733342179171314,2.3015423217106035,0.53611333613217249,4.5577715303378117,2.2064606046356809,2.1396813381184563,-2.1396813381184563,-2.2064606046356809,8.423499119289847,0.0
764640.0783812654,3960767.5119837918,-17500.0,-1.1582516563161462,-0.81113449047947295,6.7973706928056057,-0.1543542505779042,2.6294607384541973,0.71635316526499704,4.550637495962663,1.2240576038709174,3.7377070018449809,-3.7377070018449809,-1.2240576038709174,8.6417536819076997,0.0
769640.0783812654,3960767.5119837918,-17500.0,-0.38177129533981158,-1.8433966994053435,6.5440408074883933,-0.64067985130045679,2.6698411746756761,0.79049010334360437,4.4430985432497394,0.30426097848036715,4.7713151787404122,-4.7713151787404122,-0.30426097848036715,8.6041914071891963,0.0
774640.0783812654,3960767.5119837918,-17500.0,0.41543942331352879,-2.512295231546724,5.9119773498532542,-0.98608526181038303,2.5137795843710693,0.78661546180289166,4.2353857150586176,-0.44221144500934972,5.2715899642069983,-5.2715899642069983,0.44221144500934972,8.3137690294412963,0.0
779640.0783812654,3960767.5119837918,-17500.0,1.1199979986000979,-2.8479158802430433,5.102485839635106,-1.1921160954349055,2.2470361849716429,0.73338872171044112,3.9515457200393742,-0.9763496738472166,5.3448574273865344,-5.3448574273865344,0.9763496738472166,7.8289306210321845,0.0
784640.0783812654,3960767.5119837918,-17500.0,1.672656485235311,-2.922355127666318,4.2601333287426533,-1.2813959526201923,1.9358963631578736,0.65442642576990917,3.623196805143527,-1.3087229067762722,5.1202411685629334,-5.1202411685629334,1.3087229067762722,7.2219086809060533,0.0
789640.0783812654,3960767.5119837918,-17500.0,2.0583052684311447,-2.8167768343675652,3.4724498401174633,-1.2839956517640747,1.6243694546689402,0.56653511723358352,3.2882699973233191,-1.4752478297481764,4.7160247690520825,-4.7160247690520825,1.4752478297481764,6.5573714090384136,0.0
794640.0783812654,3960767.5119837918,-17500.0,2.2899384337362441,-2.6027121847796826,2.7823154761592521,-1.2288298482163518,1.3375300936849148,0.48024867955252537,2.9588401745064372,-1.5190648999638445,4.2246999980698892,-4.2246999980698892,1.5190648999638445,5.8845409880222119,0.0
799640.0783812654,3960767.5119837918,-17500.0,2.3942188325183928,-2.3349003583909247,2.2029234715087722,-1.1396233648869531,1.0868427669909457,0.40129419304480318,2.6386869959733872,-1.4800814016562585,3.7106519849179378,-3.7106519849179378,1.4800814016562585,5.2366296592468959,0.0
804640.0783812654,3960767.5119837918,-17500.0,2.4014330703754037,-2.0510661625222109,1.7303716595114591,-1.0339123467022,0.8751589154504601,0.33214512358576259,2.3383822043499616,-1.3905269750468097,3.2141892140267272,-3.2141892140267272,1.3905269750468097,4.6334552493599181,0.0
809640.0783812654,3960767.5119837918,-17500.0,2.3397708738806826,-1.7748277084827482,1.3525041637746931,-0.92362433678329126,0.70052041533153653,0.27329138824180194,2.0638461315586349,-1.2741777995076609,2.7575778129114168,-2.7575778129114168,1.2741777995076609,4.0848915659953473,0.0
814640.0783812654,3960767.5119837918,-17500.0,2.2327826419641266,-1.5193916184897318,1.0543701237181,-0.81624753147060525,0.55870325242700525,0.22414234089722523,1.8173105907031257,-1.147363236275508,2.3507877305007137,-2.3507877305007137,1.147363236275508,3.5940458801359259,0.0
819640.0783812654,3960767.5119837918,-17500.0,2.0987842221019832,-1.2909009723538574,0.82121282829014297,-0.71604909075153744,0.44475348346693167,0.18360875308392155,1.5986360098528885,-1.0205723345915483,1.9960691708621781,-1.9960691708621781,1.0205723345915483,3.1597759723761834,0.0
654640.0783812654,3965767.5119837918,-17500.0,-1.9058820950098891,-0.445428037974261,-0.0036120039572948414,-0.57128864625964138,-0.13331915052823792,-0.12991006301616051,1.1347568947983127,0.041361941496871391,0.035509592085482877,-0.035509592085482877,-0.041361941496871391,2.2409779627427491,0.0
659640.0783812654,3965767.5119837918,-17500.0,-2.2040243625239686,-0.63304075591849895,-0.085221313968016785,-0.70352247110145405,-0.20650206149050737,-0.17171068665391925,1.346299176891905,-0.034105292999696231,0.10316196295473626,-0.10316196295473626,0.034105292999696231,2.6699317455392348,0.0
664640.0783812654,3965767.5119837918,-17500.0,-2.5336844671730949,-0.87530820813295718,-0.21235127202473725,-0.86546227251431496,-0.30992076537827318,-0.2277672685880551,1.6057222410950571,-0.14368951191958579,0.18938565414899811,-0.18938565414899811,0.14368951191958579,3.191670510381464,0.0
669640.0783812654,3965767.5119837918,-17500.0,-2.8876628696283233,-1.1834670446875306,-0.40519297451418229,-1.0617561848618562,-0.45495652287557475,-0.30293401271679532,1.9261424074141489,-0.29820081198060255,0.29480242365487985,-0.29480242365487985,0.29820081198060255,3.8251387044872192,0.0
674640.0783812654,3965767.5119837918,-17500.0,-3.2511725146028012,-1.5677297321043313,-0.6912561915586537,-1.2959808451024613,-0.65655425240673937,-0.40348069466479725,2.3180173869123148,-0.51009303009533036,0.41661612789007818,-0.41661612789007818,0.51009303009533036,4.5910659502908953,0.0
679640.0783812654,3965767.5119837918,-17500.0,-3.5984755496783873,-2.0340087810084895,-1.1066380475657622,-1.5689153613136635,-0.9336151087533282,-0.53722060349567935,2.7903311969124069,-0.79216456072764752,0.54558990679896757,-0.54558990679896757,0.79216456072764752,5.5102957284043734,0.0
684640.0783812654,3965767.5119837918,-17500.0,-3.8893283870208117,-2.5782244779346608,-1.6960233141250132,-1.8757184106911795,-1.3086452210799391,-0.71333585859223303,3.3514180684719639,-1.1545812766946377,0.66151780867655929,-0.66151780867655929,1.1545812766946377,6.6004496170935987,0.0
689640.0783812654,3965767.5119837918,-17500.0,-4.0665668969513771,-3.1774379108901103,-2.5095723520107938,-2.2017453746982643,-1.8057701337764807,-0.94155645907350016,4.005243907977504,-1.5992243946427056,0.7272024846598919,-0.7272024846598919,1.5992243946427056,7.8700761426418424,0.0
694640.0783812654,3965767.5119837918,-17500.0,-4.0575396433861641,-3.7777870188994989,-3.5936653158980993,-2.5171296953634501,-2.4457262609099306,-1.2301632214130642,4.7462273333823495,-2.1103969405482679,0.68197323430414558,-0.68197323430414558,2.1103969405482679,9.3094183656759739,0.0
699640.0783812654,3965767.5119837918,-17500.0,-3.7837791758447379,-4.2813629068379822,-4.9714736196849145,-2.7712627217738537,-3.2360923908567201,-1.5821592434837373,5.5523959565250633,-2.6418276687070339,0.43794833479703454,-0.43794833479703454,2.6418276687070339,10.87747113558653,0.0
704640.0783812654,3965767.5119837918,-17500.0,-3.1841222187174414,-4.538507986491946,-6.6099982287969103,-2.8902154360819967,-4.1555016604174533,-1.9891392447980623,6.3775687370282119,-3.1026255429572216,-0.11427011264443543,0.11427011264443543,3.1026255429572216,12.486683163580677,0.0
709640.0783812654,3965767.5119837918,-17500.0,-2.2537021819216383,-4.3581939487748436,-8.3754293041904297,-2.7827018660774057,-5.1331059393331007,-2.4233337223948102,7.14554315581253,-3.3501190167383026,-1.0802406275865017,1.0802406275865017,3.3501190167383026,13.99014160335817,0.0
714640.0783812654,3965767.5119837918,-17500.0,-1.0909766137038857,-3.5532732091105204,-9.9916695062181784,-2.3616456852041074,-6.0304070943796502,-2.8304712516069022,7.7530584007279293,-3.2041499995149607,-2.5072947436537607,2.5072947436537607,3.2041499995149607,15.181312844971881,0.0
719640.0783812654,3965767.5119837918,-17500.0,0.073645951647929322,-2.0299499413827538,-11.036356599386764,-1.584781102452731,-6.6409010157620152,-3.1291915185583665,8.0922519267722546,-2.4992524876178379,-4.304971858655243,4.304971858655243,2.4992524876178379,15.821130639277763,0.0
724640.0783812654,3965767.5119837918,-17500.0,0.91004490979538466,0.099258225190003394,-11.020312590569944,-0.50467521775178581,-6.7274347212836352,-3.2244662849931816,8.0926085109723935,-1.1766997001246602,-6.1747417974074637,6.1747417974074637,1.1766997001246602,15.705737736977049,0.0
729640.0783812654,3965767.5119837918,-17500.0,1.1103722486392651,2.4471691677880933,-9.5706905582724353,0.70122753021140205,-6.105495229006177,-3.038428012984455,7.7493016021919026,0.61899521767925725,-7.6169945468383062,7.6169945468383062,-0.61899521767925725,14.77350117803006,0.0
734640.0783812654,3965767.5119837918,-17500.0,0.56528653682571695,4.4179607137142449,-6.6580360023259031,1.7585999184755865,-4.7462080796510264,-2.5496551405903194,7.1492871180462547,2.5141317370554965,-8.0753472902473824,8.0753472902473824,-2.5141317370554965,13.220879197741947,0.0
739640.0783812654,3965767.5119837918,-17500.0,-0.52145338026022059,5.4335739487267203,-2.7203157741674659,2.3937660891500059,-2.835663365968673,-1.8181266317322384,6.4940577136887798,4.0138503064484219,-7.1904821945742903,7.1904821945742903,-4.0138503064484219,11.55636782520374,0.0
744640.0783812654,3965767.5119837918,-17500.0,-1.6951585227325086,5.2092689721478411,1.4476933882042671,2.4553463892246317,-0.7326050007463617,-0.97376139862283606,6.0268720775043549,4.7150188405477156,-5.0151132066552844,5.0151132066552844,-4.7150188405477156,10.451624047096123,0.0
749640.0783812654,3965767.5119837918,-17500.0,-2.475374220181831,3.8883057227686004,5.0104068431455504,1.9801634608895371,1.1669485478498394,-0.16921542436429271,5.8630079025339255,4.490905335282914,-2.0237297064133291,2.0237297064133291,-4.490905335282914,10.261437501320094,0.0
754640.0783812654,3965767.5119837918,-17500.0,-2.5869982885555394,1.9404553516978145,7.4144215147601242,1.1593206213065739,2.5764986373534629,0.47541905742101925,5.9012514476039062,3.5205848649261111,1.1031234984781135,-1.1031234984781135,-3.5205848649261111,10.678084383569756,0.0
759640.0783812654,3965767.5119837918,-17500.0,-2.0433280220966772,-0.084577272049710758,8.5249468480110622,0.2367570640268104,3.3918946582955178,0.90431650860723412,5.9482903356093821,2.1612130067286461,3.7664570886043567,-3.7664570886043567,-2.1612130067286461,11.132384927568472,0.0
764640.0783812654,3965767.5119837918,-17500.0,-1.0650242471165594,-1.7733833259130163,8.5464224827043669,-0.58783148502964089,3.6699037044698852,1.1235739616900178,5.8720891964229205,0.77270488543414784,5.6304579113555295,-5.6304579113555295,-0.77270488543414784,11.269878335161902,0.0
769640.0783812654,3965767.5119837918,-17500.0,0.066562935023488937,-2.932840117392348,7.8401515944999653,-1.2045996319045347,3.5546276836404478,1.1773695448095263,5.636551168816565,-0.39815771178488735,6.6388155536817832,-6.6388155536817832,0.39815771178488735,11.004162235100045,0.0
774640.0783812654,3965767.5119837918,-17500.0,1.1222683871327332,-3.5570997141399481,6.7637105952523875,-1.588096589916725,3.2051763674284,1.121527172225443,5.2676089315784118,-1.2438483103996281,6.9236200353049178,-6.9236200353049178,1.2438483103996281,10.400699320848585,0.0
779640.0783812654,3965767.5119837918,-17500.0,1.9690988750015737,-3.7466891027812346,5.5868011228120622,-1.7668302513289544,2.752310677863834,1.0058172874161733,4.81500356292067,-1.7632536156622818,6.6935387898082039,-6.6935387898082039,1.7632536156622818,9.5762359122809038,0.0
784640.0783812654,3965767.5119837918,-17500.0,2.5621033288781749,-3.6353037681247691,4.4746799125692194,-1.7918746574922015,2.2845361145370888,0.8666752383664944,4.3334309238447712,-2.012568658861396,6.1533477561072925,-6.1533477561072925,2.012568658861396,8.6435595829387051,0.0
789640.0783812654,3965767.5119837918,-17500.0,2.9147340184891899,-3.3454471962670786,3.507484325728663,-1.7155929242010652,1.8520738291047905,0.72698876878358154,3.862464211020177,-2.065769745850067,5.4651613624895017,-5.4651613624895017,2.065769745850067,7.6896507952163438,0.0
794640.0783812654,3965767.5119837918,-17500.0,3.0692229122804693,-2.9705307655019761,2.7091504030997733,-1.5813008542600773,1.4774427219215276,0.5990367263535592,3.4085844198040545,-1.9916884181999654,4.7400218502478904,-4.7400218502478904,1.9916884181999654,6.7723137196980563,0.0
799640.0783812654,3965767.5119837918,-17500.0,3.0756844876263356,-2.5732386379145513,2.0724186187778,-1.4204674721761485,1.166017064654725,0.48799415231103171,2.9863532685462664,-1.8446531255297705,4.0449156346214421,-4.0449156346214421,1.8446531255297705,5.9247940427670676,0.0
804640.0783812654,3965767.5119837918,-17500.0,2.9805276301476189,-2.1910714610335988,1.5760189580100932,-1.2537882704224654,0.91401830480900137,0.39483608057288272,2.6047088575705244,-1.6632063564717612,3.4145890643776138,-3.4145890643776138,1.6632063564717612,5.162503762961693,0.0
809640.0783812654,3965767.5119837918,-17500.0,2.8216405431304126,-1.8435494769478564,1.1947808926672356,-1.0936297109491742,0.71368473169659907,0.31835927155137339,2.2664771999645486,-1.4724662496743477,2.8627107788916168,-2.8627107788916168,1.4724662496743477,4.4891805150938699,0.0
814640.0783812654,3965767.5119837918,-17500.0,2.6275350518616167,-1.5385540980143868,0.90476798088469723,-0.94653479042662725,0.55623246736088627,0.256435018133985,1.9706515387614201,-1.2874904767351933,2.3904535117711907,-2.3904535117711907,1.2874904767351933,3.9016154128695222,0.0
819640.0783812654,3965767.5119837918,-17500.0,2.4183819003284039,-1.2770650069583267,0.68539889943562626,-0.81527456773088125,0.43335115028057009,0.20671241493244052,1.7141428554037423,-1.1163980628795334,1.992363879605592,-1.992363879605592,1.1163980628795334,3.3929351583750789,0.0
654640.0783812654,3970767.5119837918,-17500.0,-1.9444443905486839,-0.26111384344011529,0.13279128121372394,-0.57618933567341524,-0.072231739923986057,-0.12929349819732192,1.1546226495184575,0.18799352605219438,-0.072988928605425885,0.072988928605425885,-0.18799352605219438,2.2484129195766984,0.0
659640.0783812654,3970767.5119837918,-17500.0,-2.2938910508970802,-0.42994015128159746,0.090316567943880238,-0.72365721879903044,-0.13473077912555512,-0.17437089014470505,1.3795213955825345,0.14246231260998798,-0.01473737689982145,0.01473737689982145,-0.14246231260998798,2.7024947042622558,0.0
664640.0783812654,3970767.5119837918,-17500.0,-2.695548020421787,-0.6587145957407079,0.011364753239746369,-0.90956613345394555,-0.22763164263045937,-0.23636322042750954,1.657502216797853,0.066292357861233719,0.066202061105975402,-0.066202061105975402,-0.066292357861233719,3.264546339129009,0.0
669640.0783812654,3970767.5119837918,-17500.0,-3.1478077008575154,-0.96426701141187787,-0.12409563245193032,-1.1424928285081495,-0.36430583321291526,-0.3218317116488294,2.0025137621490567,-0.052957158911769824,0.17388571142196244,-0.17388571142196244,0.052957158911769824,3.9607443338871278,0.0
674640.0783812654,3970767.5119837918,-17500.0,-3.6413810122822952,-1.365271314965427,-0.34536658937556636,-1.4312529311227131,-0.56341221729537327,-0.43973250341280645,2.4330250494372399,-0.23111469793964406,0.3102918822681599,-0.3102918822681599,0.23111469793964406,4.821953620347375,0.0
679640.0783812654,3970767.5119837918,-17500.0,-4.1543052764541804,-1.8796072360575442,-0.69411653812865248,-1.7831788621776159,-0.85032681946910937,-0.60200919360295968,2.97079156447839,-0.48695452836211317,0.47216329432043047,-0.47216329432043047,0.48695452836211317,5.8827898494499546,0.0
684640.0783812654,3970767.5119837918,-17500.0,-4.6453740697730526,-2.5186223615423566,-1.227161413542063,-2.2007570823441815,-1.2581731938217564,-0.82398278996772412,3.6343527894395855,-0.84005762598467326,0.64550756086827299,-0.64550756086827299,0.84005762598467326,7.1787360588860878,0.0
689640.0783812654,3970767.5119837918,-17500.0,-5.0469096193361249,-3.2764116870040088,-2.0169877792514463,-2.6757688385215306,-1.8273364013354592,-1.1240495155311152,4.4374123191824335,-1.3053952525816062,0.79692171791369004,-0.79692171791369004,1.3053952525816062,8.7398289730226626,0.0
694640.0783812654,3970767.5119837918,-17500.0,-5.2598531477955524,-4.1122533199122415,-3.1459551767181204,-3.1802062760471634,-2.6012911469193085,-1.5217552142677211,5.3854043710922177,-1.8824300187459859,0.8616728747954232,-0.8616728747954232,1.8824300187459859,10.57890107830376,0.0
699640.0783812654,3970767.5119837918,-17500.0,-5.157706164290448,-4.9261546127503246,-4.6871103372274261,-3.6542841129159602,-3.6151929273992036,-2.0327456695232478,6.465232674946086,-2.536642165598169,0.73105263462458803,-0.73105263462458803,2.536642165598169,12.672311541489821,0.0
704640.0783812654,3970767.5119837918,-17500.0,-4.6102107630185234,-5.5333195681179177,-6.662111903011084,-3.9948454925347336,-4.8727882520298103,-2.6587416236054904,7.6308593300251646,-3.1739771479687677,0.2473403289424736,-0.2473403289424736,3.1739771479687677,14.932655348128495,0.0
709640.0783812654,3970767.5119837918,-17500.0,-3.5388716105486711,-5.6554362215710245,-8.9696435735337587,-4.053204069525683,-6.3091529608667658,-3.371522581489744,8.7880436615385467,-3.6165304891787966,-0.77598803468101574,0.77598803468101574,3.6165304891787966,17.177998245831525,0.0
714640.0783812654,3970767.5119837918,-17500.0,-2.0051941606279517,-4.9626251894553013,-11.295075158404858,-3.6585271258454135,-7.7458028095633686,-4.0936349999063859,9.7875292154767912,-3.6023292238303628,-2.4836100382674799,2.4836100382674799,3.6023292238303628,19.112610999621076,0.0
719640.0783812654,3970767.5119837918,-17500.0,-0.29778452671134886,-3.2036936725699983,-13.051936371017659,-2.6835941772840854,-8.8639527240762064,-4.6863966625164855,10.445070625700463,-2.8463542962409716,-4.8429597817285313,4.8429597817285313,2.8463542962409716,20.348470370825478,0.0
724640.0783812654,3970767.5119837918,-17500.0,1.0666270583895241,-0.42070596193347898,-13.453119955924063,-1.1493113524181167,-9.2431910234495493,-4.964575780993477,10.603668836811378,-1.1892953996528082,-7.4833212082192002,7.4833212082192002,1.1892953996528082,20.504399352118181,0.0
729640.0783812654,3970767.5119837918,-17500.0,1.5242578834316509,2.8625686101243883,-11.799632667921754,0.68472879832130218,-8.5061559910436664,-4.7548597443363221,10.213197535392288,1.2074533061853128,-9.639679783588166,9.639679783588166,-1.2074533061853128,19.399603824124892,0.0
734640.0783812654,3970767.5119837918,-17500.0,0.80835512902234208,5.6873127198059548,-7.9244331934294561,2.3402952372516297,-6.5383960664300282,-3.9873342140141927,9.399355497104267,3.7689925164433529,-10.36650968991774,10.36650968991774,-3.7689925164433529,17.294504356653864,0.0
739640.0783812654,3970767.5119837918,-17500.0,-0.77745441173940466,7.0628353321063004,-2.4923861077487652,3.3079425571297785,-3.6427402416257593,-2.7650496737401218,8.4981877865873852,5.6824282284917409,-9.0230701211040696,9.0230701211040696,-5.6824282284917409,15.025644265950779,0.0
744640.0783812654,3970767.5119837918,-17500.0,-2.451430761670903,6.5211988902955325,3.1776225134130978,3.3120509918060539,-0.46892565680568898,-1.3460455566514791,7.9127037101969275,6.3094837072302932,-5.7203659048785989,5.7203659048785989,-6.3094837072302932,13.705205910486828,0.0
749640.0783812654,3970767.5119837918,-17500.0,-3.4105883936551651,4.3806613504204197,7.7363038816559495,2.4526034565752166,2.2769185706050434,-0.032716623966595235,7.7826032206818727,5.5376507590011439,-1.3300356642262612,1.3300356642262612,-5.5376507590011439,13.754268414991429,0.0
754640.0783812654,3970767.5119837918,-17500.0,-3.2794283105259985,1.4990312675752602,10.413158932680048,1.1128877865024236,4.1374405254183841,0.95572880444446995,7.8759738655996632,3.7847183088504481,2.9841394959693321,-2.9841394959693321,-3.7847183088504481,14.4653146222107,0.0
759640.0783812654,3970767.5119837918,-17500.0,-2.2077722328294889,-1.2342091658173473,11.19145373146719,-0.26969695880634897,5.0198591285180605,1.5437489232060193,7.8829993006469419,1.6960049326818076,6.3244840941680351,-6.3244840941680351,-1.6960049326818076,14.957629187178499,0.0
764640.0783812654,3970767.5119837918,-17500.0,-0.64427536769869831,-3.2642400507651832,10.561053272015936,-1.3884862090570784,5.1060865221248912,1.7766126311350467,7.6509762026567376,-0.18611222480630651,8.3251662900355079,-8.3251662900355079,0.18611222480630651,14.841127750261872,0.0
769640.0783812654,3970767.5119837918,-17500.0,0.9534656210725968,-4.4362648286267596,9.1503531631634427,-2.1210572913192469,4.684401025018726,1.757917721043305,7.1819915318284391,-1.5762445370814602,9.0785749865884533,-9.0785749865884533,1.5762445370814602,14.128373333128986,0.0
774640.0783812654,3970767.5119837918,-17500.0,2.2838298614196564,-4.8651430143452847,7.4773310128246715,-2.4847480067857179,4.0197878457763005,1.5948645948732705,6.5519634599847159,-2.4233272477027863,8.9110560711585514,-8.9110560711585514,2.4233272477027863,13.001235320159655,0.0
779640.0783812654,3970767.5119837918,-17500.0,3.2237611472589216,-4.7718595267905801,5.8678576621373164,-2.564764253918864,3.298466163160259,1.3701924936526799,5.8518185880111284,-2.8127804984527423,8.1860618633947198,-8.1860618633947198,2.8127804984527423,11.662486514635605,0.0
784640.0783812654,3970767.5119837918,-17500.0,3.7772008166241502,-4.3734086125579683,4.4788684678192325,-2.4590959476247045,2.6262687502271436,1.1364685563280312,5.1570600795747676,-2.8760916682480984,7.1992381167299291,-7.1992381167299291,2.8760916682480984,10.272884245777309,0.0
789640.0783812654,3970767.5119837918,-17500.0,4.0120275368020186,-3.8356092151336414,3.3556809710385833,-2.2503527546084126,2.0496920310742808,0.92157670978246586,4.4944466659044799,-2.7371685232261331,6.1501812999232186,-6.1501812999232186,2.7371685232261331,8.9378375081763384,0.0
794640.0783812654,3970767.5119837918,-17500.0,4.0141622659507066,-3.266486866993501,2.4841110877539947,-1.9975194723185081,1.5793003573536661,0.73696787136587505,3.8846107278232638,-2.4912397325364948,5.1543037911032394,-5.1543037911032394,2.4912397325364948,7.715530759642875,0.0
799640.0783812654,3970767.5119837918,-17500.0,3.8627583054878896,-2.7272479542461263,1.8254996623301218,-1.7379016166351144,1.2074370919792101,0.58468855219643012,3.3410029495588209,-2.2027106037777453,4.2670417389151449,-4.2670417389151449,2.2027106037777453,6.6306976587073994,0.0
804640.0783812654,3970767.5119837918,-17500.0,3.6206526978357751,-2.2469775679238029,1.3361554057923311,-1.4924953733653734,0.91925293476980841,0.462173041705295,2.8668162453266888,-1.9108692026340397,3.5065378199168467,-3.5065378199168467,1.9108692026340397,5.687162135828177,0.0
809640.0783812654,3970767.5119837918,-17500.0,3.3332768665793933,-1.8351390255889994,0.97633174720674942,-1.2713926036543324,0.69863609268686278,0.36508353151942186,2.4589475191407195,-1.6372006695391996,2.8703586211986436,-2.8703586211986436,1.6372006695391996,4.8771193888625799,0.0
814640.0783812654,3970767.5119837918,-17500.0,3.0312159757896913,-1.4904268485166847,0.71330241729244726,-1.0780175318964338,0.53093391431674797,0.28880502308902417,2.1111706915373198,-1.3916886424132149,2.3462731295098069,-2.3462731295098069,1.3916886424132149,4.1872453954363831,0.0
819640.0783812654,3970767.5119837918,-17500.0,2.7337392236872367,-1.2063829670877364,0.52156571571221955,-0.9120547426027269,0.40390052699621587,0.22912953993724777,1.8161201953140544,-1.1774334729503984,1.9185514274965014,-1.9185514274965014,1.1774334729503984,3.6023836781477589,0.0
824640.0783812654,3970767.5119837918,-17500.0,2.4520797986820209,-0.97466841112542635,0.38189068539347887,-0.77131199902325842,0.30777345126082672,0.18249817786246783,1.566407682457148,-0.99373301524830837,1.5713129774849801,-1.5713129774849801,0.99373301524830837,3.1075868711191266,0.0
649640.0783812654,3975767.5119837918,-17500.0,-1.5843278344105831,0.054152058826359366,0.2435615507680893,-0.43646111393484055,0.028119466493767432,-0.08991274667430782,0.97522392657709278,0.33151997607278239,-0.22673829962783165,0.22673829962783165,-0.33151997607278239,1.8508092674620744,0.0
654640.0783812654,3975767.5119837918,-17500.0,-1.9093105953540943,-0.035581211645922033,0.25633451536621926,-0.55791173333751098,0.00060366439422370464,-0.12314752597867216,1.1635364976048512,0.33773513617466777,-0.20563136067669452,0.20563136067669452,-0.33773513617466777,2.2248140608893663,0.0
659640.0783812654,3975767.5119837918,-17500.0,-2.2997160272270922,-0.16849691971362621,0.25657380960172438,-0.71545757362295426,-0.045169307642799375,-0.16977359599435618,1.3981431584463828,0.32956358386195916,-0.1670606851197676,0.1670606851197676,-0.32956358386195916,2.6932239702873355,0.0
664640.0783812654,3975767.5119837918,-17500.0,-2.7647409252413437,-0.36103232435117422,0.23362795944149284,-0.91983992388989111,-0.11883115578079971,-0.23558671853628568,1.6920091264973631,0.29833513738378831,-0.10468903439438033,0.10468903439438033,-0.29833513738378831,3.2825617583156084,0.0
669640.0783812654,3975767.5119837918,-17500.0,-3.3111796870148331,-0.63465319354091321,0.17024738675070034,-1.1843758401697346,-0.23480167392678405,-0.32896536063651444,2.0618600919034114,0.2315747096538075,-0.011167836428440159,0.011167836428440159,-0.2315747096538075,4.0266068794412506,0.0
674640.0783812654,3975767.5119837918,-17500.0,-3.9397862211367016,-1.0162365773922906,0.039065392488448709,-1.5248024480963829,-0.4144485357975688,-0.46194722138218608,2.5292684009571786,0.11191265218714258,0.12083582632901443,-0.12083582632901443,-0.11191265218714258,4.9676352103073791,0.0
679640.0783812654,3975767.5119837918,-17500.0,-4.6391414062479743,-1.5370771780661416,-0.2022985679843444,-1.9581398732646045,-0.68890701247422059,-0.65160010074866936,3.1221804837703586,-0.083697476916663197,0.29605457151597298,-0.29605457151597298,0.083697476916663197,6.1569877870789478,0.0
684640.0783812654,3975767.5119837918,-17500.0,-5.3761091382971014,-2.2287564442646564,-0.61737654169417844,-2.4995455962112261,-1.1023139999486777,-0.92154166598702936,3.8758292066436471,-0.38351894148041071,0.51114616318802575,-0.51114616318802575,0.38351894148041071,7.653832422172842,0.0
689640.0783812654,3975767.5119837918,-17500.0,-6.0825254334281631,-3.1128132174834096,-1.2969298175996176,-3.1554813398885755,-1.7144477237776869,-1.3030844716642176,4.8271041288155088,-0.81738849119052415,0.74437577732765037,-0.74437577732765037,0.81738849119052415,9.5200056945974723,0.0
694640.0783812654,3975767.5119837918,-17500.0,-6.6399135273453647,-4.1796929494154442,-2.3609110813560812,-3.9108838443031009,-2.6001170719760154,-1.8346886136556468,6.0030758165503872,-1.4064078982172785,0.93832438374415938,-0.93832438374415938,1.4064078982172785,11.807406251744519,0.0
699640.0783812654,3975767.5119837918,-17500.0,-6.8693369979338801,-5.3522311626897423,-3.9468819997136793,-4.7082470342646632,-3.8396635289466285,-2.5570013790025539,7.4107402983748605,-2.1408954764811892,0.97529615117336943,-0.97529615117336943,2.1408954764811892,14.532905030775275,0.0
704640.0783812654,3975767.5119837918,-17500.0,-6.5433558113943722,-6.4338436887893211,-6.1674213161660658,-5.4196685752206291,-5.4908629667170121,-3.4988965858671897,9.0175132942074878,-2.9420535895013158,0.65218028088085123,-0.65218028088085123,2.9420535895013158,17.635637954642469,0.0
709640.0783812654,3975767.5119837918,-17500.0,-5.4488765010911875,-7.0589659476063567,-9.013125762409361,-5.8225879235930762,-7.5303186017082853,-4.6490097052715367,10.720652820019023,-3.6109978311388011,-0.32161387153301702,0.32161387153301702,3.6109978311388011,20.91665054892945,0.0
714640.0783812654,3975767.5119837918,-17500.0,-3.5285980358890727,-6.6993966935696827,-12.190726294392707,-5.6086267688597893,-9.7612566064356763,-5.911478684910568,12.318504382052978,-3.7931076512999327,-2.2535204371986635,2.2535204371986635,3.7931076512999327,23.977739485370986,0.0
719640.0783812654,3975767.5119837918,-17500.0,-1.0808252416821462,-4.8202492331423059,-14.948580968968677,-4.4737541964219885,-11.719862379029612,-7.0607824209374099,13.513902690533913,-3.0263955972687002,-5.2636849536046908,5.2636849536046908,3.0263955972687002,26.20990865579061,0.0
724640.0783812654,3975767.5119837918,-17500.0,1.1237655120900281,-1.2525173565590897,-16.065959794919422,-2.3207094352213029,-12.676981081407,-7.7398438544797985,13.994297041738465,-0.96117862679112509,-8.9561845876832891,8.9561845876832891,0.96117862679112509,26.919662719697808,0.0
729640.0783812654,3975767.5119837918,-17500.0,2.0632935864632271,3.3526882676434808,-14.261994183684584,0.50011639436604771,-11.868374804206066,-7.5623406146612213,13.596462107099816,2.2616019954418913,-12.182444369419885,12.182444369419885,-2.2616019954418913,25.672426313294292,0.0
734640.0783812654,3975767.5119837918,-17500.0,1.1247252539777437,7.441952687156677,-9.0494614970273997,3.143052326773677,-8.9621007656079108,-6.3265866716648675,12.491086731730551,5.7469489974676602,-13.312468758287123,13.312468758287123,-5.7469489974676602,22.802788205939866,0.0
739640.0783812654,3975767.5119837918,-17500.0,-1.2407047545992298,9.2720654700740788,-1.4524156100514412,4.6270361165109284,-4.4607419391074581,-4.211956598337359,11.26201577385425,8.1228219244047004,-11.175947834498981,11.175947834498981,-8.1228219244047004,19.750462085533037,0.0
744640.0783812654,3975767.5119837918,-17500.0,-3.6372518303475938,8.0688447590840067,6.272425958745572,4.4393193976418681,0.40985951067947901,-1.7566546542499712,10.590399352719064,8.3718250044303062,-6.0272672901139268,6.0272672901139268,-8.3718250044303062,18.386071885889613,0.0
749640.0783812654,3975767.5119837918,-17500.0,-4.6994046973311061,4.5538732762551808,11.922218001334937,2.8506011509744713,4.3587581048066051,0.41808217961076904,10.584624589613616,6.5153859317204716,0.47197511038676643,-0.47197511038676643,-6.5153859317204716,18.999827891368277,0.0
754640.0783812654,3975767.5119837918,-17500.0,-3.9822282980710448,0.31936139987288054,14.514882123684625,0.65129423818532861,6.6831041280727215,1.9141827502397908,10.740773858505992,3.4866822126250745,6.3170473181078481,-6.3170473181078481,-3.4866822126250745,20.085177643671788,0.0
759640.0783812654,3975767.5119837918,-17500.0,-1.9882367160851961,-3.2329476951412013,14.411857997201707,-1.3802423394504286,7.4143710420603197,2.661782068273014,10.599325544869048,0.4161478754100667,10.242080273768305,-10.242080273768305,-0.4161478754100667,20.403793417182172,0.0
764640.0783812654,3975767.5119837918,-17500.0,0.42109379474841241,-5.4588059504090873,12.646625102426919,-2.8115890682587703,7.0224310098095195,2.81938723961213,10.038727379021847,-1.9553169073113486,12.016763003636569,-12.016763003636569,1.9553169073113486,19.67102981414666,0.0
769640.0783812654,3975767.5119837918,-17500.0,2.5594466832866143,-6.3880272307356387,10.231473963024897,-3.5675653069447781,6.0494767804443761,2.6163179588875112,9.1584022780470846,-3.4020641216469389,12.092199665849314,-12.092199665849314,3.4020641216469389,18.133357914528915,0.0
774640.0783812654,3975767.5119837918,-17500.0,4.0978748207758686,-6.3760701540707823,7.8377520183558502,-3.7785159016149654,4.9046295423077062,2.2481375638133767,8.1211465954915081,-4.0398254420020656,11.122650780998633,-11.122650780998633,4.0398254420020656,16.16435991583343,0.0
779640.0783812654,3975767.5119837918,-17500.0,4.995555078780102,-5.8200867297416652,5.7884965840111278,-3.6329288195394325,3.8230831250961432,1.8425397883033561,7.0669324419602306,-4.1107132991715289,9.6698061696561481,-9.6698061696561481,4.1107132991715289,14.075974429359965,0.0
784640.0783812654,3975767.5119837918,-17500.0,5.362052381506583,-5.0273343229403942,4.1732264341407692,-3.2958311111712546,2.9059509002953781,1.466756574446533,6.0667138511647041,-3.8485785094015972,8.1088421593941717,-8.1088421593941717,3.8485785094015972,12.070593981169727,0.0
789640.0783812654,3975767.5119837918,-17500.0,5.3505324087000901,-4.1914588695104005,2.9624182443027562,-2.883127944339694,2.1747525570263297,1.1476251507997588,5.1585346935954952,-3.4276254267980617,6.6463067003792249,-6.6463067003792249,3.4276254267980617,10.254823497946395,0.0
794640.0783812654,3975767.5119837918,-17500.0,5.1013238454448002,-3.4151221269394467,2.0827162412585829,-2.4648376159099343,1.6129972796657737,0.88963718017223059,4.36285363481716,-2.9588530855596558,5.372250928373318,-5.372250928373318,2.9588530855596558,8.6693482198501908,0.0
799640.0783812654,3975767.5119837918,-17500.0,4.7220376346187862,-2.7415541319122756,1.4557841009704069,-2.0775501956545974,1.1909533097865166,0.68700806040863038,3.6820734353950151,-2.5043989407193519,4.3086412137433285,-4.3086412137433285,2.5043989407193519,7.3159112340818515,0.0
804640.0783812654,3975767.5119837918,-17500.0,4.2867116445192641,-2.1802315254841242,1.0141002849116243,-1.7366902657025201,0.87796652336189174,0.5304710310174271,3.1081039053053261,-2.0940914401267188,3.443200500924676,-3.443200500924676,2.0940914401267188,6.1763740459854439,0.0
809640.0783812654,3975767.5119837918,-17500.0,3.8421891052258319,-1.7239110388413206,0.70490617925989052,-1.4456424277912667,0.64744449815371963,0.41058984900654188,2.6283075081723553,-1.7385626064927284,2.7496893866735461,-2.7496893866735461,1.7385626064927284,5.2244929791056407,0.0
814640.0783812654,3975767.5119837918,-17500.0,3.4157403998006313,-1.3586089370575181,0.48911847926807833,-1.2016642668232718,0.47813415243734891,0.31910546790552785,2.2289781065111733,-1.4380901718390549,2.1987120930366157,-2.1987120930366157,1.4380901718390549,4.432478613690308,0.0
819640.0783812654,3975767.5119837918,-17500.0,3.0215732823018397,-1.0688806991835957,0.33866353661872844,-0.9993806807381117,0.3537941417164045,0.24929721260025034,1.8971155710470944,-1.1880047486949137,1.762789457642836,-1.762789457642836,1.1880047486949137,3.774263741644579,0.0
824640.0783812654,3975767.5119837918,-17500.0,2.6656722509570083,-0.84030575644176919,0.23373509422146357,-0.83269208585535937,0.26232815171548651,0.19590950044754427,1.6211891101924045,-0.98175606819089112,1.4182905552254299,-1.4182905552254299,0.98175606819089112,3.2268647906045049,0.0
649640.0783812654,3980767.5119837918,-17500.0,-1.4476742689015836,0.26634797325435283,0.31151386746030713,-0.39111970333676899,0.091847689757226694,-0.078526929615732821,0.97360319879919388,0.43943148353736083,-0.35066652892855765,0.35066652892855765,-0.43943148353736083,1.8049307935521739,0.0
654640.0783812654,3980767.5119837918,-17500.0,-1.7810099152613317,0.22193860863896342,0.3538171043140394,-0.5108990860988909,0.082066528201337335,-0.11024093608119288,1.1640045279499849,0.47807396144724851,-0.35597591876601492,0.35597591876601492,-0.47807396144724851,2.1755875612749973,0.0
659640.0783812654,3980767.5119837918,-17500.0,-2.1931780390259448,0.14253972762925551,0.39539193679908291,-0.67030514231916893,0.058878665909011196,-0.15587135855669654,1.4034127037808839,0.51167524604576664,-0.34788956065595611,0.34788956065595611,-0.51167524604576664,2.6451619781463416,0.0
664640.0783812654,3980767.5119837918,-17500.0,-2.7007637827917055,0.011434467180560296,0.42994599796180444,-0.88308542115590338,0.013549229288926028,-0.22206359570599354,1.7067582524505105,0.53374964392913982,-0.31931033267471792,0.31931033267471792,-0.53374964392913982,3.2443288980366987,0.0
669640.0783812654,3980767.5119837918,-17500.0,-3.3210525630671275,-0.19494501921408661,0.44575387715723569,-1.1674940062698089,-0.067812102978791464,-0.3188307315265948,2.09388501432172,0.5339628467460813,-0.26075510812699193,0.26075510812699193,-0.5339628467460813,4.0137651953463118,0.0
674640.0783812654,3980767.5119837918,-17500.0,-4.069081043108226,-0.5090019916544728,0.42189205593248319,-1.54717909512607,-0.20714242864563004,-0.46126748715854138,2.5910999578096536,0.49640678970287377,-0.16039820114620074,0.16039820114620074,-0.49640678970287377,5.0069778211634661,0.0
679640.0783812654,3980767.5119837918,-17500.0,-4.9516072673017462,-0.97350040788156034,0.32226465194728421,-2.0514460181273146,-0.43871768702875735,-0.6720243033692993,3.2331017724604494,0.39756304821744404,-0.0052932125969383237,0.0052932125969383237,-0.39756304821744404,6.293203000165172,0.0
684640.0783812654,3980767.5119837918,-17500.0,-5.955958881996871,-1.6409753613385765,0.086628430130480619,-2.7136815046337666,-0.81514906747358018,-0.98466148602350201,4.0653177021378575,0.20456993103034715,0.21466314440693446,-0.21466314440693446,-0.20456993103034715,7.9593446335811917,0.0
689640.0783812654,3980767.5119837918,-17500.0,-7.0312521299083786,-2.5673792829262996,-0.38160353598177416,-3.5654824588355081,-1.4147977314691642,-1.4476378450134162,5.1458401389046591,-0.1244408834612358,0.49711511053174207,-0.49711511053174207,0.1244408834612358,10.108549081322813,0.0
694640.0783812654,3980767.5119837918,-17500.0,-8.0603962809538956,-3.7929303781829047,-1.2286193822091847,-4.6220819097252592,-2.3484633124692715,-2.127619291600011,6.5407469260623046,-0.63383997752328147,0.80729074889469121,-0.80729074889469121,0.63383997752328147,12.8504994264914,0.0
699640.0783812654,3980767.5119837918,-17500.0,-8.8265016167573549,-5.2988315667404313,-2.6557470078302807,-5.8525053739986017,-3.7586405805788177,-3.1082738000405019,8.3028257712727349,-1.3498541328730356,1.0421080765626016,-1.0421080765626016,1.3498541328730356,16.274550794740613,0.0
704640.0783812654,3980767.5119837918,-17500.0,-8.9921468159318376,-6.9273478357081553,-4.8941146165653224,-7.1282473638374242,-5.7956056789995154,-4.4759006761035511,10.439082275268078,-2.2336947926864674,0.97738094056478997,-0.97738094056478997,2.2336947926864674,20.392398978822204,0.0
709640.0783812654,3980767.5119837918,-17500.0,-8.1393564074570222,-8.2676876484253228,-8.1025697584155285,-8.1549447985130286,-8.541815898044705,-6.2767048879650051,12.864066208623871,-3.0991374463838186,0.21845089175573507,-0.21845089175573507,3.0991374463838186,25.037242477902897,0.0
714640.0783812654,3980767.5119837918,-17500.0,-5.9510331058498576,-8.5670226713864999,-12.12973242893233,-8.4265768054750065,-11.852037728724291,-8.429033702808189,15.33359731696026,-3.5140110545740089,-1.7723841758133498,1.7723841758133498,3.5140110545740089,29.725773479822731,0.0
719640.0783812654,3980767.5119837918,-17500.0,-2.5873590487641422,-6.8404077709209608,-16.142555087298803,-7.3064588550476959,-15.120613592455911,-10.597617583225153,17.399765417880463,-2.7856970546970112,-5.4248986897320721,5.4248986897320721,2.7856970546970112,33.552233626601925,0.0
724640.0783812654,3980767.5119837918,-17500.0,0.9052767759012188,-2.4319365367083394,-18.365085600356633,-4.3753817390280032,-17.134937896329845,-12.112762298939714,18.485920597902076,-0.23593637593591144,-10.466665918571771,10.466665918571771,0.23593637593591144,35.297974577042545,0.0
729640.0783812654,3980767.5119837918,-17500.0,2.7174577310942793,3.9989539118207782,-16.525908003080517,-0.017270975528083758,-16.372150466249142,-12.116685330196885,18.182195077355878,4.1082235857930529,-15.248786674009359,15.248786674009359,-4.1082235857930529,34.014964494402491,0.0
734640.0783812654,3980767.5119837918,-17500.0,1.4864478845897831,9.9421804777686358,-9.4377547407706146,4.2619418851015931,-11.971874335607311,-10.05888210956779,16.700401760090969,8.8421445591946668,-16.940090380324719,16.940090380324719,-8.8421445591946668,30.125071827588027,0.0
739640.0783812654,3980767.5119837918,-17500.0,-2.1237117741132669,12.253187983375913,1.2982728587542893,6.5088196659251771,-4.7907813877145786,-6.2596809733038317,15.102219246175256,11.589809026742758,-13.359035161683304,13.359035161683304,-11.589809026742758,26.255289935533799,0.0
744640.0783812654,3980767.5119837918,-17500.0,-5.5157097092734126,9.6672864757696289,11.699412320006624,5.7632063925728083,2.7523699382112015,-1.9054175656845949,14.531277018341147,10.749181082639007,-5.1364772655492228,5.1364772655492228,-10.749181082639007,25.494755618481751,0.0
749640.0783812654,3980767.5119837918,-17500.0,-6.3571564940109537,3.8617837815269254,18.182200941833838,2.7730363620851155,8.2608427006137983,1.6897394373795052,14.832193389238014,6.841457615334166,4.4477656875090332,-4.4477656875090332,-6.841457615334166,27.239692037178553,0.0
754640.0783812654,3980767.5119837918,-17500.0,-4.3551732891068182,-2.1971957800803614,19.79017795011859,-0.8012328968936252,10.77975290186119,3.8401669487812002,14.983534772313243,1.8771180224775632,11.985818204580024,-11.985818204580024,-1.8771180224775632,28.588465641588815,0.0
759640.0783812654,3980767.5119837918,-17500.0,-0.84289404916591315,-6.4571509084417702,17.854262242319642,-3.6326272701413629,10.805573201444977,4.610710258180716,14.42271581101145,-2.2970689418102186,15.960503249579782,-15.960503249579782,2.2970689418102186,28.148039613671532,0.0
764640.0783812654,3980767.5119837918,-17500.0,2.6527315767439297,-8.4451733670890974,14.331001504076333,-5.2379170536137032,9.4139320495650001,4.4554643021943905,13.205962521730973,-4.8870100025326302,16.729019134966929,-16.729019134966929,4.8870100025326302,26.090526424050289,0.0
769640.0783812654,3980767.5119837918,-17500.0,5.2549203253051369,-8.6716455294007293,10.662012949706099,-5.757129496247396,7.5369793228299846,3.8476296077061569,11.632259476020682,-5.9840421802233701,15.455386296509666,-15.455386296509666,5.9840421802233701,23.114293622841288,0.0
774640.0783812654,3980767.5119837918,-17500.0,6.7623720387336972,-7.8844629940943198,7.5484054656990827,-5.5583135398299328,5.7260209556821637,3.1136847539131223,9.9793855062816661,-6.0477629866534777,13.250807882657167,-13.250807882657167,6.0477629866534777,19.857983883384613,0.0
779640.0783812654,3980767.5119837918,-17500.0,7.348898779843239,-6.6799638879837326,5.1742211079652227,-4.9873342511318297,4.2123121509343546,2.4253079371886686,8.4111292055570335,-5.542751739528553,10.85472057582753,-10.85472057582753,5.542751739528553,16.732624692319455,0.0
784640.0783812654,3980767.5119837918,-17500.0,7.2995797025566409,-5.4199938758229793,3.4729302690681565,-4.2835019241301984,3.0403413842329856,1.8487696064335706,7.0106008585272201,-4.8024065444520918,8.65098499054786,-8.65098499054786,4.8024065444520918,13.942791380008117,0.0
789640.0783812654,3980767.5119837918,-17500.0,6.8738338928165872,-4.2809174070283351,2.2984765458765883,-3.5836040110656842,2.1717261966268926,1.3940616931830203,5.8101910284340752,-4.0235090494993164,6.7867846203768076,-6.7867846203768076,4.0235090494993164,11.556144724779239,0.0
794640.0783812654,3980767.5119837918,-17500.0,6.2620150990482255,-3.3252937015536363,1.5057260413851101,-2.9526233509955442,1.5437962549661972,1.0471797566164265,4.8074209150814156,-3.3040591266173225,5.2815364795215194,-5.2815364795215194,3.3040591266173225,9.5650477346352396,0.0
799640.0783812654,3980767.5119837918,-17500.0,5.587115914885338,-2.556909538605503,0.97771928182544876,-2.4130736648106468,1.0959469540857065,0.78724140393396524,3.982213874611424,-2.6823146658637276,4.0979863182757379,-4.0979863182757379,2.6823146658637276,7.9275619903983081,0.0
804640.0783812654,3980767.5119837918,-17500.0,4.9209561308472942,-1.9543395627953291,0.62878793058654037,-1.9654562868035046,0.77854083092913051,0.59408358574707409,3.3084626427170045,-2.1647877652190375,3.1809589557574545,-3.1809589557574545,2.1647877652190375,6.590798983325926,0.0
809640.0783812654,3980767.5119837918,-17500.0,4.3010408036187098,-1.4886814991895618,0.39928710057102162,-1.6004982107818158,0.55397365017471456,0.4508903268857965,2.7601235302730132,-1.7432831422402622,2.4755834048316689,-2.4755834048316689,1.7432831422402622,5.5026324222455996,0.0
814640.0783812654,3980767.5119837918,-17500.0,3.7436776579794877,-1.1317727493492811,0.24884663785149752,-1.3057358920288034,0.39491022559875177,0.34457690453429979,2.3138942238349527,-1.4042130765951448,1.934358078044482,-1.934358078044482,1.4042130765951448,4.6166954225065409,0.0
819640.0783812654,3980767.5119837918,-17500.0,3.2529512277790653,-0.8593351758186617,0.15056355105130062,-1.0687134201208544,0.28192048592963059,0.2653272097835162,1.9500623309992766,-1.1332234495336309,1.5188199401915154,-1.5188199401915154,1.1332234495336309,3.8938659544068015,0.0
824640.0783812654,3980767.5119837918,-17500.0,2.8264154443017588,-0.65167790777625423,0.086650847023124047,-0.87832729093441608,0.20135193934058707,0.20591933564929174,1.6525135608839387,-0.91722312736145462,1.1989274512777355,-1.1989274512777355,0.91722312736145462,3.3020938849541746,0.0
829640.0783812654,3980767.5119837918,-17500.0,2.4585133377257429,-0.49336094340330733,0.045386621845944844,-0.72523090212209329,0.14365863342517574,0.16109083116897918,1.4086517962052918,-0.74507783706823716,0.95168152824792873,-0.95168152824792873,0.74507783706823716,2.8155580524594717,0.0
644640.0783812654,3985767.5119837918,-17500.0,-0.97398247701696106,0.46261151212028795,0.29261366462552751,-0.24032838287980526,0.14306975031529037,-0.042720955843182667,0.8209993548959027,0.46240999618671491,-0.43584848147803917,0.43584848147803917,-0.46240999618671491,1.4726472238527053,0.0
649640.0783812654,3985767.5119837918,-17500.0,-1.2250157611055101,0.48498104683370941,0.3475608129023976,-0.32108527872776466,0.15646868925644572,-0.06173805278377803,0.97241745433201698,0.5248517063993029,-0.47517499817562053,0.47517499817562053,-0.5248517063993029,1.7564803735846468,0.0
654640.0783812654,3985767.5119837918,-17500.0,-1.5438278052438077,0.49530039533317721,0.41251632722748455,-0.43081528933818558,0.16704025719958843,-0.089636102193783235,1.1619333930595188,0.59412849863327843,-0.51262200641760458,0.51262200641760458,-0.59412849863327843,2.1150736857457675,0.0
659640.0783812654,3985767.5119837918,-17500.0,-1.9492555077347316,0.4844411452745841,0.48793996505970638,-0.58080413768647943,0.17104819593977189,-0.13094066998094281,1.4014610069024906,0.66905260711468462,-0.54427579761904255,0.54427579761904255,-0.66905260711468462,2.5726298598682273,0.0
664640.0783812654,3985767.5119837918,-17500.0,-2.4646796643156854,0.43825133509882985,0.57279725223826006,-0.78695274317771535,0.16194865339108003,-0.1926883924168783,1.7072148375939695,0.74668126331943308,-0.56395882249173046,0.56395882249173046,-0.74668126331943308,3.162253622389549,0.0
669640.0783812654,3985767.5119837918,-17500.0,-3.1181075450062035,0.33510037871015319,0.6628805154588564,-1.0715819768423875,0.12844634238624603,-0.28591194057106162,2.1013689185656421,0.8210788914025533,-0.56229956475236986,0.56229956475236986,-0.8210788914025533,3.9293690166772035,0.0
674640.0783812654,3985767.5119837918,-17500.0,-3.940956307259158,0.14250651054186575,0.74769141412945728,-1.465702506157218,0.051250472893521921,-0.42801889639275437,2.6143181518991674,0.8814023683091885,-0.52572316981654899,0.52572316981654899,-0.8814023683091885,4.9362816350295846,0.0
679640.0783812654,3985767.5119837918,-17500.0,-4.96395764206971,-0.1870723090679238,0.80481507209179071,-2.0114819174966083,-0.10225635479654037,-0.64655518066751494,3.2876799431540507,0.90911835731631196,-0.43583339243519381,0.43583339243519381,-0.90911835731631196,6.2679442301269424,0.0
684640.0783812654,3985767.5119837918,-17500.0,-6.2072712029127617,-0.72040841542995382,0.79012693062308792,-2.7639254427326327,-0.38652154798730354,-0.98498907436943139,4.1781127422251227,0.87440643173420229,-0.27047717980036656,0.27047717980036656,-0.87440643173420229,8.0384349960327519,0.0
689640.0783812654,3985767.5119837918,-17500.0,-7.6599451458962795,-1.5446867290407027,0.62166647088380966,-3.7891263655037428,-0.89062697201586638,-1.5110851509403003,5.3618233540679272,0.7326885770238587,-0.0095545613756986558,0.0095545613756986558,-0.7326885770238587,10.396218359014581,0.0
694640.0783812654,3985767.5119837918,-17500.0,-9.2419331745917201,-2.7580665438061454,0.15560666569143572,-5.1530010845001755,-1.7554010562086388,-2.3275480448060675,6.9383667711587238,0.42464946440754092,0.34799403104366755,-0.34799403104366755,-0.42464946440754092,13.522929392689718,0.0
699640.0783812654,3985767.5119837918,-17500.0,-10.743062408072353,-4.4329779164497225,-0.84244525345366927,-6.8883564755729587,-3.1901411585079842,-3.5813768607921994,9.0247387476463814,-0.11136756486188537,0.74448264225617022,-0.74448264225617022,0.11136756486188537,17.613633906595798,0.0
704640.0783812654,3985767.5119837918,-17500.0,-11.746846580363131,-6.5226325807783843,-2.7110874273191476,-8.9206156478676704,-5.470800405114157,-5.4596929505696936,11.715912640752027,-0.89572434510228371,0.98602539774260023,-0.98602539774260023,0.89572434510228371,22.814893544780666,0.0
709640.0783812654,3985767.5119837918,-17500.0,-11.592068149157241,-8.6770355616962593,-5.8313090147940585,-10.933520386399714,-8.8720875790985865,-8.1417981438822906,15.001307106815416,-1.8033774384235435,0.62572205152258809,-0.62572205152258809,1.8033774384235435,29.083582843838329,0.0
714640.0783812654,3985767.5119837918,-17500.0,-9.5195623778816447,-9.9871404030359852,-10.3616755295921,-12.198383207252379,-13.443969950157268,-11.653366513056364,18.641446205302167,-2.3850978934923139,-1.1230754431164689,1.1230754431164689,2.3850978934923139,35.934898540098231,0.0
719640.0783812654,3985767.5119837918,-17500.0,-5.2373269008117802,-8.8818118592212958,-15.625512386212609,-11.532319051600957,-18.549179739039406,-15.577008689366796,22.023690498543317,-1.7112518190698349,-5.194218471695887,5.194218471695887,1.7112518190698349,42.133976618558982,0.0
724640.0783812654,3985767.5119837918,-17500.0,0.089894455677133556,-3.768121123206043,-19.315590050236132,-7.7759288678337963,-22.318496123077033,-18.720871523397253,24.158933086056148,1.3921774256974464,-11.766270314869296,11.766270314869296,-1.3921774256974464,45.647814242690259,0.0
729640.0783812654,3985767.5119837918,-17500.0,3.405763916421336,5.0743838871234361,-17.618060507891251,-1.0829938473889151,-21.807609623463051,-19.20700130853097,24.149543696057389,7.1991640222055402,-18.679713116088646,18.679713116088646,-7.1991640222055402,44.557982379095129,0.0
734640.0783812654,3985767.5119837918,-17500.0,1.7604617138828393,13.665575916888944,-7.8970014480862485,5.874549914346983,-14.916219509428382,-15.583293557276292,22.249906754563405,13.500578927323868,-21.035912910057707,21.035912910057707,-13.500578927323868,39.469373986406303,0.0
739640.0783812654,3985767.5119837918,-17500.0,-3.8814582601372054,16.207433756384148,7.3138423607614316,9.0795272581596276,-3.1691839308526908,-8.4694615983753607,20.512879447683297,16.097745507606476,-14.705607085795505,14.705607085795505,-16.097745507606476,35.542030895908262,0.0
744640.0783812654,3985767.5119837918,-17500.0,-8.4647423471830354,10.742016017467538,20.787715139845755,6.7843867927166084,8.4229974802605838,-0.65455453246486739,20.686207922564741,12.610062499741669,-1.3540122172816664,1.3540122172816664,-12.610062499741669,37.220091512399911,0.0
749640.0783812654,3985767.5119837918,-17500.0,-8.1083641307950103,1.2553213740826854,26.893435171383892,1.1203418977224193,15.440920775059846,5.0533990941130433,21.575221976378813,5.089466285717859,12.368413271796637,-12.368413271796637,-5.089466285717859,40.760663230897144,0.0
754640.0783812654,3985767.5119837918,-17500.0,-3.5131172837070226,-6.8567229716419433,25.660353482222273,-4.4375963818272037,17.090040793684498,7.692782614961911,21.381562745824276,-2.3661413631263688,20.998155869585936,-20.998155869585936,2.3661413631263688,41.546092639774407,0.0
759640.0783812654,3985767.5119837918,-17500.0,2.2280347975622274,-11.123889978381278,20.537444202603176,-7.9044335704901707,15.223007017192669,7.9356648615098786,19.7790983270868,-7.2064133021573831,23.559620893990697,-23.559620893990697,7.2064133021573831,38.951136068614282,0.0
764640.0783812654,3985767.5119837918,-17500.0,6.7778398317054593,-11.974841037545291,14.729060036848974,-9.1410913386501829,12.017058455904863,6.9214944159904084,17.314692223528915,-9.1807786417809041,21.964015208625028,-21.964015208625028,9.1807786417809041,34.29575043883888,0.0
769640.0783812654,3985767.5119837918,-17500.0,9.4017876498594699,-10.845637432784349,9.8504925094221232,-8.8627602028207555,8.8358422216252723,5.5186195820579416,14.598775022571013,-9.1774876115385169,18.497918398004362,-18.497918398004362,9.1774876115385169,28.978753582254477,0.0
774640.0783812654,3985767.5119837918,-17500.0,10.359463809299884,-8.9548398665503814,6.2952849948864067,-7.8319577618082956,6.2322615465523841,4.1853151937381226,12.02392141022564,-8.1715435979310289,14.694595371931344,-14.694595371931344,8.1715435979310289,23.888370115413871,0.0
779640.0783812654,3985767.5119837918,-17500.0,10.209160219836853,-7.0082643206888626,3.8994311745002408,-6.5678903473114669,4.2943889660025496,3.0901789194076308,9.7755818545202864,-6.8302504329735321,11.292213801176533,-11.292213801176533,6.8302504329735321,19.433422737122644,0.0
784640.0783812654,3985767.5119837918,-17500.0,9.4524540372450137,-5.3132427022710713,2.3567940830685168,-5.3468612748692639,2.923648090451108,2.2533866912683114,7.9038178445284526,-5.5087974437476701,8.5255968724384346,-8.5255968724384346,5.5087974437476701,15.722417179019921,0.0
789640.0783812654,3985767.5119837918,-17500.0,8.4362992746475598,-3.9525954749155949,1.3904786605860182,-4.2839925555422136,1.9801276156449179,1.6376268620464192,6.3874214523476667,-4.3560174089825141,6.3858665222858439,-6.3858665222858439,4.3560174089825141,12.714276786430034,0.0
794640.0783812654,3985767.5119837918,-17500.0,7.367181181639971,-2.907460210581168,0.79578071774128178,-3.4072370248764132,1.3393569958579865,1.1928754362202476,5.1766904047455551,-3.4100737771843108,4.7744650951488712,-4.7744650951488712,3.4100737771843108,10.310233673472812,0.0
799640.0783812654,3985767.5119837918,-17500.0,6.353302795327652,-2.1241846886862024,0.43456354449922091,-2.7047466496024382,0.90644568067670772,0.87399376572820031,4.2163736960030542,-2.6590553041342302,3.5768475061758744,-3.5768475061758744,2.6590553041342302,8.4007188232224621,0.0
804640.0783812654,3985767.5119837918,-17500.0,5.4426061175482641,-1.5450086558823708,0.21790090764058989,-2.1504421400103229,0.61404042491458899,0.64546361326085511,3.4557492610854914,-2.0732598476664035,2.6912843038044216,-2.6912843038044216,2.0732598476664035,6.8856344417341839,0.0
809640.0783812654,3985767.5119837918,-17500.0,4.6493453891490262,-1.1196547370635732,0.089968247949265376,-1.7161502230319221,0.41602780993650623,0.4810601397574138,2.851943904494127,-1.6203013121654433,2.0365277949009766,-2.0365277949009766,1.6203013121654433,5.6809655625219451,0.0
814640.0783812654,3985767.5119837918,-17500.0,3.9705599268905645,-0.80813956322066616,0.016178966008633847,-1.3765531629277625,0.28139381789272916,0.36202729889699492,2.3703728909106987,-1.2711684368204348,1.5509626720712517,-1.5509626720712517,1.2711684368204348,4.7191774415137395,0.0
819640.0783812654,3985767.5119837918,-17500.0,3.3955425052022239,-0.58009114182624422,-0.024757593041607,-1.1106632739701487,0.1894346378106814,0.27515428310964252,1.9839855814006517,-1.0019809145957432,1.1890955024549963,-1.1890955024549963,1.0019809145957432,3.9472146692269221,0.0
824640.0783812654,3985767.5119837918,-17500.0,2.910954984834984,-0.41299910899596576,-0.04590980100411602,-0.90178728823149268,0.12634683690976883,0.21118975711388657,1.6719464256587135,-0.79391097664039223,0.91778062674930538,-0.91778062674930538,0.79391097664039223,3.3238828523278747,0.0
829640.0783812654,3985767.5119837918,-17500.0,2.5034093499189685,-0.29039505679486938,-0.055288083435905959,-0.73693896116463187,0.08290482568088782,0.16365545378857743,1.4182658788677123,-0.63245402407778106,0.71300060424007039,-0.71300060424007039,0.63245402407778106,2.8173574775038235,0.0
644640.0783812654,3990767.5119837918,-17500.0,-0.70076283680793594,0.62494235659446273,0.28424156845680143,-0.16137319180843512,0.18817769031078441,-0.025342538505006278,0.82912366947344374,0.4971761646883982,-0.5219508268024885,0.5219508268024885,-0.4971761646883982,1.455042812500684,0.0
649640.0783812654,3990767.5119837918,-17500.0,-0.91286942780809532,0.69245237933021209,0.34587717133344836,-0.22563826150150149,0.21687223932521582,-0.039433014377537538,0.97915146915837936,0.57678909615466312,-0.58753856875114518,0.58753856875114518,-0.57678909615466312,1.7263280472827327,0.0
654640.0783812654,3990767.5119837918,-17500.0,-1.1896179304433092,0.761771644929497,0.42273072179970705,-0.31563156553837324,0.24855775132227576,-0.060931980724873144,1.1666893879402873,0.67044858109280869,-0.65933806746044632,0.65933806746044632,-0.67044858109280869,2.0685419307867745,0.0
659640.0783812654,3990767.5119837918,-17500.0,-1.5519364518595546,0.82815362706714202,0.5184076618678809,-0.44251245673012429,0.28189250199859101,-0.09399530550337909,1.4037013325354282,0.77999234620329216,-0.73580548119688427,0.73580548119688427,-0.77999234620329216,2.505361156833704,0.0
664640.0783812654,3990767.5119837918,-17500.0,-2.0274963693568009,0.88299900344821647,0.6368383395919659,-0.62265885348655303,0.31371928348380435,-0.14532089212726254,1.7067224932839511,0.90674630847252446,-0.8135811066386156,0.8135811066386156,-0.90674630847252446,3.0698455574042245,0.0
669640.0783812654,3990767.5119837918,-17500.0,-2.6523507358967402,0.91137747867350971,0.78160719206304807,-0.88018790725583373,0.33745643025079447,-0.22583406611624032,2.0988278890823651,1.0507129557699442,-0.88633389336246737,0.88633389336246737,-1.0507129557699442,3.8085618746834204,0.0
674640.0783812654,3990767.5119837918,-17500.0,-3.4721705306538513,0.88814081967611347,0.9543113849401843,-1.2505933915169154,0.34016124296460237,-0.35355535460113663,2.6124821277359489,1.209096310962456,-0.94308238293267033,0.94308238293267033,-1.209096310962456,4.787532970119452,0.0
679640.0783812654,3990767.5119837918,-17500.0,-4.5417869864946869,0.77206249942039895,1.1509280926262024,-1.7857407754537415,0.29721248782926896,-0.55848373460309109,3.2936181187271059,1.3737611122279412,-0.96600640862054998,0.96600640862054998,-1.3737611122279412,6.100635780882115,0.0
684640.0783812654,3990767.5119837918,-17500.0,-5.920101853283132,0.49764860176161541,1.3542520286020818,-2.5600208379177127,0.16281958455969417,-0.89083915049697915,4.2073350125638829,1.5271512503851159,-0.92827532936050949,0.92827532936050949,-1.5271512503851159,7.8809063046755323,0.0
689640.0783812654,3990767.5119837918,-17500.0,-7.6542457267059767,-0.034503495668143092,1.5189592910378855,-3.6759640703419949,-0.14644426211150938,-1.4346193511624232,5.4455140940365796,1.636478736352788,-0.79391900209732524,0.79391900209732524,-1.636478736352788,10.314241583896607,0.0
694640.0783812654,3990767.5119837918,-17500.0,-9.7414701449868861,-0.96382758847741212,1.5439479993653036,-5.2634958616164651,-0.77863419643043574,-2.3286049883860849,7.1361430241271604,1.6475400234697255,-0.52557329067367908,0.52557329067367908,-1.6475400234697255,13.65184310395945,0.0
699640.0783812654,3990767.5119837918,-17500.0,-12.050573453539632,-2.456447267901567,1.2262740211334406,-7.4572059894844234,-1.9855686760115043,-3.7946661531276709,9.4514827446554168,1.4846017590378895,-0.11431483457491387,0.11431483457491387,-1.4846017590378895,18.209389725532905,0.0
704640.0783812654,3990767.5119837918,-17500.0,-14.185064301615281,-4.6321202996905626,0.20025472870205516,-10.31651358278071,-4.163311705124487,-6.1625171992529815,12.597114139216448,1.0759532135337218,0.3395706946419832,-0.3395706946419832,-1.0759532135337218,24.321846806852371,0.0
709640.0783812654,3990767.5119837918,-17500.0,-15.308736213287322,-7.3523070678940714,-2.0924043756965602,-13.627201913666752,-7.8408518088503554,-9.8472771838372424,16.724538421460682,0.45040591457272489,0.45416449030315925,-0.45416449030315925,-0.45040591457272489,32.187366031339963,0.0
714640.0783812654,3990767.5119837918,-17500.0,-14.104164774877978,-9.7800437528555513,-6.2349753992395547,-16.53122480656436,-13.461426619772286,-15.16352616877928,21.715031300318014,-0.027196438777598309,-0.69337483883604012,0.69337483883604012,0.027196438777598309,41.494634250415494,0.0
719640.0783812654,3990767.5119837918,-17500.0,-9.3555918954418971,-9.834632265088775,-12.101671770346341,-17.127981882096247,-20.663041499318993,-21.775999927744788,26.854953113502134,0.70267511468283317,-4.64424180850739,4.64424180850739,-0.70267511468283317,50.78235102148389,0.0
724640.0783812654,3990767.5119837918,-17500.0,-1.7744888169549646,-4.4717142659658995,-17.278070676810952,-12.815689099917101,-26.933001400260029,-27.742289545547798,30.59610465673375,4.4017885097884877,-12.552907368178928,12.552907368178928,-4.4017885097884877,56.929498863724,0.0
729640.0783812654,3990767.5119837918,-17500.0,3.9232661154584578,7.3117773533548016,-15.967273253506315,-2.7442966512682903,-26.890677236936028,-29.066478996951865,31.175790795532055,11.92316147928582,-22.102322351779836,22.102322351779836,-11.92316147928582,56.392183308934051,0.0
734640.0783812654,3990767.5119837918,-17500.0,1.5610739052192004,19.518707883684076,-2.7449836913091379,8.4370953950218155,-15.62598859011649,-22.022367411337953,29.06163187855789,19.815129930477951,-25.022048988936334,25.022048988936334,-19.815129930477951,50.617954783237664,0.0
739640.0783812654,3990767.5119837918,-17500.0,-7.4693491994952996,21.28977958782091,18.444937623761124,12.198190584396654,3.9844885905443461,-8.0678514309454563,28.600704044986415,20.609203993292162,-13.405492658654923,13.405492658654923,-20.609203993292162,50.410300318957844,0.0
744640.0783812654,3990767.5119837918,-17500.0,-12.861944837339815,10.004208823622683,34.314037417110441,5.7044521585625372,21.039651039354329,5.7096037029306208,31.353554191835904,11.386964868204764,8.2356501912022004,-8.2356501912022004,-11.386964868204764,58.482649785245833,0.0
749640.0783812654,3990767.5119837918,-17500.0,-8.7976131682677288,-4.8138480875309773,36.882024640791037,-4.7977085357567484,27.842008336119854,13.529699873318647,32.962251920542073,-1.6082977093381103,26.3225983247121,-26.3225983247121,1.6082977093381103,63.477085246662391,0.0
754640.0783812654,3990767.5119837918,-17500.0,0.44622878075177741,-14.134424560180785,29.878345336024484,-12.432621651831289,25.780147794048304,15.159933105114979,31.194152648905906,-10.96394697231443,33.475891695168364,-33.475891695168364,10.96394697231443,60.881781317874264,0.0
759640.0783812654,3990767.5119837918,-17500.0,8.7070041945893948,-16.619808846771701,20.438861464298856,-15.330209519644024,19.969727152488641,13.2990666647857,27.092141497872593,-14.646911772958067,31.776847643204501,-31.776847643204501,14.646911772958067,53.243968756525469,0.0
764640.0783812654,3990767.5119837918,-17500.0,13.464497818206718,-15.004744366540594,12.589173056094044,-14.858060685465681,14.030544762825464,10.355092280534064,22.290173359410137,-14.354534594721418,26.116763414518342,-26.116763414518342,14.354534594721418,43.99993611488415,0.0
769640.0783812654,3990767.5119837918,-17500.0,15.047506725913518,-11.946702223770489,7.229841208251921,-12.821723871397735,9.3444209770449493,7.574325824190697,17.799437674564192,-12.263604063680411,19.884213044846987,-19.884213044846987,12.263604063680411,35.239991482056539,0.0
774640.0783812654,3990767.5119837918,-17500.0,14.630377194514324,-8.8899395609427607,3.9256828475640955,-10.406890643944008,6.0500805067979719,5.3689340954823122,14.015887018655881,-9.7650751954263324,14.543592392404589,-14.543592392404589,9.7650751954263324,27.803552092930691,0.0
779640.0783812654,3990767.5119837918,-17500.0,13.232761331939475,-6.3672324072715387,2.0050260829920017,-8.1792554235178319,3.8633692783336766,3.75639815977781,10.99260421431142,-7.4939244911879141,10.433650214213372,-10.433650214213372,7.4939244911879141,21.83043451119638,0.0
784640.0783812654,3990767.5119837918,-17500.0,11.50173562359819,-4.4594210460744845,0.93128650799260992,-6.3298203451882005,2.4523228705987687,2.6232472750205904,8.6400507271896707,-5.646804391482628,7.4316700453539513,-7.4316700453539513,5.646804391482628,17.164299809193366,0.0
789640.0783812654,3990767.5119837918,-17500.0,9.7810034041056948,-3.0797293347289596,0.35053078116915537,-4.871860940685953,1.5529455370155743,1.840840335389947,6.8300194742964289,-4.2234239197018768,5.2932419439238556,-5.2932419439238556,4.2234239197018768,13.564465265284205,0.0
794640.0783812654,3990767.5119837918,-17500.0,8.2243815957284383,-2.1051284092090636,0.048394310727698973,-3.7518957647352149,0.98165184208416301,1.3032268605655088,5.4405599046390831,-3.1556513489519924,3.7855016839530702,-3.7855016839530702,3.1556513489519924,10.797113558893427,0.0
799640.0783812654,3990767.5119837918,-17500.0,6.8822356587853699,-1.4248908958877993,-0.099486397354496145,-2.9016124333615272,0.61826212684002702,0.9328303865264842,4.3709045111481188,-2.3644451355669971,2.7243289070210417,-2.7243289070210417,2.3644451355669971,8.6659403679489788,0.0
804640.0783812654,3990767.5119837918,-17500.0,5.7545055294202463,-0.95278479755320145,-0.16361192902010352,-2.2583333864972723,0.3862851934378092,0.67581964662358007,3.5427839931668879,-1.7804878471983845,1.9750987690974282,-1.9750987690974282,1.7804878471983845,7.0165632168576089,0.0
809640.0783812654,3990767.5119837918,-17500.0,4.8197987164038976,-0.62588429188593597,-0.18340465187013308,-1.7709697098481989,0.23759091667716811,0.49575442289103372,2.8970473607780094,-1.3490697274031407,1.4429369840987742,-1.4429369840987742,1.3490697274031407,5.7313936292886671,0.0
814640.0783812654,3990767.5119837918,-17500.0,4.0501073525646278,-0.39972636073274825,-0.18068132794865885,-1.4001053728240458,0.14196117704461217,0.36820020356158317,2.3895040773677789,-1.0290928598036191,1.0620964359921989,-1.0620964359921989,1.0290928598036191,4.7222165989210989,0.0
819640.0783812654,3990767.5119837918,-17500.0,3.4176423036213879,-0.24338568960155713,-0.16737741780022078,-1.1161498283989031,0.080365675741972675,0.27678582949702052,1.9872561023800168,-0.7904281441370048,0.78728382997129998,-0.78728382997129998,0.7904281441370048,3.9232346880687365,0.0
824640.0783812654,3990767.5119837918,-17500.0,2.8976057084206936,-0.13549673620737049,-0.14991165975060869,-0.89717571341389502,0.040747770437163558,0.21049502349846308,1.6657863115192213,-0.61123505875611905,0.58728545932351195,-0.58728545932351195,0.61123505875611905,3.2853830037005309,0.0
829640.0783812654,3990767.5119837918,-17500.0,2.4689902313058734,-0.061320142073536664,-0.13163699566232873,-0.72701324513430043,0.01541149161639657,0.16186003730178911,1.4067532098666682,-0.47574120681818999,0.4405028387509865,-0.4405028387509865,0.47574120681818999,2.7719602999577022,0.0
644640.0783812654,3995767.5119837918,-17500.0,-0.3642119503046844,0.75954538533210747,0.24641770148121747,-0.065485265176573451,0.22496329877121823,-0.0045210892418050116,0.85122701649585608,0.49784709311891323,-0.58444386573989981,0.58444386573989981,-0.49784709311891323,1.4758137336116139,0.0
649640.0783812654,3995767.5119837918,-17500.0,-0.51609124156241193,0.86860827605052271,0.30500658455430429,-0.10639537561474977,0.26731140688654431,-0.012002194298757974,1.001992470988434,0.5861854865140893,-0.67309199503741046,0.67309199503741046,-0.5861854865140893,1.7395884832423234,0.0
654640.0783812654,3995767.5119837918,-17500.0,-0.72149984960749869,0.99396236874034527,0.38050168589362349,-0.16665784538430486,0.31840159854504985,-0.024492288408033698,1.18955760708471,0.69360154684676145,-0.77638392614006146,0.77638392614006146,-0.69360154684676145,2.0696546425639846,0.0
659640.0783812654,3995767.5119837918,-17500.0,-1.0002818302088556,1.1364036751751196,0.47836092553093856,-0.2557380931448352,0.37960030003873696,-0.045210662211568033,1.4254910214591276,0.82452115902248002,-0.89594341277871903,0.89594341277871903,-0.82452115902248002,2.487784413960636,0.0
664640.0783812654,3995767.5119837918,-17500.0,-1.3800046656493277,1.2950640304972425,0.6057978863264103,-0.3880968808506155,0.45184155079957145,-0.079573277434760392,1.7258183706374228,0.98418875556777796,-1.0327105094920068,1.0327105094920068,-0.98418875556777796,3.0245736986605709,0.0
669640.0783812654,3995767.5119837918,-17500.0,-1.8988398362215257,1.4656882105123237,0.77215143442698664,-0.58600481856788977,0.5347415575106087,-0.13681686598286505,2.1130330377362618,1.1785242453379172,-1.1860479366411869,1.1860479366411869,-1.1785242453379172,3.7236202379921912,0.0
674640.0783812654,3995767.5119837918,-17500.0,-2.6091085654173738,1.6375470454124834,0.98901313343368302,-0.88396915962610634,0.62471927690522266,-0.23291665128912448,2.6191122263051461,1.4135986622835519,-1.3521658807643844,1.3521658807643844,-1.4135986622835519,4.6478648876436459,0.0
679640.0783812654,3995767.5119837918,-17500.0,-3.580946127410344,1.7880510338675972,1.2695373803636585,-1.3355841526886518,0.7111124656645369,-0.39588007356673105,3.2900489789977962,1.6943437600719926,-1.5214960925268424,1.5214960925268424,-1.6943437600719926,5.8891852631369881,0.0
684640.0783812654,3995767.5119837918,-17500.0,-4.9041821230511209,1.8737010801829055,1.6255660340232223,-2.0237263939698162,0.76830249835431352,-0.67539442355935253,4.1926194000959782,2.0218449255860564,-1.6746710903633824,1.6746710903633824,-2.0218449255860564,7.5826694948607694,0.0
689640.0783812654,3995767.5119837918,-17500.0,-6.6832444725690268,1.8158690017316836,2.0595004584229666,-3.0744263363553901,0.74006544311964217,-1.1603096320531809,5.4242942265700709,2.3882968634164157,-1.7773533983945327,1.7773533983945327,-2.3882968634164157,9.9269487138560137,0.0
694640.0783812654,3995767.5119837918,-17500.0,-9.0126130117261614,1.4814322693046351,2.5445065015376875,-4.6716870138074826,0.50944301993762053,-2.0095335225763438,7.1271879830212601,2.7689306625498702,-1.7766292186341879,1.7766292186341879,-2.7689306625498702,13.210269001820395,0.0
699640.0783812654,3995767.5119837918,-17500.0,-11.906184024426983,0.66585020287774643,2.9811193289634783,-7.0602109176465015,-0.15583857271756027,-3.5031542622454803,9.506115370037227,3.1128045089444099,-1.6094562907949692,1.6094562907949692,-3.1128045089444099,17.834991399718589,0.0
704640.0783812654,3995767.5119837918,-17500.0,-15.133267065147077,-0.88868005122298699,3.113581264076474,-10.494530852384155,-1.6897381665330748,-6.1138371335499277,12.845293643410308,3.3447970724417497,-1.2540103422737805,1.2540103422737805,-3.3447970724417497,24.311763728950968,0.0
709640.0783812654,3995767.5119837918,-17500.0,-17.910673472141696,-3.3424317510154915,2.4047709757510245,-15.029499311491467,-4.8192367312002009,-10.559021844721231,17.481045915055923,3.4217854739938049,-0.8959434012887586,0.8959434012887586,-3.4217854739938049,33.140009372905325,0.0
714640.0783812654,3995767.5119837918,-17500.0,-18.524912421573205,-6.2623307111713071,-0.022895239312603635,-19.958202752011143,-10.492720599608548,-17.659304282043792,23.574135080084769,3.5480233022866363,-1.3175198574240909,1.3175198574240909,-3.5480233022866363,44.384568336494496,0.0
719640.0783812654,3995767.5119837918,-17500.0,-14.498107349596019,-7.5728146491589818,-4.9075680933299282,-22.791291246102151,-19.104817525415168,-27.52331540598637,30.521705377916067,4.6764201704800206,-4.4358014045777674,4.4358014045777674,-4.6764201704800206,56.673687461535636,0.0
724640.0783812654,3995767.5119837918,-17500.0,-4.9747943663546899,-2.7112916177060171,-10.778419507768188,-18.709646865392955,-28.086265102900203,-37.389385043039795,36.209508632164123,8.9569353053747776,-12.84947816654984,12.84947816654984,-8.9569353053747776,65.840613959791355,0.0
729640.0783812654,3995767.5119837918,-17500.0,3.9437423135544551,12.101716957659772,-10.460618104697804,-4.1357075450921066,-28.649217148625169,-39.172623715868134,37.604729554540853,17.998514045850111,-25.243695355293259,25.243695355293259,-17.998514045850111,66.320756651155079,0.0
734640.0783812654,3995767.5119837918,-17500.0,0.061740837206091609,28.956939295947627,6.0421666737177659,13.27615706333563,-9.8612713843520368,-23.503091864722009,36.760179174147126,26.506242366162738,-28.654768782746842,28.654768782746842,-26.506242366162738,63.780958185070737,0.0
739640.0783812654,3995767.5119837918,-17500.0,-14.677916750422799,27.638443852144949,33.484739202241975,14.851627853045091,22.874963539054885,5.2963286463213555,43.738026633786518,21.485623029708307,-7.7875656397627067,7.7875656397627067,-21.485623029708307,79.244901127621048,0.0
744640.0783812654,3995767.5119837918,-17500.0,-18.483504532285131,5.7573827620991374,48.376227899705462,-2.4821519383729349,45.137531912150031,27.570285576328882,52.681869328303065,1.6496657222620694,25.788256967334817,-25.788256967334817,-1.6496657222620694,98.702316512882305,0.0
749640.0783812654,3995767.5119837918,-17500.0,-5.3458820349341805,-14.862011462713182,42.140673124848078,-20.384173508206484,45.694627806269487,33.217422177847965,52.627770441071377,-16.839862662305755,45.404008735901023,-45.404008735901023,16.839862662305755,100.4193290863807,0.0
754640.0783812654,3995767.5119837918,-17500.0,10.485935668820453,-22.161703626792647,27.325524359867231,-27.625231211418228,34.5935822267436,28.385463534652139,45.268346953603007,-24.103593611673752,45.532170944089351,-45.532170944089351,24.103593611673752,87.496145476772426,0.0
759640.0783812654,3995767.5119837918,-17500.0,19.735431254805697,-20.183793625798753,14.768083324412657,-26.477740935611799,22.693210174392654,20.948063818675234,35.873113448802606,-22.850113014727103,36.298868985398656,-36.298868985398656,22.850113014727103,70.017732223038323,0.0
764640.0783812654,3995767.5119837918,-17500.0,22.424227258210529,-15.237204070446305,6.9631424929716585,-21.947657667145261,13.884687522845066,14.454789534703783,27.396556197003456,-18.357003595401338,25.991324574591488,-25.991324574591488,18.357003595401338,53.845248307249435,0.0
769640.0783812654,3995767.5119837918,-17500.0,21.33353239477281,-10.50663425900265,2.7829329225593149,-16.994286837173096,8.2163057243368698,9.6837529326425713,20.668109317209446,-13.653091998139985,17.707593954028667,-17.707593954028667,13.653091998139985,40.790197284276076,0.0
774640.0783812654,3995767.5119837918,-17500.0,18.684740085118044,-6.8953771754351818,0.74220967763614865,-12.749807858768321,4.7835267358862055,6.4273434056181102,15.602441911301385,-9.7967857029760328,11.8153387723909,-11.8153387723909,9.7967857029760328,30.841649156998987,0.0
779640.0783812654,3995767.5119837918,-17500.0,15.701051200826853,-4.3845713546228051,-0.17003226418181078,-9.4487706249021102,2.7582691168590618,4.2765337119848521,11.861434388021337,-6.9276063139285329,7.8370709656789197,-7.8370709656789197,6.9276063139285329,23.439854138063588,0.0
784640.0783812654,3995767.5119837918,-17500.0,12.928659504049721,-2.7154762479901309,-0.52409354278374864,-6.992076358241726,1.5748534448435829,2.8722859230102835,9.106815189756519,-4.8831767511622104,5.2069958087327777,-5.2069958087327777,4.8831767511622104,17.973609072329978,0.0
789640.0783812654,3995767.5119837918,-17500.0,10.554497231200219,-1.6311255418095381,-0.61640914067760677,-5.1983002096430289,0.88462350392154299,1.9548692417080709,7.0699286022760131,-3.4525834625092209,3.4778141322749638,-3.4778141322749638,3.4525834625092209,13.931025614165906,0.0
794640.0783812654,3995767.5119837918,-17500.0,8.6002117102717754,-0.93557367073195097,-0.59432505313838158,-3.8960887498866166,0.48166868074701347,1.3508306959847809,5.5523206920887196,-2.4565756029294099,2.338016095021239,-2.338016095021239,2.4565756029294099,10.922397274009665,0.0
799640.0783812654,3995767.5119837918,-17500.0,7.0223482992742383,-0.49327598989246363,-0.52864283809932533,-2.9491017111438786,0.24634781332640543,0.94839850188806807,4.4108951527658311,-1.7617003903730006,1.5816217321612498,-1.5816217321612498,1.7617003903730006,8.6631183911434118,0.0
804640.0783812654,3995767.5119837918,-17500.0,5.7590773300276714,-0.2144594708545722,-0.45206096465004675,-2.2562963071061866,0.10935750343571557,0.67652113645542911,3.5434162292427791,-1.2740078981929361,1.0752603925412743,-1.0752603925412743,1.2740078981929361,6.9490022182078359,0.0
809640.0783812654,3995767.5119837918,-17500.0,4.7498425483595259,-0.040827074736737107,-0.37871512873231544,-1.7451797452718563,0.030398095244297874,0.49009371873095375,2.8769761889285572,-0.92896192706522152,0.73308002718227872,-0.73308002718227872,0.92896192706522152,5.634352322024653,0.0
814640.0783812654,3995767.5119837918,-17500.0,3.9422960045744078,0.065185399834292224,-0.31390543139343735,-1.3644543681566028,-0.014135635841611593,0.36031952388646721,2.3594306800758984,-0.68263023982111148,0.49969527979831341,-0.49969527979831341,0.68263023982111148,4.6150565280428326,0.0
819640.0783812654,3995767.5119837918,-17500.0,3.2936861873299281,0.12774724516060165,-0.25887415584371948,-1.0779536439522632,-0.038189741418604421,0.26863361172873562,1.9532598936465946,-0.5051256213356019,0.33913868626817922,-0.33913868626817922,0.5051256213356019,3.8163112925261338,0.0
824640.0783812654,3995767.5119837918,-17500.0,2.7700819372434471,0.16243676633061641,-0.21312203600290835,-0.86012597547815328,-0.050074493601583211,0.20292314342102544,1.6312532643161239,-0.37603271365480728,0.22784238276687019,-0.22784238276687019,0.37603271365480728,3.183956887267823,0.0
829640.0783812654,3995767.5119837918,-17500.0,2.3449326934206076,0.17932696699155787,-0.17550860521652673,-0.69281992871086218,-0.054779432686391127,0.1551805605633951,1.3734982910421101,-0.28131117900827318,0.15020569941897888,-0.15020569941897888,0.28131117900827318,2.6784271945790432,0.0
834640.0783812654,3995767.5119837918,-17500.0,1.9975926861185775,0.18495321761268288,-0.14475645486783678,-0.56304478970079797,-0.055317511166146902,0.12003990497959588,1.165283820489192,-0.21122483924696009,0.095791816259526902,-0.095791816259526902,0.21122483924696009,2.2705400601809589,0.0
644640.0783812654,4000767.5119837918,-17500.0,0.023523941251773404,0.85205550232073879,0.18296768131588412,0.043950040218727546,0.2495675114748476,0.019028371389381845,0.89119590582828534,0.461233545635158,-0.61279706722966976,0.61279706722966976,-0.461233545635158,1.5481607443765864,0.0
649640.0783812654,4000767.5119837918,-17500.0,-0.049192403319396109,0.99333256369548584,0.22904958108154502,0.032358906261107108,0.30212691031824107,0.019593364447018514,1.0470610828366091,0.54781150026409653,-0.71715520530068078,0.71715520530068078,-0.54781150026409653,1.8166240799243094,0.0
654640.0783812654,4000767.5119837918,-17500.0,-0.15639340983369635,1.1634457928049793,0.28975945153461324,0.010774566392353638,0.36817203501283929,0.018406142672304924,1.2400226238327392,0.65510052638225513,-0.84314643354910146,0.84314643354910146,-0.65510052638225513,2.1492879037190695,0.0
659640.0783812654,4000767.5119837918,-17500.0,-0.3131537173767483,1.3686758258593039,0.37057104336671443,-0.026899016407883114,0.45155460833711464,0.013759612409843773,1.481341074926068,0.78893257300712683,-0.99556243380326426,0.99556243380326426,-0.78893257300712683,2.5660337192857012,0.0
664640.0783812654,4000767.5119837918,-17500.0,-0.54142318675355006,1.6162694821839134,0.47924868984306135,-0.090494085515157016,0.55714696779688644,0.0025254325705552591,1.7864467943539508,0.95690563637765991,-1.1799965673913086,1.1799965673913086,-0.95690563637765991,3.0943892788262457,0.0
669640.0783812654,4000767.5119837918,-17500.0,-0.87325299583577332,1.9140341692990612,0.62684241522092821,-0.19600395036263363,0.69088314589891742,-0.021057098743241978,2.1767540507109624,1.1688568706361184,-1.4026252316204892,1.4026252316204892,-1.1688568706361184,3.7730545381709946,0.0
674640.0783812654,4000767.5119837918,-17500.0,-1.3554139330575363,2.2691795048974743,0.82905226665633058,-0.36966215274976111,0.85942416328970339,-0.067690096098729891,2.6823644760919723,1.4373423373727676,-1.6695320579732988,1.6695320579732988,-1.4373423373727676,4.6572999620775466,0.0
679640.0783812654,4000767.5119837918,-17500.0,-2.0556828523055852,2.6856108652608985,1.1079506333828817,-0.6548005434103954,1.068828193613967,-0.15748328601763945,3.3461201983010502,1.7779464330174624,-1.9851226036109848,1.9851226036109848,-1.7779464330174624,5.8273081479327438,0.0
684640.0783812654,4000767.5119837918,-17500.0,-3.0704660307570992,3.1581872387147665,1.4937302815686231,-1.1232439562121632,1.3207868935919,-0.32869656456052065,4.2296845234916374,2.2090091580721096,-2.3488599562138774,2.3488599562138774,-2.2090091580721096,7.4010890152091937,0.0
689640.0783812654,4000767.5119837918,-17500.0,-4.5313208637088263,3.6613603511996424,2.0251796635499959,-1.8936025095777631,1.6031709520700066,-0.65496028939575779,5.4225822764636664,2.7499366456717476,-2.749220661202203,2.749220661202203,-2.7499366456717476,9.5542059784283531,0.0
694640.0783812654,4000767.5119837918,-17500.0,-6.6018906697844155,4.1284257234539599,2.7449893434425028,-3.1582245139979914,1.8677657719692644,-1.2790032894923615,7.0553259585139942,3.4167111154152012,-3.1540598326435729,3.1540598326435729,-3.4167111154152012,12.548521682609714,0.0
699640.0783812654,4000767.5119837918,-17500.0,-9.4413832677531548,4.4185551137037642,3.6796356478361694,-5.2143688253719986,1.9806397736437082,-2.4767396577123839,9.3176677341865872,4.2133135381515894,-3.4999934510179393,3.4999934510179393,-4.2133135381515894,16.768804185415746,0.0
704640.0783812654,4000767.5119837918,-17500.0,-13.076913922145518,4.2810357977092286,4.7801317052534529,-8.4694495280142537,1.6197558961410847,-4.7689165830676679,12.482423925963882,5.1221432879420998,-3.698140037017577,3.698140037017577,-5.1221432879420998,22.7505597004713,0.0
709640.0783812654,4000767.5119837918,-17500.0,-17.072750021325479,3.3793101303262705,5.7803951402034777,-13.308860164719452,0.095065527081901219,-9.0715897051869057,16.92837623316602,6.1174733330160196,-3.7209071670747678,3.7209071670747678,-6.1174733330160196,31.13031853192879,0.0
714640.0783812654,4000767.5119837918,-17500.0,-19.883883404883981,1.6003075304772048,5.9443073875651393,-19.517596610666722,-3.8398025750557894,-16.716527308915989,23.062707453917682,7.2922805344518267,-3.9458196611598968,3.9458196611598968,-7.2922805344518267,42.308928645005651,0.0
719640.0783812654,4000767.5119837918,-17500.0,-18.233122515611733,0.1809551241673957,3.9288366212074077,-24.703549123494604,-11.641556868236322,-28.598591558614533,30.687301718891327,9.3061305955675575,-6.0227290025289939,6.0227290025289939,-9.3061305955675575,55.369542834840551,0.0
724640.0783812654,4000767.5119837918,-17500.0,-8.7937420090264986,3.9200728941517098,-0.95774014819199005,-21.949436126233103,-22.22677865853327,-41.530893858032066,37.523912564525439,14.153321481427568,-13.7294255151889,13.7294255151889,-14.153321481427568,66.054338548096297,0.0
729640.0783812654,4000767.5119837918,-17500.0,3.0217357489332621,20.292527512499003,-3.578851076734177,-2.4962182359150553,-24.603081435139192,-40.869892969952836,39.786346885077648,23.892365529499134,-28.968373870805895,28.968373870805895,-23.892365529499134,68.92256883672836,0.0
734640.0783812654,4000767.5119837918,-17500.0,-3.8354041930814744,42.382037099077557,10.023272938567525,23.143741100412036,2.7077110195803531,-3.8116903240781066,48.916084489386151,30.890551677378937,-35.662184897776683,35.662184897776683,-30.890551677378937,84.907828912303188,0.0
739640.0783812654,4000767.5119837918,-17500.0,-27.574394479724962,36.012771150184207,37.154756151271648,14.395609019207761,52.825725267168444,57.147143234567032,77.081413751647077,14.186642142095316,-4.9955533035172763,4.9955533035172763,-14.186642142095316,136.99554811212576,0.0
744640.0783812654,4000767.5119837918,-17500.0,-22.986569772786666,0.42119640030275801,44.643083788550541,-27.043190645976196,74.860327003556549,85.042458733553971,91.069390114351123,-19.41367330005971,40.327158142687665,-40.327158142687665,19.41367330005971,167.16702918280146,0.0
749640.0783812654,4000767.5119837918,-17500.0,6.8558062552412826,-21.950759720667691,28.745451782334197,-51.406041883669332,58.94703125172429,70.888840139898264,80.634219241084523,-36.78745143035178,54.772064676841239,-54.772064676841239,36.78745143035178,151.57583600155846,0.0
754640.0783812654,4000767.5119837918,-17500.0,27.64463646972176,-22.759521610653415,11.926048114747683,-49.847995596648275,35.351634275978604,47.099318669591696,61.132766509879467,-34.381813040803003,44.075078733216536,-44.075078733216536,34.381813040803003,117.00012147533478,0.0
759640.0783812654,4000767.5119837918,-17500.0,33.189997578900723,-16.010120144493754,2.6438439778365934,-38.928325277356187,18.922850661754747,29.231582797808453,43.816406385476157,-25.394765691420062,29.042724807436365,-29.042724807436365,25.394765691420062,84.95446074693514,0.0
764640.0783812654,4000767.5119837918,-17500.0,30.781269859905343,-9.6194704624758263,-1.1226135847214087,-28.150209660197699,9.6604184878205981,17.956109743391263,31.175682653468723,-17.122156642124629,17.690545005721347,-17.690545005721347,17.122156642124629,60.893732855694509,0.0
769640.0783812654,4000767.5119837918,-17500.0,25.884879095357725,-5.2508509811846427,-2.2263071957730909,-19.855684655397599,4.7846502631907564,11.110541190876964,22.425648063595339,-11.163477152485545,10.453881856425518,-10.453881856425518,11.163477152485545,43.901403986162187,0.0
774640.0783812654,4000767.5119837918,-17500.0,20.887760398911251,-2.5866776157732265,-2.2679617030849326,-13.953758152466175,2.2759820426088764,6.9718647627742412,16.38673749348257,-7.2129781950539371,6.0987084751626082,-6.0987084751626082,7.2129781950539371,32.052177633371052,0.0
779640.0783812654,4000767.5119837918,-17500.0,16.580762065017922,-1.0496783742785811,-1.9615371311782457,-9.8664496087220641,0.9984492050218956,4.4532881269446944,12.16992054752229,-4.668558628595223,3.5245542184306387,-3.5245542184306387,4.668558628595223,23.75621799663708,0.0
784640.0783812654,4000767.5119837918,-17500.0,13.10734957747281,-0.19741231292761446,-1.5904839331089931,-7.0538316861683263,0.35533656741430264,2.9016528466588105,9.1837934037663853,-3.0405926163025612,2.0075191462155821,-2.0075191462155821,3.0405926163025612,17.887041558620709,0.0
789640.0783812654,4000767.5119837918,-17500.0,10.38566783851039,0.25435762833805209,-1.2538168551645748,-5.1112032468965474,0.038919244161386805,1.9302201101786784,7.0384319580811585,-1.9952336336033007,1.1113606896986288,-1.1113606896986288,1.9952336336033007,13.679436363900194,0.0
794640.0783812654,4000767.5119837918,-17500.0,8.2769443582770563,0.47680785767729605,-0.97711778596874621,-3.757276701072692,-0.10924209901745743,1.3107821816454017,5.4743711820136527,-1.318329229427267,0.58048657162154593,-0.58048657162154593,1.318329229427267,10.619275271154123,0.0
799640.0783812654,4000767.5119837918,-17500.0,6.6466516469935089,0.57021477688730993,-0.75919771527428048,-2.8023922654803579,-0.17109756891876457,0.9080838223676192,4.3173480169754859,-0.87543203656640367,0.26597474727537657,-0.26597474727537657,0.87543203656640367,8.3607572401416892,0.0
804640.0783812654,4000767.5119837918,-17500.0,5.3826303363890311,0.59257340800136138,-0.59079158342568683,-2.1199907141913505,-0.18928823008728876,0.64114545572607562,3.4491648046086749,-0.5824814680029089,0.080678257057852087,-0.080678257057852087,0.5824814680029089,6.6696746776427265,0.0
809640.0783812654,4000767.5119837918,-17500.0,4.39703392400222,0.5771842103640934,-0.46159039864358081,-1.6256115581602211,-0.18609615875169144,0.46080366313451687,2.7887575870595267,-0.38668397527574683,-0.026848797595482421,0.026848797595482421,0.38668397527574683,5.3857807125104271,0.0
814640.0783812654,4000767.5119837918,-17500.0,3.6230060523112195,0.54303922184325637,-0.36256536852640525,-1.2625522586989022,-0.1731613960348064,0.33672543414477185,2.2798526169578341,-0.25458615119927352,-0.087296326405693403,0.087296326405693403,0.25458615119927352,4.3981197975686097,0.0
819640.0783812654,4000767.5119837918,-17500.0,3.0103000492285186,0.50085862397128966,-0.28647794844916663,-0.99239078646461654,-0.15651357031578828,0.2498709904897001,1.8828869855781412,-0.16475292426672483,-0.11916800447130103,0.11916800447130103,0.16475292426672483,3.6288810899751063,0.0
824640.0783812654,4000767.5119837918,-17500.0,2.521299187264217,0.45658252075662831,-0.2277524521930876,-0.78880190030420139,-0.13920662700633679,0.18807827317391554,1.5696870438165582,-0.10328335879461052,-0.13373015525935816,0.13373015525935816,0.10328335879461052,3.0227840701602706,0.0
829640.0783812654,4000767.5119837918,-17500.0,2.1278122534535413,0.41339180418965166,-0.18217428072218539,-0.63353149402460684,-0.12271363686036332,0.14344290437744051,1.3199335314753899,-0.061051434590207995,-0.13789960943168234,0.13789960943168234,0.061051434590207995,2.5400460132683067,0.0
834640.0783812654,4000767.5119837918,-17500.0,1.8086280787400839,0.37288113095767422,-0.1465831694935387,-0.51376576597991896,-0.10767206962821216,0.11074065020091652,1.1187899076075654,-0.031993560455429143,-0.13594905096810564,0.13594905096810564,0.031993560455429143,2.1516762699769858,0.0
644640.0783812654,4005767.5119837918,-17500.0,0.44387983820408572,0.89077496116956589,0.10163019223055543,0.16187450844714965,0.25888159380558767,0.044254201825761549,0.94920517302084062,0.38801694251791957,-0.59852112283028769,0.59852112283028769,-0.38801694251791957,1.6733717278226816,0.0
649640.0783812654,4005767.5119837918,-17500.0,0.46386334899238885,1.0497605576462834,0.12788047572304431,0.1837539948000867,0.31662800939707381,0.053842275296551494,1.115607807958287,0.46179756639859698,-0.70748681669940172,0.70748681669940172,-0.46179756639859698,1.9624703512543678,0.0
654640.0783812654,4005767.5119837918,-17500.0,0.47469618428527843,1.2455975314730499,0.16305230616143065,0.20727644998600944,0.39068109183685695,0.065570335694533272,1.321284914362288,0.55393195383995275,-0.84178239267209087,0.84178239267209087,-0.55393195383995275,2.3191226053423368,0.0
659640.0783812654,4005767.5119837918,-17500.0,0.46935282562024455,1.4885394657650037,0.21081640369762789,0.23112243152148601,0.48655995120962536,0.079708040800185065,1.5778906216735962,0.66999480934756628,-1.0083661198367828,1.0083661198367828,-0.66999480934756628,2.7632680811224728,0.0
664640.0783812654,4005767.5119837918,-17500.0,0.43667242024902903,1.791989117469196,0.27659370896547641,0.25246889963285502,0.61189883060818528,0.096260288316694129,1.9012089681244326,0.81750982332358024,-1.2162587561573979,1.2162587561573979,-0.81750982332358024,3.321922642373909,0.0
669640.0783812654,4005767.5119837918,-17500.0,0.35895893358874337,2.1734031920805972,0.36848689889538405,0.26569728740634435,0.77728466577026345,0.11451727472890905,2.3128128382559718,1.006677430982891,-1.4770800790564338,1.4770800790564338,-1.006677430982891,4.0320609302095836,0.0
674640.0783812654,4005767.5119837918,-17500.0,0.20819781465891921,2.655272536973043,0.49873710427474383,0.26001759893807885,0.99735173109769026,0.13205294485844415,2.8424209547798198,1.2513502023632412,-1.8055760164115835,1.8055760164115835,-1.2513502023632412,4.9447659009340512,0.0
679640.0783812654,4005767.5119837918,-17500.0,-0.059812660918827289,3.2658858199349474,0.68598429731591359,0.21509167424097547,1.292046369034356,0.14251717181612678,3.5312006911792793,1.5702821622865686,-2.2199046604925212,2.2199046604925212,-1.5702821622865686,6.1311686325738348,0.0
684640.0783812654,4005767.5119837918,-17500.0,-0.51422417879426918,4.039096957996243,0.95868535814345601,0.092997041657430599,1.6875961683258418,0.13077717232095992,4.4362426075285413,1.9885885238094361,-2.7411291515252834,2.7411291515252834,-1.9885885238094361,7.690790671000352,0.0
689640.0783812654,4005767.5119837918,-17500.0,-1.2611220271296673,5.0112474795247399,1.3599544665610352,-0.1763127947715751,2.215624024384439,0.0622192016285147,5.6361701436151943,2.5391210472987478,-3.3907457700459211,3.3907457700459211,-2.5391210472987478,9.7627213094453076,0.0
694640.0783812654,4005767.5119837918,-17500.0,-2.4564113240458925,6.2112623153843156,1.9533065094096729,-0.72028147754440486,2.9058852627063021,-0.14072397726286531,7.2368962552023186,3.2630051542851595,-4.1840989336444645,4.1840989336444645,-3.2630051542851595,12.538929532507636,0.0
699640.0783812654,4005767.5119837918,-17500.0,-4.3080229306607851,7.6364436993739906,2.825660402100636,-1.7634116813289058,3.7605282847538728,-0.64915003818312311,9.3739134331282106,4.2080620258121062,-5.1169003016250549,5.1169003016250549,-4.2080620258121062,16.274979155182812,0.0
704640.0783812654,4005767.5119837918,-17500.0,-7.029038171101444,9.2039909515911447,4.0739145639582208,-3.6727105937873383,4.6800379494998063,-1.8309160261765454,12.201965024064675,5.4249858246104834,-6.1461742339138565,6.1461742339138565,-5.4249858246104834,21.281366310429945,0.0
709640.0783812654,4005767.5119837918,-17500.0,-10.639571995853434,10.682491718574028,5.7338339986274747,-6.9419226186797651,5.2772726299809607,-4.4316254075737884,15.858315610205608,6.9722030185393917,-7.1940418728740925,7.1940418728740925,-6.9722030185393917,27.846873629510746,0.0
714640.0783812654,4005767.5119837918,-17500.0,-14.417553926703489,11.702435075827944,7.5516732903541159,-11.848582894185585,4.4919327769321207,-9.7507576055678875,20.408830016521513,8.9887703571412665,-8.3097478985969282,8.3097478985969282,-8.9887703571412665,35.978328390760609,0.0
719640.0783812654,4005767.5119837918,-17500.0,-15.89809843346324,12.290244796189675,8.4590031091180755,-17.046644366356148,0.12908817141518952,-19.132398286025609,25.692801406650858,12.026576309898013,-10.407284108882378,10.407284108882378,-12.026576309898013,44.804819564392687,0.0
724640.0783812654,4005767.5119837918,-17500.0,-10.797827836339859,14.998171683247202,6.0380887004846322,-16.126805580390268,-10.154381380373643,-30.065660645531636,29.97465888914725,17.869106656745238,-17.138728835375048,17.138728835375048,-17.869106656745238,52.378244641041185,0.0
729640.0783812654,4005767.5119837918,-17500.0,-0.58043370600850441,27.847531476901331,-1.4217410504140344,3.9273052938349626,-20.934150555821489,-23.393026479501227,37.33410532654009,29.169272743603941,-35.1861580611275,35.1861580611275,-29.169272743603941,64.725358032359168,0.0
734640.0783812654,4005767.5119837918,-17500.0,-10.368032134743048,51.923222727252345,-6.7456650573668169,35.806069485993198,-5.2915230051270452,45.207492102650306,68.773024433850253,38.643782371333231,-57.08080752198677,57.08080752198677,-38.643782371333231,122.14226601221687,0.0
739640.0783812654,4005767.5119837918,-17500.0,-42.707114036807702,49.343629196666498,-1.8260938551908734,8.7617856125682501,43.676476641507406,156.27033251078808,123.34451904595554,18.192991050515612,-40.928781642931924,40.928781642931924,-18.192991050515612,215.37519068220652,0.0
744640.0783812654,4005767.5119837918,-17500.0,-22.368427064642187,14.215298318416657,-2.6454259701394456,-65.230463092068035,59.033384823137538,173.7614689398367,134.21845873065365,-18.883158775188654,1.818219960460338,-1.818219960460338,18.883158775188654,242.51546004498775,0.0
749640.0783812654,4005767.5119837918,-17500.0,23.514619596009435,-2.9667662978500036,-9.1923745409051651,-85.239124463208469,35.99005388657185,112.45738386454171,104.39233672077029,-29.010085373800042,15.959668571544608,-15.959668571544608,29.010085373800042,193.90460363665417,0.0
754640.0783812654,4005767.5119837918,-17500.0,41.39400607899212,-2.3849159972657796,-11.115584669565278,-65.945049157489152,15.341259892037646,60.733208068137344,70.701974885684194,-21.234640495824753,10.592095901070895,-10.592095901070895,21.234640495824753,133.85114941355491,0.0
759640.0783812654,4005767.5119837918,-17500.0,39.531729583505502,0.8616644072989843,-9.5209448938513734,-44.269884785793174,5.1743347461168412,32.803582099207482,47.006043889604051,-12.519542615535219,4.1806263945815987,-4.1806263945815987,12.519542615535219,89.907819055176333,0.0
764640.0783812654,4005767.5119837918,-17500.0,32.31214376765756,2.7070510234133693,-7.185212762985806,-29.063747931712602,0.98654456910617383,18.500855339475713,31.986222057864232,-6.8395857755319316,0.56790891154343193,-0.56790891154343193,6.8395857755319316,61.353826250403586,0.0
769640.0783812654,4005767.5119837918,-17500.0,25.174191472166811,3.322823099702334,-5.1753434105969864,-19.280872228917424,-0.57148760200436777,10.856658068135623,22.387139512220969,-3.5909440811342233,-1.0384113682369012,1.0384113682369012,3.5909440811342233,42.905884292388883,0.0
774640.0783812654,4005767.5119837918,-17500.0,19.363192383989382,3.2962114170935726,-3.67547632706408,-13.023111653640413,-1.0459105584039046,6.5828599521800548,16.065028533698833,-1.8001261873044772,-1.6064639368633775,1.6064639368633775,1.8001261873044772,30.730382935594449,0.0
779640.0783812654,4005767.5119837918,-17500.0,14.903341205756519,2.9985968088658712,-2.611455539664834,-8.9702562915024249,-1.0933739805644105,4.1093334576255636,11.785217586334976,-0.82462190233734733,-1.6962143110220749,1.6962143110220749,0.82462190233734733,22.498477699155131,0.0
784640.0783812654,4005767.5119837918,-17500.0,11.546254966470524,2.6181978124778662,-1.8690850970012931,-6.3015058725831485,-0.98821515112815761,2.6359392509837645,8.8194153885924358,-0.2980298382861587,-1.58609271986262,1.58609271986262,0.2980298382861587,16.806298684399234,0.0
789640.0783812654,4005767.5119837918,-17500.0,9.0289970878510513,2.2406365691219055,-1.3518882848424691,-4.5125596041283851,-0.84269249615099096,1.734789567714474,6.7209973442142399,-0.018549529926576991,-1.4067012143121331,1.4067012143121331,0.018549529926576991,12.787855312480787,0.0
794640.0783812654,4005767.5119837918,-17500.0,7.1349721440595237,1.9000584592649272,-0.98942131206342554,-3.2913622737942201,-0.70031771202322812,1.1695685093311006,5.2076900570635676,0.124501892890447,-1.2164311128900036,1.2164311128900036,-0.124501892890447,9.8958436372683938,0.0
799640.0783812654,4005767.5119837918,-17500.0,5.6996324571542294,1.6063281438752306,-0.73294381906014583,-2.4425588238167402,-0.57572773593028215,0.80640321499643619,4.0968606915911314,0.1921680685330443,-1.0394085887870574,1.0394085887870574,-0.1921680685330443,7.7768372779062105,0.0
804640.0783812654,4005767.5119837918,-17500.0,4.6019933321237598,1.3586334849474071,-0.54940120125412828,-1.8421684464956474,-0.4718139452711117,0.5676677802039195,3.2679520814421146,0.2183914195487846,-0.88388982485927614,0.88388982485927614,-0.2183914195487846,6.1981028948600683,0.0
809640.0783812654,4005767.5119837918,-17500.0,3.7542217716630844,1.1520340214699947,-0.41647812943694124,-1.4103202813868769,-0.38705268260148157,0.40732039750992249,2.6399130966600666,0.22218960541545701,-0.75106039512390099,0.75106039512390099,-0.22218960541545701,5.0035538998441327,0.0
814640.0783812654,4005767.5119837918,-17500.0,3.0927226051695063,0.98048346761858607,-0.31905884542238611,-1.0947445273412377,-0.31858358283508459,0.29744011538817572,2.1573056808938627,0.21427241056612417,-0.63919712410907303,0.63919712410907303,-0.21427241056612417,4.0866723193189536,0.0
819640.0783812654,4005767.5119837918,-17500.0,2.5713202703786142,0.83813416315400702,-0.24682701750647798,-0.86068338003713174,-0.26344236883158439,0.22072624477814651,1.7815858537493456,0.20067503380937451,-0.54559853974695605,0.54559853974695605,-0.20067503380937451,3.373553933862429,0.0
824640.0783812654,4005767.5119837918,-17500.0,2.1562881573080728,0.71982632356542342,-0.19267305148826244,-0.68465484427269829,-0.21900105456291691,0.16623463262914023,1.4855366948803499,0.18477750493160883,-0.46744563458700505,0.46744563458700505,-0.18477750493160883,2.8121102787707519,0.0
829640.0783812654,4005767.5119837918,-17500.0,1.8228020841588497,0.62120521698317765,-0.15164414817537114,-0.55054774855911404,-0.18307760405268386,0.12690439042139504,1.249655473015296,0.16844100804526985,-0.40215434248933801,0.40215434248933801,-0.16844100804526985,2.3650785531663634,0.0
834640.0783812654,4005767.5119837918,-17500.0,1.5524323674248672,0.53868035906943768,-0.1202512131585116,-0.44714252663233689,-0.15391675072410949,0.098094365534291197,1.0597725866268295,0.15265461940623681,-0.34749122417856282,0.34749122417856282,-0.15265461940623681,2.0054256634657115,0.0
644640.0783812654,4010767.5119837918,-17500.0,0.87341339245980143,0.86870191612971448,0.013245752872582598,0.28196812127853726,0.25107218849870261,0.069852022559629759,1.0213991112210119,0.28310424046506288,-0.53677017834809049,0.53677017834809049,-0.28310424046506288,1.8400979891313738,0.0
649640.0783812654,4010767.5119837918,-17500.0,0.99170292927868275,1.027439303482145,0.016106286977431911,0.33890809370358932,0.30794840355936509,0.088807015509871148,1.2030808753831908,0.3343155759343811,-0.63675784839788718,0.63675784839788718,-0.3343155759343811,2.1638195235432258,0.0
654640.0783812654,4010767.5119837918,-17500.0,1.129333752318664,1.2245936545308127,0.020265861028914534,0.41019377997330331,0.38137308585084501,0.11407335165914528,1.4281376824086256,0.39783993923090238,-0.76108957489816675,0.76108957489816675,-0.39783993923090238,2.5641362125167459,0.0
659640.0783812654,4010767.5119837918,-17500.0,1.2892234516787469,1.4716742246277368,0.026443638583168585,0.50004006637977816,0.47724341883619315,0.14813380788823469,1.7095388434345049,0.47735235916255336,-0.91702686044833814,0.91702686044833814,-0.47735235916255336,3.0637611821322142,0.0
664640.0783812654,4010767.5119837918,-17500.0,1.4741375576776772,1.7842275352135264,0.035797379670624477,0.61398091513218578,0.60392730683765183,0.19458090465966374,2.0648539975893732,0.5778190068043958,-1.1143408508435304,1.1143408508435304,-0.5778190068043958,3.6933935496227037,0.0
669640.0783812654,4010767.5119837918,-17500.0,1.686007816452695,2.1833887525956088,0.050215053473243759,0.75921768683388824,0.77342478404992321,0.25865034284733557,2.5180759553647887,0.7060026069025036,-1.3662488006314124,1.3662488006314124,-0.7060026069025036,4.4948479182281549,0.0
674640.0783812654,4010767.5119837918,-17500.0,1.9245580250562104,2.6980042930664099,0.072815715504949932,0.94493145031395798,1.0030953566348655,0.34799905155526317,3.1021670419418248,0.87117142395608016,-1.6906752317472196,1.6906752317472196,-0.87117142395608016,5.5254027491462665,0.0
679640.0783812654,4010767.5119837918,-17500.0,2.1846441144084086,3.3674272557641234,0.10881707295105604,1.1823361835360824,1.3181763486568634,0.47378761933011287,3.8625176524654723,1.0860831919215324,-2.111879640423604,2.111879640423604,-1.0860831919215324,6.8636628600202245,0.0
684640.0783812654,4010767.5119837918,-17500.0,2.4512572593175732,4.2448953594661116,0.16704248315598774,1.4839104795100728,1.7552667970956386,0.65202116026242263,4.8613412414847623,1.368326571778687,-2.662375641566852,2.662375641566852,-1.368326571778687,8.6169200622683277,0.0
689640.0783812654,4010767.5119837918,-17500.0,2.6904408056728064,5.4007750370404324,0.26251611661073387,1.8605020120928302,2.3665181807111502,0.90469468094487648,6.1823672559688774,1.7421165120069269,-3.3847370159778638,3.3847370159778638,-1.7421165120069269,10.928805585478452,0.0
694640.0783812654,4010767.5119837918,-17500.0,2.8335780130177151,6.9232469314043001,0.42079119276999732,2.3135003174797224,3.2225525142893585,1.2590175814202307,7.9331230879939101,2.2407459974412189,-4.3321368621225904,4.3321368621225904,-2.2407459974412189,13.982386478504417,0.0
699640.0783812654,4010767.5119837918,-17500.0,2.7526412627525039,8.9098604408981199,0.68455986458068396,2.816758600961383,4.4064166782834659,1.7395011078657849,10.236297075227885,2.9106052718536466,-5.5651926246771355,5.5651926246771355,-2.9106052718536466,17.983795690563316,0.0
704640.0783812654,4010767.5119837918,-17500.0,2.2288493330973473,11.434785058515784,1.1213646537607997,3.2808642169617754,5.9735783498164885,2.3394740818286781,13.186864641493742,3.8213792563601094,-7.1423311238797682,7.1423311238797682,-3.8213792563601094,23.086085166228361,0.0
709640.0783812654,4010767.5119837918,-17500.0,0.93689542058751363,14.464582920845427,1.8231389132407414,3.5006694296305052,7.8051308320792305,2.9451563469526501,16.71954978367603,5.1033521302360949,-9.1112930887533796,9.1112930887533796,-5.1033521302360949,29.158797468438308,0.0
714640.0783812654,4010767.5119837918,-17500.0,-1.4838494297271145,17.705374788561567,2.860120857227713,3.1427653775480664,9.1697543464125424,3.1927604660784237,20.29496451318397,7.0937825963779755,-11.573420335784506,11.573420335784506,-7.0937825963779755,35.252669398590633,0.0
719640.0783812654,4010767.5119837918,-17500.0,-5.1426017489551876,20.519549634962893,4.0758270852279557,2.0078971767946463,7.6557827507876981,2.4147891349392729,22.534853729899233,10.846104561940821,-15.134006556684303,15.134006556684303,-10.846104561940821,39.032166870060088,0.0
724640.0783812654,4010767.5119837918,-17500.0,-9.3339444294658858,22.65432049217565,4.4808233284367542,1.092290636876909,-2.5376785569444986,0.58454149752626572,23.836838855990322,19.430966283793435,-22.544328542325314,22.544328542325314,-19.430966283793435,41.409612850946687,0.0
729640.0783812654,4010767.5119837918,-17500.0,-12.325149598012372,27.375730925929965,1.0814515190608609,5.1104367366704047,-29.730216437656058,3.3087369684959826,41.542261270567764,39.174058791966488,-41.773768440663659,41.773768440663659,-39.174058791966488,72.061480778394511,0.0
734640.0783812654,4010767.5119837918,-17500.0,-18.748309467880887,44.109716114970006,-10.716221138418343,19.890798505949995,-68.905701454984396,37.910562569741849,89.269183509425005,73.191695934474922,-82.763870725059917,82.763870725059917,-73.191695934474922,155.20171713130966,0.0
739640.0783812654,4010767.5119837918,-17500.0,-38.746013749690796,67.087996974442262,-26.376133248778178,7.1013775805772408,-81.061987444054523,123.44518648748243,138.72861278712401,95.865759928655294,-122.43840423138887,122.43840423138887,-95.865759928655294,240.45693531824477,0.0
744640.0783812654,4010767.5119837918,-17500.0,-23.433251006477747,66.445537185454342,-29.687589108693075,-49.615714823972326,-57.751938831465878,144.05662009162171,138.7299869535282,75.727760141971032,-109.61944687098594,109.61944687098594,-75.727760141971032,244.49040261848916,0.0
749640.0783812654,4010767.5119837918,-17500.0,12.8132136005334,49.637415490458416,-22.222900197474011,-64.28864280844958,-34.331621762602936,90.060721128198495,101.37813178742401,44.397048527761051,-71.332539165511761,71.332539165511761,-44.397048527761051,182.28507274151951,0.0
754640.0783812654,4010767.5119837918,-17500.0,26.481561069918733,34.037930529183171,-14.359799352972368,-48.105482862189994,-20.496225142802835,46.784309260196544,66.360897635206413,25.289094532842917,-43.335362739991361,43.335362739991361,-25.289094532842917,120.78017422300697,0.0
759640.0783812654,4010767.5119837918,-17500.0,25.71193786737199,23.30393248644295,-9.0816115397048449,-31.778827209717779,-12.909481575738468,24.899330842189887,43.49536840135692,15.467080026530788,-27.241335473551146,27.241335473551146,-15.467080026530788,79.635692098312461,0.0
764640.0783812654,4010767.5119837918,-17500.0,21.325243880534821,16.338360508116764,-5.8320978506104337,-20.864321693504142,-8.5342435253347801,14.054899506348235,29.415089472681213,10.138027760004503,-17.95914615081222,17.95914615081222,-10.138027760004503,54.020567006163333,0.0
769640.0783812654,4010767.5119837918,-17500.0,16.917189603078082,11.760619544830762,-3.8260517042013613,-13.952497965820561,-5.8338663452552746,8.3021313089186268,20.530688070716341,6.9794856123705094,-12.313011564773316,12.313011564773316,-6.9794856123705094,37.773696675969035,0.0
774640.0783812654,4010767.5119837918,-17500.0,13.263321135553186,8.6636043275722159,-2.5634672734202053,-9.5277260393929453,-4.0853615887404482,5.0754993286004169,14.722223150647695,4.9754985843602055,-8.7068971176615531,8.7068971176615531,-4.9754985843602055,27.120436615722781,0.0
779640.0783812654,4010767.5119837918,-17500.0,10.400142324207657,6.5100689916285193,-1.7523537750120977,-6.6399939000641428,-2.9185570296055805,3.1958049225198386,10.806396683066655,3.6431793255853826,-6.3155856796531662,6.3155856796531662,-3.6431793255853826,19.92486973303896,0.0
784640.0783812654,4010767.5119837918,-17500.0,8.1996308097344919,4.9778560505412308,-1.2208173294408711,-4.7192105084471736,-2.1230525173486949,2.067747492603019,8.0979286552049192,2.7271625165702251,-4.6823116137342833,4.6823116137342833,-2.7271625165702251,14.941613011867313,0.0
789640.0783812654,4010767.5119837918,-17500.0,6.5169504381117562,3.8663463148717012,-0.86571713896054192,-3.4177631169592915,-1.5707998234211205,1.372466671253415,6.1823167976297766,2.0806632421498659,-3.5390187684398642,3.5390187684398642,-2.0806632421498659,11.414067293517721,0.0
794640.0783812654,4010767.5119837918,-17500.0,5.2277550892462896,3.0461522433456736,-0.62403961572479694,-2.5197926237927382,-1.1809289345532998,0.93298156664072518,4.8000592746893265,1.6143079542134617,-2.7214193083042599,2.7214193083042599,-1.6143079542134617,8.8670977459394393,0.0
799640.0783812654,4010767.5119837918,-17500.0,4.2343892972075885,2.4315021637957952,-0.45661772384610549,-1.8891244664503148,-0.90123681137016476,0.64843302458161334,3.7842563431679848,1.2714433286712103,-2.1254697792861061,2.1254697792861061,-1.2714433286712103,6.9944655725824454,0.0
804640.0783812654,4010767.5119837918,-17500.0,3.4630300114897508,1.9642933771369815,-0.33868479260825496,-1.4385484950869316,-0.69747156738067395,0.45996964659973849,3.025118124701804,1.0150584534699982,-1.6835193803486774,1.6835193803486774,-1.0150584534699982,5.5944292340260739,0.0
809640.0783812654,4010767.5119837918,-17500.0,2.8587976317704902,1.6044495033728767,-0.25430802605673786,-1.1113505424202559,-0.54682680152388807,0.33246113648796199,2.4489629278608325,0.82038013336642424,-1.350579658450485,1.350579658450485,-0.82038013336642424,4.531465971491035,0.0
814640.0783812654,4010767.5119837918,-17500.0,2.3811300973040779,1.3238848523155236,-0.19306140298367744,-0.87006688893022421,-0.43389776089701571,0.24446621153828113,2.0054258662239977,0.67047958487562298,-1.0961297316811098,1.0961297316811098,-0.67047958487562298,3.7128798402484522,0.0
819640.0783812654,4010767.5119837918,-17500.0,2.00003420888229,1.1026282329685957,-0.14800789095125572,-0.68955729609249306,-0.34812999088907587,0.18261390082985746,1.6594859171074361,0.55357439123528329,-0.89908466776241291,0.89908466776241291,-0.55357439123528329,3.074186791634566,0.0
824640.0783812654,4010767.5119837918,-17500.0,1.6932420624952356,0.92628476625745693,-0.11445749932015412,-0.55268723391078711,-0.28219016312891609,0.13839228492445668,1.3863986660718288,0.46132695887189118,-0.74463362508822906,0.74463362508822906,-0.46132695887189118,2.5698109034872463,0.0
829640.0783812654,4010767.5119837918,-17500.0,1.4441187989002027,0.7843455744556983,-0.089190590533613154,-0.44760065368153074,-0.23091286269483635,0.10627554419972221,1.1684163860785453,0.38774706432662998,-0.62221123896238983,0.62221123896238983,-0.38774706432662998,2.167055573896854,0.0
834640.0783812654,4010767.5119837918,-17500.0,1.2401455558330685,0.66904568660953323,-0.069964813824669403,-0.36597380869356033,-0.19061137006760265,0.082609448987097725,0.99262951872079219,0.32847018258649652,-0.52417203948036317,0.52417203948036317,-0.32847018258649652,1.8421329821604442,0.0
644640.0783812654,4015767.5119837918,-17500.0,1.2863692290774138,0.78495029061435984,-0.069777611064887793,0.39731946644750205,0.22594580690440622,0.094400113905995536,1.1010639506772035,0.15522916962442035,-0.42749696230396073,0.42749696230396073,-0.15522916962442035,2.0294391217520387,0.0
649640.0783812654,4015767.5119837918,-17500.0,1.4992717210005084,0.92461825637495987,-0.089170611404179395,0.48795084245577164,0.27566133333904375,0.1223421412639752,1.3006033967515176,0.17708649625619877,-0.50440286107439392,0.50440286107439392,-0.17708649625619877,2.39560498076274,0.0
654640.0783812654,4015767.5119837918,-17500.0,1.7591354734341844,1.097176443394988,-0.11467439509767537,0.60519049485007237,0.33938507044887745,0.16061221300408263,1.5487266518737206,0.2027531127934544,-0.59952579079810531,0.59952579079810531,-0.2027531127934544,2.8507565845220526,0.0
659640.0783812654,4015767.5119837918,-17500.0,2.0786696651223386,1.3121864258607276,-0.14853785500365332,0.75864837798064777,0.4219259049890724,0.21384022788164755,1.8602984608390525,0.23294295951544758,-0.71820208872232727,0.71820208872232727,-0.23294295951544758,3.4221172046133099,0.0
664640.0783812654,4015767.5119837918,-17500.0,2.4744698822471993,1.5824438594788752,-0.19396192563245807,0.96205175219952532,0.53001402750890803,0.28911598455036458,2.2556186174991568,0.2684778498627558,-0.8676100310343331,0.8676100310343331,-0.2684778498627558,4.1468775186157822,0.0
669640.0783812654,4015767.5119837918,-17500.0,2.9681757432561477,1.9251580932158265,-0.25554759789020043,1.2352635883341883,0.67314292502180872,0.39750688834865633,2.7626793983076148,0.31028348467958949,-1.0574838873550383,1.0574838873550383,-0.31028348467958949,5.0763470127697765,0.0
674640.0783812654,4015767.5119837918,-17500.0,3.5877758254588166,2.3635215738106079,-0.33996276619579829,1.6073795033170704,0.86476881957885343,0.55663986835211443,3.4204089923092913,0.35938406311106474,-1.301119545821499,1.301119545821499,-0.35938406311106474,6.2819257068323902,0.0
679640.0783812654,4015767.5119837918,-17500.0,4.3687336514012287,2.928690168122277,-0.45691799483511691,2.1214740353867234,1.1239452137270587,0.79517273481851536,4.2832706970292831,0.41693628391549176,-1.6167842003147319,1.6167842003147319,-0.41693628391549176,7.8635796172434116,0.0
684640.0783812654,4015767.5119837918,-17500.0,5.3539657386303645,3.6619930308872122,-0.62053091758061074,2.8417743648270104,1.4773139601202085,1.1606560659666298,5.4275678044409279,0.48446388675224705,-2.0296755354383795,2.0296755354383795,-0.48446388675224705,9.9614524440468184,0.0
689640.0783812654,4015767.5119837918,-17500.0,6.5901100488890245,4.6166093734807294,-0.85102111436485595,3.864069792365489,1.9607714113250498,1.7334873739687007,6.9594229553782112,0.56484629775876338,-2.5746268421210594,2.5746268421210594,-0.56484629775876338,12.770461089793779,0.0
694640.0783812654,4015767.5119837918,-17500.0,8.1136876527586885,5.8564790846396457,-1.1760976537182946,5.3292794350843229,2.6181737022355032,2.6516214830134883,9.0229370294345248,0.66586286981562082,-3.2999269594789009,3.2999269594789009,-0.66586286981562082,16.554638508277439,0.0
699640.0783812654,4015767.5119837918,-17500.0,9.9117377177653605,7.4468815921351608,-1.6294185291723053,7.4358217339332997,3.4885542439281663,4.1531371778333428,11.802732713334674,0.81201855561006964,-4.2734611625069618,4.2734611625069618,-0.81201855561006964,21.648357031343402,0.0
704640.0783812654,4015767.5119837918,-17500.0,11.821192450711711,9.424952879271121,-2.237255186203289,10.431024458968031,4.5564835821273277,6.6432961761782003,15.504644581404426,1.0826206361078694,-5.5963615469775085,5.5963615469775085,-1.0826206361078694,28.405105670769842,0.0
709640.0783812654,4015767.5119837918,-17500.0,13.289662788716994,11.733175566416453,-2.9660008098240045,14.512172334732378,5.595605246025249,10.772216157668378,20.27867373539258,1.7311168919495272,-7.4464150195120649,7.4464150195120649,-1.7311168919495272,36.991964390276834,0.0
714640.0783812654,4015767.5119837918,-17500.0,12.857981251249175,14.12764333127368,-3.5531018657385527,19.418441398513629,5.737358783538502,17.395336644520984,26.016691697822047,3.5418980913360314,-10.236555334709669,10.236555334709669,-3.5418980913360314,46.830807534042556,0.0
719640.0783812654,4015767.5119837918,-17500.0,7.2868545968611134,16.279658992096149,-3.0347941090952215,23.089341283909167,2.4995706842591003,26.774070617790738,31.817010557873807,8.768659361405172,-15.139379747755617,15.139379747755617,-8.768659361405172,55.683091801450786,0.0
724640.0783812654,4015767.5119837918,-17500.0,-8.360668364869758,18.957484568845242,1.2972768315890668,18.185337353343307,-9.4064477554443453,34.195832990037786,35.278545920177628,22.722031889566949,-25.181104455877581,25.181104455877581,-22.722031889566949,61.879279898652399,0.0
729640.0783812654,4015767.5119837918,-17500.0,-30.758867321420325,27.069641921798766,14.815744769583453,-9.434245818861779,-35.512858101743326,13.673237132173018,50.963697767898992,51.960337830391765,-43.955497963457489,43.955497963457489,-51.960337830391765,90.967477947121495,0.0
734640.0783812654,4015767.5119837918,-17500.0,-24.741052847769449,46.381718703967344,39.829897240132588,-39.12762286597043,-68.592934961746209,-86.70834732505665,109.18758251012466,89.068955240622373,-63.961717948388589,63.961717948388589,-89.068955240622373,192.80123584170857,0.0
739640.0783812654,4015767.5119837918,-17500.0,-4.4952158261213695,66.035495921523818,56.831797264411705,15.608159352487203,-87.902085312744774,-173.68343139047309,162.60164143632329,115.78529057799538,-78.827704835841885,78.827704835841885,-115.78529057799538,282.40874033578484,0.0
744640.0783812654,4015767.5119837918,-17500.0,-32.38533813442276,72.254945646833789,44.916483486047348,56.873898604676342,-80.634441140510418,-97.21247435978627,139.78082284793345,119.72215069533055,-93.704909960194328,93.704909960194328,-119.72215069533055,245.07422706310192,0.0
749640.0783812654,4015767.5119837918,-17500.0,-35.409923903086217,61.863206478734369,24.071728906412559,28.743266388385017,-55.049460240199551,-20.043737537628488,92.330791542972065,90.923697854423452,-82.202070140052555,82.202070140052555,-90.923697854423452,160.96957723649521,0.0
754640.0783812654,4015767.5119837918,-17500.0,-18.439407754997902,45.055822240812731,11.04520028619951,5.0280994892181274,-33.259059023320617,3.3165107660965223,58.241187110022807,58.194219665913543,-58.040151714558995,58.040151714558995,-58.194219665913543,100.92382820734952,0.0
759640.0783812654,4015767.5119837918,-17500.0,-5.7934730383333477,31.192435058712981,4.9184887713670307,-3.5552136186271555,-20.182653151014609,6.6095460071521002,37.883064981642832,36.168450641279598,-38.590788596893539,38.590788596893539,-36.168450641279598,65.685321433754922,0.0
764640.0783812654,4015767.5119837918,-17500.0,0.50138131362369509,21.66974528901568,2.2127523733093457,-5.4056403476225068,-12.717619614872898,5.5202159657797143,25.684497391893061,23.017458120024745,-25.785905436429811,25.785905436429811,-23.017458120024745,44.734085160807183,0.0
769640.0783812654,4015767.5119837918,-17500.0,3.1103917776839971,15.343509032209377,1.0076584772091091,-5.0623260362520694,-8.3063835897015554,3.9691469220173623,18.030590567533803,15.147473609488967,-17.607319316283025,17.607319316283025,-15.147473609488967,31.576952809667969,0.0
774640.0783812654,4015767.5119837918,-17500.0,3.9288989130159324,11.097698930408393,0.45781009424682068,-4.1798268925495528,-5.5908954698101674,2.7333985456283565,13.014928726854951,10.291690018490229,-12.314844797111441,12.314844797111441,-10.291690018490229,22.912702818004039,0.0
779640.0783812654,4015767.5119837918,-17500.0,3.9448546295049449,8.1913615227353933,0.20172620295318708,-3.2963569936059796,-3.8627376551646511,1.866234222044022,9.6155859133399986,7.1957676670178641,-8.8139474816445382,8.8139474816445382,-7.1957676670178641,17.006071731443768,0.0
784640.0783812654,4015767.5119837918,-17500.0,3.6352740455128747,6.1608586051425087,0.081358515290003236,-2.5577976488996979,-2.7322151128588907,1.2814926610987678,7.2496211246147517,5.1616350884771549,-6.4449004258189451,6.4449004258189451,-5.1616350884771549,12.872295177993102,0.0
789640.0783812654,4015767.5119837918,-17500.0,3.2218204975947446,4.7145045553302225,0.025272751802658963,-1.9790486745947522,-1.9744617125182866,0.89071964452954799,5.5656575737090712,3.7884306231891158,-4.8064232984971564,4.8064232984971564,-3.7884306231891158,9.9159231158650147,0.0
794640.0783812654,4015767.5119837918,-17500.0,2.8028228698738489,3.6654133079039108,0.00013779791878773681,-1.536883668495957,-1.4551425559229116,0.62838648894431903,4.3432284703157142,2.838400384007338,-3.6497167718505334,3.6497167718505334,-2.838400384007338,7.7609970210947825,0.0
799640.0783812654,4015767.5119837918,-17500.0,2.4181523442834485,2.8915029537268895,-0.010019841634159799,-1.201788537928544,-1.09182281966383,0.45035321533064199,3.4398591153311657,2.1663377026565405,-2.8173267097193042,2.8173267097193042,-2.1663377026565405,6.1629201468552628,0.0
804640.0783812654,4015767.5119837918,-17500.0,2.080607368071496,2.3115408388776473,-0.013010872935286294,-0.94772636655129083,-0.83273628742666894,0.32785688300798005,2.7612848157875467,1.6811816773195944,-2.2075776742381938,2.2075776742381938,-1.6811816773195944,4.9588657306548232,0.0
809640.0783812654,4015767.5119837918,-17500.0,1.7909624246244924,1.8705218834011226,-0.012701601325996705,-0.75416551629522977,-0.6446796743099561,0.24231042503125572,2.2438603879172088,1.3244267822671925,-1.7535176602635534,1.7535176602635534,-1.3244267822671925,4.0383125074873316,0.0
814640.0783812654,4015767.5119837918,-17500.0,1.54511603038477,1.5305855252795866,-0.011010268689911907,-0.60564433327225431,-0.50593030715174603,0.18166419223697947,1.8438321577685781,1.0576407755964532,-1.4102342178011329,1.4102342178011329,-1.0576407755964532,3.324938264645148,0.0
819640.0783812654,4015767.5119837918,-17500.0,1.3374026609238328,1.2652543040578885,-0.0088773616346722942,-0.49073920537538185,-0.40200458275421913,0.13803488477140374,1.5306062223471173,0.85504780937611802,-1.1470547229173258,1.1470547229173258,-0.85504780937611802,2.7651711345652941,0.0
824640.0783812654,4015767.5119837918,-17500.0,1.1620742013417202,1.0557355480934929,-0.0067481713515354889,-0.40106546252850128,-0.32307286251216144,0.10620321869089339,1.2824560287913696,0.69902833924160723,-0.9426788197633067,0.9426788197633067,-0.69902833924160723,2.3208414477107708,0.0
829640.0783812654,4015767.5119837918,-17500.0,1.0138996888861012,0.88850109229566865,-0.0048169756345044588,-0.33046711353405966,-0.26235106600198455,0.082667504421749818,1.0837246472939053,0.57732265921717718,-0.78207862393850491,0.78207862393850491,-0.57732265921717718,1.9643644358962509,0.0
834640.0783812654,4015767.5119837918,-17500.0,0.88835521359122227,0.75368187752904403,-0.0031523253488884959,-0.27440629415579365,-0.21508267914476251,0.065045942082589375,0.9229735667663419,0.48125910663272875,-0.6544931816641204,0.6544931816641204,-0.48125910663272875,1.6755371267382353,0.0
644640.0783812654,4020767.5119837918,-17500.0,1.6578288821561364,0.64517134498152706,-0.13542570157722433,0.50124384314574644,0.18505505244285836,0.11652419932169628,1.1804018179108766,0.015814623973789688,-0.27583474960356247,0.27583474960356247,-0.015814623973789688,2.2209549570668448,0.0
649640.0783812654,4020767.5119837918,-17500.0,1.9525645832888372,0.74898736621072715,-0.17132496233326985,0.62131119068958507,0.22197467891042916,0.15236821739696027,1.3975901987316011,0.0057060143663552054,-0.31728303497366928,0.31728303497366928,-0.0057060143663552054,2.6300271484680291,0.0
654640.0783812654,4020767.5119837918,-17500.0,2.3170057334844003,0.87396360766819825,-0.21839439102825114,0.77831907952506874,0.26791069458581229,0.20197444158292086,1.6684602356982319,-0.0097197970981577064,-0.36637430624212364,0.36637430624212364,0.0097197970981577064,3.1405840075262899,0.0
659640.0783812654,4020767.5119837918,-17500.0,2.7714169619670357,1.0249694468633528,-0.28069355610538066,0.98622797897459114,0.32531340263876257,0.27175028189048384,2.0097118598295509,-0.032812585973345881,-0.4246145548008935,0.4246145548008935,0.032812585973345881,3.7843841732087204,0.0
664640.0783812654,4020767.5119837918,-17500.0,3.3427860307893527,1.2078894807210296,-0.36395269734234692,1.2652511115577307,0.39723515259080056,0.37163952037687414,2.4442809403604913,-0.066943742392615857,-0.49373814517814979,0.49373814517814979,0.066943742392615857,4.6051405153408362,0.0
669640.0783812654,4020767.5119837918,-17500.0,4.0670816999071713,1.4296024612230378,-0.47630876541633904,1.6450570694890387,0.48731652716857199,0.51739001795298478,3.0040119901000981,-0.1169084851401434,-0.57567178703813249,0.57567178703813249,0.1169084851401434,5.6636942612296712,0.0
674640.0783812654,4020767.5119837918,-17500.0,4.9919951260045838,1.6976379365075558,-0.62934390440122512,2.1697608877161194,0.5995002489720852,0.73447622201852403,3.7335710642212963,-0.18939084187371757,-0.67244119639405109,0.67244119639405109,0.18939084187371757,7.0456138689573811,0.0
679640.0783812654,4020767.5119837918,-17500.0,6.1797435268827243,2.0191030997934396,-0.83947359193576043,2.9056930966266865,0.73704024034974913,1.0650138259385551,4.6961515224805988,-0.29330661040310713,-0.78601885832192153,0.78601885832192153,0.29330661040310713,8.8722964696667486,0.0
684640.0783812654,4020767.5119837918,-17500.0,7.7084419201106362,2.398068504752557,-1.1295667739105246,3.9533131727315904,0.89978582807694585,1.5801494861035912,5.9816667977109566,-0.43939555244703565,-0.91822287254366586,0.91822287254366586,0.43939555244703565,11.316870610544481,0.0
689640.0783812654,4020767.5119837918,-17500.0,9.6677425070899137,2.8298909939422292,-1.5301009284983003,5.4646797429453793,1.0773565137671917,2.4024899397106849,7.7180840717523562,-0.63719111784878935,-1.0712058998602667,1.0712058998602667,0.63719111784878935,14.625851977617137,0.0
694640.0783812654,4020767.5119837918,-17500.0,12.137414452813129,3.2899652937128199,-2.0773870079437367,7.6661470370968532,1.2326984637608152,3.7466045382501934,10.085861222656282,-0.88410772147131056,-1.2505382801909346,1.2505382801909346,0.88410772147131056,19.145032179470128,0.0
699640.0783812654,4020767.5119837918,-17500.0,15.120712050322691,3.7141409678830364,-2.8013782995952772,10.877436893652579,1.263639505998275,5.9899628601444128,13.332916532187992,-1.1323874971835375,-1.4775786509417062,1.4775786509417062,1.1323874971835375,25.338914247718101,0.0
704640.0783812654,4020767.5119837918,-17500.0,18.36704213780656,3.9740660833808303,-3.6822608763361608,15.487236662680544,0.91660883113878178,9.7850946016540856,17.779777021498905,-1.1968523489060998,-1.8321312681413842,1.8321312681413842,1.1968523489060998,33.764763327135626,0.0
709640.0783812654,4020767.5119837918,-17500.0,20.949839965073313,3.8859709012031507,-4.5235859482138734,21.747017232016955,-0.39031695319607929,16.181059096888685,23.775604963269565,-0.51514130216748555,-2.5868325271986752,2.5868325271986752,0.51514130216748555,44.88560058149907,0.0
714640.0783812654,4020767.5119837918,-17500.0,20.413590649161495,3.43350753533384,-4.6362911818646175,28.972848746062361,-3.8448279587395273,26.491091771899079,31.450267490181954,2.4032678307267457,-4.58903060424581,4.58903060424581,-2.4032678307267457,58.435145298586143,0.0
719640.0783812654,4020767.5119837918,-17500.0,11.706924736469393,3.8060609571914039,-2.2548143248012136,33.199176986058383,-11.229521944442107,40.701192448349204,39.861844395289516,10.858450025387015,-10.125640531114207,10.125640531114207,-10.858450025387015,71.893872929587204,0.0
724640.0783812654,4020767.5119837918,-17500.0,-10.950614037137651,10.281255453519215,5.629317077459544,22.599689330514924,-22.305948155315985,50.28049942539986,45.73238266000596,29.256661335198025,-23.528809704094648,23.528809704094648,-29.256661335198025,79.692861739805963,0.0
729640.0783812654,4020767.5119837918,-17500.0,-37.432350681052064,33.227702117348109,19.410249183036999,-19.472829082248516,-23.633989171265622,18.828176857948268,55.67157668286562,51.195761802123705,-43.918445547774319,43.918445547774319,-51.195761802123705,96.560051662543913,0.0
734640.0783812654,4020767.5119837918,-17500.0,-20.324390193448739,62.375864867354444,28.480905713856565,-59.411911201429753,16.465913585903277,-110.76896420493129,112.34065769004069,35.604076740143121,-38.505416431236988,38.505416431236988,-35.604076740143121,195.06742971825196,0.0
739640.0783812654,4020767.5119837918,-17500.0,17.5536584902387,45.494555283389595,29.225068719124746,8.8052316639252695,67.442922661782859,-244.20296060682369,169.74615039962538,-18.941325867166427,15.377861584970717,-15.377861584970717,18.941325867166427,302.97742784936912,0.0
744640.0783812654,4020767.5119837918,-17500.0,-21.486812408398396,11.904411252943929,34.502060124617543,94.523675699811292,47.673180851855783,-196.82943855349387,152.41758488036203,-12.903800492456297,28.55800083374254,-28.55800083374254,12.903800492456297,278.82708562596144,0.0
749640.0783812654,4020767.5119837918,-17500.0,-56.102184681128399,10.512208239303346,32.580112504531904,83.724626455676798,7.9686949420066728,-89.690401759801702,98.700067403470499,22.356289570042392,-1.6755687696043395,1.6755687696043395,-22.356289570042392,183.09248345691529,0.0
754640.0783812654,4020767.5119837918,-17500.0,-49.301053755712708,16.396500098580741,23.274393687459625,46.081498998730773,-8.3784691643802187,-32.156742917157395,58.661404420865018,33.496253152850485,-19.481653243419732,19.481653243419732,-33.496253152850485,108.18739514595244,0.0
759640.0783812654,4020767.5119837918,-17500.0,-32.099050320556543,17.242028825564258,14.687772811201567,21.681169477031901,-10.733728794559452,-10.555434899260426,36.321524719272823,29.485654634892132,-21.974024883627873,21.974024883627873,-29.485654634892132,65.520208066625486,0.0
764640.0783812654,4020767.5119837918,-17500.0,-18.753072636301351,15.066556623687287,8.9724882772769607,9.5695623452160294,-9.0502870017525545,-3.0942597958268752,23.882002985560213,22.435195404201512,-18.845912852580764,18.845912852580764,-22.435195404201512,42.204405204506578,0.0
769640.0783812654,4020767.5119837918,-17500.0,-10.406679306268543,12.207721248826203,5.5088191241544342,3.9402407015254619,-6.8505873540619184,-0.56962133361611555,16.487753154548315,16.330010467198939,-14.80951403139256,14.80951403139256,-16.330010467198939,28.774339697624558,0.0
774640.0783812654,4020767.5119837918,-17500.0,-5.5180746563657843,9.6043886905736269,3.447244189691435,1.3718690077258724,-5.0153193352012142,0.23359254245873376,11.808124438104088,11.784100287013635,-11.297107728514222,11.297107728514222,-11.784100287013635,20.487369070422233,0.0
779640.0783812654,4020767.5119837918,-17500.0,-2.7183124881091367,7.4904743439475387,2.2093344664649126,0.22352732016575733,-3.6486349560167137,0.43398518250633866,8.7002801222148527,8.552399706605172,-8.5598458025618918,8.5598458025618918,-8.552399706605172,15.069651532267198,0.0
784640.0783812654,4020767.5119837918,-17500.0,-1.1320405076790463,5.8488123543980706,1.4519689928570803,-0.26479281914409164,-2.6684034410007942,0.43104734688931767,6.5604032258896297,6.2805399097122914,-6.5087051446915209,6.5087051446915209,-6.2805399097122914,11.370075163670062,0.0
789640.0783812654,4020767.5119837918,-17500.0,-0.24408959045961717,4.5948988097547199,0.97819953128707426,-0.44655389177724752,-1.9720404798845845,0.36899833348990846,5.044916064842516,4.6781460753903712,-4.9902918619816017,4.9902918619816017,-4.6781460753903712,8.7592718939912917,0.0
794640.0783812654,4020767.5119837918,-17500.0,0.24187907367865261,3.6404985348830499,0.67492516254913371,-0.48800330016445803,-1.4759530100902796,0.29864337509347644,3.9464934375794352,3.5367686808159235,-3.8661801191309562,3.8661801191309562,-3.5367686808159235,6.8684504669278033,0.0
799640.0783812654,4020767.5119837918,-17500.0,0.49592743026136099,2.9117944509548446,0.47633537013702043,-0.46799520636474262,-1.119474237594968,0.23619942428433485,3.1344171809725481,2.7133407969478971,-3.0289670330557805,3.0289670330557805,-2.7133407969478971,5.4694717202387624,0.0
804640.0783812654,4020767.5119837918,-17500.0,0.6161700082331133,2.3517549364647619,0.34343012543732271,-0.42394300733289353,-0.86038904200464894,0.18528310231273162,2.5234727056062267,2.1110053467696908,-2.3998482226358036,2.3998482226358036,-2.1110053467696908,4.4152888127398491,0.0
809640.0783812654,4020767.5119837918,-17500.0,0.65964847298531915,1.9177639555444095,0.25262601959749603,-0.37335055175604825,-0.66972691252022076,0.1452250870326896,2.0566109532962717,1.6641796548988674,-1.9222385645259585,1.9222385645259585,-1.6641796548988674,3.6080669217814623,0.0
814640.0783812654,4020767.5119837918,-17500.0,0.65976953240397784,1.5783966390502804,0.18936547430605524,-0.32408235603990454,-0.5276242467658453,0.11418125734927402,1.6947797693268885,1.3281496756017941,-1.5557553053938793,1.5557553053938793,-1.3281496756017941,2.9810329775811351,0.0
819640.0783812654,4020767.5119837918,-17500.0,0.63620011827874745,1.3105520738213123,0.14447870742353688,-0.27933913018293194,-0.42038436527726136,0.090241050799342179,1.4107239768595605,1.0721136376588818,-1.2715288364797639,1.2715288364797639,-1.0721136376588818,2.4876297541195806,0.0
824640.0783812654,4020767.5119837918,-17500.0,0.60053637938787297,1.0972088864564471,0.11207608029146478,-0.2400968196607135,-0.33847760626637846,0.071769818400783253,1.1850911203534591,0.87459931277323255,-1.0487993076768751,1.0487993076768751,-0.87459931277323255,2.094790874312169,0.0
829640.0783812654,4020767.5119837918,-17500.0,0.55958876985895012,0.92575780185741774,0.088303881623867375,-0.20630959015210792,-0.27520245675723415,0.057468386411654838,1.0039236691740405,0.7204491433840714,-0.87251778401272539,0.87251778401272539,-0.7204491433840714,1.7786442076030764,0.0
834640.0783812654,4020767.5119837918,-17500.0,0.51730829619185581,0.78679197045553573,0.070595841014776492,-0.17750198988351171,-0.2257922726961667,0.046338150860651954,0.85700994288959864,0.59882714551644356,-0.73167472826236568,0.73167472826236568,-0.59882714551644356,1.5216993133511147,0.0
644640.0783812654,4025767.5119837918,-17500.0,1.9668153498630347,0.46082527445115201,-0.17402063339382254,0.58808950768410462,0.13150874000957241,0.13505985172765048,1.2520582044466848,-0.12268200457360944,-0.091560392019722756,0.091560392019722756,0.12268200457360944,2.3965663110333075,0.0
649640.0783812654,4025767.5119837918,-17500.0,2.3233181223192254,0.51658135261503657,-0.21717459477345194,0.73099450643801656,0.15143268736512716,0.17714359950186678,1.4840695585445141,-0.16285612474047415,-0.088895345938923037,0.088895345938923037,0.16285612474047415,2.8425782217044078,0.0
654640.0783812654,4025767.5119837918,-17500.0,2.7643700769081976,0.5777675795454853,-0.27269463187692533,0.91808952291595158,0.17372134616216972,0.23550457756545945,1.7736110591744898,-0.2161444861464592,-0.080559778375423843,0.080559778375423843,0.2161444861464592,3.3998886982251078,0.0
659640.0783812654,4025767.5119837918,-17500.0,3.3140952182399297,0.6430709930348546,-0.34453389665261686,1.1659806659640066,0.19770984872478586,0.31773020328427121,2.1385642304296333,-0.28708029710567662,-0.063248512302461993,0.063248512302461993,0.28708029710567662,4.1033648655621482,0.0
664640.0783812654,4025767.5119837918,-17500.0,4.0041787014364347,0.70938856889281088,-0.43793047220833592,1.498566251299291,0.22163345450141581,0.43556983333704985,2.6034481714899655,-0.38173361757380136,-0.031903405700611842,0.031903405700611842,0.38173361757380136,5.0009315124296538,0.0
669640.0783812654,4025767.5119837918,-17500.0,4.87601346668436,0.7704034951432096,-0.55970991275227699,1.9506192404681735,0.24155663243658201,0.60756213196873965,3.2022267089110148,-0.50805086622355766,0.021190846636607141,-0.021190846636607141,0.50805086622355766,6.1591399123864061,0.0
674640.0783812654,4025767.5119837918,-17500.0,5.9828784314580847,0.81412670441315638,-0.71845533287575047,2.5732073947181466,0.24930763143841672,0.86352458443822233,3.9823847879041927,-0.67595125590354876,0.10771342271596901,-0.10771342271596901,0.67595125590354876,7.6712592116212504,0.0
679640.0783812654,4025767.5119837918,-17500.0,7.3911307658595096,0.81871105328797378,-0.92415906545220217,3.441770303615828,0.22847380171073786,1.2523348850111367,5.010807718623937,-0.89655326657685008,0.24505272611974255,-0.24505272611974255,0.89655326657685008,9.6689092223480806,0.0
684640.0783812654,4025767.5119837918,-17500.0,9.1776736806651762,0.74552027446424374,-1.1863805127034461,4.6676800981963646,0.14659962472353866,1.8555463191045523,6.382098829242187,-1.1789227234048982,0.45820027108185302,-0.45820027108185302,1.1789227234048982,12.338307498281488,0.0
689640.0783812654,4025767.5119837918,-17500.0,11.416919379700508,0.52831626701028811,-1.5085609428783782,6.413198493728216,-0.060014246066978437,2.8112058732879386,8.2298458701922961,-1.5203744429315009,0.78038124642501105,-0.78038124642501105,1.5203744429315009,15.941419951120047,0.0
694640.0783812654,4025767.5119837918,-17500.0,14.141426534979191,0.058661141604448526,-1.873079103821282,8.9056556547994976,-0.51558847297664556,4.3546969844986618,10.740453711986234,-1.8808601043786861,1.2476170114695793,-1.2476170114695793,1.8808601043786861,20.838780106148832,0.0
699640.0783812654,4025767.5119837918,-17500.0,17.241635853103979,-0.82575634435510359,-2.205338975930812,12.432924479592481,-1.4591388325388237,6.8843824003054168,14.165679411900967,-2.1199036595418517,1.872905176767937,-1.872905176767937,2.1199036595418517,27.499199883932253,0.0
704640.0783812654,4025767.5119837918,-17500.0,20.237480611732639,-2.3186509782356968,-2.2948249274514549,17.261926215358628,-3.3350202117855363,11.048482615854667,18.81640026131598,-1.8516661065787607,2.5611925813713485,-2.5611925813713485,1.8516661065787607,36.448744328803059,0.0
709640.0783812654,4025767.5119837918,-17500.0,21.825717719790799,-4.4817349952098757,-1.6464796492349667,23.318685028346863,-6.8997616010208445,17.784097109279429,24.972420573188121,-0.14838696360281878,2.8722881020925883,-2.8722881020925883,0.14838696360281878,48.02888943477187,0.0
714640.0783812654,4025767.5119837918,-17500.0,19.21974347915943,-6.6485749362938016,0.69601777046912505,29.266532810626487,-13.151482836648412,27.986108445528732,32.543560276682989,4.9089105347877773,1.4669139940120051,-1.4669139940120051,-4.9089105347877773,61.672102977591273,0.0
719640.0783812654,4025767.5119837918,-17500.0,8.119036437773314,-5.8824856524070297,5.9025874157417366,30.533413896414903,-22.248897143839908,40.744099937408947,40.268915492019438,16.196686559798152,-4.7608873090349348,4.7608873090349348,-16.196686559798152,74.346072404150433,0.0
724640.0783812654,4025767.5119837918,-17500.0,-13.145028888827975,5.0234863397036005,12.958348436196255,17.552729049627079,-29.203591303427906,47.920929025981771,45.056556024275324,33.873665614206942,-20.11714456772501,20.11714456772501,-33.873665614206942,79.843347587629111,0.0
729640.0783812654,4025767.5119837918,-17500.0,-30.322010400564793,32.510573106832823,12.255600589601606,-16.065106901274746,-15.887621086356887,26.196409499089881,49.215310293572948,41.917045656336164,-40.769615262993263,40.769615262993263,-41.917045656336164,85.458118579339896,0.0
734640.0783812654,4025767.5119837918,-17500.0,-13.229652266606983,56.062761944366386,-11.371352480647175,-41.378780872028329,38.421819289437984,-46.840496547743953,79.442566486498364,2.1995310486692965,-35.864298448547842,35.864298448547842,-2.1995310486692965,142.091590527053,0.0
739640.0783812654,4025767.5119837918,-17500.0,16.115879066482961,31.657461806923141,-39.423581888089302,-4.5411504693053777,97.408364263069117,-124.05343014118868,117.79246078028089,-72.41942987365988,16.308876522460032,-16.308876522460032,72.41942987365988,215.59396601773614,0.0
744640.0783812654,4025767.5119837918,-17500.0,-3.0267538266814604,-12.977924817744595,-31.938503954699385,55.13789808754219,93.655089007227915,-125.03231240497114,117.88163163272404,-89.572117478319853,54.345811711275388,-54.345811711275388,89.572117478319853,219.39353112782905,0.0
749640.0783812654,4025767.5119837918,-17500.0,-37.12739965324198,-23.934375013245788,-7.1084639474878966,68.183823299390156,51.583456532171645,-77.820221782470284,87.692319903118531,-49.033907195919824,42.700416202730125,-42.700416202730125,49.033907195919824,165.61044849085144,0.0
754640.0783812654,4025767.5119837918,-17500.0,-46.115935823459999,-13.327142451049628,6.835662761332145,50.33331048501158,19.411225395639129,-38.834028239417819,56.651432408498692,-11.781318752612318,17.703618692109018,-17.703618692109018,11.781318752612318,108.32756319783111,0.0
759640.0783812654,4025767.5119837918,-17500.0,-38.419184401431799,-2.7593458970645584,9.8569702621436299,30.815185714056256,4.2850702063347947,-18.050611032814459,35.855862259730209,5.6136902160830564,1.7334448180551716,-1.7334448180551716,-5.6136902160830564,68.474841752926849,0.0
764640.0783812654,4025767.5119837918,-17500.0,-27.525057470328516,2.8625037095663459,8.5758211675177165,17.657577918975338,-1.2812092686151695,-8.2932462920490799,23.512732933300228,10.737076148010535,-5.1427617797543075,5.1427617797543075,-10.737076148010535,44.087721263570785,0.0
769640.0783812654,4025767.5119837918,-17500.0,-18.53296274492893,4.9730550484329967,6.4665144133849219,9.9116297469641506,-2.8163381453037237,-3.8148760030363991,16.048622404134328,10.780110100628839,-7.1166257440371892,7.1166257440371892,-10.780110100628839,29.434024293764718,0.0
774640.0783812654,4025767.5119837918,-17500.0,-12.157255217224913,5.3147985648873934,4.6335416182832496,5.5342871778263509,-2.8773341249337778,-1.7448402968339545,11.347565447932833,9.2291082605296335,-6.9916704436149839,6.9916704436149839,-9.2291082605296335,20.420085930423124,0.0
779640.0783812654,4025767.5119837918,-17500.0,-7.8853314354529314,4.916581803471189,3.2695477576571048,3.0808633290412466,-2.4867438664173251,-0.77712332056650901,8.2704447342417158,7.442288688035684,-6.1369057153670044,6.1369057153670044,-7.442288688035684,14.670102972891222,0.0
784640.0783812654,4025767.5119837918,-17500.0,-5.0824055857498411,4.2792903626177674,2.3087290367983626,1.7009036007436971,-2.0207906980614316,-0.32170236084934895,6.1854825528377511,5.8632669851223858,-5.1367065611421596,5.1367065611421596,-5.8632669851223858,10.861544554386967,0.0
789640.0783812654,4025767.5119837918,-17500.0,-3.2536614010190372,3.6215444558371135,1.6440483803527599,0.91936139351216795,-1.6025022959196284,-0.10819001773916403,4.7295713098492875,4.5878691408258625,-4.2116821309054639,4.2116821309054639,-4.5878691408258625,8.2499948510530139,0.0
794640.0783812654,4025767.5119837918,-17500.0,-2.0591355296899083,3.0271797133339371,1.1849944323996309,0.4740571983322806,-1.2606877070512803,-0.010356338742695597,3.6860820162721604,3.5946121323068754,-3.4269296170200345,3.4269296170200345,-3.5946121323068754,6.403827889754079,0.0
799640.0783812654,4025767.5119837918,-17500.0,-1.2759423758879125,2.5198711844960151,0.86593876345683451,0.21976178115470976,-0.99189509702893364,0.031807064342341124,2.9210810565412872,2.8318089651200222,-2.7860453021489406,2.7860453021489406,-2.8318089651200222,5.0638449111070232,0.0
804640.0783812654,4025767.5119837918,-17500.0,-0.76037674494030227,2.0983853574855895,0.64188706658258243,0.075194308524013043,-0.78376180615736402,0.047278502778193419,2.34904242907011,2.2477552754321897,-2.2714700684865203,2.2714700684865203,-2.2477552754321897,4.0688547103844668,0.0
809640.0783812654,4025767.5119837918,-17500.0,-0.42005990820227113,1.7525360037793409,0.48261757754647239,-0.0057271281157186497,-0.62329307904674436,0.050214233662600652,1.9137645998531834,1.79936173911703,-1.8609370924461457,1.8609370924461457,-1.79936173911703,3.3152989386439713,0.0
814640.0783812654,4025767.5119837918,-17500.0,-0.19538031796499877,1.470078596877834,0.36792050564023754,-0.049481138573832247,-0.49938892604868557,0.047566704157378174,1.5773708799826882,1.4531418436453891,-1.5336140375380118,1.5336140375380118,-1.4531418436453891,2.7346636185054396,0.0
819640.0783812654,4025767.5119837918,-17500.0,-0.04759279937031826,1.2394631883042464,0.28423171889429161,-0.071475983808137716,-0.40327448279221451,0.042736592953097369,1.3137573110013472,1.1838520597922368,-1.2719516396010895,1.2719516396010895,-1.1838520597922368,2.2804205231992181,0.0
824640.0783812654,4025767.5119837918,-17500.0,0.048706879026721703,1.0507492655018387,0.22237531012740447,-0.080777541869352584,-0.32824562557257631,0.037355676653109959,1.1045718658673502,0.97270143786148788,-1.0618448673932304,1.0618448673932304,-0.97270143786148788,1.9202326895601876,0.0
829640.0783812654,4025767.5119837918,-17500.0,0.11033036438288725,0.89574262952804062,0.1760808813783907,-0.082766865230140804,-0.2692561524088094,0.032171110941114474,0.93667998914549866,0.80575049784559771,-0.89221010688483859,0.89221010688483859,-0.80575049784559771,1.6311601008291667,0.0
834640.0783812654,4025767.5119837918,-17500.0,0.1485047982712239,0.76783402523002242,0.14101534220698397,-0.080656348364329472,-0.22252736573734816,0.027489654879266051,0.80052873169002581,0.67264246706194675,-0.75442809656517074,0.75442809656517074,-0.67264246706194675,1.3966292690925548,0.0
644640.0783812654,4030767.5119837918,-17500.0,2.1987113335603441,0.24745397732971255,-0.17968838035529683,0.65386991930087501,0.069523822472809568,0.14918041830203416,1.3100985835106369,-0.24857113820268806,0.11226503964636103,-0.11226503964636103,0.24857113820268806,2.5423605451831794,0.0
649640.0783812654,4030767.5119837918,-17500.0,2.5925940321937992,0.2491008425125564,-0.21917201844760473,0.81156541516193248,0.070190031233008598,0.19547466311192713,1.5521517186587064,-0.31296674406617708,0.16271590799584934,-0.16271590799584934,0.31296674406617708,3.0147835099362328,0.0
654640.0783812654,4030767.5119837918,-17500.0,3.07657410128791,0.23935114051373166,-0.26787970311404341,1.0170275115865979,0.065961442412652879,0.25945771675802859,1.8535675551059105,-0.39541191160757333,0.23262684950017382,-0.23262684950017382,0.39541191160757333,3.6038527832175107,0.0
659640.0783812654,4030767.5119837918,-17500.0,3.674516364382876,0.21081040354025948,-0.32766506905610482,1.287551976472848,0.052965061523359329,0.34919879691292488,2.232409172768397,-0.50109272178893327,0.32990175122317733,-0.32990175122317733,0.50109272178893327,4.3453168089539345,0.0
664640.0783812654,4030767.5119837918,-17500.0,4.4166424618610769,0.15189346480453306,-0.40025899116644381,1.6475779237812656,0.024622193502565348,0.47704801895659715,2.7132057783710231,-0.63636010416880473,0.46583414184031452,-0.46583414184031452,0.63636010416880473,5.2878046921534967,0.0
669640.0783812654,4030767.5119837918,-17500.0,5.3404949457982536,0.044479450051615285,-0.48658448325384918,2.1318478973002368,-0.030292273823587249,0.66220868191803151,3.3295229833346807,-0.80846851493323335,0.65653072919022826,-0.65653072919022826,0.80846851493323335,6.497960132955594,0.0
674640.0783812654,4030767.5119837918,-17500.0,6.490953070601301,-0.13967889160471794,-0.58522200726954399,2.7898751055004212,-0.13105237579091633,0.93500228252019857,4.1275640389726647,-1.0244535036585336,0.92475845783192867,-0.92475845783192867,1.0244535036585336,8.0676035139635598,0.0
679640.0783812654,4030767.5119837918,-17500.0,7.9175599167216175,-0.44426550287892147,-0.6891328210090083,3.6919523129556953,-0.31097437094344549,1.3439801079634248,5.1711129735646049,-1.2879618169888216,1.3020013469407408,-1.3020013469407408,1.2879618169888216,10.123442898322645,0.0
684640.0783812654,4030767.5119837918,-17500.0,9.6653181959242609,-0.93567772549491046,-0.77888253431099397,4.9363438214226143,-0.62795001302068276,1.9677437824823949,6.5480295997625859,-1.5914429625581608,1.8297618770238431,-1.8297618770238431,1.5914429625581608,12.839426836055551,0.0
689640.0783812654,4030767.5119837918,-17500.0,11.750887476035132,-1.7112448610122764,-0.80903908275171998,6.655282445844608,-1.1826657896114534,2.9342041523223488,8.3780009653148912,-1.8982176771393684,2.5570840746312635,-2.5570840746312635,1.8982176771393684,16.450175995700405,0.0
694640.0783812654,4030767.5119837918,-17500.0,14.108316881881894,-2.9029440784148361,-0.68198506625137756,9.0116111693740919,-2.148754875134502,4.4502709755087277,10.819527976469438,-2.1033961518407258,3.5260525772105131,-3.5260525772105131,2.1033961518407258,21.259011509799617,0.0
699640.0783812654,4030767.5119837918,-17500.0,16.476610831725395,-4.6582762339328632,-0.20123994991796351,12.163066457788217,-3.8174167240501484,6.8414227906021283,14.068366575451966,-1.9537343807007332,4.7248283895248688,-4.7248283895248688,1.9537343807007332,27.621196708314447,0.0
704640.0783812654,4030767.5119837918,-17500.0,18.193461051649294,-7.047187440896618,0.99813370383165123,16.137586127317686,-6.644019534550873,10.582508615120641,18.322587047445474,-0.89958500313464329,5.9630506904931426,-5.9630506904931426,0.89958500313464329,35.852693877484135,0.0
709640.0783812654,4030767.5119837918,-17500.0,17.898486095439843,-9.7764041245074758,3.5022738345755267,20.503384619753088,-11.222989792828571,16.238486610247662,23.657535379586545,2.1187929189349264,6.5900489437141099,-6.5900489437141099,-2.1187929189349264,45.955150917959052,0.0
714640.0783812654,4030767.5119837918,-17500.0,13.381230077144364,-11.518957427139606,7.9505185508465912,23.68076166356904,-17.932180897955593,24.065782154288879,29.728408140225774,8.7516248160397225,4.9998539770915462,-4.9998539770915462,-8.7516248160397225,56.980355348890306,0.0
719640.0783812654,4030767.5119837918,-17500.0,2.5222489899924883,-8.8871426540635898,14.024528457580077,22.043609244845214,-25.612937152549332,32.734958841598065,35.293650997262638,20.299565549974702,-1.7319975546384878,1.7319975546384878,-20.299565549974702,66.033089624536871,0.0
724640.0783812654,4030767.5119837918,-17500.0,-12.802999136604349,3.3319778431351597,17.668059575056169,10.524636152294224,-28.643342208126239,36.788047321721493,38.246298667310974,33.655325217445927,-16.208483687353009,16.208483687353009,-33.655325217445927,68.582788698392889,0.0
729640.0783812654,4030767.5119837918,-17500.0,-21.056354700333607,25.527002963182021,8.488429088402631,-10.700278972110212,-15.152024186789264,25.497865134851807,39.35452849102515,34.112676831821801,-33.456541535776353,33.456541535776353,-34.112676831821801,68.204679722604794,0.0
734640.0783812654,4030767.5119837918,-17500.0,-8.8763625238229338,40.334086100810254,-20.951917416087543,-24.76478536458276,21.927865822349236,-7.2983543526487766,49.545165944046353,1.0000530110375827,-33.61602827947425,33.61602827947425,-1.0000530110375827,91.270245128568519,0.0
739640.0783812654,4030767.5119837918,-17500.0,9.6187065620671692,24.527744925963759,-51.971075882404982,-10.185234700038556,61.547148188754399,-44.051653483426243,69.000732914685202,-53.808601185864262,-3.567297371223237,3.567297371223237,53.808601185864262,129.8016380162492,0.0
744640.0783812654,4030767.5119837918,-17500.0,5.0365938828879244,-8.1299359022909545,-54.711903021235379,20.534270981622157,70.856556715863078,-57.024497226068711,75.27660921718217,-80.703572464731224,30.127591687960688,-30.127591687960688,80.703572464731224,142.26249090465609,0.0
749640.0783812654,4030767.5119837918,-17500.0,-15.480572069905115,-25.166961218197851,-34.201827155817249,37.449819418900169,52.355353115402579,-46.407177779191095,64.435298715095144,-65.439215379339629,38.610466401517058,-38.610466401517058,65.439215379339629,122.71429905344964,0.0
754640.0783812654,4030767.5119837918,-17500.0,-29.005420714654928,-23.065315307394371,-13.601982679884649,36.076891608004559,29.515722332149728,-29.959145509508993,47.538463443120051,-36.589523909313975,28.283869171436599,-28.283869171436599,36.589523909313975,91.471593210113411,0.0
759640.0783812654,4030767.5119837918,-17500.0,-30.761974331844787,-14.439495603872235,-1.9644234924102486,27.298123856104734,13.886614459317713,-17.366739565973628,32.803748412704685,-14.766185015526874,15.109481667187486,-15.109481667187486,14.766185015526874,63.738177539869454,0.0
764640.0783812654,4030767.5119837918,-17500.0,-26.272219711779101,-6.927494796309559,2.693708125933691,18.543981860591785,5.4549659206384877,-9.6315764898843224,22.42106662420143,-2.8243386581153089,5.7883802410903584,-5.7883802410903584,2.8243386581153089,43.575252304283801,0.0
769640.0783812654,4030767.5119837918,-17500.0,-20.286136713205284,-2.1636883599060832,3.8492624754440214,12.006928987331808,1.4501738239782953,-5.2647748824892098,15.61979228502795,2.5079530361335847,0.58212513048402137,-0.58212513048402137,-2.5079530361335847,29.974404523516327,1.0
774640.0783812654,4030767.5119837918,-17500.0,-14.912045276833647,0.40823349392874914,3.6286947651421184,7.6255590628975876,-0.26670027617354819,-2.874564022840155,11.12951990477956,4.3639764979606976,-1.8874374288993869,1.8874374288993869,-4.3639764979606976,20.991355113183285,0.0
779640.0783812654,4030767.5119837918,-17500.0,-10.705489674279582,1.6174176500497541,3.008018806517804,4.8175072358776641,-0.89873770478007509,-1.5759855788348534,8.1108523797075058,4.6230147575155822,-2.8315163209762644,2.8315163209762644,-4.6230147575155822,15.036856848974342,0.0
784640.0783812654,4030767.5119837918,-17500.0,-7.6058256116906158,2.0708911160013694,2.3652460695224078,3.0475548959841192,-1.0478285561110832,-0.86800444010232491,6.0423981253711601,4.2404465430716307,-3.0097915848737085,3.0097915848737085,-4.2404465430716307,11.029940315305709,0.0
789640.0783812654,4030767.5119837918,-17500.0,-5.3840621060089564,2.1367069447036182,1.8192476716799943,1.9351915009864658,-0.99839503874874724,-0.47875333684683602,4.5955294986073421,3.6595530461127472,-2.8406704775745535,2.8406704775745535,-3.6595530461127472,8.2787132668053118,0.0
794640.0783812654,4030767.5119837918,-17500.0,-3.8096694656677155,2.0199252544282849,1.3892245094994295,1.2333353838024088,-0.8796116703917275,-0.26262530788511762,3.5620476579770761,3.0697160511123536,-2.5385140951411436,2.5385140951411436,-3.0697160511123536,6.347763937014177,0.0
799640.0783812654,4030767.5119837918,-17500.0,-2.6972362937684924,1.8290895147348092,1.061456483480264,0.78730522037847683,-0.74750242300858682,-0.14154771842459982,2.8087417721352135,2.5420290167746113,-2.2067883756110147,2.2067883756110147,-2.5420290167746113,4.9624389975996888,0.0
804640.0783812654,4030767.5119837918,-17500.0,-1.9098876001239355,1.619112962164351,0.81493959981585939,0.50149589851585097,-0.62446428527825326,-0.073303409485628371,2.2491114967327848,2.0953565981109965,-1.8917146225380688,1.8917146225380688,-2.0953565981109965,3.9474411830195004,0.0
809640.0783812654,4030767.5119837918,-17500.0,-1.3503744698710576,1.4161549071809514,0.630157994501652,0.31686843699108641,-0.51785311140390211,-0.034785462720520986,1.8259953043211614,1.7271751862641498,-1.6110721855279402,1.6110721855279402,-1.7271751862641498,3.1890332480533612,0.0
814640.0783812654,4030767.5119837918,-17500.0,-0.95075543035147481,1.2313708303101696,0.4913641482793325,0.19676741948121745,-0.42859696363758204,-0.013173458843816136,1.5009108591042724,1.4274671540044452,-1.3690992265158761,1.3690992265158761,-1.4274671540044452,2.6120344951256378,0.0
819640.0783812654,4030767.5119837918,-17500.0,-0.6638366993855247,1.0683208621552231,0.38657584151801089,0.11823611326076613,-0.35512528690251072,-0.0012561258288114618,1.2474642771962379,1.1846921004281941,-1.1640088678879692,1.1640088678879692,-1.1846921004281941,2.1657807404945641,0.0
824640.0783812654,4030767.5119837918,-17500.0,-0.45682495627593944,0.9268946646201971,0.30691722243955738,0.066748552553806503,-0.29511471185177052,0.0050752708412463718,1.0472236903379879,0.98814088050036553,-0.99168638533392772,0.99168638533392772,-0.98814088050036553,1.815468698357162,0.0
829640.0783812654,4030767.5119837918,-17500.0,-0.30684610414841046,0.80535650315315921,0.24588894317007101,0.033013022118793207,-0.24622511766148883,0.0081884468404153903,0.88709497482805411,0.82868665894593341,-0.84744320006430685,0.84744320006430685,-0.82868665894593341,1.5367431338733466,0.0
834640.0783812654,4030767.5119837918,-17500.0,-0.19785277688293174,0.70138736609866159,0.19874791750248189,0.011021362238817023,-0.20637584422274025,0.0094604735016626407,0.75762530963489394,0.69886277155630505,-0.72679770297142154,0.72679770297142154,-0.69886277155630505,1.312257751356565,0.0
644640.0783812654,4035767.5119837918,-17500.0,2.3465351149878457,0.02236342880857636,-0.15103522229851271,0.69660563855931024,0.0038218597127729734,0.15846708543472812,1.3504800338466556,-0.35248192051902727,0.3211651345816241,-0.3211651345816241,0.35248192051902727,2.6491447527014778,0.0
649640.0783812654,4035767.5119837918,-17500.0,2.7525132888973078,-0.029649847514686987,-0.17630527168361865,0.86063826762995332,-0.014958110134601981,0.20682250543830982,1.5967037259811026,-0.43258900572468301,0.41781272519208873,-0.41781272519208873,0.43258900572468301,3.1349731367865807,0.0
654640.0783812654,4035767.5119837918,-17500.0,3.2452226991927047,-0.10815139278593382,-0.20393381460520638,1.0723766792013469,-0.045444027760717723,0.27316253097453808,1.9018086910828642,-0.53206755396444627,0.54596604386643677,-0.54596604386643677,0.53206755396444627,3.7376439755708728,0.0
659640.0783812654,4035767.5119837918,-17500.0,3.8447697339266504,-0.22513317989615397,-0.23225701931340598,1.3480259483077388,-0.094200594038144625,0.36537544202763783,2.2829872420970894,-0.65510240321730984,0.71686739351816064,-0.71686739351816064,0.65510240321730984,4.4914303006666358,0.0
664640.0783812654,4035767.5119837918,-17500.0,4.5749998644283991,-0.3980510500725532,-0.25756886522299538,1.7098298860157732,-0.17162053315828882,0.4953085345048529,2.76319001474271,-0.80589838943884851,0.94591468202102846,-0.94591468202102846,0.80589838943884851,5.4421009345264562,0.0
669640.0783812654,4035767.5119837918,-17500.0,5.4628034253980839,-0.65224177153817464,-0.27235687734549685,2.1882785746389644,-0.2942880997020848,0.68096551275513684,3.3731643460875707,-0.98750430260421596,1.2540021532050978,-1.2540021532050978,0.98750430260421596,6.6509543941737883,0.0
674640.0783812654,4035767.5119837918,-17500.0,6.5355276152211932,-1.0241650105069533,-0.2621211450402593,2.8248297012652155,-0.48884896991412363,0.94998567400975564,4.154121666626736,-1.1991362284507154,1.668904099211852,-1.668904099211852,1.1991362284507154,8.2000247297615285,0.0
679640.0783812654,4035767.5119837918,-17500.0,7.8144075670851825,-1.5653052265303593,-0.19970560363898143,3.6747515811170137,-0.79829890485919008,1.3451094928829024,5.1610393089233852,-1.4304715588104784,2.2260230902025842,-2.2260230902025842,1.4304715588104784,10.198329417807642,0.0
684640.0783812654,4035767.5119837918,-17500.0,9.3000984607343273,-2.3456454652522036,-0.035407623373982886,4.8087047389709943,-1.2919787072285882,1.932562103853114,6.46626855086775,-1.6500118002653716,2.9666619961656036,-2.9666619961656036,1.6500118002653716,12.788170080876045,0.0
689640.0783812654,4035767.5119837918,-17500.0,10.94344490235307,-3.453130188958613,0.31958404771947874,6.3092716488404701,-2.0806662158577942,2.8142112612877694,8.1621837016681198,-1.7823187523066466,3.9293468718388782,-3.9293468718388782,1.7823187523066466,16.148299545768715,0.0
694640.0783812654,4035767.5119837918,-17500.0,12.590948640665857,-4.9794860374179875,1.018661625893478,8.2532827391885633,-3.3367979834208179,4.1429873905832917,10.359140197224198,-1.6658832521443472,5.1242187779032067,-5.1242187779032067,1.6658832521443472,20.485657851665504,0.0
699640.0783812654,4035767.5119837918,-17500.0,13.893559356311616,-6.9697502479632645,2.3116617731647353,10.660175042901599,-5.3134290428315341,6.1355827808869128,13.1694212261774,-0.98226950523655532,6.4704522307549883,-6.4704522307549883,0.98226950523655532,25.996582429134708,0.0
704640.0783812654,4035767.5119837918,-17500.0,14.183213357924636,-9.2900295248802518,4.5605691721876669,13.370068950139467,-8.3347859527728883,9.0601037781169147,16.658723677455406,0.84027891410686983,7.6635601373555371,-7.6635601373555371,-0.84027891410686983,32.75881285746626,0.0
709640.0783812654,4035767.5119837918,-17500.0,12.392261064206426,-11.3469982981978,8.1564800363860268,15.805786435542553,-12.677976441444153,13.136997475204932,20.737548880779244,4.6828350140491235,7.942889166550005,-7.942889166550005,-4.6828350140491235,40.491678641706585,0.0
714640.0783812654,4035767.5119837918,-17500.0,7.2835975284717343,-11.650023065078955,13.124789380355208,16.635568720140057,-18.166370914977918,18.224175265665352,24.97237333150057,11.494009177335009,5.8293655310820327,-5.8293655310820327,-11.494009177335009,48.138928101698326,0.0
719640.0783812654,4035767.5119837918,-17500.0,-1.4517756820538386,-7.5822641491613121,18.083204471958695,13.664338083860752,-23.244096246470139,23.137379012635201,28.399902072734651,21.135520100541342,-0.71127082513509698,0.71127082513509698,-21.135520100541342,53.473095617244113,0.0
724640.0783812654,4035767.5119837918,-17500.0,-10.951443377093749,3.2881892287871382,18.70156195011899,4.9826139022438012,-23.796234426380202,24.828638637048488,29.824680471173171,29.735058931164978,-12.505731686407435,12.505731686407435,-29.735058931164978,53.890873429887407,0.0
729640.0783812654,4035767.5119837918,-17500.0,-14.177513267951459,18.7064418692092,8.1920855357879372,-7.5389518284781847,-13.887866589862895,18.930149941407183,29.728400756763385,27.595142614234337,-25.108579202495076,25.108579202495076,-27.595142614234337,51.525042183292243,0.0
734640.0783812654,4035767.5119837918,-17500.0,-6.2300303211344845,27.727750814108255,-15.370925614926804,-15.407165264753454,8.0210700487017945,3.9686744784812453,32.545897123098598,5.4580510304963461,-27.339825052520499,27.339825052520499,-5.4580510304963461,59.096821008917452,0.0
739640.0783812654,4035767.5119837918,-17500.0,5.0836390782026335,19.42031072445862,-39.851166629779776,-10.096219281774943,31.796808605885484,-13.697366060462098,40.161594919498597,-29.36828612779399,-12.257935704584089,12.257935704584089,29.36828612779399,77.448689794887542,0.0
744640.0783812654,4035767.5119837918,-17500.0,6.0088125211937138,-0.54591493402376179,-48.247673239142394,4.7419257583873016,42.895011444103488,-24.22161868539532,45.870899654276968,-53.362415883331458,9.846015961399992,-9.846015961399992,53.362415883331458,88.35013258121235,0.0
749640.0783812654,4035767.5119837918,-17500.0,-3.9251069727870687,-15.967513178640244,-39.074269982435773,17.198201420246992,38.608931834759034,-24.707488473767018,43.665128552491666,-54.072318626369679,22.926020572469966,-22.926020572469966,54.072318626369679,84.030086313724539,0.0
754640.0783812654,4035767.5119837918,-17500.0,-14.650573790011149,-20.070644266118055,-23.840659290267244,21.465307914359158,27.277611459399999,-19.53606491342947,36.16646837547836,-40.045537994686207,23.452082285190905,-23.452082285190905,40.045537994686207,69.902807454493228,0.0
759640.0783812654,4035767.5119837918,-17500.0,-20.025291292963942,-16.771311372674298,-11.457796849962438,19.628377709588175,16.510176141233782,-13.459746888143792,27.559605804889877,-24.013226056239482,17.481149777595888,-17.481149777595888,24.013226056239482,53.643882296222763,0.0
764640.0783812654,4035767.5119837918,-17500.0,-20.29360139195644,-11.407035042902699,-4.0008295941446903,15.469053074242195,8.9686697198042751,-8.612128812378181,20.154528336141876,-12.005886245876525,10.703316811551367,-10.703316811551367,12.005886245876525,39.511199824373122,0.0
769640.0783812654,4035767.5119837918,-17500.0,-17.821386746307915,-6.7245034985557055,-0.28623431523570908,11.284936285486832,4.4214646297671658,-5.3078687756303671,14.594914096848273,-4.6372148031193712,5.4886367382439429,-5.4886367382439429,4.6372148031193712,28.653054094532699,0.0
774640.0783812654,4035767.5119837918,-17500.0,-14.500168001696277,-3.4202953975520005,1.2579768637253257,7.9106540172355233,1.9073766973243718,-3.2185525800456585,10.668038187193488,-0.65438574846993502,2.1211243052689812,-2.1211243052689812,0.65438574846993502,20.774058494876279,0.0
779640.0783812654,4035767.5119837918,-17500.0,-11.31468824820185,-1.3353601927582082,1.7181902016714801,5.4405102408498234,0.60052546131437112,-1.9437076491384122,7.9006103653152628,1.2634947454376553,0.17402655750868012,-0.17402655750868012,-1.2634947454376553,15.19109130504213,0.0
784640.0783812654,4035767.5119837918,-17500.0,-8.6321138359092657,-0.11712343323744175,1.6989336874841428,3.7147275644599134,-0.038101133940524647,-1.1769411838940114,5.9361026698656412,2.040929844591485,-0.84570748104225779,0.84570748104225779,-2.040929844591485,11.257597908010139,0.0
789640.0783812654,4035767.5119837918,-17500.0,-6.5109081894288732,0.54411988891207097,1.5001059777905335,2.5350088783459666,-0.32263009688658145,-0.7168759710359921,4.5294690444485912,2.2328932719310601,-1.3111222716129223,1.3111222716129223,-2.2328932719310601,8.4740995443145763,0.0
794640.0783812654,4035767.5119837918,-17500.0,-4.8870937841358302,0.86761530903254236,1.2581813319924904,1.7352199256272334,-0.42609729874781344,-0.43964698680975106,3.5106103610488271,2.1471452104035151,-1.4650045325549323,1.4650045325549323,-2.1471452104035151,6.4845443480883205,0.0
799640.0783812654,4035767.5119837918,-17500.0,-3.6641753012131022,0.99473737508908033,1.029256600583428,1.1933546867685305,-0.44082676168447366,-0.27128210914107598,2.7625895894309327,1.9457391264025063,-1.4539132088768594,1.4539132088768594,-1.9457391264025063,5.043757760390287,0.0
804640.0783812654,4035767.5119837918,-17500.0,-2.7498073015839144,1.0122640532249436,0.83230002890450971,0.82489224744366207,-0.41498954374030167,-0.16807311147263829,2.2054383263662665,1.7101349904600285,-1.3623428872892653,1.3623428872892653,-1.7101349904600285,3.9850748489873724,0.0
809640.0783812654,4035767.5119837918,-17500.0,-2.0674284463358132,0.97186658768738676,0.67025324450869705,0.57284218559133293,-0.37316391456937797,-0.10419895974136378,1.7843716134609759,1.4788954358926121,-1.2372937109315549,1.2372937109315549,-1.4788954358926121,3.1953475648233067,0.0
814640.0783812654,4035767.5119837918,-17500.0,-1.5575330990711296,0.90360527632236609,0.53986447934402249,0.39920374628417993,-0.32749974200240339,-0.064317921280154511,1.4616006367686212,1.2684281840355167,-1.1039368449314528,1.1039368449314528,-1.2684281840355167,2.5973580603269331,0.0
819640.0783812654,4035767.5119837918,-17500.0,-1.1753420490231512,0.82455833273099521,0.43605969812362361,0.27869840287699071,-0.28367792894574456,-0.039231958445952363,1.2108001142838158,1.0840727941386028,-0.97504703755420774,0.97504703755420774,-1.0840727941386028,2.13793338936263,0.0
824640.0783812654,4035767.5119837918,-17500.0,-0.88769912150590768,0.74412650186309348,0.35375447222166478,0.19446546574620541,-0.24406368682723689,-0.023367041977319154,1.0134155651459538,0.92590681173987421,-0.8565099852030521,0.8565099852030521,-0.92590681173987421,1.7800486669999549,0.0
829640.0783812654,4035767.5119837918,-17500.0,-0.6702311802532438,0.66722721244475613,0.28850589865415888,0.13519559862094463,-0.20936518671846274,-0.01330660550895337,0.85620467715491388,0.79172676369583783,-0.75047857880296687,0.75047857880296687,-0.79172676369583783,1.4976047838100792,0.0
644640.0783812654,4040767.5119837918,-17500.0,2.4109275723767483,-0.19775588942047492,-0.090949581338347379,0.71633628441141228,-0.060996402546301412,0.1629130500625604,1.3711560913056433,-0.42835742902627555,0.52120193156865446,-0.52120193156865446,0.42835742902627555,2.7123051609442248,0.0
649640.0783812654,4040767.5119837918,-17500.0,2.8059517931167934,-0.29731897760053783,-0.093608840397345905,0.87882028013467772,-0.097554653924072532,0.21129406032431869,1.615462158535742,-0.51461324489656868,0.65787038023005617,-0.65787038023005617,0.51461324489656868,3.1979766896391841,0.0
654640.0783812654,4040767.5119837918,-17500.0,3.2772402259190718,-0.43461765799384722,-0.089449121122783387,1.0858747810550025,-0.15134539558794971,0.27697685303855879,1.9160011093173339,-0.61805999453235483,0.83469055526706648,-0.83469055526706648,0.61805999453235483,3.7957856450210303,0.0
659640.0783812654,4040767.5119837918,-17500.0,3.8389515374899945,-0.62397036448796794,-0.072814973166735353,1.3513196158249421,-0.23070928421090695,0.36714681850600878,2.2882437717966715,-0.74059633818797921,1.0643883613465108,-1.0643883613465108,0.74059633818797921,4.5365567659265897,0.0
664640.0783812654,4040767.5119837918,-17500.0,4.5058955430144447,-0.88508741428807003,-0.034232141895284576,1.6933739976403976,-0.34827293890369515,0.49233058552079689,2.752364225359841,-0.88262209038613559,1.3635880922587309,-1.3635880922587309,0.88262209038613559,5.46039682486259,0.0
669640.0783812654,4040767.5119837918,-17500.0,5.291382349983583,-1.2447827917063854,0.042067021485972453,2.1357558538483401,-0.52324045896101956,0.66805420453579911,3.3346089943476307,-1.0409996885608734,1.7535296092239081,-1.7535296092239081,1.0409996885608734,6.6193142233108047,0.0
674640.0783812654,4040767.5119837918,-17500.0,6.2027206786412714,-1.7387139236300291,0.18214995016847366,2.7085780040699792,-0.78487249997505526,0.91730459457959401,4.0688437219320361,-1.2051597520104194,2.2602325765223892,-2.2602325765223892,1.2051597520104194,8.0801182525642208,0.0
679640.0783812654,4040767.5119837918,-17500.0,7.2325199906161872,-2.4123114214633663,0.4287125333206212,3.4482708254423748,-1.1776161233261602,1.2740765345516676,4.9979629241115449,-1.3498990398450021,2.9130108535044905,-2.9130108535044905,1.3498990398450021,9.9269600460430585,0.0
684640.0783812654,4040767.5119837918,-17500.0,8.3429186060123843,-3.3187672574978753,0.8506101788850825,4.3947638488691965,-1.7682273745843302,1.7881763293401451,6.1743576410343461,-1.4225418153149247,3.7389656076974189,-3.7389656076974189,1.4225418153149247,12.261874302839228,0.0
689640.0783812654,4040767.5119837918,-17500.0,9.438901172257756,-4.5092515306509817,1.555869577296374,5.5822098047644673,-2.6544217297458248,2.5308767814240634,7.6577203386090753,-1.3212252367676931,4.7486904283086808,-4.7486904283086808,1.3212252367676931,15.199602782675196,0.0
694640.0783812654,4040767.5119837918,-17500.0,10.32752287358386,-6.0055156909130218,2.7056098321669944,7.016155962785013,-3.9718870528666534,3.5992084015716936,9.5068716203848709,-0.86136251406726583,5.9045113032902714,-5.9045113032902714,0.86136251406726583,18.849052923958627,0.0
699640.0783812654,4040767.5119837918,-17500.0,10.666686520058976,-7.7375095649633412,4.5174715559162832,8.6255136578233405,-5.8892791079139979,5.1120298874390429,11.759646103299076,0.26708371570698786,7.0580320830474435,-7.0580320830474435,-0.26708371570698786,23.267288688540603,0.0
704640.0783812654,4040767.5119837918,-17500.0,9.9306315519048098,-9.4232369041703965,7.2252906777838559,10.175847769273698,-8.5647596301741586,7.1810489211847326,14.391357906302346,2.5274443170196799,7.8448370664249785,-7.8448370664249785,-2.5274443170196799,28.364443461935302,0.0
709640.0783812654,4040767.5119837918,-17500.0,7.4754596584000828,-10.386058110081986,10.920139344769851,11.146472793519134,-12.010397745647436,9.8237650643601135,17.242072589593342,6.468115901197125,7.5524532559514181,-7.5524532559514181,-6.468115901197125,33.739921975695083,0.0
714640.0783812654,4040767.5119837918,-17500.0,2.8730499410672627,-9.4034915227619429,15.156446773999548,10.644261938073864,-15.791359609799974,12.775244673577223,19.923436929831617,12.372707242304998,5.081197967551077,-5.081197967551077,-12.372707242304998,38.47832793810646,0.0
719640.0783812654,4040767.5119837918,-17500.0,-3.3260612544189581,-4.9369567730107926,18.293625467505702,7.5918639220172235,-18.567003213613535,15.206096659292722,21.795710791655857,19.386295444318822,-0.66539805869095048,0.66539805869095048,-19.386295444318822,41.114753160966998,0.0
724640.0783812654,4040767.5119837918,-17500.0,-8.7204973176884142,3.6378721080097729,17.070612947146735,1.5754803572696099,-17.854750285427212,15.572585831219129,22.273711059697156,24.286043723843889,-9.4987409602955921,9.4987409602955921,-24.286043723843889,40.401915179386741,0.0
729640.0783812654,4040767.5119837918,-17500.0,-9.586844703806447,13.813601821387378,7.9096357556961836,-5.713226447145261,-11.024634411870496,12.176382867076175,21.781616867703566,21.517683611576498,-18.132515200123247,18.132515200123247,-21.517683611576498,37.867959592997785,0.0
734640.0783812654,4040767.5119837918,-17500.0,-4.4072484823736486,19.366605117835487,-9.000839405935178,-10.13231436020939,1.8737383689074414,4.7797561853572601,22.468939090752102,7.2182936416849106,-20.53415063331186,20.53415063331186,-7.2182936416849106,39.892652509861023,0.0
739640.0783812654,4040767.5119837918,-17500.0,2.6000610382424743,15.143198039691942,-26.629565137786688,-8.1235053632329652,16.016749087620006,-4.1077433079932417,25.454862928247881,-14.486752093066157,-13.139518637154778,13.139518637154778,14.486752093066157,48.567799876153728,0.0
744640.0783812654,4040767.5119837918,-17500.0,4.7958557508464974,3.4327628154365151,-35.801512286120371,-0.79184253322622722,24.822309556559592,-10.689752992580649,28.593078694982388,-32.384014779277322,0.036381406485023859,-0.036381406485023859,32.384014779277322,56.079846583674609,0.0
749640.0783812654,4040767.5119837918,-17500.0,0.52853823467574435,-8.0001196990528793,-33.832701653620902,7.03889400683454,25.73388140616477,-13.042928244872581,29.158600718124568,-38.481492234245586,10.979997505134866,-10.979997505134866,38.481492234245586,56.796909093034003,0.0
754640.0783812654,4040767.5119837918,-17500.0,-6.2953621376927034,-13.887748627764095,-25.302348766965757,11.680206067692152,21.221436185954552,-11.999396639523763,26.346206872418943,-33.991869683601301,15.436108013990527,-15.436108013990527,33.991869683601301,51.228150770772515,0.0
759640.0783812654,4040767.5119837918,-17500.0,-11.563285205046062,-14.300558652231938,-15.926612374672821,12.687639167217364,15.088339439924242,-9.4433756237564292,21.839083667202139,-24.864789097690466,14.483854027583522,-14.483854027583522,24.864789097690466,42.569977179564724,0.0
764640.0783812654,4040767.5119837918,-17500.0,-13.872550918897856,-11.768219311052917,-8.6726332403433535,11.410263875075351,9.7041961422931582,-6.7759932434933221,17.155651753902387,-15.877328956819463,11.071920264603028,-11.071920264603028,15.877328956819463,33.601612307310887,0.0
769640.0783812654,4040767.5119837918,-17500.0,-13.778267159649856,-8.4870930179873127,-4.0129664572355077,9.2597592867184897,5.8030335326951343,-4.6064297265437739,13.085679913776533,-9.0195230366888026,7.3847051696724222,-7.3847051696724222,9.0195230366888026,25.773343080720561,0.0
774640.0783812654,4040767.5119837918,-17500.0,-12.344442234659192,-5.5755400356955205,-1.3649826615493137,7.0872071868692643,3.2607426831964674,-3.0396731288817382,9.878167404738857,-4.4615979416095035,4.3838604145418847,-4.3838604145418847,4.4615979416095035,19.514320642318097,0.0
779640.0783812654,4040767.5119837918,-17500.0,-10.414829930482048,-3.3709301846444957,-0.0065026440401593786,5.2480862439071307,1.7080273931966399,-1.97723341210653,7.4916193662851551,-1.6937909053402818,2.25838142439552,-2.25838142439552,1.6937909053402818,14.73681977774827,0.0
784640.0783812654,4040767.5119837918,-17500.0,-8.4789891411355764,-1.8415745991698205,0.61032089156768321,3.8184819532109473,0.80096072088992265,-1.2801758383640638,5.7320407773502691,-0.13151261390419178,0.87767254975905606,-0.87767254975905606,0.13151261390419178,11.173515220621598,0.0
789640.0783812654,4040767.5119837918,-17500.0,-6.7600046970349474,-0.83935188102594316,0.83208829418749886,2.7560330198423646,0.29037574405980693,-0.82991087250569562,4.428420045013894,0.68247290410100581,0.038806568683426412,-0.038806568683426412,-0.68247290410100581,8.5403576020406451,0.0
794640.0783812654,4040767.5119837918,-17500.0,-5.3264848135225451,-0.21117503552186381,0.85812655334418653,1.9848654252511135,0.014513523211723344,-0.54052724328775148,3.4587534430814117,1.0565943191479434,-0.43726743192103462,0.43726743192103462,-1.0565943191479434,6.5961359079442721,0.0
799640.0783812654,4040767.5119837918,-17500.0,-4.1718864452874795,0.16546414167448897,0.79625978024450383,1.4314238191400859,-0.12583740443083527,-0.35429502428267662,2.7329905049176779,1.1836070300433332,-0.68284976342971659,0.68284976342971659,-1.1836070300433332,5.1542886532203003,0.0
804640.0783812654,4040767.5119837918,-17500.0,-3.2598665318508542,0.37864202566148208,0.70197405838281446,1.0358022453188294,-0.18962394887869241,-0.23383291003369619,2.1851752325313196,1.1785864519415381,-0.78772027749522189,0.78772027749522189,-1.1785864519415381,4.0768906612077096,0.0
809640.0783812654,4040767.5119837918,-17500.0,-2.5469369717521406,0.48825948919117573,0.60228050053211935,0.75284434239074016,-0.2112077444925492,-0.15535082267306338,1.7675739673308331,1.1080598739348828,-0.8099289163529686,0.8099289163529686,-1.1080598739348828,3.2641954661172341,0.0
814640.0783812654,4040767.5119837918,-17500.0,-1.9923390195672863,0.53377304089050481,0.50925661032380187,0.54980575872691306,-0.2103546509271261,-0.10379832831602584,1.445831896150064,1.0094094083945242,-0.78585085775658226,0.78585085775658226,-1.0094094083945242,2.6447209361156934,0.0
819640.0783812654,4040767.5119837918,-17500.0,-1.5614930451631224,0.54065509988614047,0.427424132299835,0.4034062936470833,-0.19829771071204974,-0.069647465729965274,1.1952278840133232,0.90296167847776387,-0.73774074721477079,0.73774074721477079,-0.90296167847776387,2.1673341097317027,0.0
824640.0783812654,4040767.5119837918,-17500.0,-1.2264947036313381,0.52511553288229118,0.35765551255393613,0.29724274837273762,-0.18132550467431116,-0.046837659952609717,0.99790586384461955,0.79924918486686825,-0.6789076514386353,0.6789076514386353,-0.79924918486686825,1.795356295087976,0.0
829640.0783812654,4040767.5119837918,-17500.0,-0.96543252273767621,0.49734179560265057,0.29919266955168811,0.21978841518464109,-0.16287921291911248,-0.031486293542257161,0.84088749931615159,0.70328091733652509,-0.61709703577222519,0.61709703577222519,-0.70328091733652509,1.5023304721759636,0.0
649640.0783812654,4045767.5119837918,-17500.0,2.7645545969390661,-0.53578635039625355,0.019410422463875799,0.86919645612332985,-0.17226072297726153,0.20953557430991837,1.6089850916883082,-0.55709849017064095,0.86789570514980852,-0.86789570514980852,0.55709849017064095,3.2041805359366076,0.0
654640.0783812654,4045767.5119837918,-17500.0,3.1913841262474816,-0.71687291724931457,0.061079467269848274,1.0627970123830299,-0.24453376177707256,0.27207740481510345,1.89797139370555,-0.65273495034456619,1.0797662529939365,-1.0797662529939365,0.65273495034456619,3.7805505749463122,0.0
659640.0783812654,4045767.5119837918,-17500.0,3.6870324222922291,-0.95633903990285585,0.12850166490990814,1.3063986460896613,-0.34686498986712361,0.35664870292458667,2.2522569042791902,-0.75965893655010297,1.3485338722706077,-1.3485338722706077,0.75965893655010297,4.4864301263965052,0.0
664640.0783812654,4045767.5119837918,-17500.0,4.2569679095879778,-1.2727016589154601,0.23579807985559254,1.6134173951249198,-0.49243949058795672,0.47199722688121076,2.6885389025652628,-0.87393264711020069,1.6893285602554549,-1.6893285602554549,0.87393264711020069,5.3546190825251783,0.0
669640.0783812654,4045767.5119837918,-17500.0,4.9016373487127565,-1.6893080110836656,0.40462409367228841,2.0000780828782787,-0.70040945107904018,0.63056830677056364,3.2275152941477994,-0.98614824613544905,2.1199376458784123,-2.1199376458784123,0.98614824613544905,6.4258887915592391,0.0
674640.0783812654,4045767.5119837918,-17500.0,5.6112940081966007,-2.2341869088530952,0.66794011529328201,2.4849157557288408,-0.99844277921698499,0.84999949556293275,3.8942888743660689,-1.0770825518775413,2.659555748815865,-2.659555748815865,1.0770825518775413,7.7498235917098519,0.0
679640.0783812654,4045767.5119837918,-17500.0,6.357439884076916,-2.9379474439316846,1.0751985874698728,3.0868059792393767,-1.4259860565808944,1.1550035918623889,4.7181862461260966,-1.1105416534293822,3.3252015522191192,-3.3252015522191192,1.1105416534293822,9.384397709785981,0.0
684640.0783812654,4045767.5119837918,-17500.0,7.0795429936756227,-3.8273476890254856,1.6986968325480185,3.8199808341827102,-2.0378315950386163,1.579390486418307,5.7311691844293779,-1.0221723725642136,4.1235259397313317,-4.1235259397313317,1.0221723725642136,11.392563936900574,0.0
689640.0783812654,4045767.5119837918,-17500.0,7.6663481384081944,-4.9102367676292999,2.6393214148443467,4.6833907122041589,-2.90643495167064,2.1673386293804757,6.9634620201469994,-0.70345287723516936,5.0342325415430649,-5.0342325415430649,0.70345287723516936,13.832651550649388,0.0
694640.0783812654,4045767.5119837918,-17500.0,7.9341300417779941,-6.1451055484188757,4.0260662468751747,5.6405172692926868,-4.1188128934006789,2.9715965154803166,8.4343621790143661,0.01738507847650439,5.9798176813532109,-5.9798176813532109,-0.01738507847650439,16.737172245372477,0.0
699640.0783812654,4045767.5119837918,-17500.0,7.6126883916782822,-7.3873115244446739,5.9955200957894821,6.5855946277068043,-5.7587083358190103,4.0435411357414299,10.13541275549062,1.3878816738771915,6.776991169591315,-6.776991169591315,-1.3878816738771915,20.072308866103207,0.0
704640.0783812654,4045767.5119837918,-17500.0,6.367715864630255,-8.3105834134066718,8.6236040371523774,7.2970611540572339,-7.8567342412195735,5.4058465577571839,12.001791515530364,3.7092024189906896,7.0742971798613938,-7.0742971798613938,-3.7092024189906896,23.670817621841802,0.0
709640.0783812654,4045767.5119837918,-17500.0,3.9142141405310404,-8.3317707465783108,11.768116805752754,7.3974170811025566,-10.285033297881807,6.9954298024166901,13.871009804677906,7.2190360019485968,6.3111552634108552,-6.3111552634108552,-7.2190360019485968,27.143035730780188,0.0
714640.0783812654,4045767.5119837918,-17500.0,0.28345860854702476,-6.6392572383162056,14.798018442137415,6.3804154078258781,-12.588025433621967,8.5723326761120937,15.450834314269168,11.792710403502198,3.7988812059477688,-3.7988812059477688,-11.792710403502198,29.81294999116102,0.0
719640.0783812654,4045767.5119837918,-17500.0,-3.7876669838514667,-2.5245779163555961,16.309761751809006,3.8184398106032287,-13.819850767087518,9.6305539238123163,16.361970673388385,16.441576446831753,-0.90520795690354383,0.90520795690354383,-16.441576446831753,30.823859428424157,0.0
724640.0783812654,4045767.5119837918,-17500.0,-6.675663485536659,3.8243751879895074,14.225263908300811,-0.17113120948068161,-12.629076766292572,9.4320226699164333,16.367176335673474,18.910220455012624,-7.251050351596672,7.251050351596672,-18.910220455012624,29.699947385509482,0.0
729640.0783812654,4045767.5119837918,-17500.0,-6.5565164408577186,10.43992523074569,6.8806470856959479,-4.4244655799794304,-7.9356334672799465,7.3378620971527591,15.833148981169256,16.215123531425284,-13.032959133003303,13.032959133003303,-16.215123531425284,27.595954796650467,0.0
734640.0783812654,4045767.5119837918,-17500.0,-3.1199817668987313,13.88207184286285,-4.9976802581089546,-6.9067989147728035,-0.11458295571080163,3.4071541267552523,15.913670393242576,6.8195544860125317,-15.005429664237102,15.005429664237102,-6.8195544860125317,27.922607422612103,0.0
739640.0783812654,4045767.5119837918,-17500.0,1.3123665430671556,11.648169415560893,-17.393894136124008,-6.0576181432676641,8.4441050460842426,-1.2695009931015533,17.283468826343817,-6.9321721904068641,-11.326699589932417,11.326699589932417,6.9321721904068641,32.238573733947028,0.0
744640.0783812654,4045767.5119837918,-17500.0,3.3893335656689647,4.7137515521613276,-25.313825135386541,-2.2501275943270058,14.618279508761869,-5.1116352027638818,18.931563027350194,-19.464596563914071,-3.6383863310366547,3.6383863310366547,19.464596563914071,37.08184198222132,0.0
749640.0783812654,4045767.5119837918,-17500.0,1.7570076337907643,-3.142810991015923,-26.537269211899638,2.4592295159316797,16.751971222158012,-7.1063033175292754,19.76937066102461,-26.092548440411299,4.1221466785431957,-4.1221466785431957,26.092548440411299,38.961573904427212,0.0
754640.0783812654,4045767.5119837918,-17500.0,-2.1888361156522409,-8.5759087347107972,-22.597712266810877,6.0572338841880571,15.41086868322585,-7.2882173121824696,18.987501976335952,-26.083886337961044,8.9455260752578276,-8.9455260752578276,26.083886337961044,37.170509474982367,0.0
759640.0783812654,4045767.5119837918,-17500.0,-6.1773802613576683,-10.617312245191627,-16.581625413020905,7.7590170200493693,12.288436751354354,-6.3410222174861257,16.802804711350191,-21.790950180003549,10.301850846569897,-10.301850846569897,21.790950180003549,32.838674630701831,0.0
764640.0783812654,4045767.5119837918,-17500.0,-8.8112786896451709,-10.10683752464227,-10.862917331378725,7.8537302752273774,8.8822774476269739,-4.9852165081499864,14.036919665932967,-16.075721109715769,9.2906595275195283,-9.2906595275195283,16.075721109715769,27.47489690384009,0.0
769640.0783812654,4045767.5119837918,-17500.0,-9.8451055946515087,-8.3369329673068577,-6.4686070541177472,7.0116448531406581,5.989440808859916,-3.6771422104029452,11.29587734582096,-10.795645393889968,7.2636594303763626,-7.2636594303763626,10.795645393889968,22.186514901872524,0.0
774640.0783812654,4045767.5119837918,-17500.0,-9.6632829510113769,-6.2727603604949227,-3.4928835595138903,5.8113378251547729,3.8345860200922819,-2.607938565253225,8.8912114094066954,-6.6846621673905027,5.1379959107043103,-5.1379959107043103,6.6846621673905027,17.543861597687918,0.0
779640.0783812654,4045767.5119837918,-17500.0,-8.7797128062504015,-4.4160693257024493,-1.6437362488912088,4.6035599454341485,2.3505360919453535,-1.8079965667471232,6.9270444198183894,-3.7921123541337285,3.3414074405152046,-3.3414074405152046,3.7921123541337285,13.727175319130239,0.0
784640.0783812654,4045767.5119837918,-17500.0,-7.6022113787585557,-2.9402366233882455,-0.56992254846025059,3.5489278195529859,1.3784565392978214,-1.238838966872172,5.40346296906249,-1.8908323755131362,1.9855452143358554,-1.9855452143358554,1.8908323755131362,10.705913758847894,0.0
789640.0783812654,4045767.5119837918,-17500.0,-6.3858465336386452,-1.8482161855276076,0.013511615671063033,2.6934483254308268,0.76325057868671342,-0.84515636639443958,4.246913699202989,-0.70520027541794794,1.0328450366953736,-1.0328450366953736,0.70520027541794794,8.3638224913141617,0.0
794640.0783812654,4045767.5119837918,-17500.0,-5.2631532956229288,-1.0768798006375515,0.30402945087865796,2.0276876149534009,0.38409205835217336,-0.57681010447007119,3.3620990651321572,-0.0015898537025999526,0.39757326276663213,-0.39757326276663213,0.0015898537025999526,6.566715230210284,0.0
799640.0783812654,4045767.5119837918,-17500.0,-4.2879991376862323,-0.55013189409569796,0.42739848468027469,1.5216374607296221,0.15611298249814104,-0.39499776432355499,2.6826485103840922,0.3917417827448616,-0.0069853431262557053,0.0069853431262557053,-0.3917417827448616,5.1923574403640504,0.0
804640.0783812654,4045767.5119837918,-17500.0,-3.4704906995313456,-0.20049395037187037,0.45966826728123084,1.1418804841426031,0.02293776168505323,-0.27187885907465731,2.1591201157517506,0.59197026599780544,-0.25192747390717507,0.25192747390717507,-0.59197026599780544,4.1400554609257396,0.0
809640.0783812654,4045767.5119837918,-17500.0,-2.7995380132955687,0.024978553631414584,0.44517901609236521,0.85862274586385634,-0.051698740805491541,-0.18825780845841236,1.7536526544792339,0.6755840966677864,-0.39016489784174535,0.39016489784174535,-0.6755840966677864,3.3310203666154976,0.0
814640.0783812654,4045767.5119837918,-17500.0,-2.2557475060678831,0.1652890933807617,0.40900250358758078,0.64771108467695604,-0.09068306530352567,-0.13117159213013552,1.437534460739742,0.69109364158056341,-0.45901082675574345,0.45901082675574345,-0.69109364158056341,2.7052675277455389,0.0
819640.0783812654,4045767.5119837918,-17500.0,-1.8181189196636858,0.24814797816355252,0.36486313566221124,0.49050403921092522,-0.10828731120112027,-0.091951197542091925,1.1891960641188337,0.66862073610226669,-0.4839171646037545,0.4839171646037545,-0.66862073610226669,2.2177839878679104,0.0
824640.0783812654,4045767.5119837918,-17500.0,-1.4671377761552979,0.29281103793593777,0.319955124023863,0.37299552706534655,-0.11333834893900782,-0.06481620680919721,0.99250595416876985,0.62652609431631034,-0.48185764579310375,0.48185764579310375,-0.62652609431631034,1.8350085947596682,0.0
829640.0783812654,4045767.5119837918,-17500.0,-1.1859409962912635,0.3124694814572237,0.27779195071063773,0.28481485814329993,-0.11125668575476237,-0.045907110788395052,0.83540588602455346,0.57578032644299648,-0.46395862095079987,0.46395862095079987,-0.57578032644299648,1.5319564068484133,0.0
649640.0783812654,4050767.5119837918,-17500.0,2.6457725772574454,-0.73272977262309824,0.1508880646427144,0.83653873894654895,-0.23531589854966428,0.2025661787289344,1.5833706869437563,-0.56257802220348785,1.0377725956253161,-1.0377725956253161,0.56257802220348785,3.1582240409692202,0.0
654640.0783812654,4050767.5119837918,-17500.0,3.0134829773320106,-0.94057514800777353,0.23061540905569314,1.0106143101182548,-0.32033669472293447,0.26016004177859503,1.8561516807271246,-0.64143731896908407,1.2695304992974725,-1.2695304992974725,0.64143731896908407,3.6998542485104253,0.0
659640.0783812654,4050767.5119837918,-17500.0,3.4271778362738861,-1.2063501605603748,0.34723898022470739,1.2249838698887652,-0.43706728419609553,0.33671976076957449,2.1858633088099149,-0.72228984560985676,1.5565308565940015,-1.5565308565940015,0.72228984560985676,4.3542180205604524,0.0
664640.0783812654,4050767.5119837918,-17500.0,3.8844488895256615,-1.5449094007850797,0.5175364290402702,1.4883792363752448,-0.59785966390067713,0.4390895315869196,2.5851138357981926,-0.79736573590620508,1.9104833195329598,-1.9104833195329598,0.79736573590620508,5.1463325995988107,0.0
669640.0783812654,4050767.5119837918,-17500.0,4.3759660013082176,-1.9731029487558014,0.76566072705941091,1.8101955887085444,-0.81980717959212113,0.57660515678049362,3.0687050588129354,-0.85240541028089722,2.3434401925140644,-2.3434401925140644,0.85240541028089722,6.1056265761070607,0.0
674640.0783812654,4050767.5119837918,-17500.0,4.8807894061442223,-2.5080619808786637,1.1258722701607129,2.1992166958166739,-1.1262169533725983,0.76183439821549059,3.653293911626005,-0.8626679814465279,2.8654511439961148,-2.8654511439961148,0.8626679814465279,7.2653106690135498,0.0
679640.0783812654,4050767.5119837918,-17500.0,5.3596174437938515,-3.1630884022947416,1.6455392289635067,2.6608989959688132,-1.5480349793205719,1.0112866022244773,4.3562682180369698,-0.78710259319197329,3.4797619741433921,-3.4797619741433921,0.78710259319197329,8.6601437204073726,0.0
684640.0783812654,4050767.5119837918,-17500.0,5.7459652246619433,-3.9392445311442166,2.3873206950027175,3.1921960365219801,-2.12446086258621,1.3457175069708407,5.1932428586994419,-0.56055912182839052,4.1738815994826837,-4.1738815994826837,0.56055912182839052,10.321196443856559,0.0
689640.0783812654,4050767.5119837918,-17500.0,5.9366420476495767,-4.8099357499864439,3.4277559748727069,3.7725646238698438,-2.9009966274794401,1.7891820484844461,6.1734617063178545,-0.085094745536025584,4.9043565341481852,-4.9043565341481852,0.085094745536025584,12.265437241301301,0.0
694640.0783812654,4050767.5119837918,-17500.0,5.7861396177372599,-5.6956526276994399,4.8462953501305277,4.3499101780503366,-3.9214214359891644,2.365163324721002,7.2925460256919736,0.77548751167711938,5.5735073471659424,-5.5735073471659424,-0.77548751167711938,14.477236323262979,0.0
699640.0783812654,4050767.5119837918,-17500.0,5.11568292045067,-6.4286752078553562,6.6938978479339371,4.8219184074836194,-5.2076883662419799,3.0869454339071032,8.5214266147186741,2.1872445930927524,5.9997199498024125,-5.9997199498024125,-2.1872445930927524,16.87911912574506,0.0
704640.0783812654,4050767.5119837918,-17500.0,3.7562176277312807,-6.7172851606210049,8.9256625430612964,5.0186551182441459,-6.7198070324555115,3.9385090282908042,9.7880354882164422,4.3025722604613952,5.8929625839975914,-5.8929625839975914,-4.3025722604613952,19.292690910520129,0.0
709640.0783812654,4050767.5119837918,-17500.0,1.6487893674975285,-6.1415568987476279,11.285984784482686,4.704024128568113,-8.2911135442513419,4.8437462745373665,10.957152047890565,7.1501543060108101,4.8681265540754968,-4.8681265540754968,-7.1501543060108101,21.402342042873087,0.0
714640.0783812654,4050767.5119837918,-17500.0,-0.9946534183523742,-4.2464096339668354,13.167336727147314,3.6299435503390391,-9.5531260543286152,5.6302544617213135,11.831797938406774,10.437589543668256,2.5560742488775219,-2.5560742488775219,-10.437589543668256,22.760527153214305,0.0
719640.0783812654,4050767.5119837918,-17500.0,-3.5432765466768865,-0.80905725637346093,13.548286914328225,1.6803140891677155,-9.9088595066598568,6.0139472445565234,12.208672312600809,13.320043643965812,-1.1286539054079121,1.1286539054079121,-13.320043643965812,22.91516416292054,0.0
724640.0783812654,4050767.5119837918,-17500.0,-5.0105712010337129,3.7401162731221334,11.225349410455072,-0.91057637089200971,-8.6667754189775366,5.6547349999258998,12.025279587488477,14.353581089319839,-5.6121781290050672,5.6121781290050672,-14.353581089319839,21.771188653054157,0.0
729640.0783812654,4050767.5119837918,-17500.0,-4.5472086287838085,8.0389983310859527,5.5115292335505011,-3.4170946943161549,-5.41948658264866,4.3229367252681747,11.57436874204366,11.983551115225318,-9.4809285498467446,9.4809285498467446,-11.983551115225318,20.190438689584283,0.0
734640.0783812654,4050767.5119837918,-17500.0,-2.2238907841635962,10.184492744438453,-2.8692576349960461,-4.8196210874600958,-0.52229242269159271,2.1191817677370746,11.510530446908684,5.6433271847131703,-10.96301637087995,10.96301637087995,-5.6433271847131703,20.093728882614471,0.0
739640.0783812654,4050767.5119837918,-17500.0,0.64483758691524007,8.9202772915913204,-11.584215153128675,-4.4036968237000647,4.7838379520920995,-0.44573965761645812,12.217237317946314,-3.2966737856872412,-9.0859414588453049,9.0859414588453049,3.2966737856872412,22.426532448911125,0.0
744640.0783812654,4050767.5119837918,-17500.0,2.2894620759647579,4.6982207978354449,-17.84210890876567,-2.3158268819391918,8.9440643020973809,-2.669636194823807,13.222233187458373,-11.926136831013363,-4.5614029291071629,4.5614029291071629,11.926136831013363,25.540873600389617,0.0
749640.0783812654,4050767.5119837918,-17500.0,1.7990492503586097,-0.57615881462115859,-20.097204766892283,0.5137950428190412,10.983080593285569,-4.0441375684204086,13.807071766311015,-17.552337978954448,0.63952645429190724,-0.63952645429190724,17.552337978954448,27.373653031076852,0.0
754640.0783812654,4050767.5119837918,-17500.0,-0.38238131734371839,-4.9112727260021227,-18.718147051484205,3.0253094035390169,10.923283459480006,-4.4746000674412132,13.761703040052465,-19.20921741793342,4.6557101760055737,-4.6557101760055737,19.20921741793342,27.123536826134519,0.0
759640.0783812654,4050767.5119837918,-17500.0,-3.0955182963820209,-7.3214744986267446,-15.238080277107528,4.6081526846767735,9.4765309508114068,-4.195936462010839,12.792586636567657,-17.669933649624323,6.6949424350197431,-6.6949424350197431,17.669933649624323,25.084296529845286,0.0
764640.0783812654,4050767.5119837918,-17500.0,-5.3478665268807397,-7.8932223424534005,-11.217135081821196,5.2002980696087029,7.4731416871380034,-3.5460956591932344,11.232593879167618,-14.434069074567347,6.9810104022826707,-6.9810104022826707,14.434069074567347,21.99662441456076,0.0
769640.0783812654,4050767.5119837918,-17500.0,-6.6987223453547529,-7.2441311438331866,-7.6327418341332516,5.0584734022686035,5.5035023645439347,-2.7985804441337425,9.4720212541984381,-10.808373996435479,6.1805481126696211,-6.1805481126696211,10.808373996435479,18.568486481158885,0.0
774640.0783812654,4050767.5119837918,-17500.0,-7.16567497797275,-6.0214884797215928,-4.8604386400958495,4.5056859315779647,3.8547471976319949,-2.1114008329934015,7.7738703725666092,-7.5605458036847395,4.928268747882802,-4.928268747882802,7.5605458036847395,15.27953928738528,0.0
779640.0783812654,4050767.5119837918,-17500.0,-6.9811140579352715,-4.6788276552061063,-2.9021013716449957,3.7966269320529831,2.5983211833109374,-1.5477577444716835,6.273131270069003,-4.9848407601495435,3.6406014413923646,-3.6406014413923646,4.9848407601495435,12.37611440525983,0.0
784640.0783812654,4050767.5119837918,-17500.0,-6.4083346136124497,-3.4586529061078632,-1.603644620080668,3.0875119004232756,1.6962617533976658,-1.1150252013181909,5.0156137959673384,-3.0933274783685052,2.5224848344663959,-2.5224848344663959,3.0933274783685052,9.9392354077655263,0.0
789640.0783812654,4050767.5119837918,-17500.0,-5.6572226116266409,-2.4541688455996455,-0.78369425150865113,2.4550037955711272,1.0737655492585187,-0.79575576189640906,4.0002176856512159,-1.7761959149622308,1.6387771299708955,-1.6387771299708955,1.7761959149622308,7.9562255174945564,0.0
794640.0783812654,4050767.5119837918,-17500.0,-4.8665967481015207,-1.675298883032134,-0.28784528787078711,1.9254349358794607,0.65586589711604626,-0.56570043861391373,3.210093841892578,-0.89544939775219301,0.9814378821506079,-0.9814378821506079,0.89544939775219301,6.3719853332021188,0.0
799640.0783812654,4050767.5119837918,-17500.0,-4.1156948189572935,-1.0947514668587528,-0.0016715752566960475,1.4983899519229649,0.38105104785328481,-0.40210224883713586,2.59498526249762,-0.32693565969761951,0.51341589608301164,-0.51341589608301164,0.32693565969761951,5.1190536474334598,0.0
804640.0783812654,4050767.5119837918,-17500.0,-3.4425238211741744,-0.67401432611851053,0.15340762026013427,1.1617330910949029,0.2034699108525462,-0.28649089175897124,2.1103789124668735,0.026809334901325282,0.19191327067266772,-0.19191327067266772,-0.026809334901325282,4.1325955543826849,0.0
809640.0783812654,4050767.5119837918,-17500.0,-2.8598339716358141,-0.37571003063726655,0.22888620577539529,0.89985906821393002,0.090731136750533473,-0.20492525598774322,1.7274930197896396,0.23693109856070038,-0.021485083896002524,0.021485083896002524,-0.23693109856070038,3.3564671948936389,0.0
814640.0783812654,4050767.5119837918,-17500.0,-2.3664530604522653,-0.16827301599892772,0.2574667882161541,0.69764724100396491,0.020672328315094832,-0.14729675616732543,1.4240402898329485,0.3531491674339533,-0.15766017770220866,0.15766017770220866,-0.3531491674339533,2.7446468404565545,0.0
819640.0783812654,4050767.5119837918,-17500.0,-1.9544628253499279,-0.026867852416836209,0.25944335188439294,0.54202449780616457,-0.021575960917055662,-0.10643943941154188,1.1824952306601146,0.40924907797099286,-0.23998224261571954,0.23998224261571954,-0.40924907797099286,2.2605650811653311,0.0
824640.0783812654,4050767.5119837918,-17500.0,-1.6133821488359763,0.067262285396953669,0.24716488372667336,0.42233233825576838,-0.045869141092657176,-0.077334702400749855,0.98919798911331902,0.42774943114754599,-0.28549744504734548,0.28549744504734548,-0.42774943114754599,1.8756777151129449,0.0
654640.0783812654,4055767.5119837918,-17500.0,2.7716860193098336,-1.1001361607468607,0.40266665831435489,0.93762665399717893,-0.37665461450604121,0.24313069396083833,1.7929716799605215,-0.59337396032828094,1.3997075811553041,-1.3997075811553041,0.59337396032828094,3.5650503901508386,0.0
659640.0783812654,4055767.5119837918,-17500.0,3.098652015790567,-1.3705798940005642,0.56116305702386138,1.1193818529971578,-0.49960297724121333,0.31037767998457572,2.0914701623567304,-0.64287604790376929,1.6860675352768695,-1.6860675352768695,0.64287604790376929,4.1570942961443285,0.0
664640.0783812654,4055767.5119837918,-17500.0,3.4426851022624789,-1.7032602064850497,0.78144326307952272,1.3364649567281945,-0.66410790134391318,0.39839850817798816,2.4465005519004279,-0.67485795477497823,2.0290415649983151,-2.0290415649983151,0.67485795477497823,4.8613913427593163,0.0
669640.0783812654,4055767.5119837918,-17500.0,3.788621786054942,-2.1075828657858096,1.0868978745134177,1.5928754062565813,-0.88408034180993644,0.5137705319062108,2.8676588505012366,-0.67236921428037566,2.4343202351111159,-2.4343202351111159,0.67236921428037566,5.6972349285663721,0.0
674640.0783812654,4055767.5119837918,-17500.0,4.1105361909921587,-2.5897731365487124,1.5084171163453093,1.8903569965802982,-1.1772833399525158,0.66482671583383446,3.3645365020128764,-0.60885066761666873,2.9030234356354079,-2.9030234356354079,0.60885066761666873,6.6840783001363429,0.0
679640.0783812654,4055767.5119837918,-17500.0,4.3674494873811351,-3.1480919305501569,2.0850913381274987,2.2257839560443551,-1.5653848358598059,0.86168222836070041,3.9452496629758911,-0.44425289226508524,3.4267372134233174,-3.4267372134233174,0.44425289226508524,7.8385729850802672,0.0
684640.0783812654,4055767.5119837918,-17500.0,4.4990253061397967,-3.7647465033453096,2.862847666119237,2.5869417104074133,-2.072747999265697,1.1157173346716376,4.6139667694759634,-0.12097126983039774,3.9795516562844897,-3.9795516562844897,0.12097126983039774,9.1691744991112856,0.0
689640.0783812654,4055767.5119837918,-17500.0,4.4233351989303786,-4.3934609334963186,3.8883359015193375,2.9463148553779828,-2.7225544501934236,1.4379215190481522,5.367453196982173,0.43851688154330626,4.5064431045776878,-4.5064431045776878,-0.43851688154330626,10.667166618806608,0.0
694640.0783812654,4055767.5119837918,-17500.0,4.04105275731657,-4.9428117556395064,5.1935471848736485,3.2531398500906814,-3.5280227493428047,1.8351561957472236,6.1910312030438197,1.3279816757313601,4.9086799172261966,-4.9086799172261966,-1.3279816757313601,12.293098100491958,0.0
699640.0783812654,4055767.5119837918,-17500.0,3.2534242526216857,-5.2589919836610521,6.7650074548779928,3.4257731123338688,-4.4758652809405923,2.3031333555805085,7.0513050191537952,2.6396153483799876,5.0305634413547171,-5.0305634413547171,-2.6396153483799876,13.958873853942006,0.0
704640.0783812654,4055767.5119837918,-17500.0,2.0031163509228818,-5.1193350552141119,8.4924891277287511,3.3500573792912629,-5.5000085463840165,2.815256366386981,7.8832902708407966,4.4201183474308694,4.6590541096136091,-4.6590541096136091,-4.4201183474308694,15.509447466654484,0.0
709640.0783812654,4055767.5119837918,-17500.0,0.34204196500940026,-4.2596575083944792,10.101754150172672,2.8945984645914984,-6.4486587445980064,3.3085000123276713,8.586024519632117,6.5902548659196798,3.5579785041434357,-3.5579785041434357,-6.5902548659196798,16.716034949278129,0.0
714640.0783812654,4055767.5119837918,-17500.0,-1.4906464545001286,-2.4668263264105068,11.101479269716185,1.9570267996729267,-7.0602622528628629,3.6725142818693692,9.0377369243718011,8.8358607021122832,1.5636873894206986,-1.5636873894206986,-8.8358607021122832,17.305841707726511,0.0
719640.0783812654,4055767.5119837918,-17500.0,-3.0380521650518464,0.24905066391125497,10.815038116892424,0.54646840083765946,-6.9824932855831925,3.7556480810660471,9.1413706077755634,10.526220390194352,-1.251401027804091,1.251401027804091,-10.526220390194352,17.067405480166929,0.0
724640.0783812654,4055767.5119837918,-17500.0,-3.7350898494878759,3.4600336850408007,8.5888482438154998,-1.1257252710867292,-5.8765635123185032,3.4052229448334179,8.9110263254841584,10.779972360949332,-4.4110665524401842,4.4110665524401842,-10.779972360949332,16.068167651912436,0.0
729640.0783812654,4055767.5119837918,-17500.0,-3.2050568190870492,6.2727309245077469,4.192062491517043,-2.6246926472821643,-3.6116589942263913,2.5454576904028974,8.5665149779863157,8.7991027700199318,-7.0258613618155081,7.0258613618155081,-8.7991027700199318,14.936173726853777,0.0
734640.0783812654,4055767.5119837918,-17500.0,-1.6065661128874005,7.6203534792684131,-1.7937083891674297,-3.4267600040524226,-0.45477772706853886,1.2580159921747418,8.4914716276792905,4.4101974726890454,-8.1063558669304427,8.1063558669304427,-4.4101974726890454,14.793066600613054,0.0
739640.0783812654,4055767.5119837918,-17500.0,0.29385444529511529,6.851542012176961,-7.9786926459523562,-3.1917337171866604,2.9217197788680731,-0.20408852533705504,8.8981598681004428,-1.5615591644684468,-7.1243271903273211,7.1243271903273211,1.5615591644684468,16.172984928653143,0.0
744640.0783812654,4055767.5119837918,-17500.0,1.5213857123861483,4.1948335328325603,-12.753705800276515,-1.9867003490429964,5.7072817112190766,-1.5106819839912542,9.5468566820137397,-7.5246023772005257,-4.4071412536443519,4.4071412536443519,7.5246023772005257,18.221927502346528,0.0
749640.0783812654,4055767.5119837918,-17500.0,1.4961165247864721,0.65224464171007812,-15.101210209289537,-0.25762618394347747,7.3393268035234138,-2.4053234087617237,10.002287743703434,-11.918051545155201,-0.97362865437740798,0.97362865437740798,11.918051545155201,19.723375768841333,0.0
754640.0783812654,4055767.5119837918,-17500.0,0.31959477488473192,-2.6075038942653017,-14.994050150743666,1.4348282405539554,7.7187195597088385,-2.8032593267601293,10.10729545817723,-13.959601373738248,2.0702473666912091,-2.0702473666912091,13.959601373738248,20.04362693279457,0.0
759640.0783812654,4055767.5119837918,-17500.0,-1.436741293270166,-4.8286181252729428,-13.156202251474957,2.6899594942388041,7.1319385460397928,-2.7795883354420563,9.7436516909096547,-13.804798449962835,4.0603254612174986,-4.0603254612174986,13.804798449962835,19.174449336565729,0.0
764640.0783812654,4055767.5119837918,-17500.0,-3.1498831078525531,-5.8386616201116404,-10.524506750952792,3.3711037239357022,6.0131921367852765,-2.4869624774729013,8.9004781903971111,-12.175569987368011,4.8945076383419845,-4.8945076383419845,12.175569987368011,17.451409579476238,0.0
769640.0783812654,4055767.5119837918,-17500.0,-4.4233788095432462,-5.8697850720092921,-7.8405171038965253,3.5459374539327633,4.7418345836011619,-2.0751642094473817,7.8049771937220802,-9.8799849074168105,4.8345979863397535,-4.8345979863397535,9.8799849074168105,15.289023947762425,0.0
774640.0783812654,4055767.5119837918,-17500.0,-5.1329569913876956,-5.2934215847400345,-5.5188965031790671,3.3713782759833255,3.5582938463212921,-1.6503479857696455,6.646159002557896,-7.5234840584607081,4.248350631026268,-4.248350631026268,7.5234840584607081,13.029407782518671,0.0
779640.0783812654,4055767.5119837918,-17500.0,-5.3384799613473799,-4.4414743416006646,-3.7028431586885744,3.0055653070816475,2.5720655364000717,-1.2703057532883868,5.5461201961465649,-5.4433865365280312,3.4471942582882189,-3.4471942582882189,5.4433865365280312,10.89487074178947,0.0
784640.0783812654,4055767.5119837918,-17500.0,-5.1769360233902502,-3.5403048879379502,-2.3751159084344584,2.5677391252266468,1.8055952871053509,-0.95692508968278267,4.5678153149895495,-3.7660678118600308,2.6337277675758819,-2.6337277675758819,3.7660678118600308,8.9998126916380219,0.0
789640.0783812654,4055767.5119837918,-17500.0,-4.7902169482784629,-2.7146356992438707,-1.4502307061403727,2.1322323287303884,1.2369049933355987,-0.71120540662784248,3.7330750196114617,-2.4923184123389417,1.9127393230750398,-1.9127393230750398,2.4923184123389417,7.3828712410177904,0.0
794640.0783812654,4055767.5119837918,-17500.0,-4.2922460677272287,-2.0167366951070576,-0.82935165747787731,1.7376611718649353,0.82819517480733473,-0.52456734194836974,3.039744976200216,-1.5653988346260161,1.3225305853297831,-1.3225305853297831,1.5653988346260161,6.0380268761926956,0.0
799640.0783812654,4055767.5119837918,-17500.0,-3.7617589179513589,-1.4560530059923353,-0.42531391730741319,1.3991420063562179,0.54103094117507367,-0.38558425866463281,2.4758760120354846,-0.91242987806534459,0.86406769570381425,-0.86406769570381425,0.91242987806534459,4.9373281314502142,0.0
804640.0783812654,4055767.5119837918,-17500.0,-3.2470160715598375,-1.0207762720306031,-0.17013584455404829,1.1183644555685115,0.34263944350291886,-0.28329453162899088,2.0341277682733661,-0.46479390335765464,0.5211756199279568,-0.5211756199279568,0.46479390335765464,4.0450211639515699,0.0
809640.0783812654,4055767.5119837918,-17500.0,-2.7739390423353267,-0.69100672999335433,-0.014351729267090272,0.89040558384677437,0.20743692409595421,-0.20847380263396145,1.6821959531602417,-0.16576742359030205,0.27230232131444404,-0.27230232131444404,0.16576742359030205,3.3252573063337136,0.0
814640.0783812654,4055767.5119837918,-17500.0,-2.3537229610376849,-0.44575121442267451,0.076506427899154211,0.70779359136773323,0.11644535312495244,-0.15387231726527104,1.3981397549269619,0.028339447003167761,0.096417798740320748,-0.096417798740320748,-0.028339447003167761,2.7457043453739942,0.0
819640.0783812654,4055767.5119837918,-17500.0,-1.9886583780462266,-0.26610513655549672,0.12577584268247669,0.56268307892973968,0.056022188379797992,-0.1140120299198647,1.168387729368576,0.14976073983739982,-0.024561654501607189,0.024561654501607189,-0.14976073983739982,2.2788160618855202,0.0
824640.0783812654,4055767.5119837918,-17500.0,-1.6761236993795388,-0.13633558545834359,0.14894126000699606,0.44787937363049363,0.016553475197974541,-0.084849292401065882,0.98205158735169695,0.22162406331168127,-0.10516846215340699,0.10516846215340699,-0.22162406331168127,1.9018962147082037,0.0
654640.0783812654,4060767.5119837918,-17500.0,2.4926453416670724,-1.1972369176905024,0.56349475377295244,0.85183729523391494,-0.41358298711323727,0.22284734649618029,1.7081246543437414,-0.51939630987417995,1.4722259154316379,-1.4722259154316379,0.51939630987417995,3.388950353495193,0.0
659640.0783812654,4060767.5119837918,-17500.0,2.7366277752159052,-1.4551481784766183,0.75310414280238969,1.0008483549102276,-0.53583340715045535,0.2804172288043818,1.9724699616123198,-0.53688611024993083,1.7429525902388354,-1.7429525902388354,0.53688611024993083,3.9133358988032088,0.0
664640.0783812654,4060767.5119837918,-17500.0,2.9773548685011293,-1.7614149078904915,1.0068210738532681,1.1733557532434706,-0.69495895985642719,0.35411229448435844,2.2809382296756016,-0.52795287469154639,2.0572817674014447,-2.0572817674014447,0.52795287469154639,4.5257219718188377,0.0
669640.0783812654,4060767.5119837918,-17500.0,3.1974613349465328,-2.118656223198597,1.3448810601157617,1.3696111333478702,-0.90136545755144148,0.44828329051107174,2.6389003290347883,-0.47513001525406551,2.4151965231575225,-2.4151965231575225,0.47513001525406551,5.2371706281011674,0.0
674640.0783812654,4060767.5119837918,-17500.0,3.3709843441935301,-2.5242710522076228,1.7919493810336204,1.5870082575510003,-1.1673333519602531,0.56804790229980329,3.0506010342793557,-0.3531939930629846,2.8107275426265774,-2.8107275426265774,0.3531939930629846,6.0566896567641351,0.0
679640.0783812654,4060767.5119837918,-17500.0,3.4613590459930945,-2.9660485769948162,2.3760481185094591,1.8180104753142998,-1.5062748915538742,0.71900500604555184,3.5177587444158389,-0.12721171086511496,3.2276340123290836,-3.2276340123290836,0.12721171086511496,6.9883123555162756,0.0
684640.0783812654,4060767.5119837918,-17500.0,3.4205457010354845,-3.4157811524725044,3.1250304234241586,2.0472520486486854,-1.9307549978980498,0.90647427197957331,4.0377050847260394,0.24847778526418329,3.6333569969291002,-3.6333569969291002,-0.24847778526418329,8.0265053414283312,0.0
689640.0783812654,4060767.5119837918,-17500.0,3.1911744515717748,-3.8210166493917459,4.0586251890485752,2.2479577348196758,-2.4483867227381597,1.1339233595213334,4.6017954677375199,0.82846189958675631,3.9715748494740728,-3.9715748494740728,-0.82846189958675631,9.149511248383762,0.0
694640.0783812654,4060767.5119837918,-17500.0,2.7147154202542545,-4.0964957368157018,5.173469872299262,2.3784736561076532,-3.0545064528149748,1.4001655180438302,5.1938715408415606,1.6683021799438933,4.1551105237225734,-4.1551105237225734,-1.6683021799438933,10.31071976633323,0.0
699640.0783812654,4060767.5119837918,-17500.0,1.9493906322001118,-4.1196557554548754,6.418912838456392,2.3809370250001618,-3.7208089466414203,1.6950074641180599,5.7824032414498063,2.8056209110793233,4.0636429112230834,-4.0636429112230834,-2.8056209110793233,11.429472533791303,0.0
704640.0783812654,4060767.5119837918,-17500.0,0.90017887123126827,-3.7389103485965665,7.6644888449674493,2.1858966847306043,-4.3806492027492467,1.9935799886327086,6.3139875174113023,4.225466538223726,3.5545589050805426,-3.5545589050805426,-4.225466538223726,12.385409092424347,0.0
709640.0783812654,4060767.5119837918,-17500.0,-0.34300122467527272,-2.8073568017523938,8.6683678117700822,1.7281636750687106,-4.9154984400241002,2.2509585928810871,6.7194436281799508,5.8101924948759951,2.4983541717662372,-2.4983541717662372,-5.8101924948759951,13.024901178379347,0.0
714640.0783812654,4060767.5119837918,-17500.0,-1.5762341601744254,-1.2522314377324086,9.0706181689328513,0.97783177397677346,-5.1532613786794697,2.4009569513085776,6.9292457364300217,7.2884862995070137,0.84659131525627762,-0.84659131525627762,-7.2884862995070137,13.193557949733611,0.0
719640.0783812654,4060767.5119837918,-17500.0,-2.4954259164055586,0.82790563072705459,8.4490092536067269,-0.017612212000769664,-4.8947039066868818,2.3650670171765431,6.9050843968928071,8.222068441861401,-1.2781143513611735,1.2781143513611735,-8.222068441861401,12.811763957969337,0.0
724640.0783812654,4060767.5119837918,-17500.0,-2.7882858328085951,3.0849513547881937,6.4674321171482552,-1.1002518415300424,-3.9803103602004075,2.0763293395119287,6.6880703393197249,8.0862498639567324,-3.5167803971596765,3.5167803971596765,-8.0862498639567324,12.000764067050078,0.0
729640.0783812654,4060767.5119837918,-17500.0,-2.2993392775592469,4.9456879779818221,3.0916481575103232,-2.0127297613105108,-2.3860189776074638,1.5146721263930083,6.4370732375691038,6.475182220395979,-5.3112131228923261,5.3112131228923261,-6.475182220395979,11.209823042582029,0.0
734640.0783812654,4060767.5119837918,-17500.0,-1.1809833880122238,5.8008220196467253,-1.2461622937805539,-2.4787744644335454,-0.29719492992761937,0.73630230469259705,6.3819990501776847,3.3671769378228475,-6.0944722211786555,6.0944722211786555,-3.3671769378228475,11.110884331468219,0.0
739640.0783812654,4060767.5119837918,-17500.0,0.10694806135872358,5.3020841443674689,-5.6958032543660977,-2.3303134111068546,1.9079474158280174,-0.12769202868782228,6.6394358591175413,-0.72718058371841909,-5.5706943172418626,5.5706943172418626,0.72718058371841909,11.996398682157507,0.0
744640.0783812654,4060767.5119837918,-17500.0,1.0060111163470014,3.5745843648686244,-9.300002978088159,-1.6022671971557712,3.7886638807224577,-0.91399285965564492,7.0763465361703934,-4.8997412733557582,-3.8990465075294582,3.8990465075294582,4.8997412733557582,13.386912131097075,0.0
749640.0783812654,4060767.5119837918,-17500.0,1.1508744895992509,1.1678117246202553,-11.398426312996307,-0.52030232835239332,5.0181703887369729,-1.4900397828810836,7.4347547472441819,-8.2270825115548849,-1.6255255422619346,1.6255255422619346,8.2270825115548849,14.552228337671531,0.0
754640.0783812654,4060767.5119837918,-17500.0,0.52946895990085807,-1.2272582935388154,-11.856604527813223,0.61260778510975733,5.4937599822346028,-1.7983297484960206,7.5536081576411416,-10.149972408706821,0.59565859736787807,-0.59565859736787807,10.149972408706821,15.039605290119013,0.0
759640.0783812654,4060767.5119837918,-17500.0,-0.58192479033480082,-3.083295859871825,-11.000505588576104,1.5476114351834878,5.3236927906323555,-1.8589912646324007,7.4691074142147311,-10.611715617153344,2.2851791042516405,-2.2851791042516405,10.611715617153344,14.75137494305516,0.0
764640.0783812654,4060767.5119837918,-17500.0,-1.813074612878234,-4.1788895644254804,-9.3675392602948584,2.160324075581558,4.7288832949187096,-1.7398574319833862,7.0388281723714332,-9.9333886239569544,3.2587909331744473,-3.2587909331744473,9.9333886239569544,13.824101396828206,0.0
769640.0783812654,4060767.5119837918,-17500.0,-2.8692244577483983,-4.5589802312486469,-7.4655124882801864,2.4449876526178955,3.9375098355799305,-1.5197674939321528,6.3748488395445682,-8.5798404873777532,3.5778503314461521,-3.5778503314461521,8.5798404873777532,12.487919677603799,0.0
774640.0783812654,4060767.5119837918,-17500.0,-3.5992774508078065,-4.4101292369098752,-5.6470055638951235,2.4673284301550593,3.1224073659037663,-1.2639100087829325,5.6024905214020002,-6.9714059039611449,3.4268153104185757,-3.4268153104185757,6.9714059039611449,10.967609619295697,0.0
779640.0783812654,4060767.5119837918,-17500.0,-3.9793020116701756,-3.9461379703771433,-4.0948308992702964,2.3157401231586725,2.385654003164325,-1.0150766226485437,4.8166369552869925,-5.3986325739415877,3.0066752551467131,-3.0066752551467131,5.3986325739415877,9.4350643563676737,0.0
784640.0783812654,4060767.5119837918,-17500.0,-4.0617789068020702,-3.3434041055816124,-2.8648902732547601,2.0701869799340624,1.7710825867620372,-0.79558358153380793,4.0774104622462302,-4.0185765549525119,2.4778242072871173,-2.4778242072871173,4.0185765549525119,7.9995986316115051,0.0
789640.0783812654,4060767.5119837918,-17500.0,-3.9280677112705664,-2.7211888189810272,-1.9396251128348208,1.789719598365006,1.2850678640717221,-0.613324404395861,3.4160728545557757,-2.8888715575300674,1.9450541818768958,-1.9450541818768958,2.8888715575300674,6.7177632510562741,0.0
794640.0783812654,4060767.5119837918,-17500.0,-3.6581468242660309,-2.1471976040419869,-1.2694921274697604,1.5118479877977573,0.9146342826295264,-0.46780858128095848,2.8437544027668542,-2.0074039155115933,1.4651037540591665,-1.4651037540591665,2.0074039155115933,5.609046818901045,0.0
799640.0783812654,4060767.5119837918,-17500.0,-3.3167941020436178,-1.6519408873948072,-0.7980504191935115,1.257034881767858,0.63957274066113146,-0.35458812600403244,2.3593378087913832,-1.343211223297387,1.0612093317353732,-1.0612093317353732,1.343211223297387,4.6703310840887298,0.0
804640.0783812654,4060767.5119837918,-17500.0,-2.9504117140415227,-1.2428634002367809,-0.47417868322104761,1.0341449054185805,0.4391578713214791,-0.26795720942565615,1.9552773491462894,-0.85596037603751218,0.73660034001380403,-0.73660034001380403,0.85596037603751218,3.8866417384732257,0.0
809640.0783812654,4060767.5119837918,-17500.0,-2.5890818749316393,-0.91499186721402381,-0.25638204620277766,0.84501879503685373,0.29518883620277481,-0.20235765497795632,1.6214637239595704,-0.50629783340443046,0.48429900769752993,-0.48429900769752993,0.50629783340443046,3.2381537647419503,0.0
814640.0783812654,4060767.5119837918,-17500.0,-2.2503665282399568,-0.65784495978174529,-0.1130548774718306,0.68771920182640611,0.1929250962231675,-0.1529768401638347,1.3574690437557055,-0.26031029209976386,0.29326438198138283,-0.29326438198138283,0.26031029209976386,2.7042896540315988,0.0
819640.0783812654,4060767.5119837918,-17500.0,-1.9430824278124277,-0.45943250932353613,-0.021076961625419645,0.55859669628264552,0.12099064158078125,-0.11590531541823347,1.1437336027532206,-0.090711165509657285,0.1518056423138987,-0.1518056423138987,0.090711165509657285,2.2658505068981265,0.0
659640.0783812654,4065767.5119837918,-17500.0,2.3692982637958977,-1.4721293634839561,0.9120330787482227,0.87862634796360695,-0.54914009693697663,0.24916700649945747,1.8371644778461504,-0.41842954215792705,1.7381433148377612,-1.7381433148377612,0.41842954215792705,3.6402055990592683,0.0
664640.0783812654,4065767.5119837918,-17500.0,2.5225036707544599,-1.7393951854561571,1.1823854972794197,1.0110994430631421,-0.69657358033780037,0.30950748621627988,2.0998664880307647,-0.37473303714471196,2.0130150175835331,-2.0130150175835331,0.37473303714471196,4.1625340563476367,0.0
669640.0783812654,4065767.5119837918,-17500.0,2.6417969043681224,-2.037835577592193,1.5301038552586756,1.1556095868362009,-0.88225967350021706,0.38464930621525872,2.3978476837883176,-0.28281646812585204,2.3136749458577759,-2.3136749458577759,0.28281646812585204,4.7561633581620946,0.0
674640.0783812654,4065767.5119837918,-17500.0,2.7043007189743538,-2.3589211843627806,1.9726167607060709,1.3073739638363144,-1.113797234124368,0.47745480489791914,2.7316851594665041,-0.12087085472149917,2.6295292477730605,-2.6295292477730605,0.12087085472149917,5.4228864130874141,0.0
679640.0783812654,4065767.5119837918,-17500.0,2.6808026653941766,-2.684795233751919,2.5268925695287576,1.4574131303251023,-1.3981844415476272,0.59059466587718157,3.0992223378402617,0.13888904900133836,2.940476693868519,-2.940476693868519,-0.13888904900133836,6.1589161645447383,0.0
684640.0783812654,4065767.5119837918,-17500.0,2.5369315649207613,-2.9840088727385772,3.2051271571529121,1.5908520183751549,-1.7397871304478743,0.72583968046399738,3.4946562428929844,0.52926063595784534,3.2129629038444767,-3.2129629038444767,-0.52926063595784534,6.951448614958883,0.0
689640.0783812654,4065767.5119837918,-17500.0,2.2371441976898621,-3.2071097459655666,4.0070718519762583,1.6852751603780225,-2.1368871688558122,0.88285917315686657,3.9090503726979993,1.084236184095599,3.3961290297897184,-3.3961290297897184,-1.084236184095599,7.7742970440814938,0.0
694640.0783812654,4065767.5119837918,-17500.0,1.7531245704177856,-3.2839163629919526,4.9080015501866674,1.7099239363896801,-2.5764642461369252,1.0574029131217766,4.3279785940362965,1.8302755312420222,3.4199060571632129,-3.4199060571632129,-1.8302755312420222,8.5831542744958238,0.0
699640.0783812654,4065767.5119837918,-17500.0,1.0777854913651446,-3.1260089561457636,5.8424467938410221,1.6271753399340665,-3.0273767592285785,1.2389122881542569,4.7226520070856335,2.7705045418642005,3.1984671964506202,-3.1984671964506202,-2.7705045418642005,9.3120443205470664,0.0
704640.0783812654,4065767.5119837918,-17500.0,0.24401211200468692,-2.6397046156611212,6.6867879790697904,1.3983559924381317,-3.4333542679512945,1.4080204234169231,5.0529531427252294,3.8611455470838099,2.6439308448149221,-2.6439308448149221,-3.8611455470838099,9.8741539369614966,0.0
709640.0783812654,4065767.5119837918,-17500.0,-0.65731638475934762,-1.7548501067096123,7.249183135602598,0.99584620506209898,-3.7093644788723119,1.5351183108267061,5.2748840310162279,4.9840874758100515,1.6949429982517001,-1.6949429982517001,-4.9840874758100515,10.172354736522028,0.0
714640.0783812654,4065767.5119837918,-17500.0,-1.4721506059011795,-0.47001076926598578,7.2817197121987149,0.42143178283478278,-3.7473602641349877,1.581993499179243,5.3520452918733312,5.9280490071609169,0.35985792766216251,-0.35985792766216251,-5.9280490071609169,10.126506396192422,0.0
719640.0783812654,4065767.5119837918,-17500.0,-2.007520413739154,1.097818156916804,6.5316780909107459,-0.27402553752590408,-3.4379782813373421,1.5087912166251556,5.2761059251755515,6.4003960895410525,-1.2377291011283855,1.2377291011283855,-6.4003960895410525,9.7239829112982257,0.0
724640.0783812654,4065767.5119837918,-17500.0,-2.0952133367906183,2.6883706657160489,4.8368489479826309,-0.98115943961224461,-2.7098330815049936,1.2870260906792621,5.0926652936850374,6.0925378225660412,-2.8393456115919617,2.8393456115919617,-6.0925378225660412,9.0910260546868589,0.0
729640.0783812654,4065767.5119837918,-17500.0,-1.6801225781991911,3.9358660216959072,2.2383155602442195,-1.5474119895400276,-1.575670040770637,0.91539535423906104,4.9141313733851071,4.8001746277318018,-4.0924477927674348,4.0924477927674348,-4.8001746277318018,8.5454829107207733,0.0
734640.0783812654,4065767.5119837918,-17500.0,-0.8848787811533696,4.4848525046067422,-0.9529566434695953,-1.8229519789865782,-0.16032432206406683,0.43036373139765477,4.8807787818850157,2.554040829437481,-4.6633909305951455,4.6633909305951455,-2.554040829437481,8.497782989867547,0.0
739640.0783812654,4065767.5119837918,-17500.0,0.007128650650627049,4.1436114182108641,-4.2033042707347477,-1.7218087877689894,1.3161864033382484,-0.097470492230898348,5.0565752986004906,-0.32196771103658284,-4.3812466397949574,4.3812466397949574,0.32196771103658284,9.1048197069868202,0.0
744640.0783812654,4065767.5119837918,-17500.0,0.66433802545143883,2.9852986842230544,-6.9258521484852924,-1.2639349609293318,2.604768162682527,-0.58354078196625903,5.362013551452284,-3.2894751245718279,-3.3273868613258708,3.3273868613258708,3.2894751245718279,10.078671635420299,0.0
749640.0783812654,4065767.5119837918,-17500.0,0.85489795930103807,1.3234535114421773,-8.6904896638005642,-0.5692396134894826,3.5120844958924367,-0.95714279816405545,5.6402809856212439,-5.788404202569283,-1.8051871064471949,1.8051871064471949,5.788404202569283,10.969602840828827,0.0
754640.0783812654,4065767.5119837918,-17500.0,0.53632428434927082,-0.42631244231353155,-9.3549582240649514,0.19395006411016322,3.9576867780956531,-1.1820911620190098,5.7672517635889413,-7.4354478978376513,-0.20579574709409476,0.20579574709409476,7.4354478978376513,11.464772973713231,0.0
759640.0783812654,4065767.5119837918,-17500.0,-0.1602797790153771,-1.9088690194808371,-9.0555576030176823,0.87330632855687373,3.9770626648204654,-1.2606571682080376,5.7800162366330978,-8.1194767740224663,1.143599832095318,-1.143599832095318,8.1194767740224663,11.455088490602545,0.0
764640.0783812654,4065767.5119837918,-17500.0,-1.020307935175601,-2.9270866095071493,-8.0928377539304659,1.3748783725355467,3.6809667078887696,-1.222648945527109,5.5825515554300633,-7.9671005712321863,2.0668803252967001,-2.0668803252967001,7.9671005712321863,10.984238001909889,0.0
769640.0783812654,4065767.5119837918,-17500.0,-1.8421355371106507,-3.4481492106982006,-6.7966482217664765,1.670738558386758,3.2023038658656606,-1.1088965105981907,5.191444382478565,-7.2330036985360433,2.5403744286952183,-2.5403744286952183,7.2330036985360433,10.174734814594835,0.0
774640.0783812654,4065767.5119837918,-17500.0,-2.4931336439793248,-3.5507326460666082,-5.4342384480933141,1.7817972317092803,2.6565429300280985,-0.95773460549204115,4.6861522353648093,-6.1891788099506302,2.6409269788965117,-2.6409269788965117,6.1891788099506302,9.1674690770165093,0.0
779640.0783812654,4065767.5119837918,-17500.0,-2.9190415708485022,-3.3598509690608975,-4.1769732697610227,1.7531214958651116,2.1241792542983546,-0.79800737145881251,4.1349519603894853,-5.0558784424092806,2.4847873518002626,-2.4847873518002626,5.0558784424092806,8.0852833866145541,0.0
784640.0783812654,4065767.5119837918,-17500.0,-3.1250549190882899,-2.9987581486749217,-3.1085835891563462,1.6339267068360308,1.6504753263849554,-0.64775052112880172,3.5874856041104506,-3.9784481005765313,2.1838586388815955,-2.1838586388815955,3.9784481005765313,7.0182270587708917,0.0
789640.0783812654,4065767.5119837918,-17500.0,-3.1493262860765516,-2.5649100458662883,-2.2508285803757984,1.46621728850858,1.2536942804235138,-0.51603932330854352,3.0749725745288274,-3.0340396251144961,1.8247621365566775,-1.8247621365566775,3.0340396251144961,6.0229904656039759,0.0
794640.0783812654,4065767.5119837918,-17500.0,-3.0411366416691115,-2.1242653374115159,-1.589809137942604,1.2807751833416867,0.93499313920984428,-0.40580620976428977,2.6138181664570532,-2.2503762781684773,1.4647120496020418,-1.4647120496020418,2.2503762781684773,5.129121938914122,0.0
799640.0783812654,4065767.5119837918,-17500.0,-2.8474181794687037,-1.7153635013264084,-1.0957024533595774,1.0975442173153716,0.68655296976601321,-0.31639079062158487,2.2100108270446999,-1.6250344383134885,1.1360100245205369,-1.1360100245205369,1.6250344383134885,4.3469826133486071,0.0
804640.0783812654,4065767.5119837918,-17500.0,-2.6065459981413026,-1.3566859040269006,-0.73493933540721124,0.92788075805845249,0.49705087227012584,-0.24538938400452548,1.8630004690943576,-1.1403299865223413,0.85316951680404485,-0.85316951680404485,1.1403299865223413,3.674870384741503,0.0
809640.0783812654,4065767.5119837918,-17500.0,-2.3468404224783117,-1.0537576710487351,-0.47647771664207278,0.77712406834821968,0.35481090959086448,-0.18980991994511892,1.5686058250775896,-0.77300544668439841,0.61952492594656794,-0.61952492594656794,0.77300544668439841,3.1043938729399154,0.0
814640.0783812654,4065767.5119837918,-17500.0,-2.0875128208483518,-0.80465952562299436,-0.29430415427870993,0.64679074865436925,0.24933859073330492,-0.14670404769898576,1.3209901976892271,-0.49970900227925918,0.43222344192068796,-0.43222344192068796,0.49970900227925918,2.6241219057576002,0.0
819640.0783812654,4065767.5119837918,-17500.0,-1.8405239953279369,-0.60378620152400342,-0.16785907576985029,0.53619328755201634,0.17187696832676866,-0.11345917033146333,1.1139828880855371,-0.29961857991789159,0.28554341688847557,-0.28554341688847557,0.29961857991789159,2.2218389296502812,0.0
659640.0783812654,4070767.5119837918,-17500.0,2.0170020062771039,-1.4362407806769921,1.0327574223448506,0.75959439068465684,-0.5439155694088702,0.21839255478183289,1.6933939060038734,-0.29886881835974355,1.6849424156743695,-1.6849424156743695,0.29886881835974355,3.3526568336199265,0.0
664640.0783812654,4070767.5119837918,-17500.0,2.1005127277486833,-1.6588516769031301,1.3049387788755038,0.85796028410502978,-0.67594618172444276,0.26688861524235696,1.9132692961639213,-0.22848554834242663,1.9155769685817625,-1.9155769685817625,0.22848554834242663,3.7908700380144698,0.0
669640.0783812654,4070767.5119837918,-17500.0,2.144262403737609,-1.895816606055464,1.6437613854177224,0.96021039785963547,-0.83753123561768517,0.32573896901268112,2.156909489729355,-0.10982605577858684,2.1568944563060599,-2.1568944563060599,0.10982605577858684,4.2778622545414784,0.0
674640.0783812654,4070767.5119837918,-17500.0,2.1299005967561602,-2.1354684753197346,2.0597841213678549,1.060894379615744,-1.0326786675854907,0.39633333055668779,2.4226400932956942,0.074536290489358503,2.3960255359986156,-2.3960255359986156,-0.074536290489358503,4.810931649152498,0.0
679640.0783812654,4070767.5119837918,-17500.0,2.0361336496783027,-2.3582225241348653,2.5606323817032597,1.1513740685153369,-1.2639203500073473,0.47959606191634019,2.7063899040160178,0.34491657833959755,2.6121978573451368,-2.6121978573451368,-0.34491657833959755,5.3821390992420257,0.0
684640.0783812654,4070767.5119837918,-17500.0,1.8407894168654235,-2.5342186265108388,3.1468754730479258,1.2190097893593852,-1.5305946579602705,0.57543784414510846,3.0020258022845789,0.72256799272207051,2.7745927446985084,-2.7745927446985084,-0.72256799272207051,5.9759970043076303,0.0
689640.0783812654,4070767.5119837918,-17500.0,1.5249953148878204,-2.6217213608607746,3.8057494727980887,1.2467076376884785,-1.8263165984356586,0.6819475460517529,3.3031113555620482,1.2254018787276419,2.841050755946005,-2.841050755946005,-1.2254018787276419,6.5669444348351584,0.0
694640.0783812654,4070767.5119837918,-17500.0,1.0800606964463162,-2.5678048165023779,4.5026990969040437,1.2134107711419351,-2.1356716847904011,0.79433193085546938,3.5955071592398733,1.8603681079904146,2.7591101810240111,-2.7591101810240111,-1.8603681079904146,7.1172525074058699,0.0
699640.0783812654,4070767.5119837918,-17500.0,0.51692630893246538,-2.3136184984245793,5.1718484696580411,1.0963753667882501,-2.4306165472571375,0.90374704942882134,3.854758522789659,2.6119534182658719,2.4715505593068285,-2.4715505593068285,-2.6119534182658719,7.5766489342839094,0.0
704640.0783812654,4070767.5119837918,-17500.0,-0.12363631298778555,-1.8068209778976536,5.7085948258377091,0.87613111374789288,-2.6678517329714801,0.99640510625737488,4.0533249161040468,3.4278264991750338,1.9288006243389586,-1.9288006243389586,-3.4278264991750338,7.8858096811117484,0.0
709640.0783812654,4070767.5119837918,-17500.0,-0.7645466129272227,-1.022530859756301,5.9703007970214532,0.54451506107745229,-2.7894345855222324,1.0536514484394466,4.164941610243158,4.2057851738079943,1.1092713882031791,-1.1092713882031791,-4.2057851738079943,7.9867240640131092,0.0
714640.0783812654,4070767.5119837918,-17500.0,-1.2967339575352252,0.0098693864563020733,5.7930628397127739,0.11466818861142618,-2.7295630144990231,1.0539228016260662,4.1728604201437047,4.7903926112879169,0.044767544773527401,-0.044767544773527401,-4.7903926112879169,7.843239662811273,0.0
719640.0783812654,4070767.5119837918,-17500.0,-1.6012148160347224,1.1836807813316728,5.0306452315014116,-0.37060580493518158,-2.4296672653121747,0.97728669230599885,4.082638039138005,4.9905170690664686,-1.1584009173944168,1.1584009173944168,-4.9905170690664686,7.47363179502244,0.0
724640.0783812654,4070767.5119837918,-17500.0,-1.5895746699668802,2.3119560348267258,3.6124458500124161,-0.8380595564364951,-1.8605123345857117,0.81225858454215261,3.9354516898241334,4.6255854771732512,-2.3180803273596915,2.3180803273596915,-4.6255854771732512,6.9901649923290048,0.0
729640.0783812654,4070767.5119837918,-17500.0,-1.2503529111148037,3.1604303219456904,1.6013023254148688,-1.1964017507215514,-1.0441923120620336,0.56284581004118095,3.8100239646835785,3.5945961863977161,-3.2090499062732061,3.2090499062732061,-3.5945961863977161,6.61657866446805,0.0
734640.0783812654,4070767.5119837918,-17500.0,-0.67590840173050593,3.51712140999429,-0.78164495345558804,-1.3621161423152384,-0.064023431950608417,0.25222427578062634,3.7933109723123133,1.9411944262922174,-3.6297165994953615,3.6297165994953615,-1.9411944262922174,6.6075377582880455,0.0
739640.0783812654,4070767.5119837918,-17500.0,-0.045389899103636215,3.2735732359571852,-3.1931532144639774,-1.2897815539967468,0.94804054417716122,-0.080240854523797422,3.9203689038743756,-0.12435440711387513,-3.4783233021846325,3.4783233021846325,0.12435440711387513,7.0452624581680947,0.0
744640.0783812654,4070767.5119837918,-17500.0,0.43783716210365375,2.4748877391453052,-5.2631114377446178,-0.99155212805102677,1.8461723679885864,-0.38890857739909446,4.1408576042634246,-2.271762500842434,-2.7983707540464771,2.7983707540464771,2.271762500842434,7.7473144094496247,0.0
749640.0783812654,4070767.5119837918,-17500.0,0.62442044643799777,1.3066436562639825,-6.7080238239806489,-0.53399506463674185,2.513351605436577,-0.63480415724709649,4.3564950368558204,-4.1523852702291855,-1.7643277102260444,1.7643277102260444,4.1523852702291855,8.4288436543244742,0.0
754640.0783812654,4070767.5119837918,-17500.0,0.46999216039112957,0.024208977318267898,-7.406978309804356,-0.013439249793171919,2.8917350669088613,-0.79560194025790709,4.481773320095563,-5.5064421206203109,-0.6141750643233328,0.6141750643233328,5.5064421206203109,8.8751360560550197,0.0
759640.0783812654,4070767.5119837918,-17500.0,0.034843708662951729,-1.1356778131233272,-7.4082543080836336,0.47655816592043865,2.9882305188874163,-0.86855579616462908,4.521713011070509,-6.2243145557593307,0.43314995398392586,-0.43314995398392586,6.2243145557593307,8.9906022008381736,0.0
764640.0783812654,4070767.5119837918,-17500.0,-0.55796098226211577,-2.0173754004686866,-6.8770429404547828,0.86981478465206241,2.8576786795501414,-0.86653788860516423,4.4528546326249243,-6.342965223188485,1.2349043766869574,-1.2349043766869574,6.342965223188485,8.7780533060929802,0.0
769640.0783812654,4070767.5119837918,-17500.0,-1.1760390352287848,-2.5635577580046891,-6.0215711355314898,1.1362885011697277,2.5763197577087773,-0.81058800257257968,4.2315232882085008,-5.9960522686531199,1.7392198569212511,-1.7392198569212511,5.9960522686531199,8.299683776722425,0.0
774640.0783812654,4070767.5119837918,-17500.0,-1.7166244375039481,-2.795941793558741,-5.0325135996507608,1.2770507410049134,2.218409069594022,-0.72279350890315475,3.9067550605849997,-5.3520413937871556,1.9662966623531166,-1.9662966623531166,5.3520413937871556,7.6411201914261175,0.0
779640.0783812654,4070767.5119837918,-17500.0,-2.121737181410813,-2.7809233260964645,-4.0510741804948021,1.312623067057253,1.8424830245227248,-0.62168493998923724,3.5256085963432766,-4.5664900421298622,1.9763138701763299,-1.9763138701763299,4.5664900421298622,6.8862454897657894,0.0
784640.0783812654,4070767.5119837918,-17500.0,-2.3744757944506114,-2.5980953390510471,-3.1630325315506616,1.2712879938263837,1.487224760460103,-0.52042384627390681,3.1261031073531296,-3.7575712420734622,1.8405875002213605,-1.8405875002213605,3.7575712420734622,6.1037435754908982,0.0
789640.0783812654,4070767.5119837918,-17500.0,-2.4863218738274773,-2.3198175421533942,-2.4080740884517633,1.180813438661048,1.1735543293447639,-0.42696650099671168,2.7353117407506065,-3.0011275231804473,1.6232153683774961,-1.6232153683774961,3.0011275231804473,5.3427743710065565,0.0
794640.0783812654,4070767.5119837918,-17500.0,-2.4835250065139811,-2.0020194999271861,-1.7942487465650703,1.0641396051793064,0.90931176767384192,-0.34518202069832832,2.370243592622729,-2.3369573513316424,1.3730943844068189,-1.3730943844068189,2.3369573513316424,4.6341852181861647,0.0
799640.0783812654,4070767.5119837918,-17500.0,-2.3966579453797858,-1.6827943191012398,-1.3113579326386064,0.938072936298879,0.69408596190636207,-0.27617238016025558,2.0399377828670024,-1.7790407092289344,1.1229817853495736,-1.1229817853495736,1.7790407092289344,3.9941921297308678,0.0
804640.0783812654,4070767.5119837918,-17500.0,-2.2542791155427735,-1.3850199077669125,-0.94084606423597383,0.81372246263696602,0.52306394612800544,-0.21940603392885813,1.7477771191202303,-1.325343168722851,0.89209244955131695,-0.89209244955131695,1.325343168722851,3.4285866076977953,0.0
809640.0783812654,4070767.5119837918,-17500.0,-2.0799589271370631,-1.1202718209750713,-0.66202237448387724,0.6976561077928306,0.38964128257460917,-0.17353615992484625,1.4934821731463095,-0.96536092573100196,0.68974891255223769,-0.68974891255223769,0.96536092573100196,2.9364034614385233,0.0
814640.0783812654,4070767.5119837918,-17500.0,-1.8915386901432703,-0.89257067566793347,-0.45543758344848589,0.59317947948183603,0.28698317011957197,-0.13692576190784569,1.2746460181645394,-0.68518883322129498,0.51878808575645197,-0.51878808575645197,0.68518883322129498,2.5127598942474791,0.0
664640.0783812654,4075767.5119837918,-17500.0,1.7238046605258055,-1.5398769962038497,1.3771707216540419,0.71886775295450644,-0.63980862083111956,0.22768701476587205,1.7288406143718735,-0.097670263847244199,1.7830599528406468,-1.7830599528406468,0.097670263847244199,3.4251947664130133,0.0
669640.0783812654,4075767.5119837918,-17500.0,1.7145499021580302,-1.7188167358351261,1.6938612089654501,0.78803434218141033,-0.77672391346654623,0.27307921558882492,1.9249604669542433,0.036260593051490986,1.9683096348535898,-1.9683096348535898,-0.036260593051490986,3.8189437045168342,0.0
674640.0783812654,4075767.5119837918,-17500.0,1.6513848377823712,-1.8865334883187197,2.0697157211320576,0.85064414710934511,-0.93700383691247247,0.32597919800864478,2.133084638703671,0.22838847270379281,2.1392646333109302,-2.1392646333109302,-0.22838847270379281,4.2388559451620385,0.0
679640.0783812654,4075767.5119837918,-17500.0,1.5201056562837956,-2.0243465451688123,2.5053969607669262,0.89927261508093825,-1.1203820902061339,0.38636494518630909,2.3486580675731874,0.49231894526377873,2.2765989986373119,-2.2765989986373119,-0.49231894526377873,4.6753620626162231,0.0
684640.0783812654,4075767.5119837918,-17500.0,1.3080908374898015,-2.1065582218055301,2.993969550139119,0.92402913961107014,-1.3235440013999717,0.4533176238852899,2.567430859863193,0.8401023405186222,2.3541307116536392,-2.3541307116536392,-0.8401023405186222,5.1130643057235945,0.0
689640.0783812654,4075767.5119837918,-17500.0,1.0078508306040119,-2.1005793216159363,3.5163295083109851,0.91272211168341244,-1.538452556541259,0.5245266834775173,2.7847263253899066,1.2783681650554461,2.3390695136865323,-2.3390695136865323,-1.2783681650554461,5.5295090243210288,0.0
694640.0783812654,4075767.5119837918,-17500.0,0.62195792477574063,-1.9691698862804763,4.0359075891780973,0.85180432912923398,-1.750465974915286,0.59572856072692437,2.9855817988171665,1.8024792350333094,2.1943482814301998,-2.1943482814301998,-1.8024792350333094,5.8946824660606776,0.0
699640.0783812654,4075767.5119837918,-17500.0,0.16872337769686832,-1.6760496187287799,4.4939242254916616,0.72851277960776695,-1.9367266695235594,0.66021336017750554,3.1519052297205792,2.38894938890363,1.8842145391711633,-1.8842145391711633,-2.38894938890363,6.1721537609286221,0.0
704640.0783812654,4075767.5119837918,-17500.0,-0.31309401714389201,-1.1958222924523902,4.8076829250471409,0.53448497793565541,-2.0657134870416325,0.70865182833214158,3.2659281508127811,2.9875615113648304,1.3839287338831929,-1.3839287338831929,-2.9875615113648304,6.3231875324128826,0.0
709640.0783812654,4075767.5119837918,-17500.0,-0.76353096534974618,-0.5278355610349964,4.8755382154901499,0.2706593101053944,-2.0992213693282169,0.72960387216205502,3.3129831031751165,3.5164106500569785,0.69312213085085772,-0.69312213085085772,-3.5164106500569785,6.315413986548374,0.0
714640.0783812654,4075767.5119837918,-17500.0,-1.1082449562496037,0.28904289357771817,4.5922561476617556,-0.047635809558698686,-1.9980195682261876,0.71107496120477254,3.2873538025376696,3.8648458363765634,-0.15015123650375983,0.15015123650375983,-3.8648458363765634,6.1374501284335334,0.0
719640.0783812654,4075767.5119837918,-17500.0,-1.275245478816019,1.167142514856206,3.8760519791533792,-0.38761968684659048,-1.7315654867024786,0.64325473538598454,3.2000199492405561,3.9094504875000569,-1.0608033875080984,1.0608033875080984,-3.9094504875000569,5.8194598043897443,0.0
724640.0783812654,4075767.5119837918,-17500.0,-1.2195346896633392,1.9746568486464495,2.7027760275111814,-0.70087720453150049,-1.29015378455361,0.52202306355965888,3.0851151852157459,3.5447583172713619,-1.9114998908120802,1.9114998908120802,-3.5447583172713619,5.4545027335621494,0.0
729640.0783812654,4075767.5119837918,-17500.0,-0.94720144044009957,2.5602281221580721,1.1350872201164284,-0.93202732463616744,-0.69530489614342716,0.35208222782285109,2.9975891002592876,2.7226101853326261,-2.5563061247768886,2.5563061247768886,-2.7226101853326261,5.1999284684601639,0.0
734640.0783812654,4075767.5119837918,-17500.0,-0.52594173646438314,2.794637483466945,-0.6699508272398661,-1.0332659576296253,-0.0027220475988864986,0.14812060068026459,2.9921345419118142,1.4849195824648154,-2.8702902166589608,2.8702902166589608,-1.4849195824648154,5.2158511860572334,0.0
739640.0783812654,4075767.5119837918,-17500.0,-0.071740873902863989,2.6149640627536503,-2.4864656312853692,-0.97986947603095731,0.70621605957767541,-0.067204198507513691,3.0878463891376233,-0.028842840988762664,-2.7911273718081806,2.7911273718081806,0.028842840988762664,5.5437025664081263,0.0
744640.0783812654,4075767.5119837918,-17500.0,0.28692864916078931,2.0502144440523784,-4.0748516953916294,-0.77957845397165382,1.3433574633312815,-0.26831792854522912,3.2514052059067171,-1.6097272180303812,-2.343008227324463,2.343008227324463,1.6097272180303812,6.0628999866002271,0.0
749640.0783812654,4075767.5119837918,-17500.0,0.45211730774713926,1.2139536577575398,-5.2453385390555498,-0.4708220369343884,1.8361540706954567,-0.43303285231737243,3.4193542044313143,-3.0351116339039779,-1.6295282116536709,1.6295282116536709,3.0351116339039779,6.5880077346875385,0.0
754640.0783812654,4075767.5119837918,-17500.0,0.38599169516875609,0.26667758457607721,-5.9028363382000677,-0.11036558379118254,2.1442601220130824,-0.54755201902579087,3.5332083140898742,-4.1285116759257079,-0.79842663821447579,0.79842663821447579,4.1285116759257079,6.9708975692205666,0.0
759640.0783812654,4075767.5119837918,-17500.0,0.11452688416718031,-0.63347521405574192,-6.0562754051691572,0.24365027635133676,2.264271172190826,-0.60835055484390266,3.5774860139839921,-4.7981086589663526,0.0042846424648232961,-0.0042846424648232961,4.7981086589663526,7.1346590434274457,0.0
764640.0783812654,4075767.5119837918,-17500.0,-0.29202909149160655,-1.3698036453550408,-5.7948827007021935,0.54589307897006689,2.2228425809198362,-0.62078141635538142,3.5776548368092107,-5.042202152448084,0.67046865597468441,-0.67046865597468441,5.042202152448084,7.0658737094735518,0.0
769640.0783812654,4075767.5119837918,-17500.0,-0.74850662559304904,-1.8836415567288327,-5.2480374563821481,0.77073224814175934,2.0634103810839157,-0.59568164128551571,3.4606682094166321,-4.927315451764021,1.1450675795521361,-1.1450675795521361,4.927315451764021,6.7938326621750011,0.0
774640.0783812654,4075767.5119837918,-17500.0,-1.1800194806232438,-2.1695440275851308,-4.5472267350717317,0.91171033642159893,1.8327857257479412,-0.54567408900973458,3.2562328760561376,-4.5545925569579353,1.4215581056921394,-1.4215581056921394,4.5545925569579353,6.3693149395959301,0.0
779640.0783812654,4075767.5119837918,-17500.0,-1.5357103283282387,-2.2583323661582528,-3.8011351003359808,0.97639591537102444,1.5717033663134192,-0.48236776450602331,2.9959696436798202,-4.0292194922626106,1.5263483318542495,-1.5263483318542495,4.0292194922626106,5.8479863958199445,0.0
784640.0783812654,4075767.5119837918,-17500.0,-1.7911106121467573,-2.1980007942167887,-3.0857032811632084,0.97995841225343194,1.3103779630480192,-0.41486568890762637,2.7077556669463942,-3.4406102605820421,1.5013507076120844,-1.5013507076120844,3.4406102605820421,5.2799191298074293,0.0
789640.0783812654,4075767.5119837918,-17500.0,-1.9432449491544124,-2.0387504131333292,-2.4452188311866405,0.93975330796003009,1.0680400264151215,-0.34939243899011607,2.4133918566116477,-2.8540783642192569,1.3904340937089081,-1.3904340937089081,2.8540783642192569,4.7046214522538765,0.0
794640.0783812654,4075767.5119837918,-17500.0,-2.0030713672133458,-1.8241120030946152,-1.8990330475720052,0.87181115908998308,0.8547302507526171,-0.28961437774814774,2.1282377786868745,-2.310830515854664,1.2314754428263059,-1.2314754428263059,2.310830515854664,4.1500003537634989,0.0
799640.0783812654,4075767.5119837918,-17500.0,-1.9883967009954056,-1.5873510406450519,-1.4496442796368398,0.78913713125526841,0.67387104319285562,-0.23725068704836619,1.861968703997507,-1.8323219860280662,1.0532113534780962,-1.0532113534780962,1.8323219860280662,3.633579659449564,0.0
804640.0783812654,4075767.5119837918,-17500.0,-1.9186702615493543,-1.3513369884285753,-1.0897622618394271,0.7012989222886945,0.52470437094983291,-0.19270823852727104,1.6197909614965114,-1.4259083245472242,0.87519816290146646,-0.87519816290146646,1.4259083245472242,3.1646657301516266,0.0
809640.0783812654,4075767.5119837918,-17500.0,-1.8118384416806277,-1.1301584043102675,-0.8074939275488876,0.61474213896088348,0.40420031846909282,-0.15560919882317284,1.4036959785618144,-1.0900334214755256,0.70930920988392487,-0.70930920988392487,1.0900334214755256,2.7466361052836605,0.0
669640.0783812654,4080767.5119837918,-17500.0,1.3534593203523155,-1.5271551087505582,1.6917776236451461,0.64032238082512649,-0.70752533401755147,0.227211690235122,1.7077160328973389,0.15302899493481859,1.7663524702142452,-1.7663524702142452,-0.15302899493481859,3.3900362702383817,0.0
674640.0783812654,4080767.5119837918,-17500.0,1.2628023809795261,-1.6352017490531987,2.0207712551058652,0.67562171894529699,-0.83643550685810375,0.2663719535870549,1.8683771667058731,0.34196309144290071,1.8801845733234117,-1.8801845733234117,-0.34196309144290071,3.7165272948041732,0.0
679640.0783812654,4080767.5119837918,-17500.0,1.1167334392920716,-1.7071142726456106,2.388405462022404,0.69609987772609028,-0.97891774210198135,0.30964783737864848,2.0300940069198274,0.58831853969147185,1.9555315475674646,-1.9555315475674646,-0.58831853969147185,4.0455045987417684,0.0
684640.0783812654,4080767.5119837918,-17500.0,0.90941731006487425,-1.7222583473654114,2.7836657234637237,0.69446415318875276,-1.1305822756744957,0.35586452223288606,2.191808292445272,0.89744994832929148,1.9713979620933366,-1.9713979620933366,-0.89744994832929148,4.3631106919239713,0.0
689640.0783812654,4080767.5119837918,-17500.0,0.64038801948952628,-1.6566874258440543,3.1854569983268761,0.66247657265073867,-1.2834482907862548,0.40286204614490839,2.3469676039226339,1.2688119971024361,1.9035503802618661,-1.9035503802618661,-1.2688119971024361,4.6508599780718098,0.0
694640.0783812654,4080767.5119837918,-17500.0,0.31773824649761512,-1.4857848867470322,3.5596780252617894,0.59192355092459281,-1.4249977908678506,0.44722991465109857,2.482388428800328,1.6918618776160868,1.7271332348645476,-1.7271332348645476,-1.6918618776160868,4.8859783260529648,0.0
699640.0783812654,4080767.5119837918,-17500.0,-0.038854448130420736,-1.1891108224075118,3.8574636674792626,0.4763034415742996,-1.5376621688157905,0.48415170097210614,2.5859522907191792,2.1414689178323796,1.4214112688093952,-1.4214112688093952,-2.1414689178323796,5.0430938264315719,0.0
704640.0783812654,4080767.5119837918,-17500.0,-0.39654392027401625,-0.75756123259135799,4.0162645819141236,0.31323846320135829,-1.5992923947728312,0.50750557761955783,2.6466909752187644,2.5741052744150945,0.97672391931061764,-0.97672391931061764,-2.5741052744150945,5.0980435091041327,0.0
709640.0783812654,4080767.5119837918,-17500.0,-0.71093178839033755,-0.20193949810209955,3.9657383478517834,0.10728724847193587,-1.5852460257531018,0.51039101935029396,2.6571787538421399,2.9269804514993667,0.40277122808531507,-0.40277122808531507,-2.9269804514993667,5.0345838251525414,0.0
714640.0783812654,4080767.5119837918,-17500.0,-0.93252393078736595,0.43947533801257987,3.6398860653502147,-0.12764475310004522,-1.4725301414306504,0.486205427163239,2.6175310515296264,3.1228149955808733,-0.26408663227310258,0.26408663227310258,-3.1228149955808733,4.8544870156581581,0.0
719640.0783812654,4080767.5119837918,-17500.0,-1.0183941711461726,1.0982404091308626,2.9949311456684664,-0.36754527881961097,-1.2458020666434406,0.43023344475169722,2.5399598302345536,3.0823261344358155,-0.95820473780466942,0.95820473780466942,-3.0823261344358155,4.5903399803345994,0.0
724640.0783812654,4080767.5119837918,-17500.0,-0.94683847010716826,1.6820644148774311,2.0291190365976273,-0.58048530468549886,-0.90396679195085594,0.341436354962598,2.4515747766404958,2.7440009397961926,-1.5906010517416238,1.5906010517416238,-2.7440009397961926,4.31653837088981,0.0
729640.0783812654,4080767.5119837918,-17500.0,-0.72979265530260995,2.0920152699426224,0.79718358695759861,-0.73233259728953193,-0.46502525101867148,0.22383957154001508,2.3907695748735796,2.0865740381943549,-2.0652401193275143,2.0652401193275143,-2.0865740381943549,4.1439304210725219,0.0
734640.0783812654,4080767.5119837918,-17500.0,-0.41640306338226257,2.2476369487571293,-0.58882728917083804,-0.79502443541016032,0.033501941671104193,0.086809415914049934,2.392406953369441,1.1457035543560656,-2.3028182001339252,2.3028182001339252,-1.1457035543560656,4.1743134997682976,0.0
739640.0783812654,4080767.5119837918,-17500.0,-0.083451004771309595,2.1115735585374291,-1.9770745718421385,-0.75473260003015341,0.54012322391091683,-0.056226759074223545,2.4667182135907009,0.015781356938120883,-2.2641331783842515,2.2641331783842515,-0.015781356938120883,4.4270075343937929,0.0
744640.0783812654,4080767.5119837918,-17500.0,0.18570178119277325,1.7031277373586047,-3.2086528926035949,-0.6165497918722791,0.99997668247249571,-0.19044369145901058,2.5908745072325114,-1.1673054306529718,-1.9631122117606203,1.9631122117606203,1.1673054306529718,4.8196007332886843,0.0
749640.0783812654,4080767.5119837918,-17500.0,0.32559957359027453,1.0939264860825075,-4.1543821712811617,-0.40345028662439475,1.367009436071418,-0.30281923187927096,2.7227645953191493,-2.2579308686766488,-1.4631005650311359,1.4631005650311359,2.2579308686766488,5.2282241841687407,0.0
754640.0783812654,4080767.5119837918,-17500.0,0.30627267426116112,0.38713312394725885,-4.741840028186961,-0.14983486692201481,1.6133084857033511,-0.38473332951299249,2.8219944162996962,-3.1351287852562528,-0.85774699228638052,0.85774699228638052,3.1351287852562528,5.5495869583136734,0.0
759640.0783812654,4080767.5119837918,-17500.0,0.13726838495353452,-0.31073968855304263,-4.9635922785282158,0.10759427801212321,1.7325311704487616,-0.43312055138128486,2.8633126329957812,-3.7267666596176534,-0.24491472152822014,0.24491472152822014,3.7267666596176534,5.7239888518891977,0.0
764640.0783812654,4080767.5119837918,-17500.0,-0.14143753993800362,-0.91417699570239741,-4.8666396068061424,0.33806403860001755,1.7371810268915318,-0.45002034425938958,2.8976773064203054,-4.0164528058514062,0.29593694768934342,-0.29593694768934342,4.0164528058514062,5.7330669101844771,0.0
769640.0783812654,4080767.5119837918,-17500.0,-0.47556339367288436,-1.37175830878394,-4.5306134905482001,0.52156247628682662,1.6519213962254622,-0.4410137318112301,2.8440229096379039,-4.0345056065283922,0.71602270747835717,-0.71602270747835717,4.0345056065283922,5.5886047720401093,0.0
774640.0783812654,4080767.5119837918,-17500.0,-0.81230180042250044,-1.6669569769719599,-4.0444291756500954,0.64971599939459368,1.5059757546297863,-0.4133037617230767,2.7190380007149342,-3.8400333542445,0.99817982351907153,-0.99817982351907153,3.8400333542445,5.3199602947349929,0.0
779640.0783812654,4080767.5119837918,-17500.0,-1.1108622114280327,-1.8104200164189928,-3.4885017177796502,0.72373500520833423,1.3269987822852463,-0.37407383960415158,2.5436359410771656,-3.5021222383631798,1.1499733045025298,-1.1499733045025298,3.5021222383631798,4.9633517055605409,0.0
784640.0783812654,4080767.5119837918,-17500.0,-1.3465413477324248,-1.8289966005963687,-2.9251327181062381,0.75104311915094257,1.1374438149319104,-0.32943485511625076,2.3377190194188793,-3.0854865464672518,1.1938017315201672,-1.1938017315201672,3.0854865464672518,4.5542584638739418,0.0
789640.0783812654,4080767.5119837918,-17500.0,-1.5097327683278763,-1.7556459571909229,-2.3961194129944787,0.74195266493362322,0.95329467112158817,-0.28397308366357432,2.1180887843730409,-2.6423936319545436,1.1577878004805693,-1.1577878004805693,2.6423936319545436,4.1230251932803048,0.0
794640.0783812654,4080767.5119837918,-17500.0,-1.6022308218378756,-1.6222677273993491,-1.9250149350518055,0.70713838259756667,0.78443462637725792,-0.24074170386161073,1.8976356544495556,-2.2100832714070773,1.0693153123396004,-1.0693153123396004,2.2100832714070773,3.6930629731157869,0.0
799640.0783812654,4080767.5119837918,-17500.0,-1.6328744209047847,-1.4557434665022109,-1.5214566995736467,0.65610095804139168,0.63584453162196297,-0.2014996410871033,1.6853983532616394,-1.8118014140105461,0.95146842182587643,-0.95146842182587643,1.8118014140105461,3.2807978419871242,0.0
804640.0783812654,4080767.5119837918,-17500.0,-1.6137727988100201,-1.2765216714907488,-1.1857409704308195,0.59647486880405709,0.50901629132798665,-0.16703806214218481,1.4870984390367965,-1.4595831002286708,0.82176038636603299,-0.82176038636603299,1.4595831002286708,2.8965783996094956,0.0
674640.0783812654,4085767.5119837918,-17500.0,0.95340176945957245,-1.3962701927081091,1.9303649663168525,0.53256798854946064,-0.73756040370364695,0.21672503650951846,1.6307456489603072,0.41984616525555696,1.6325182105952658,-1.6325182105952658,-0.41984616525555696,3.2478360704797828,0.0
679640.0783812654,4085767.5119837918,-17500.0,0.80714475923885476,-1.4196298673372663,2.2328854030975083,0.53497717722048321,-0.8463822110644218,0.2474295616950859,1.7514739286663676,0.64243060045548739,1.6614139448051011,-1.6614139448051011,-0.64243060045548739,3.492529649810125,0.0
684640.0783812654,4085767.5119837918,-17500.0,0.61622346708550912,-1.3896815051980831,2.5446650159318818,0.51824888501381439,-0.95760488051689097,0.27899544175347046,1.8710604194619791,0.9101194428041508,1.6349693164528956,-1.6349693164528956,-0.9101194428041508,3.7193205271345442,0.0
689640.0783812654,4085767.5119837918,-17500.0,0.38403066797282343,-1.2897374090780345,2.8452916060373439,0.47708551762286167,-1.0641268600062479,0.30961665325189047,1.9800511178531703,1.218289113901307,1.5360525198854025,-1.5360525198854025,-1.218289113901307,3.9136546357042006,0.0
694640.0783812654,4085767.5119837918,-17500.0,0.12063463337423001,-1.1045670053869361,3.1052071365010692,0.40683696190550228,-1.1558815796844979,0.33672101828990803,2.0693642920922994,1.5541578637067901,1.3488706293758632,-1.3488706293758632,-1.5541578637067901,4.0588645329814836,0.0
699640.0783812654,4085767.5119837918,-17500.0,-0.15586182690624054,-0.82415252483152435,3.2856080754986925,0.30471157764712953,-1.2198621508081058,0.35696565051123197,2.131141024830137,1.8942462420986577,1.0626279465351665,-1.0626279465351665,-1.8942462420986577,4.1379037412961388,0.0
704640.0783812654,4085767.5119837918,-17500.0,-0.41931733529227799,-0.448518432057046,3.3405950786128153,0.17129141955496155,-1.2408671524209665,0.36640924818980491,2.1589434588523839,2.2029142687331236,0.67623083090191694,-0.67623083090191694,-2.2029142687331236,4.1365235357549555,0.0
709640.0783812654,4085767.5119837918,-17500.0,-0.63783986747500632,0.0072581419394029062,3.2225250408942174,0.012063444990697864,-1.2032499196583575,0.36093346647711855,2.1497008460740066,2.433299375742406,0.20318756099050317,-0.20318756099050317,-2.433299375742406,4.0482541419778162,0.0
714640.0783812654,4085767.5119837918,-17500.0,-0.77897993666872434,0.50953344790959543,2.8909120482431128,-0.16155222097144212,-1.0937607309120552,0.33694033392249551,2.106349441291969,2.5320017600712523,-0.32489572934915878,0.32489572934915878,-2.5320017600712523,3.8812609224023209,0.0
719640.0783812654,4085767.5119837918,-17500.0,-0.81750896278459528,1.0062846874542204,2.3239163788275436,-0.33234225722024746,-0.90517048392290445,0.29225657127791921,2.0404251743555752,2.4481702304495103,-0.85832566549100975,0.85832566549100975,-2.4481702304495103,3.6662063096445112,0.0
724640.0783812654,4085767.5119837918,-17500.0,-0.74402566241969348,1.4328953410378527,1.5296794337797572,-0.47916770555912741,-0.63982915733987811,0.22704479069036493,1.9729732897671202,2.1460455140359835,-1.3346556842455144,1.3346556842455144,-2.1460455140359835,3.461401616164296,0.0
729640.0783812654,4085767.5119837918,-17500.0,-0.57129537244808826,1.7238528074219313,0.55330579040471506,-0.58063760526941888,-0.31187943122643186,0.14441123742528253,1.930916325637694,1.6178714545926951,-1.6896735447305393,1.6896735447305393,-1.6178714545926951,3.3451922472372329,0.0
734640.0783812654,4085767.5119837918,-17500.0,-0.33497485220903495,1.8280402993675513,-0.52466380102465904,-0.61988177355762897,0.053139004646432383,0.050393168197185235,1.9367480374454153,0.89245219759575911,-1.8718925330969609,1.8718925330969609,-0.89245219759575911,3.38290052654513,0.0
739640.0783812654,4085767.5119837918,-17500.0,-0.086954832079224248,1.722811756830134,-1.6001161033501035,-0.58897403262504877,0.42186794967164898,-0.046835280276277841,1.9957588251549896,0.034882054346896063,-1.8560385673567401,1.8560385673567401,-0.034882054346896063,3.5820111593819268,0.0
744640.0783812654,4085767.5119837918,-17500.0,0.11734493258733987,1.421377477604165,-2.5653071721846801,-0.49135074192198885,0.759248665311275,-0.13841141482316874,2.0918700220214443,-0.86424357220616543,-1.6503772431210193,1.6503772431210193,0.86424357220616543,3.8846521574528099,0.0
749640.0783812654,4085767.5119837918,-17500.0,0.23336362329952673,0.97016414129806294,-3.3308013121553559,-0.34118316600203591,1.0353794026112049,-0.21647239465705376,2.1964314003115293,-1.7074924445538062,-1.2946944336983128,1.2946944336983128,1.7074924445538062,4.206095473452498,0.0
754640.0783812654,4085767.5119837918,-17500.0,0.23808736465055877,0.43693442747600153,-3.8421206924848885,-0.15987365362343325,1.2309067470376149,-0.27555101189949721,2.2811576328455065,-2.4109557673667537,-0.84958241243478905,0.84958241243478905,2.4109557673667537,4.4733632566272457,0.0
759640.0783812654,4085767.5119837918,-17500.0,0.13341017327673815,-0.10574620983648791,-4.0861134458163058,0.029004384927687307,1.3393711517281683,-0.31327301731483098,2.3263453205301565,-2.9195301889275971,-0.38124423093540938,0.38124423093540938,2.9195301889275971,4.640789907316698,0.0
764640.0783812654,4085767.5119837918,-17500.0,-0.058034747623940994,-0.59576041042032435,-4.0864785690398486,0.20454573124681599,1.3662182464670021,-0.33024738576776186,2.3665640042984415,-3.2129644916057321,0.05268141456295039,-0.05268141456295039,3.2129644916057321,4.6899713412506046,0.0
769640.0783812654,4085767.5119837918,-17500.0,-0.30177347993558745,-0.99100938533378091,-3.8918823139767578,0.35174764924067436,1.3254047949197776,-0.32933834064872336,2.3506993732276191,-3.30260009957169,0.41216497018575193,-0.41216497018575193,3.30260009957169,4.6236621908113271,0.0
774640.0783812654,4085767.5119837918,-17500.0,-0.56122355822813563,-1.2719703893477852,-3.5617804926367254,0.4626352177977669,1.2351001859654345,-0.31466363738663644,2.2777701082421422,-3.2219649714976648,0.67741371133477246,-0.67741371133477246,3.2219649714976648,4.4582718903079046,0.0
779640.0783812654,4085767.5119837918,-17500.0,-0.80520091620438206,-1.4386316097108971,-3.1542759355302783,0.53560131666915378,1.1138247079867063,-0.29064654341184176,2.1614461376261613,-3.015466180561214,0.84631547641200622,-0.84631547641200622,3.015466180561214,4.2169956069681946,0.0
784640.0783812654,4085767.5119837918,-17500.0,-1.0118958254072501,-1.5044749086273901,-2.7182464163879767,0.57371703239688232,0.97778338984906255,-0.26132234917843489,2.015695894461059,-2.7285859491769968,0.92912640345747055,-0.92912640345747055,2.7285859491769968,3.9245004015218536,0.0
789640.0783812654,4085767.5119837918,-17500.0,-1.1695800822274069,-1.4900270953950483,-2.2899289456239078,0.58277706947649655,0.83954098812632083,-0.22995583915484452,1.8531153519238428,-2.4012879194098362,0.94270731307427358,-0.94270731307427358,2.4012879194098362,3.6034287882541913,0.0
794640.0783812654,4085767.5119837918,-17500.0,-1.275137025180874,-1.4175843694714074,-1.8929011957470481,0.56960461024668507,0.70778090330271637,-0.19892459339986632,1.684055793942395,-2.0647958214258999,0.9057817380746509,-0.9057817380746509,2.0647958214258999,3.2725459874567551,0.0
799640.0783812654,4085767.5119837918,-17500.0,-1.3316198869554374,-1.3077168790980755,-1.540032393286348,0.54084975426317805,0.58774308979467405,-0.16977968242477282,1.5163697152650699,-1.7409998698284195,0.83577894973262268,-0.83577894973262268,1.7409998698284195,2.9461333912671139,0.0
679640.0783812654,4090767.5119837918,-17500.0,0.57294745579694728,-1.1674433831792772,2.0570401788376418,0.40870513042758283,-0.72633870787869059,0.1974735111511976,1.5113721980583266,0.66430283065141704,1.3999266712232292,-1.3999266712232292,-0.66430283065141704,3.0121994635182601,0.0
684640.0783812654,4090767.5119837918,-17500.0,0.40369530746391069,-1.1093062391214801,2.297406824931115,0.38430808183513626,-0.80654704091755425,0.21881032078266249,1.5987029456762469,0.89160420416920072,1.3462928120231745,-1.3462928120231745,-0.89160420416920072,3.1712392038073447,0.0
689640.0783812654,4090767.5119837918,-17500.0,0.20820875332574254,-0.99265831239471847,2.5161801244751976,0.34081905758938236,-0.87916193095411677,0.23847240544653114,1.6738560823171524,1.1433574280913699,1.231783869368265,-1.231783869368265,-1.1433574280913699,3.298660586369599,0.0
694640.0783812654,4090767.5119837918,-17500.0,-0.003442503106949837,-0.80885135402083386,2.6889193140751719,0.27585419096269093,-0.93639856985433012,0.25458837437144888,1.7310963361527443,1.4066879368632224,1.0470031169153282,-1.0470031169153282,-1.4066879368632224,3.3826342684024246,0.0
699640.0783812654,4090767.5119837918,-17500.0,-0.21587260405562911,-0.5543389474519218,2.7857618262661741,0.18869479757714155,-0.96886534737460228,0.26488685088717834,1.7654321817986451,1.6611775872600389,0.78741593823521927,-0.78741593823521927,-1.6611775872600389,3.4121352763431583,0.0
704640.0783812654,4090767.5119837918,-17500.0,-0.40905351325727257,-0.23377254039491963,2.773748241233819,0.081196112102040863,-0.96629774972420923,0.26686087720932322,1.7733697984505954,1.8786398219976759,0.45639570983214395,-0.45639570983214395,-1.8786398219976759,3.3794536562770463,0.0
709640.0783812654,4090767.5119837918,-17500.0,-0.56051685663629724,0.1372331771901025,2.6211637491963331,-0.041425486417627451,-0.91888512198085148,0.25807142307852532,1.7543520779127377,2.0246667754435559,0.067987366215186529,-0.067987366215186529,-2.0246667754435559,3.2838070048680685,0.0
714640.0783812654,4090767.5119837918,-17500.0,-0.64921981618381042,0.53074313731252076,2.3037933160685475,-0.17023946213099561,-0.81915088127229885,0.23658366058686098,1.7124561807840171,2.0625586504206068,-0.35163981453796156,0.35163981453796156,-2.0625586504206068,3.1359494279876103,0.0
719640.0783812654,4090767.5119837918,-17500.0,-0.66060441894525912,0.90775040367363091,1.8121780943086852,-0.29302219908697408,-0.66411341433159843,0.2014767575935168,1.6578023673909361,1.9596944357306683,-0.76520218336789647,0.76520218336789647,-1.9596944357306683,2.9629134900152319,0.0
724640.0783812654,4090767.5119837918,-17500.0,-0.59161675264752633,1.2228353118699065,1.1580454401541962,-0.39567391375517674,-0.45719563673210656,0.15330767430688194,1.6065306159488484,1.6954455494463292,-1.128567540427623,1.128567540427623,-1.6954455494463292,2.8099109902528991,0.0
729640.0783812654,4090767.5119837918,-17500.0,-0.45389198212378062,1.4320213967322255,0.37751854219782077,-0.46456072163144119,-0.20919290490040185,0.094370322964520248,1.5776163076315433,1.2686503662280446,-1.3981168461049094,1.3981168461049094,-1.2686503662280446,2.7325436525920583,0.0
734640.0783812654,4090767.5119837918,-17500.0,-0.27340795010616198,1.5022080431240508,-0.47097165928702861,-0.48931329208618846,0.062300328002945153,0.028607475138800867,1.5857306925038701,0.70202218774014069,-1.5397134143576228,1.5397134143576228,-0.70202218774014069,2.7730354351209963,0.0
739640.0783812654,4090767.5119837918,-17500.0,-0.085912449480960759,1.4194069617894296,-1.3147134492613803,-0.46528768557320738,0.335199343527886,-0.038879923774664017,1.6334105341388419,0.041243551955276181,-1.5366864056646641,1.5366864056646641,-0.041243551955276181,2.9326881236192603,0.0
744640.0783812654,4090767.5119837918,-17500.0,0.070929717550988869,1.1928748526620763,-2.0791558109432811,-0.39485150111972495,0.58655513313763141,-0.10264368038743346,1.7090727064936271,-0.65191526692622803,-1.3940740075951914,1.3940740075951914,0.65191526692622803,3.1699389571494776,0.0
749640.0783812654,4090767.5119837918,-17500.0,0.16623695262834273,0.8534565510303298,-2.7013515542644924,-0.28699482687106731,0.79653624279302404,-0.15781010779306182,1.7927825844762693,-1.3108910176603248,-1.1374824919654551,1.1374824919654551,1.3108910176603248,3.4255669632580981,0.0
754640.0783812654,4090767.5119837918,-17500.0,0.18255645709300516,0.44658328989385565,-3.1404318198035126,-0.15536207726842052,0.9516262763795359,-0.20085341543179475,1.8644396515521362,-1.8767045098437574,-0.8068949959257623,0.8068949959257623,1.8767045098437574,3.647284941758671,0.0
759640.0783812654,4090767.5119837918,-17500.0,0.11842294615895643,0.022335385129086862,-3.3822868788463394,-0.015364842140587396,1.0461946879731379,-0.23001868969621522,1.9093138606050588,-2.3077386142498351,-0.4476116974908092,0.4476116974908092,2.3077386142498351,3.8003108574490541,0.0
764640.0783812654,4090767.5119837918,-17500.0,-0.013484351325445197,-0.37421036459862195,-3.43786996519,0.11871008807933382,1.0822174987796902,-0.24532627048483549,1.9489454516862519,-2.5844543703295733,-0.10129507707642227,0.10129507707642227,2.5844543703295733,3.8681018555890283,0.0
769640.0783812654,4090767.5119837918,-17500.0,-0.19128429811658162,-0.70974147996678716,-3.3367011855674229,0.23582663542958829,1.0675444152102598,-0.24823051681869182,1.9550163245316188,-2.7086299395799553,0.20043695886143964,-0.20043695886143964,2.7086299395799553,3.8489953775152319,0.0
774640.0783812654,4090767.5119837918,-17500.0,-0.38986531927886992,-0.96546809692596247,-3.1182794411422612,0.3291932734737274,1.0134586003697688,-0.24109227698853344,1.9159231776182202,-2.6985123538134594,0.43879095221799314,-0.43879095221799314,2.6985123538134594,3.7516765698112029,0.0
779640.0783812654,4090767.5119837918,-17500.0,-0.58603296698452012,-1.1362807918467674,-2.8239868401047512,0.39618963505632976,0.93227659139809749,-0.22663391902392988,1.8404814742931415,-2.5821195090015649,0.60726875642448708,-0.60726875642448708,2.5821195090015649,3.5907719822361974,0.0
784640.0783812654,4090767.5119837918,-17500.0,-0.76179740287278774,-1.2276155408283724,-2.4911222687671968,0.4375677818778852,0.83549253730866069,-0.20749782177738882,1.7383816772246208,-2.3907620953499071,0.70899611498269066,-0.70899611498269066,2.3907620953499071,3.3831991288282719,0.0
789640.0783812654,4090767.5119837918,-17500.0,-0.90564720641537344,-1.2514947881161054,-2.1495759733837949,0.45634192941740886,0.73265858799777117,-0.18596155860426947,1.6188989806414142,-2.1540872948551231,0.75324171573988563,-0.75324171573988563,2.1540872948551231,3.1455319411544056,0.0
794640.0783812654,4090767.5119837918,-17500.0,-1.0122461752478134,-1.2228611953701631,-1.820813098303131,0.45670036788130902,0.63094388845450466,-0.16380560352654733,1.4901119481507592,-1.8970770648448299,0.7521511231171053,-0.7521511231171053,1.8970770648448299,2.8923723159204946,0.0
689640.0783812654,4095767.5119837918,-17500.0,0.089753039771776802,-0.75569619984949743,2.2097454312207292,0.2412138337574854,-0.72518904389172001,0.18428021131868622,1.418898702611457,1.0559488856523094,0.98312583232126571,-0.98312583232126571,-1.0559488856523094,2.7871824966851553,0.0
694640.0783812654,4095767.5119837918,-17500.0,-0.078561176753778023,-0.58217953888160057,2.3175954434673938,0.18360436033320801,-0.75889687256890215,0.19347365402532249,1.4540817122548211,1.2603882623790896,0.80839132429505367,-0.80839132429505367,-1.2603882623790896,2.8300946197161916,0.0
699640.0783812654,4095767.5119837918,-17500.0,-0.24086709233169207,-0.35699380374714274,2.3565014859109654,0.11073647858198654,-0.7714353060554785,0.19794616078789917,1.4706743389059644,1.4490386582807313,0.57775530146569554,-0.57775530146569554,-1.4490386582807313,2.8290598389007116,0.0
704640.0783812654,4095767.5119837918,-17500.0,-0.38219003214020625,-0.086745798668728252,2.3031800378952076,0.02485126170302494,-0.75595571625908475,0.19611585448038274,1.4670501652011856,1.6000912565199554,0.29660286255806323,-0.29660286255806323,-1.6000912565199554,2.780560947633568,0.0
709640.0783812654,4095767.5119837918,-17500.0,-0.48690339047515913,0.21416114993422197,2.1368512384437977,-0.069550967392548457,-0.70637961960870099,0.18654839684523425,1.4440229856119013,1.6885275194324967,-0.022033764851978055,0.022033764851978055,-1.6885275194324967,2.6869456497848669,0.0
714640.0783812654,4095767.5119837918,-17500.0,-0.54148581254933292,0.52324760231499445,1.8435223016881659,-0.16566536852261393,-0.61861646702244488,0.16822487408177667,1.4059134021948858,1.6891795189586893,-0.35706360582797303,0.35706360582797303,-1.6891795189586893,2.559501009982847,0.0
719640.0783812654,4095767.5119837918,-17500.0,-0.53776510151007317,0.81143992512528462,1.4205211382274521,-0.25483265073288408,-0.49184330316024222,0.14082806514063118,1.3612557884582648,1.5811086553560441,-0.6805945489401406,0.6805945489401406,-1.5811086553560441,2.4212283705651845,0.0
724640.0783812654,4095767.5119837918,-17500.0,-0.47583193732736301,1.0466079367639574,0.88010859575429878,-0.32755897119047517,-0.32952311716110438,0.10497820827040057,1.3223541682190643,1.3525982578259259,-0.96116836481762447,0.96116836481762447,-1.3525982578259259,2.3069843408629223,0.0
729640.0783812654,4095767.5119837918,-17500.0,-0.36559351386268424,1.1988257193922611,0.25081387576889874,-0.37500954024561484,-0.13979064170506433,0.062337217666525641,1.3026621861601113,1.0055182206007736,-1.1686947730200719,1.1686947730200719,-1.0055182206007736,2.2564071371528307,0.0
734640.0783812654,4095767.5119837918,-17500.0,-0.2261051160559879,1.2462735511247556,-0.42454357353340383,-0.39067797393232873,0.065079066438204713,0.0155166891336804,1.3118393156259562,0.55758850519913872,-1.2800938456344189,1.2800938456344189,-0.55758850519913872,2.2969312052772097,0.0
739640.0783812654,4095767.5119837918,-17500.0,-0.082434523369752738,1.180166291566968,-1.0943116563513846,-0.371790056594275,0.27016992692752129,-0.032226714506816703,1.3508991174606124,0.04139489168899757,-1.2841354154222198,1.2841354154222198,-0.04139489168899757,2.4267790637088162,0.0
744640.0783812654,4095767.5119837918,-17500.0,0.039301754961828791,1.0071225492995775,-1.7059390378400405,-0.32000645362220714,0.46012729931245833,-0.077457750806587997,1.4113365751807729,-0.50008146130018405,-1.1839627028360966,1.1839627028360966,0.50008146130018405,2.6155259563523567,0.0
749640.0783812654,4095767.5119837918,-17500.0,0.11733826797674134,0.74809878730002066,-2.2144206814877974,-0.24117639798493418,0.621535987058775,-0.11708183666508173,1.478998472973182,-1.0204822610687012,-0.99642686367021893,0.99642686367021893,1.0204822610687012,2.8209601039498748,0.0
754640.0783812654,4095767.5119837918,-17500.0,0.13848214970359438,0.43414461127793907,-2.5890220153808179,-0.1441969574819803,0.74486339916998057,-0.1487861384358373,1.5393896283958624,-1.47778409158693,-0.74840694975375821,0.74840694975375821,1.47778409158693,3.0050896751913712,0.0
759640.0783812654,4095767.5119837918,-17500.0,0.099988834052938194,0.10029040385484864,-2.8166474164601536,-0.039321246436274666,0.8255066509825344,-0.17129860586305745,1.5814594325005598,-1.8406439543193649,-0.47128639956182061,0.47128639956182061,1.8406439543193649,3.1413872381998003,0.0
764640.0783812654,4095767.5119837918,-17500.0,0.008814193357746726,-0.22064114456649894,-2.9013848400177977,0.063600545966878391,0.86378834654274661,-0.18442369784603607,1.6181439591548961,-2.091904048951081,-0.19523207393843722,0.19523207393843722,2.091904048951081,3.2157133155027853,0.0
769640.0783812654,4095767.5119837918,-17500.0,-0.12114749985911431,-0.50274307603777135,-2.8609500587684038,0.15651209865548119,0.86406960778318243,-0.18888238538095739,1.6363298254261851,-2.2288341890950014,0.055265559117824825,-0.055265559117824825,2.2288341890950014,3.2244557118550277,0.0
774640.0783812654,4095767.5119837918,-17500.0,-0.27272898376967952,-0.72943672429425266,-2.7214775604974584,0.23392850789417713,0.8333564233118409,-0.18603148886174101,1.6190049469775774,-2.2607023235428509,0.26379882151115952,-0.26379882151115952,2.2607023235428509,3.1717560821098463,0.0
779640.0783812654,4095767.5119837918,-17500.0,-0.4289512291579079,-0.89361129155784402,-2.5121875838276462,0.29308007263127711,0.77981524070227826,-0.17754983516346981,1.5717111475216587,-2.2048475640839467,0.42237330722595146,-0.42237330722595146,2.2048475640839467,3.0666678220697827,0.0
784640.0783812654,4095767.5119837918,-17500.0,-0.5755416692548474,-0.99610490292407206,-2.2610484088536147,0.33356988281405048,0.71151716242794127,-0.16516186006619379,1.501110711713366,-2.082485259977561,0.53019405743154957,-0.53019405743154957,2.082485259977561,2.9206667118217555,0.0
789640.0783812654,4095767.5119837918,-17500.0,-0.70225167507056863,-1.0433566913009353,-1.9919523893413491,0.35676340244793697,0.63557446049402477,-0.15043798613196513,1.4139505916250967,-1.9151497058880866,0.59165085957763219,-0.59165085957763219,1.9151497058880866,2.7457212904411668,0.0
699640.0783812654,4100767.5119837918,-17500.0,-0.24497822406905623,-0.21399628827456238,1.9919911680574061,0.058740161222350047,-0.61632467009249603,0.14901285929896435,1.2322516721408423,1.2602169302611257,0.41874800609967444,-0.41874800609967444,-1.2602169302611257,2.3590713833032178,0.0
704640.0783812654,4100767.5119837918,-17500.0,-0.34825526944540508,0.012173996296087522,1.9148616610620908,-0.0096020869175996119,-0.59446726444172082,0.14543158919819019,1.2222798710401241,1.3632750182983004,0.18109888307153454,-0.18109888307153454,-1.3632750182983004,2.3041373812420796,0.0
709640.0783812654,4100767.5119837918,-17500.0,-0.42041058357621131,0.25600432927826799,1.7473891788687657,-0.082426619957522554,-0.54673682177497585,0.13628574350426276,1.1984845113456666,1.4127314302363272,-0.080583981855218312,0.080583981855218312,-1.4127314302363272,2.2172552840745841,0.0
714640.0783812654,4100767.5119837918,-17500.0,-0.45283763513489766,0.49972354336890284,1.4819160727563716,-0.15461844061324184,-0.471007920381877,0.12105776294576313,1.1649801341042965,1.3913308023884392,-0.34955751333478624,0.34955751333478624,-1.3913308023884392,2.109198525002042,0.0
719640.0783812654,4100767.5119837918,-17500.0,-0.44115662120247312,0.72168904887363672,1.1193258836654312,-0.22003222844655962,-0.36749948785079217,0.099709529445524692,1.1288019204618382,1.2856342591100689,-0.60493745966713541,0.60493745966713541,-1.2856342591100689,1.9991360860441207,0.0
724640.0783812654,4100767.5119837918,-17500.0,-0.38689829402551446,0.89899413573100384,0.67104552225721681,-0.272208000300935,-0.23931221332684413,0.072801636268394032,1.0993084804063331,1.0891791765090471,-0.82408685868113896,0.82408685868113896,-1.0891791765090471,1.9138720977601753,0.0
729640.0783812654,4100767.5119837918,-17500.0,-0.29821948291241496,1.0109994042780253,0.15947239546763795,-0.30532856635395839,-0.092548963155147351,0.041529800802769141,1.0860984462783869,0.8050492530555966,-0.98593822062701353,0.98593822062701353,-0.8050492530555966,1.881792459828739,0.0
734640.0783812654,4100767.5119837918,-17500.0,-0.18921273296604274,1.0430806137242312,-0.38368756529892345,-0.3152326737197072,0.064116565334773695,0.0076490370457864033,1.0955816700108274,0.44702104391748121,-1.0746014936237165,1.0746014936237165,-0.44702104391748121,1.9207703908570812,0.0
739640.0783812654,4100767.5119837918,-17500.0,-0.077747557408954462,0.98963952872329042,-0.92116009914452279,-0.30023464271880074,0.22042289528111644,-0.026717237415324682,1.1279447294211682,0.038692754862636014,-1.0823630178954691,1.0823630178954691,-0.038692754862636014,2.0276412137751758,0.0
744640.0783812654,4100767.5119837918,-17500.0,0.017732875122832201,0.85549315065616471,-1.4152656628851183,-0.26151804957550545,0.36588952208232045,-0.059352390295570566,1.176840154275123,-0.38947117545888027,-1.0112245597080007,1.0112245597080007,0.38947117545888027,2.1797637408123101,0.0
749640.0783812654,4100767.5119837918,-17500.0,0.081643818425231746,0.6551713437296951,-1.8333463269773045,-0.20297632762786236,0.49127357356296075,-0.088247502127209151,1.232034199464445,-0.8046070781921264,-0.87250239208282521,0.87250239208282521,0.8046070781921264,2.346509305979863,0.0
754640.0783812654,4100767.5119837918,-17500.0,0.10399513475290423,0.41027786469142635,-2.1521667671888669,-0.13053297505586259,0.58977808536795207,-0.11185973344851498,1.2829250405559605,-1.1763676441189743,-0.68458416357029939,0.68458416357029939,1.1763676441189743,2.4998942464340352,0.0
759640.0783812654,4100767.5119837918,-17500.0,0.081745101364723044,0.14564794508566622,-2.3603235426214217,-0.051125281954298225,0.65775295029743364,-0.12927323201926322,1.3211727192450655,-1.4811038344255572,-0.46948960770082748,0.46948960770082748,1.4811038344255572,2.6196001469048515,0.0
764640.0783812654,4100767.5119837918,-17500.0,0.018559576594075231,-0.11467641262125372,-2.4583073407741174,0.028385199368889624,0.69478202605479533,-0.14023704997956207,1.3541162497337318,-1.7044107649490159,-0.24916606488195825,0.24916606488195825,1.7044107649490159,2.6938454619122756,0.0
769640.0783812654,4100767.5119837918,-17500.0,-0.076738093564035284,-0.35071010276364595,-2.456568399101549,0.10212471303715485,0.70323256351397267,-0.14509132366906846,1.3783440559937112,-1.8417105192575536,-0.042404759509070411,0.042404759509070411,1.8417105192575536,2.7183606408044456,0.0
774640.0783812654,4100767.5119837918,-17500.0,-0.19242478127683307,-0.5484649128943796,-2.3723431068419494,0.16578409382523365,0.68745281622433918,-0.14461620830370786,1.3748136304717384,-1.8970921628456296,0.13707940508359207,-0.13707940508359207,1.8970921628456296,2.6946645158640776,0.0
779640.0783812654,4100767.5119837918,-17500.0,-0.31618281597818237,-0.70046160895334264,-2.2261598155607367,0.21681892233137962,0.65285397424297531,-0.13985025984497068,1.3467977936788467,-1.8810310838817306,0.28127454844019695,-0.28127454844019695,1.8810310838817306,2.6282165251228378,0.0
709640.0783812654,4105767.5119837918,-17500.0,-0.36207125428538589,0.27495262176415897,1.4340124628537445,-0.086287198974377061,-0.42607355344647513,0.1005855980731413,1.0026329296284724,1.1864806576291769,-0.11733905300447456,0.11733905300447456,-1.1864806576291769,1.8446536088023753,0.0
714640.0783812654,4105767.5119837918,-17500.0,-0.38016600588565769,0.46803516177948934,1.1968395424117637,-0.14089912862924886,-0.36145617468244479,0.088102929863763085,0.97377691442480974,1.1527420830475357,-0.33457884178665287,0.33457884178665287,-1.1527420830475357,1.7539782540716069,0.0
719640.0783812654,4105767.5119837918,-17500.0,-0.36473048925880924,0.64029962835693321,0.88642388018246976,-0.18936533953024459,-0.276863305667162,0.071440434265860123,0.94461398498075111,1.0533161264765267,-0.53794154190468091,0.53794154190468091,-1.0533161264765267,1.6665544040481786,0.0
724640.0783812654,4105767.5119837918,-17500.0,-0.31784432859346967,0.77527474639303684,0.51284222514123001,-0.22724169415708284,-0.17491872738504627,0.05106445721984932,0.92226286816739411,0.88483122519305912,-0.71097669644103212,0.71097669644103212,-0.88483122519305912,1.602980074211994,0.0
729640.0783812654,4105767.5119837918,-17500.0,-0.2461081211523255,0.85854025589915606,0.093655085594369442,-0.25063902715632713,-0.060202820266655147,0.027835014653063494,0.91361522878582702,0.65067926864303449,-0.83872419799703057,0.83872419799703057,-0.65067926864303449,1.5836713982168635,0.0
734640.0783812654,4105767.5119837918,-17500.0,-0.16003710588638925,0.88014207975902481,-0.34741669590247326,-0.25684853586104295,0.061078211773644406,0.0029484644784046809,0.92295051889776403,0.36157780380781318,-0.91005831134024895,0.91005831134024895,-0.36157780380781318,1.6202687965041889,0.0
739640.0783812654,4105767.5119837918,-17500.0,-0.072564575384913024,0.83646810651051717,-0.78307962915003515,-0.24483090745758718,0.18174421392295023,-0.022183536128816302,0.95002369546181398,0.034858436325670872,-0.91958496164019532,0.91958496164019532,-0.034858436325670872,1.7091291510035065,0.0
744640.0783812654,4105767.5119837918,-17500.0,0.003065666940344334,0.73107926343777341,-1.1858915570755615,-0.21544186316287892,0.29450980055909542,-0.046100185342923393,0.99002897663498446,-0.30751982737274208,-0.86860176746846374,0.86860176746846374,0.30751982737274208,1.8331570559269501,0.0
749640.0783812654,4105767.5119837918,-17500.0,0.055528581024330018,0.57423762339478135,-1.5318225718432219,-0.17132718389668944,0.39289781540358648,-0.067470559948766107,1.0354438968643356,-0.64187673869089079,-0.76485018692915596,0.76485018692915596,0.64187673869089079,1.9697668083312818,0.0
754640.0783812654,4105767.5119837918,-17500.0,0.077225234012925109,0.38122699720656072,-1.8031891909678495,-0.11650709223768119,0.47200703904869035,-0.085248782820613822,1.078410621546696,-0.94601113968687245,-0.62111600085426621,0.62111600085426621,0.94601113968687245,2.0980785122202681,0.0
759640.0783812654,4105767.5119837918,-17500.0,0.06525497722011403,0.16988658301197079,-1.9903709259045133,-0.055751154867676567,0.52898311569969014,-0.098775118783040808,1.1125868521558822,-1.2019952906035278,-0.45304265930571158,0.45304265930571158,1.2019952906035278,2.202429919182761,0.0
764640.0783812654,4105767.5119837918,-17500.0,0.021400690903606478,-0.042041992557998752,-2.0920771992562353,0.0061078658740786216,0.56312788157718052,-0.10780848122160731,1.1417884918559582,-1.3980162513556356,-0.27670382878926292,0.27670382878926292,1.3980162513556356,2.2731380539649235,0.0
769640.0783812654,4105767.5119837918,-17500.0,-0.048742775749444731,-0.23918316347445376,-2.1142934123447166,0.064776786531039382,0.57567072744883441,-0.11249281754434823,1.1683137800802319,-1.5290055599671648,-0.10646609088821091,0.10646609088821091,1.5290055599671648,2.3059247111232324,0.0
729640.0783812654,4110767.5119837918,-17500.0,-0.2052851873552041,0.73385979298788406,0.046315079348426075,-0.20734920977598306,-0.037961645481316093,0.018715816379149298,0.77481508035490543,0.53058641782547111,-0.71893030380296241,0.71893030380296241,-0.53058641782547111,1.3439030332794375,0.0
734640.0783812654,4110767.5119837918,-17500.0,-0.13666657808361929,0.74826059854670035,-0.31507855955575192,-0.21117254971859734,0.056994834608991289,0.0001822562844014918,0.78374275996049314,0.29493334785334058,-0.77690109841471389,0.77690109841471389,-0.29493334785334058,1.377745423180613,0.0
739640.0783812654,4110767.5119837918,-17500.0,-0.067296086396403387,0.71222349694364995,-0.67151333314273398,-0.20146240856014394,0.15125212386842632,-0.018465043025845763,0.80657991593121092,0.030759870120775357,-0.78705591179029022,0.78705591179029022,-0.030759870120775357,1.4522903843763817,0.0
744640.0783812654,4110767.5119837918,-17500.0,-0.0068306320518937841,0.62841797480576522,-1.0027136629565214,-0.17884564853834414,0.23966049396467071,-0.036244619636337662,0.83964130907802637,-0.24586065564329673,-0.75024893777976376,0.75024893777976376,0.24586065564329673,1.5544618075350802,0.0
749640.0783812654,4110767.5119837918,-17500.0,0.036386316328226274,0.50421512659648438,-1.2907669394655847,-0.14515435430776452,0.3176091261697585,-0.052258085044373355,0.87731424278157477,-0.51760705549545782,-0.67186656751830565,0.67186656751830565,0.51760705549545782,1.6673582700901062,0.0
709640.0783812654,3920767.5119837918,-22500.0,0.038493479397349643,-0.16824138435163902,-2.0899670620306456,-0.089660933686375011,-0.81678169105240861,-0.2465682812931401,1.2485836193039899,-0.59629219411658074,-0.81786950237240641,0.81786950237240641,0.59629219411658074,2.4729115443447873,0.0
714640.0783812654,3920767.5119837918,-22500.0,0.095821869492841119,0.03270454269426358,-2.0457331117688646,-0.01506363853005052,-0.80389871520364087,-0.24431590602459968,1.2312612016810855,-0.46209054453933551,-0.9759722201940384,0.9759722201940384,0.46209054453933551,2.4323191876273427,0.0
719640.0783812654,3920767.5119837918,-22500.0,0.12384390899828335,0.24164933366435837,-1.9257429327509217,0.062426203217735537,-0.76471039823402265,-0.235004222031095,1.2021217251589562,-0.29915362804990309,-1.1124064762707793,1.1124064762707793,0.29915362804990309,2.3527235428112232,0.0
724640.0783812654,3920767.5119837918,-22500.0,0.1188838582798596,0.44321679494523081,-1.7275169095506473,0.13757732341550688,-0.69829430638207923,-0.21832788957110477,1.1598614905163682,-0.11624545862104774,-1.212379858054814,1.212379858054814,0.11624545862104774,2.2381309802771332,0.0
729640.0783812654,3920767.5119837918,-22500.0,0.081268323850006333,0.62084426271952997,-1.4554818118079544,0.20475750480150137,-0.60600080130561063,-0.19456653317102648,1.1070175285160033,0.074692786175532655,-1.2623683363391018,1.2623683363391018,-0.074692786175532655,2.0970520285315564,0.0
734640.0783812654,3920767.5119837918,-22500.0,0.015747255262418793,0.7589821135209851,-1.1213326161930177,0.25864364337288948,-0.49158110727094362,-0.164625326345401,1.0487984631551304,0.25980393585834216,-1.2522500474678475,1.2522500474678475,-0.25980393585834216,1.9427284869840689,0.0
739640.0783812654,3920767.5119837918,-22500.0,-0.06891717575431637,0.84538636126259348,-0.74320662435352514,0.29496476370434294,-0.36093847502593623,-0.12998035920266043,0.99190235696610873,0.42508003357722857,-1.1771487693330807,1.1771487693330807,-0.42508003357722857,1.792511477156568,0.0
744640.0783812654,3920767.5119837918,-22500.0,-0.16118694105020445,0.87299726792550347,-0.34370963213312949,0.31111977148044379,-0.22151175726203357,-0.092529436681299496,0.94324196868954435,0.55829233793249999,-1.0385311682546841,1.0385311682546841,-0.55829233793249999,1.6656895088752355,0.0
749640.0783812654,3920767.5119837918,-22500.0,-0.24856544780388767,0.84096053142656202,0.052861523485475105,0.30652989160702515,-0.081395160730397487,-0.054372653898986094,0.90826453782075167,0.65066898478803226,-0.84425245124328896,0.84425245124328896,-0.65066898478803226,1.5790614936350194,0.0
754640.0783812654,3920767.5119837918,-22500.0,-0.31957879649747295,0.75455912406060455,0.42353593423791142,0.28264910379710179,0.051632366989072018,-0.017565322987854331,0.88931483207648654,0.69795389582624878,-0.60750784056988616,0.60750784056988616,-0.69795389582624878,1.5410219488623862,0.0
759640.0783812654,3920767.5119837918,-22500.0,-0.36546483289003373,0.62411065556329737,0.7493094379048898,0.2426433793367232,0.17097529460213143,0.016108283559670932,0.8849448527967132,0.7006465728029414,-0.34493064907654819,0.34493064907654819,-0.7006465728029414,1.5478434156082992,0.0
764640.0783812654,3920767.5119837918,-22500.0,-0.38122090027601607,0.46314264288139745,1.0169256786971954,0.19083003701604798,0.27183145458355445,0.045299986264911871,0.89070259262396645,0.66344205095745523,-0.074279515378782857,0.074279515378782857,-0.66344205095745523,1.5858196163887943,0.0
699640.0783812654,3925767.5119837918,-22500.0,-0.19390739781896019,-0.63886679012180825,-2.2363992551865635,-0.28747054706019426,-0.92404064542898845,-0.29465738831440469,1.439144955704774,-0.87086088412682017,-0.51133045524068965,0.51133045524068965,0.87086088412682017,2.8302060223309433,0.0
704640.0783812654,3925767.5119837918,-22500.0,-0.073403147131932148,-0.46803405103145906,-2.354394654652205,-0.21963525596029715,-0.97078092680465167,-0.30953316138686265,1.4646590699058233,-0.8044421049901278,-0.70522577465166481,0.70522577465166481,0.8044421049901278,2.8894986525564583,0.0
709640.0783812654,3925767.5119837918,-22500.0,0.031943232080099408,-0.25685564297944852,-2.4067565647018698,-0.1369978988921309,-0.99335821389958634,-0.31762764664889415,1.46807740523726,-0.69389956013136289,-0.90901424155785904,0.90901424155785904,0.69389956013136289,2.9036992660090593,0.0
714640.0783812654,3925767.5119837918,-22500.0,0.11056674383638997,-0.015355219279529056,-2.3764726602917872,-0.043228626776843776,-0.98571255253177159,-0.3172100675935301,1.4526436721545795,-0.5397787334193751,-1.1076321389659036,1.1076321389659036,0.5397787334193751,2.8680413894045138,0.0
719640.0783812654,3925767.5119837918,-22500.0,0.15262923200276104,0.24077917860877479,-2.2510207955697124,0.056046226235429056,-0.94335196573056268,-0.30696247684733408,1.420925216987021,-0.34765730310308068,-1.2824880462082953,1.2824880462082953,0.34765730310308068,2.7815726740401172,0.0
724640.0783812654,3925767.5119837918,-22500.0,0.15210388693586768,0.49132051185453335,-2.0252374982486399,0.15363351745443191,-0.86432830405650984,-0.28624814558622935,1.3719327344248649,-0.12846474156376486,-1.4134345101399579,1.4134345101399579,0.12846474156376486,2.6485304512325718,0.0
729640.0783812654,3925767.5119837918,-22500.0,0.10850096731750412,0.7138226096437259,-1.7035022724968976,0.24155892769816251,-0.74998474707746821,-0.25532245630289691,1.3086081310508171,0.10219720505711938,-1.4816057699350076,1.4816057699350076,-0.10219720505711938,2.4794325289603227,0.0
734640.0783812654,3925767.5119837918,-22500.0,0.027683194134136137,0.88683594170910007,-1.3005394686067917,0.3121511471749302,-0.60524514241636551,-0.21542425740575069,1.2376594665012113,0.32580633349321686,-1.4726298079426217,1.4726298079426217,-0.32580633349321686,2.2915256651456564,0.0
739640.0783812654,3925767.5119837918,-22500.0,-0.078612352978857519,0.9933717929240562,-0.84038522697726825,0.35921434702304045,-0.43829395417241335,-0.16870519863286082,1.1680118994957094,0.5235022797468516,-1.3794780112795495,1.3794780112795495,-0.5235022797468516,2.1079745054157053,0.0
744640.0783812654,3925767.5119837918,-22500.0,-0.1945770225200163,1.0237798734518655,-0.35352992749187284,0.37901711480510869,-0.25964459496489473,-0.11799317042468935,1.1089454015250491,0.67896135164314197,-1.2041848153718582,1.2041848153718582,-0.67896135164314197,1.9547091581740776,0.0
749640.0783812654,3925767.5119837918,-22500.0,-0.30307296836241104,0.97729216743691694,0.12722306641417175,0.37085122625191963,-0.080765809633986052,-0.066431594578145431,1.0676134084070128,0.78087970303440346,-0.95791337893020634,0.95791337893020634,-0.78087970303440346,1.8538579120804541,0.0
754640.0783812654,3925767.5119837918,-22500.0,-0.38862234201945428,0.86184609126194722,0.57125504220764356,0.33702616294819604,0.087435534850955607,-0.017071509814157879,1.0466892017543157,0.82446572093569226,-0.65929676997913456,0.65929676997913456,-0.82446572093569226,1.8151590149647336,0.0
759640.0783812654,3925767.5119837918,-22500.0,-0.43988730066659792,0.69229890586410214,0.95397554419243624,0.28232431760596688,0.23594373968189772,0.027495444488294534,1.0435648110754925,0.81163505316763918,-0.33147572994209396,0.33147572994209396,-0.81163505316763918,1.8313370932052841,0.0
764640.0783812654,3925767.5119837918,-22500.0,-0.45108660263293732,0.48758243144670299,1.2592495500622853,0.21308482226541567,0.35851696177316716,0.065392054995401017,1.0517820883275768,0.74998271062058675,0.0014114238042053362,-0.0014114238042053362,-0.74998271062058675,1.8824655059808921,0.0
769640.0783812654,3925767.5119837918,-22500.0,-0.42216078452106542,0.26756155149232486,1.4801047193428238,0.13615943958069979,0.45200844019758396,0.095563892599884723,1.0636787176044324,0.65092363052740809,0.31746925425955053,-0.31746925425955053,-0.65092363052740809,1.945539440670778,0.0
774640.0783812654,3925767.5119837918,-22500.0,-0.35786585702072604,0.050303727051420062,1.6178892129032376,0.057973759577211362,0.51616516403709667,0.11774688245200712,1.072623515230358,0.52753755855793094,0.59939644989812346,-0.59939644989812346,-0.52753755855793094,2.0017679655509517,0.0
689640.0783812654,3930767.5119837918,-22500.0,-0.56994350771093005,-1.0202839970574626,-2.0408346688618884,-0.47711243448633234,-0.90960632347741999,-0.31185580875069757,1.5241350204739359,-0.98285104905229026,-0.15653440247573769,0.15653440247573769,0.98285104905229026,2.9829091679128288,0.0
694640.0783812654,3930767.5119837918,-22500.0,-0.4292648472060645,-0.94460728019187556,-2.2892939860293207,-0.44235674586552265,-1.0116273785519938,-0.34471606485595901,1.609681909471107,-1.0078854590248993,-0.32184356059784808,0.32184356059784808,1.0078854590248993,3.155657960713155,0.0
699640.0783812654,3930767.5119837918,-22500.0,-0.27601890092317771,-0.81304702478079982,-2.5102735158899852,-0.3855953256437622,-1.1024051650049023,-0.37426606538017432,1.6769420410985263,-0.99264265322977452,-0.52378878742301471,0.52378878742301471,0.99264265322977452,3.2950138257231965,0.0
704640.0783812654,3930767.5119837918,-22500.0,-0.12234531077548727,-0.62262005559769784,-2.6804760407573345,-0.30593212797545294,-1.1730970262940117,-0.39787502461096397,1.7201643946206595,-0.92797620464260178,-0.75637983131321518,0.75637983131321518,0.92797620464260178,3.389296228994723,0.0
709640.0783812654,3930767.5119837918,-22500.0,0.016646806030694131,-0.37659383390772116,-2.7744670323446519,-0.20479555382749379,-1.2141267335009081,-0.41268168714920428,1.7356235847963013,-0.80779086886086982,-1.0073699821970741,1.0073699821970741,0.80779086886086982,3.4278182994614022,0.0
714640.0783812654,3930767.5119837918,-22500.0,0.1247162786099599,-0.086114655930899106,-2.7678237730954818,-0.086497448646722624,-1.21632982912023,-0.41592059814604959,1.7249052251223271,-0.63112511323503928,-1.2578726327641925,1.2578726327641925,0.63112511323503928,3.4026944839599289,0.0
719640.0783812654,3930767.5119837918,-22500.0,0.18724809888475208,0.22928962573238665,-2.6412906057430461,0.04160955465023821,-1.1724471206743823,-0.40535066854326113,1.6913100314469072,-0.40389879055559597,-1.4833181987282142,1.4833181987282142,0.40389879055559597,3.3109557483607142,0.0
724640.0783812654,3930767.5119837918,-22500.0,0.19446774234651354,0.54292220219018272,-2.3852316275407386,0.16957571569037602,-1.0787177794527816,-0.37971759983865039,1.6345918632708301,-0.13970095923705184,-1.6560579382376757,1.6560579382376757,0.13970095923705184,3.1567023215398153,0.0
729640.0783812654,3930767.5119837918,-22500.0,0.14429607543497619,0.82407924289822065,-2.0032782469563997,0.28597615478024335,-0.93618992650265775,-0.33914314388286948,1.5582775066411594,0.1409311124066186,-1.7494748277604579,1.7494748277604579,-0.1409311124066186,2.9528950048412552,0.0
734640.0783812654,3930767.5119837918,-22500.0,0.043891202109742483,1.0427951267273434,-1.5139635092068002,0.37958562484870723,-0.75133114504223597,-0.28532230264903663,1.4710935221736583,0.41295253852666025,-1.7428812582425857,1.7428812582425857,-0.41295253852666025,2.7222127508985925,0.0
739640.0783812654,3930767.5119837918,-22500.0,-0.090847785023762812,1.1751599757205484,-0.94948340478539694,0.44126271021113789,-0.53563783443632496,-0.22143979818727538,1.3850914615641137,0.65064295069657996,-1.6260004524006617,1.6260004524006617,-0.65064295069657996,2.4960054807994867,0.0
744640.0783812654,3930767.5119837918,-22500.0,-0.23794565404691867,1.2078102416931675,-0.35150410063487986,0.46556678178181654,-0.30420519527595746,-0.1517885950492788,1.3129022730556801,0.83196410039456459,-1.4017139467322168,1.4017139467322168,-0.83196410039456459,2.3096317560599049,0.0
749640.0783812654,3930767.5119837918,-22500.0,-0.37356865070446293,1.1403043341263734,0.23512382845084462,0.45166253150450281,-0.073539534715104882,-0.081163003049445986,1.2640040832350004,0.94229632908612271,-1.0861543162484173,1.0861543162484173,-0.94229632908612271,2.1925158421882212,0.0
754640.0783812654,3930767.5119837918,-22500.0,-0.47661712687476676,0.9847236544094129,0.76918490074842505,0.40327170988005351,0.14086114286050042,-0.014169569251900457,1.2412955988731738,0.97655329594252294,-0.70602494922191594,0.70602494922191594,-0.97655329594252294,2.1555078654364457,0.0
759640.0783812654,3930767.5119837918,-22500.0,-0.53241225855764274,0.76272846241951886,1.2187592356807375,0.3277285123416121,0.32657432145334547,0.045379906846995881,1.2402605213029201,0.93920373414185998,-0.29390166926938432,0.29390166926938432,-0.93920373414185998,2.1854213865620515,0.0
764640.0783812654,3930767.5119837918,-22500.0,-0.53458622511431064,0.50105491445707517,1.5645078735617413,0.23445549608773705,0.47553161295725604,0.094865477126792178,1.251517112507663,0.84240394769349192,0.11716626990129009,-0.11716626990129009,-0.84240394769349192,2.2533517906847447,0.0
769640.0783812654,3930767.5119837918,-22500.0,-0.48495705516432747,0.2267602500553125,1.8002019599494847,0.133298170141634,0.58434789807003762,0.13299252610676424,1.2647974711021941,0.70296958391490705,0.49839544421381193,-0.49839544421381193,-0.70296958391490705,2.3288738888705387,0.0
774640.0783812654,3930767.5119837918,-22500.0,-0.39180129049618073,-0.036652876994200015,1.9309267119359961,0.033112696077461437,0.65381845723752519,0.15968592146447685,1.2718916520618386,0.53910254460164775,0.82840687007976288,-0.82840687007976288,-0.53910254460164775,2.3891429645812794,0.0
779640.0783812654,3930767.5119837918,-22500.0,-0.26729036511774534,-0.27160031025751524,1.9698839057559068,-0.059156147086729984,0.68788110880998277,0.17582219321645104,1.2677611604291137,0.36764027096905766,1.0944511673894519,-1.0944511673894519,-0.36764027096905766,2.4210157449693708,0.0
784640.0783812654,3930767.5119837918,-22500.0,-0.12487232019588863,-0.46719130727094715,1.9348012910920966,-0.13885451547249159,0.69238559867631477,0.18289368289406044,1.250353159865881,0.20225211450469827,1.2919656098424741,-1.2919656098424741,-0.20225211450469827,2.4194867465251995,0.0
684640.0783812654,3935767.5119837918,-22500.0,-0.87821861815136049,-1.2262764716827173,-1.8838733878737146,-0.61578727952893397,-0.9134250788344227,-0.33939443349990861,1.616875276428974,-0.99915520551110237,0.027604205711996233,-0.027604205711996233,0.99915520551110237,3.1615540686496106,0.0
689640.0783812654,3935767.5119837918,-22500.0,-0.74482907181307112,-1.2226836957432596,-2.197973464417704,-0.60909891204011557,-1.0514652803075391,-0.38667937134886832,1.7460269441692016,-1.078458288021841,-0.10746354780959561,0.10746354780959561,1.078458288021841,3.4168628130457113,0.0
694640.0783812654,3935767.5119837918,-22500.0,-0.5798252700115486,-1.1612509220976601,-2.5128157749799911,-0.57776765470122182,-1.1889139233604731,-0.43385013186810173,1.8630577683155329,-1.1255619615851504,-0.29084377296766029,0.29084377296766029,1.1255619615851504,3.6506761074358436,0.0
699640.0783812654,3935767.5119837918,-22500.0,-0.39218194201195267,-1.0301040132660551,-2.8051428666811695,-0.51732776640119427,-1.3162465252803934,-0.47789428945693813,1.960061038327598,-1.1264654506276128,-0.52396978388587412,0.52396978388587412,1.1264654506276128,3.847940763497562,0.0
704640.0783812654,3935767.5119837918,-22500.0,-0.19664098658287404,-0.82199790844763532,-3.0450665833805326,-0.42521147805552811,-1.4214149989623688,-0.51500187410796405,2.028876134938181,-1.0677736313381136,-0.80187299346045704,0.80187299346045704,1.0677736313381136,3.992339241555646,0.0
709640.0783812654,3935767.5119837918,-22500.0,-0.013064292477797175,-0.5376139688611582,-3.1981246971958783,-0.30197658788890053,-1.4906718723531482,-0.54081115761701015,2.0630891495951111,-0.93937192508033762,-1.1109866229532441,1.1109866229532441,0.93937192508033762,4.0680689155932086,0.0
714640.0783812654,3935767.5119837918,-22500.0,0.13580796840942388,-0.18850991679044193,-3.2293793678717448,-0.15238443345198474,-1.5101531770073291,-0.55088576871667405,2.061703368861513,-0.73759578620947797,-1.4279420529397095,1.4279420529397095,0.73759578620947797,4.0624056783796805,0.0
719640.0783812654,3935767.5119837918,-22500.0,0.22824694053949487,0.20136999863871569,-3.1093987113868318,0.014067510589952145,-1.4681520985072418,-0.54140569546846296,2.0278937569604838,-0.46816660309911839,-1.7202856087279446,1.7202856087279446,0.46816660309911839,3.9688878757836727,0.0
724640.0783812654,3935767.5119837918,-22500.0,0.24849203912430826,0.59674351210132692,-2.8211722803097232,0.18355814410331076,-1.3577302260587718,-0.50996967507889535,1.9625170204706399,-0.14786305282978152,-1.9498154823636678,1.9498154823636678,0.14786305282978152,3.7907207334408004,0.0
729640.0783812654,3935767.5119837918,-22500.0,0.19150116945566056,0.95523069998126597,-2.3662191107635167,0.33952368051419152,-1.1790296086201584,-0.45632076593550858,1.8700377242750392,0.19608661908011005,-2.0785452515179905,2.0785452515179905,-0.19608661908011005,3.5437575401198673,0.0
734640.0783812654,3935767.5119837918,-22500.0,0.065833512020929796,1.2344118485187656,-1.7677841430169541,0.46527223888074409,-0.94051953806345712,-0.38276443468091664,1.7619567519322601,0.52940375952796326,-2.076266242950437,2.076266242950437,-0.52940375952796326,3.2581160685452315,0.0
739640.0783812654,3935767.5119837918,-22500.0,-0.10672016897653576,1.4001245243935199,-1.0694784447873658,0.54707014003792975,-0.65857295557528395,-0.29409134017710609,1.6547886666570002,0.81653185048888999,-1.9277238406625741,1.9277238406625741,-0.81653185048888999,2.9768568301063785,0.0
744640.0783812654,3935767.5119837918,-22500.0,-0.29513240537699537,1.4336112831204046,-0.32904084431546538,0.57684631558919919,-0.35523571028002099,-0.1969511668886986,1.5659833885480863,1.027366309394395,-1.6370974992503731,1.6370974992503731,-1.027366309394395,2.7489406484360259,0.0
749640.0783812654,3935767.5119837918,-22500.0,-0.46575987525850476,1.335244162839643,0.39138678550050671,0.55368938601359863,-0.054664795474535309,-0.09880566849950885,1.5082022066245917,1.1429753416827801,-1.2281265710574258,1.2281265710574258,-1.1429753416827801,2.6138350495527995,0.0
754640.0783812654,3935767.5119837918,-22500.0,-0.58953774378670354,1.1236746405491931,1.0357864170698763,0.4836949990835025,0.22081271142127035,-0.0067353767629808863,1.4842706055050887,1.1586030404848688,-0.73968034872853694,0.73968034872853694,-1.1586030404848688,2.5826702981943748,0.0
759640.0783812654,3935767.5119837918,-22500.0,-0.64752524048718896,0.83088508179615761,1.5626935135523776,0.37829130503324399,0.45396501195081868,0.073584600930202124,1.486534794580789,1.0832304797193311,-0.21816226145521417,0.21816226145521417,-1.0832304797193311,2.632476312703691,0.0
764640.0783812654,3935767.5119837918,-22500.0,-0.63335682464544107,0.49495471233843069,1.9495700510738017,0.2516561934309236,0.63449769193716832,0.13850526487411441,1.5013559245144639,0.93619358095138772,0.29090279240398781,-0.29090279240398781,-0.93619358095138772,2.7214543867712822,0.0
769640.0783812654,3935767.5119837918,-22500.0,-0.55241233319090832,0.15281334667721622,2.1927140465128097,0.1180308851143987,0.75926619229216619,0.1865413959765766,1.5150587838473242,0.74222875551507694,0.74980685631759447,-0.74980685631759447,-0.74222875551507694,2.8097251035718687,0.0
774640.0783812654,3935767.5119837918,-22500.0,-0.41861079734290479,-0.16521002851370992,2.3036967170766212,-0.010400262726986374,0.83116112927508634,0.21809935874441769,1.5176907288715533,0.52651744852840576,1.1327184338017307,-1.1327184338017307,-0.52651744852840576,2.8701448062629864,0.0
779640.0783812654,3935767.5119837918,-22500.0,-0.25022791425317331,-0.43821894368768677,2.3040276565110682,-0.12472354355378591,0.85725083835620286,0.23495869714314346,1.5039772357849841,0.31089991984325627,1.4266212210343565,-1.4266212210343565,-0.31089991984325627,2.8892471991846711,0.0
784640.0783812654,3935767.5119837918,-22500.0,-0.066009121852242073,-0.65509961172790554,2.2197103281422832,-0.21960522622344791,0.84678374979777693,0.23968545021990501,1.4726129584974748,0.11176203770993964,1.6298031262469275,-1.6298031262469275,-0.11176203770993964,2.8640014967020275,0.0
789640.0783812654,3935767.5119837918,-22500.0,0.11764831261113393,-0.81312293291981264,2.076810962465645,-0.29292538242307148,0.8094839588570627,0.2351114244193121,1.4250063438884666,-0.060504438358830903,1.7489696449629999,-1.7489696449629999,0.060504438358830903,2.7979817583205424,0.0
794640.0783812654,3935767.5119837918,-22500.0,0.28821893281758226,-0.91568952189183017,1.8985186854358027,-0.34504224306601627,0.75434992607883777,0.22395055722408522,1.3640875819977814,-0.20091335898822416,1.7960054828370466,-1.7960054828370466,0.20091335898822416,2.6982295768959514,0.0
674640.0783812654,3940767.5119837918,-22500.0,-1.2637134173232514,-1.2346802195524027,-1.3039419572722699,-0.69157996219368401,-0.71655905396634223,-0.29799882115880355,1.4917761752583261,-0.80208857721504012,0.22990572537173071,-0.22990572537173071,0.80208857721504012,2.919177487637814,0.0
679640.0783812654,3940767.5119837918,-22500.0,-1.2124077262728123,-1.3438685874010887,-1.6103165358199905,-0.73748815821492797,-0.86481075615465175,-0.35304133578635277,1.6590466299073374,-0.933100028094483,0.18343171173209011,-0.18343171173209011,0.933100028094483,3.2453195673508914,0.0
684640.0783812654,3940767.5119837918,-22500.0,-1.1166406320439655,-1.4229083425168154,-1.9576049135300408,-0.76829843039178392,-1.0304580610070031,-0.41415198474420994,1.8305388578781867,-1.0593805866050063,0.096642886546599471,-0.096642886546599471,1.0593805866050063,3.5807628261826028,0.0
689640.0783812654,3940767.5119837918,-22500.0,-0.97308234992257847,-1.4543758427108713,-2.3368889334553593,-0.77660652068041547,-1.2091888569432452,-0.47984834698820422,1.9999377641582932,-1.1685962562255949,-0.041519827537599752,0.041519827537599752,1.1685962562255949,3.9137344537030327,0.0
694640.0783812654,3940767.5119837918,-22500.0,-0.78334602345042903,-1.418961295481175,-2.7309965352512178,-0.75439944608830689,-1.393201566212116,-0.54747976311368896,2.158793769718601,-1.2447653882245473,-0.24071164335641237,0.24071164335641237,1.2447653882245473,4.2283686346897502,0.0
699640.0783812654,3940767.5119837918,-22500.0,-0.55608012856509448,-1.2980044924739684,-3.1127662956479862,-0.69412079906499091,-1.5705555536393725,-0.61301043313793679,2.2967234378618597,-1.2691834012719401,-0.50638262091792818,0.50638262091792818,1.2691834012719401,4.504900062607013,0.0
704640.0783812654,3940767.5119837918,-22500.0,-0.30844824207497651,-1.0774469211686164,-3.4445880257208672,-0.59027451167698008,-1.7250574564779193,-0.67097489207791461,2.4022904264950968,-1.2226172277899896,-0.83617319876495444,0.83617319876495444,1.2226172277899896,4.7207289003380239,0.0
709640.0783812654,3940767.5119837918,-22500.0,-0.066089167642282717,-0.75287919102458811,-3.6802629114247116,-0.44142625411489222,-1.8370853183503417,-0.71473583765495086,2.465213285453554,-1.0889339031842118,-1.2161378229918456,1.2161378229918456,1.0889339031842118,4.8526665486109266,0.0
714640.0783812654,3940767.5119837918,-22500.0,0.13935530418222386,-0.33466520349607137,-3.7700794001790308,-0.25219838652544652,-1.8856854936573291,-0.73715441721888109,2.4805421885257655,-0.85985119845983615,-1.6180011523712663,1.6180011523712663,0.85985119845983615,4.880526128664787,0.0
719640.0783812654,3940767.5119837918,-22500.0,0.27558474959849399,0.1486013890101614,-3.6692826490502854,-0.03458717768794424,-1.8519934184156583,-0.73169456605465999,2.4498876269871914,-0.5398007740007017,-1.9990668858623906,1.9990668858623906,0.5398007740007017,4.7919183926277942,0.0
724640.0783812654,3940767.5119837918,-22500.0,0.3172565321214092,0.65037596175884349,-3.3487909949730801,0.19218064235264251,-1.7235211695427786,-0.6938225843627065,2.3752411705293897,-0.14922920875679058,-2.3062583690811125,2.3062583690811125,0.14922920875679058,4.5876861155047663,0.0
729640.0783812654,3940767.5119837918,-22500.0,0.25393179254243381,1.1116694224174697,-2.8054546492892127,0.40381159749617668,-1.498264019573331,-0.62237393439850131,2.262594165988471,0.27552670620224551,-2.484741114599351,2.484741114599351,-0.27552670620224551,4.2869339413741354,0.0
734640.0783812654,3940767.5119837918,-22500.0,0.095446888145950773,1.4716067160965773,-2.0681767345174027,0.57506290804517501,-1.1872093625031352,-0.52043528644101245,2.1273656591593402,0.68694771238630425,-2.4897398432838638,2.4897398432838638,-0.68694771238630425,3.9300648911006939,0.0
739640.0783812654,3940767.5119837918,-22500.0,-0.12796628129751977,1.6805923177970485,-1.1967216994104384,0.68489917152340984,-0.81401645777318099,-0.39533688268488953,1.99256431578579,1.035163336629179,-2.2982487048587048,2.2982487048587048,-1.035163336629179,3.5771877257571516,0.0
744640.0783812654,3940767.5119837918,-22500.0,-0.37175492381199782,1.7119290856527769,-0.27230024347725751,0.72112638631170622,-0.41147849877625298,-0.25760617040768802,1.8826877526199755,1.2785552353915643,-1.9164964774661231,1.9164964774661231,-1.2785552353915643,3.2972239211867431,0.0
749640.0783812654,3940767.5119837918,-22500.0,-0.58767247129655698,1.5677725820546804,0.61778795311682766,0.68292895857811897,-0.01558388563107814,-0.1191120376049519,1.8147597892451117,1.3926773145257054,-1.3801014956363278,1.3801014956363278,-1.3926773145257054,3.143483692113263,0.0
754640.0783812654,3940767.5119837918,-22500.0,-0.73528229949099366,1.2773614062424286,1.396711384120334,0.58047136453976811,0.34105043260074097,0.0090571075520666285,1.7908248957012347,1.3745039990054948,-0.74656901202097736,0.74656901202097736,-1.3745039990054948,3.1252607891043827,0.0
759640.0783812654,3940767.5119837918,-22500.0,-0.79038722257360627,0.88852942615731911,2.010783182613094,0.4318587115770251,0.63441569046152912,0.11835707379075691,1.7980674975516473,1.2409066933971977,-0.082765514004665142,0.082765514004665142,-1.2409066933971977,3.2034720967817285,0.0
764640.0783812654,3940767.5119837918,-22500.0,-0.74802210330138319,0.45591188028644886,2.4350793007594556,0.25867681218337951,0.85172064611320542,0.20375493880671758,1.8166799889358196,1.0225219528451204,0.54834719057565229,-0.54834719057565229,-1.0225219528451204,3.3179818311166942,0.0
769640.0783812654,3940767.5119837918,-22500.0,-0.62005864065260774,0.029858754433822892,2.6717674554293702,0.081618115388195842,0.99116534174982907,0.26379444972851857,1.828654743231606,0.75562145978162432,1.0978217873448108,-1.0978217873448108,-0.75562145978162432,3.4172664593486171,0.0
774640.0783812654,3940767.5119837918,-22500.0,-0.42935622493328462,-0.3510830717902193,2.7433214932111789,-0.082669608574715017,1.0596081531173689,0.29995726804524259,1.8223350649274872,0.47467640039699621,1.5356595544763216,-1.5356595544763216,-0.47467640039699621,3.470229744906363,0.0
779640.0783812654,3940767.5119837918,-22500.0,-0.20300796129110343,-0.66318651878616675,2.6837417257862648,-0.22306688050753434,1.0692758295291225,0.31566777208418778,1.7928135877667797,0.2073411673189347,1.850702726708227,-1.850702726708227,-0.2073411673189347,3.4646557167633185,0.0
784640.0783812654,3940767.5119837918,-22500.0,0.03330041365466057,-0.8967692419563611,2.5304492234939913,-0.333979794121605,1.0345588437124003,0.31527440533485962,1.7403193743387506,-0.027697942957001009,2.0470527836797858,-2.0470527836797858,0.027697942957001009,3.4013643181300504,0.0
789640.0783812654,3940767.5119837918,-22500.0,0.25884212399092815,-1.0531376590350956,2.3183714594324636,-0.41437095140564051,0.96953660502321626,0.30322675991515702,1.6682126874282053,-0.22052449733642998,2.1389869323870254,-2.1389869323870254,0.22052449733642998,3.2885604674236384,0.0
794640.0783812654,3940767.5119837918,-22500.0,0.45928321359282925,-1.1407641029041926,2.0765805956075454,-0.46638756668834641,0.88644365609718623,0.28353407828829891,1.5813298948300956,-0.36837451101430374,2.1459749602458462,-2.1459749602458462,0.36837451101430374,3.1376272190406884,0.0
799640.0783812654,3940767.5119837918,-22500.0,0.6265222591087275,-1.171765639614051,1.827092399503919,-0.49401240755583226,0.79498384075518003,0.25949138904936314,1.4850723155308452,-0.4734897855487662,2.0887208715610539,-2.0887208715610539,0.4734897855487662,2.9604008959877182,0.0
669640.0783812654,3945767.5119837918,-22500.0,-1.5119505810264404,-1.1806251800715775,-0.9703143596261915,-0.74507079633658968,-0.61400220472571132,-0.28815703592601949,1.4511412190701325,-0.64227299587017517,0.28293458407286426,-0.28293458407286426,0.64227299587017517,2.8471397173588349,0.0
674640.0783812654,3945767.5119837918,-22500.0,-1.5274631708857451,-1.3455699546778708,-1.2525697899714754,-0.82445653958480358,-0.76562480730609883,-0.34988390415586873,1.6430209896858146,-0.78705626261598605,0.28265340857497773,-0.28265340857497773,0.78705626261598605,3.2199310329340904,0.0
679640.0783812654,3945767.5119837918,-22500.0,-1.4987139223105008,-1.5011975996476661,-1.5923800044805529,-0.89697623664435944,-0.94449765094710825,-0.42190167558147523,1.8497685054057855,-0.94231802402627185,0.25205863760198755,-0.25205863760198755,0.94231802402627185,3.6221358310878031,0.0
684640.0783812654,3945767.5119837918,-22500.0,-1.415153501921494,-1.6307803004029304,-1.99047705915729,-0.9547067806212155,-1.1503245857692914,-0.50405984017170702,2.0670300872261986,-1.0992324442586296,0.1773162992190499,-0.1773162992190499,1.0992324442586296,4.0457052210657949,0.0
689640.0783812654,3945767.5119837918,-22500.0,-1.268758841149908,-1.712292772200819,-2.4407023103224281,-0.98753797972173463,-1.3795525791966825,-0.59502826616126581,2.2877593530539038,-1.2439543059441704,0.042731815257724626,-0.042731815257724626,1.2439543059441704,4.4774957156458841,0.0
694640.0783812654,3945767.5119837918,-22500.0,-1.0570018336608853,-1.7193316835089218,-2.9265770749700155,-0.98366321115663213,-1.6239077094427299,-0.69177793823878364,2.5017665218117591,-1.3570830466711936,-0.16723432162086538,0.16723432162086538,1.3570830466711936,4.8983493779214466,0.0
699640.0783812654,3945767.5119837918,-22500.0,-0.78633986117866417,-1.6238712794842047,-3.4179275088762879,-0.93084668315450736,-1.8690037837772573,-0.7890858950427333,2.6956669888339699,-1.4142198451081605,-0.46438292404610537,0.46438292404610537,1.4142198451081605,5.282789086302917,0.0
704640.0783812654,3945767.5119837918,-22500.0,-0.475378293855931,-1.4013927615840676,-3.8687606391720264,-0.81866456568327295,-2.0935358467817688,-0.87924094636964079,2.8536731915747358,-1.3883322455269274,-0.85156300032557164,0.85156300032557164,1.3883322455269274,5.5998844134395664,0.0
709640.0783812654,3945767.5119837918,-22500.0,-0.15626192384806806,-1.0383351322813321,-4.2181390714585332,-0.64166766746104675,-2.2697834595781106,-0.95220061079816376,2.9599938640676107,-1.254472148403839,-1.3164718324630507,1.3164718324630507,1.254472148403839,5.815904209970209,0.0
714640.0783812654,3945767.5119837918,-22500.0,0.12747384476942328,-0.54067768734105559,-4.3959272441688864,-0.4029522171005987,-2.3661803630255722,-0.99646273663686724,3.0036735335159319,-0.99674476354189845,-1.8261627996485024,1.8261627996485024,0.99674476354189845,5.8992297783582304,0.0
719640.0783812654,3945767.5119837918,-22500.0,0.32791475264155456,0.059001321902728249,-4.3344500226169336,-0.11704672705413831,-2.352347685475773,-1.0007971123258224,2.9824718660865264,-0.61624762107651487,-2.3249861792909083,2.3249861792909083,0.61624762107651487,5.8275503686347534,0.0
724640.0783812654,3945767.5119837918,-22500.0,0.40435794402024516,0.69970782933057174,-3.9849877004484786,0.18938308738818713,-2.2061196658703088,-0.95669077141133385,2.8988073765336901,-0.13732478738371823,-2.738935759698617,2.738935759698617,0.13732478738371823,5.5966024052517671,0.0
729640.0783812654,3945767.5119837918,-22500.0,0.33665653106705684,1.2987378925512603,-3.3350428578154991,0.48032013007835977,-1.9208844738632052,-0.86095000189959947,2.7610035368072037,0.39125995785252443,-2.987979842390553,2.987979842390553,-0.39125995785252443,5.2287723935371897,0.0
734640.0783812654,3945767.5119837918,-22500.0,0.13524243564416094,1.7675080390609474,-2.4199401453986704,0.7169152813730657,-1.5106095617753028,-0.71756631488529976,2.590187340326191,0.90274947513484949,-3.0047243049431049,3.0047243049431049,-0.90274947513484949,4.778821929507874,0.0
739640.0783812654,3945767.5119837918,-22500.0,-0.15741032855956036,2.0328041326367163,-1.322570550873077,0.8662807564441074,-1.010008261774171,-0.53795830572369885,2.4190277969779599,1.3261197192267735,-2.7538961480914761,2.7538961480914761,-1.3261197192267735,4.3321554426658082,0.0
744640.0783812654,3945767.5119837918,-22500.0,-0.47615398599151543,2.0560928096140332,-0.15897476105326167,0.90963839233069532,-0.46883356888630684,-0.33919123378338822,2.2825144232511718,1.6031471863633773,-2.245070477371585,2.245070477371585,-1.6031471863633773,3.9875071664165809,0.0
749640.0783812654,3945767.5119837918,-22500.0,-0.75064017146879292,1.8432344218100953,0.9464473666678741,0.84672677518412132,0.058282251206908296,-0.14058958855172476,2.203608858304642,1.7025815760092229,-1.5328134414927406,1.5328134414927406,-1.7025815760092229,3.8171359869684744,0.0
754640.0783812654,3945767.5119837918,-22500.0,-0.92411683782753851,1.4408181884521807,1.8874898708953709,0.69483124029687005,0.52303378789335409,0.040144606925932427,2.1820261937579679,1.6260671139992124,-0.70363987031384467,0.70363987031384467,-1.6260671139992124,3.8237081498432333,0.0
759640.0783812654,3945767.5119837918,-22500.0,-0.96634070959307095,0.92129128418925232,2.5953371684498823,0.4831258371239015,0.89195715090236372,0.19003061241295385,2.1964563867040647,1.40419329753949,0.14506556711788376,-0.14506556711788376,-1.40419329753949,3.941757105213767,0.0
764640.0783812654,3945767.5119837918,-22500.0,-0.87674665174494371,0.36346558503538073,3.0452548063332867,0.2448278065128433,1.1499815997598417,0.30229075975246755,2.2182556139926684,1.0853423279939789,0.92617307850481867,-0.92617307850481867,-1.0853423279939789,4.0855299419116085,0.0
769640.0783812654,3945767.5119837918,-22500.0,-0.67872854779203962,-0.16442738684701744,3.2513205237646607,0.01003391631701046,1.2989919942624657,0.37612006837923723,2.2241751913504206,0.72234936526298488,1.5773229894561862,-1.5773229894561862,-0.72234936526298488,4.1899804560170999,0.0
774640.0783812654,3945767.5119837918,-22500.0,-0.40911401084450943,-0.61470627957327972,3.2538558381966305,-0.19885365497982607,1.353105510758503,0.41525356463140678,2.2013552741888494,0.36155696947244698,2.0661603751036992,-2.0661603751036992,-0.36155696947244698,4.2216347271474293,0.0
779640.0783812654,3945767.5119837918,-22500.0,-0.10742465440351065,-0.96257992120238778,3.1052081138698782,-0.36865751178629119,1.3329070695779546,0.42606836338861032,2.1464167906916596,0.036620488611408319,2.3875682434866148,-2.3875682434866148,-0.036620488611408319,4.1724137041646401,0.0
784640.0783812654,3945767.5119837918,-22500.0,0.19200918298875419,-1.2029018511701204,2.8580335078640862,-0.49457431400627216,1.2604104021796898,0.41583654902281036,2.0623743189239621,-0.23294721355791226,2.5562887507445931,-2.5562887507445931,0.23294721355791226,4.0498997741711191,0.0
789640.0783812654,3945767.5119837918,-22500.0,0.46409310645895041,-1.3442654924128978,2.557858779419055,-0.57804688159047612,1.1556117580626659,0.39146159119127577,1.9555835800932733,-0.43993227430401438,2.5983939043419464,-2.5983939043419464,0.43993227430401438,3.8692483435497449,0.0
794640.0783812654,3945767.5119837918,-22500.0,0.69372432586467569,-1.4028802011683312,2.2397928008518098,-0.62435115074153846,1.03472132510341,0.35876661764092155,1.8336139362915225,-0.58604198370449412,2.5439660915393074,-2.5439660915393074,0.58604198370449412,3.6477387879951944,0.0
799640.0783812654,3945767.5119837918,-22500.0,0.87446105658805418,-1.3976212646253119,1.9282449691114232,-0.64051673906130258,0.90969555098362409,0.32223456967391106,1.7051210901886791,-0.67836867774617393,2.4219817920344298,-2.4219817920344298,0.67836867774617393,3.4015879642619793,0.0
804640.0783812654,3945767.5119837918,-22500.0,1.0062859978519334,-1.3467201395241546,1.6383645016264663,-0.63383798937620706,0.78858298015890238,0.28504863399913916,1.5783905852851861,-0.72647068095666256,2.2574355761313223,-2.2574355761313223,0.72647068095666256,3.1444223231747555,0.0
664640.0783812654,3950767.5119837918,-22500.0,-1.6825117703076808,-1.0285402577266154,-0.62871442063114691,-0.75563495712515838,-0.48550644466631537,-0.26536283812380101,1.3634475834141828,-0.44218403427318453,0.27218961748564052,-0.27218961748564052,0.44218403427318453,2.6868567947254074,0.0
669640.0783812654,3950767.5119837918,-22500.0,-1.7734677187893984,-1.2249466794883632,-0.85939831562405233,-0.86296413500146152,-0.62663868849803195,-0.32946770028864747,1.5683523782137876,-0.57965962303271978,0.30845328143290746,-0.30845328143290746,0.57965962303271978,3.0845380898254851,0.0
674640.0783812654,3950767.5119837918,-22500.0,-1.8308729821418686,-1.4341386744796851,-1.1530560061440298,-0.97407500897576171,-0.80120698027776605,-0.40743019113865603,1.7980458545550444,-0.73923416156128896,0.3287758594830768,-0.3287758594830768,0.73923416156128896,3.5303423349715022,0.0
679640.0783812654,3950767.5119837918,-22500.0,-1.8396157542935774,-1.6445953124634738,-1.5192216998383878,-1.0826184255487701,-1.0133579531721242,-0.50083787683665193,2.0512613758580258,-0.9174831090477229,0.32034852382381701,-0.32034852382381701,0.9174831090477229,4.0220634378686952,0.0
684640.0783812654,3950767.5119837918,-22500.0,-1.7834380858424879,-1.8379061666069598,-1.9640655145167938,-1.1790090463686762,-1.2653063416516002,-0.61050201300833273,2.3241954906986675,-1.106281283982814,0.26601172103540022,-0.26601172103540022,1.106281283982814,4.5527084649101939,0.0
689640.0783812654,3950767.5119837918,-22500.0,-1.6473842374221823,-1.9875442993661443,-2.4866774253623416,-1.2499767266377086,-1.5555461136682074,-0.73576921594903499,2.6095297986380448,-1.2910156390208103,0.14459520152865801,-0.14459520152865801,1.2910156390208103,5.108626125752961,0.0
694640.0783812654,3950767.5119837918,-22500.0,-1.4217791704952116,-2.0588740812071622,-3.0740415667590835,-1.2787218942357224,-1.8765075644447826,-0.87362444383880389,2.8954899593824792,-1.4491062377118911,-0.06722107646170461,0.06722107646170461,1.4491062377118911,5.667650173228834,0.0
699640.0783812654,3950767.5119837918,-22500.0,-1.1076257347834284,-2.0115728245257984,-3.6952441337983242,-1.2461845320504477,-2.2119419876340518,-1.017690425001087,3.1652853596077932,-1.5496958436050683,-0.39069739385187485,0.39069739385187485,1.5496958436050683,6.1978093726761925,0.0
704640.0783812654,3950767.5119837918,-22500.0,-0.72249386756073153,-1.8057362482425885,-4.2964181647218656,-1.1339518772224046,-2.5347404108730451,-1.1573859081824085,3.3975454553753681,-1.5557326295324849,-0.83789820483276167,0.83789820483276167,1.5557326295324849,6.6574854385100881,0.0
709640.0783812654,3950767.5119837918,-22500.0,-0.30480196068739779,-1.4123508820380122,-4.7991253297020453,-0.9290502927757246,-2.8064023029816934,-1.2776936358990818,3.5687625888801033,-1.4297065891146126,-1.4019779212967993,1.4019779212967993,1.4297065891146126,6.9981612589013107,0.0
714640.0783812654,3950767.5119837918,-22500.0,0.086679807395922376,-0.82713638034360648,-5.1057180789985512,-0.63012876770646264,-2.9797036473516063,-1.3601153103499339,3.658925387916693,-1.14355760333851,-2.0470128687679781,2.0470128687679781,1.14355760333851,7.1708735909090304,0.0
719640.0783812654,3950767.5119837918,-22500.0,0.38126189867361049,-0.084019608789159123,-5.1146287038711185,-0.25337702623612601,-3.0058094989807898,-1.3852873092271039,3.6583623443851359,-0.69140711495659857,-2.7017393766784599,2.7017393766784599,0.69140711495659857,7.1368899597223168,0.0
724640.0783812654,3950767.5119837918,-22500.0,0.51363134909019115,0.73821575053922051,-4.7454085450224257,0.16460437355831284,-2.8456921313571915,-1.3372352974448427,3.5678458917218849,-0.10107591729832532,-3.2629218727646983,3.2629218727646983,0.10107591729832532,6.8818230738761761,0.0
729640.0783812654,3950767.5119837918,-22500.0,0.4462917817683244,1.5230007687321194,-3.9677905989481244,0.56991802186602769,-2.4833191555730201,-1.2083746698551221,3.398821536412413,0.56172966950306691,-3.6125667587772954,3.6125667587772954,-0.56172966950306691,6.4305401067664985,0.0
734640.0783812654,3950767.5119837918,-22500.0,0.18834337729669759,2.1396266124362833,-2.823572491954025,0.90168874353271333,-1.935729613268679,-1.0034886163537102,3.1809713077213777,1.2019248746772719,-3.6476440126324592,3.6476440126324592,-1.2019248746772719,5.8580444099554327,0.0
739640.0783812654,3950767.5119837918,-22500.0,-0.19976596200670879,2.4781220460080782,-1.4291446402488177,1.1073711763128407,-1.2546749575534337,-0.74070070602572169,2.961702828259257,1.7167270921155371,-3.3131513531289185,3.3131513531289185,-1.7167270921155371,5.2880691967522777,0.0
744640.0783812654,3950767.5119837918,-22500.0,-0.62088832179893971,2.4821095931482828,0.046906920620102023,1.1574755279774847,-0.51725708803521231,-0.44839141598441246,2.7919145107137173,2.0237595198559881,-2.6243362897197797,2.6243362897197797,-2.0237595198559881,4.8646716879397545,0.0
749640.0783812654,3950767.5119837918,-22500.0,-0.97066269862387311,2.1649750701447674,1.4247675329167298,1.0534229078604114,0.19194419924425787,-0.1588145282317549,2.702470702987442,2.0840029220485423,-1.6666678622909601,1.6666678622909601,-2.0840029220485423,4.6854494078476963,0.0
754640.0783812654,3950767.5119837918,-22500.0,-1.1689279724466046,1.6022320882937935,2.5568250754666519,0.82523697682328834,0.80047773866656813,0.099219814532670397,2.6874954332357075,1.9097467103158992,-0.57252583500904963,0.57252583500904963,-1.9097467103158992,4.7361813868811327,0.0
759640.0783812654,3950767.5119837918,-22500.0,-1.1795539216295441,0.90489391260854057,3.3567987534862453,0.52072897774635918,1.2620155432639855,0.30589204826264849,2.7117351401002736,1.5553425918944805,0.51499681098923855,-0.51499681098923855,-1.5553425918944805,4.90862131372758,0.0
764640.0783812654,3950767.5119837918,-22500.0,-1.0124764232735557,0.18687630061350149,3.8063283021090264,0.19145270207490186,1.56075646745812,0.45254464769406383,2.7341765818251558,1.0968463059246822,1.4759338372974993,-1.4759338372974993,-1.0968463059246822,5.0823349140833045,0.0
769640.0783812654,3950767.5119837918,-22500.0,-0.71111030852555479,-0.46065504324423878,3.9419856317911313,-0.11902281477696723,1.706997157996526,0.5405565913911865,2.7258157438153972,0.61026148913823375,2.2336063236573813,-2.2336063236573813,-0.61026148913823375,5.1782692164123194,0.0
774640.0783812654,3950767.5119837918,-22500.0,-0.333672928092479,-0.98150272762354529,3.8325189306722174,-0.38142826225325943,1.7277792050249126,0.57821008116639072,2.6740207452649147,0.15600855771963973,2.7582624575226737,-2.7582624575226737,-0.15600855771963973,5.1644722839778749,0.0
779640.0783812654,3950767.5119837918,-22500.0,0.063465918481582936,-1.3540108904165411,3.5563711415801684,-0.58163252253785458,1.656948709658419,0.57710496114893151,2.5790150812367356,-0.22766646746077202,3.0584458649261683,-3.0584458649261683,0.22766646746077202,5.0419720542679123,0.0
784640.0783812654,3950767.5119837918,-22500.0,0.43611831259031658,-1.5829264539794414,3.1855106222731231,-0.71784019243643749,1.5274840658509441,0.54922479610454056,2.4485030127397303,-0.52382351751049683,3.1670001086414645,-3.1670001086414645,0.52382351751049683,4.8294359783775533,0.0
789640.0783812654,3950767.5119837918,-22500.0,0.75595054357511171,-1.6888979055835434,2.7770374127729029,-0.79636492712163021,1.3670393655510444,0.50509466783496149,2.2932859067475735,-0.73179466057206355,3.1274738653919485,-3.1274738653919485,0.73179466057206355,4.552014048589589,0.0
794640.0783812654,3950767.5119837918,-22500.0,1.009398131170425,-1.6992310383644198,2.3710812215129828,-0.82760949755851632,1.1963036165299976,0.45296437705585568,2.1249997373977192,-0.86104573313409571,2.9839968579588021,-2.9839968579588021,0.86104573313409571,4.2346054869910885,0.0
799640.0783812654,3950767.5119837918,-22500.0,1.1942122660071313,-1.6414320090278289,1.9925317657595811,-0.82304995094816069,1.0292293544375943,0.39871749258796885,1.9558814820524595,-0.92583976534122103,2.7753067741468622,-2.7753067741468622,0.92583976534122103,3.8984939304752899,0.0
804640.0783812654,3950767.5119837918,-22500.0,1.3154898602816087,-1.5395773262536041,1.6544094554768001,-0.79337027680928141,0.87419560996988033,0.34617904411012362,1.7893914862637563,-0.94145134922892115,2.5322152819799859,-2.5322152819799859,0.94145134922892115,3.5601694471158525,0.0
809640.0783812654,3950767.5119837918,-22500.0,1.3822359129947412,-1.4128527987367747,1.3614410258049396,-0.74755046735888298,0.73543993273384689,0.29757352654914443,1.6269222703596804,-0.92192537482254389,2.2773600402677632,-2.2773600402677632,0.92192537482254389,3.2313989800637586,0.0
664640.0783812654,3955767.5119837918,-22500.0,-1.9087562974812213,-0.99993404078390169,-0.48371146142288302,-0.84710899528874406,-0.4653704538030331,-0.29407232832946467,1.4429612411679493,-0.3418040790062945,0.26092864883013644,-0.26092864883013644,0.3418040790062945,2.8529027740491646,0.0
669640.0783812654,3955767.5119837918,-22500.0,-2.0541969276428769,-1.2284660846051823,-0.7045401379519155,-0.98644334338897166,-0.61907216528922593,-0.37192113487350886,1.6798850542773498,-0.48112971273790078,0.3154256258954829,-0.3154256258954829,0.48112971273790078,3.3132279663170277,0.0
674640.0783812654,3955767.5119837918,-22500.0,-2.1695800705246078,-1.4833489969062021,-0.99708178649793511,-1.1371243896292897,-0.8150851695447271,-0.46907176067346013,1.9513477179414978,-0.64965100821592126,0.35949671724003807,-0.35949671724003807,0.64965100821592126,3.8400335331631239,0.0
679640.0783812654,3955767.5119837918,-22500.0,-2.2353533342301604,-1.7548036544390233,-1.3767579397257539,-1.2928743820281425,-1.0610888170139596,-0.58877355536644638,2.2578273337248564,-0.8462850112983713,0.3793901089156495,-0.3793901089156495,0.8462850112983713,4.4345206885974093,0.0
684640.0783812654,3955767.5119837918,-22500.0,-2.2283173160098526,-2.0243623971773892,-1.8572432105009768,-1.4429048856951108,-1.3633774686874687,-0.73364402783277904,2.5969793063560287,-1.0648419642441076,0.35503135818880299,-0.35503135818880299,1.0648419642441076,5.0925000653815147,0.0
689640.0783812654,3955767.5119837918,-22500.0,-2.1240088933990044,-2.2621106514876104,-2.4460796724614045,-1.5706948624750483,-1.7245126209328021,-0.90468222235504703,2.9621186330506299,-1.2912777896169545,0.25939748409033048,-0.25939748409033048,1.2912777896169545,5.8015264197732392,0.0
694640.0783812654,3955767.5119837918,-22500.0,-1.9015143520859079,-2.424907682508028,-3.1379046181178132,-1.6533356869540023,-2.1398412302039493,-1.0998182941606778,3.3405252094243134,-1.5008128406489991,0.059598173663280463,-0.059598173663280463,1.5008128406489991,6.5376170444845423,0.0
699640.0783812654,3955767.5119837918,-22500.0,-1.5511590748271737,-2.45738100248869,-3.9054333216023815,-1.6622972995470662,-2.5930175186502429,-1.31205613240658,3.7119709212663987,-1.6559990772075708,-0.27884786523482918,0.27884786523482918,1.6559990772075708,7.2622153653189532,0.0
704640.0783812654,3955767.5119837918,-22500.0,-1.0844487221335062,-2.2981406710016086,-4.6897259280558812,-1.5667344217876946,-3.0513442380163323,-1.5275379882739184,4.0482999843771577,-1.7076268669484966,-0.78297814677960864,0.78297814677960864,1.7076268669484966,7.9206893040260233,0.0
709640.0783812654,3955767.5119837918,-22500.0,-0.54360918970246552,-1.8934694259013591,-5.3934875503036892,-1.3403079462398915,-3.4627895358777598,-1.7242757550880212,4.3154917465908103,-1.6009311614031605,-1.4579812780308747,1.4579812780308747,1.6009311614031605,8.4443409515949295,0.0
714640.0783812654,3955767.5119837918,-22500.0,-0.0055116783998944274,-1.2186484265574034,-5.8835274613907806,-0.97148057734143933,-3.7575982773677716,-1.872720719582621,4.4800494242024369,-1.2890274334095231,-2.2694965757210133,2.2694965757210133,1.2890274334095231,8.758271797317569,0.0
719640.0783812654,3955767.5119837918,-22500.0,0.42667619197491158,-0.30238588583710357,-6.009114347375208,-0.47508440869135637,-3.8576099895937488,-1.93943417334417,4.5192815201250713,-0.75284429118590834,-3.1290728354615247,3.1290728354615247,0.75284429118590834,8.7968732613654197,0.0
724640.0783812654,3955767.5119837918,-22500.0,0.64837398081342434,0.75630979607625426,-5.6390338777404807,0.099786826570674822,-3.6944806170246425,-1.8943890521259963,4.4279219568503443,-0.021843397447338431,-3.8933239281779812,3.8933239281779812,0.021843397447338431,8.52661714806354,0.0
729640.0783812654,3955767.5119837918,-22500.0,0.59119305668252697,1.7927771443181051,-4.7103107230140022,0.67193575610336909,-3.2334207979204193,-1.7206456184405166,4.2206783732988553,0.81528245727303861,-4.3868132581097461,4.3868132581097461,-0.81528245727303861,7.9722011847136391,0.0
734640.0783812654,3955767.5119837918,-22500.0,0.25831394420904952,2.6115308396401367,-3.2694185294972313,1.1442277846093494,-2.4934847973225152,-1.4229219991597772,3.9402864050005721,1.6211788105732792,-4.4495975971481583,4.4495975971481583,-1.6211788105732792,7.2374685506576677,0.0
739640.0783812654,3955767.5119837918,-22500.0,-0.26310119800998821,3.0444383387793166,-1.4818386298054604,1.4307878872205595,-1.5531230734070196,-1.0305540660606827,3.6572801992985484,2.2446243987598828,-3.9944527398700416,3.9944527398700416,-2.2446243987598828,6.5056000083692194,0.0
744640.0783812654,3955767.5119837918,-22500.0,-0.82510381865950577,3.0079965741211874,0.40323406847984955,1.4843928065294203,-0.53455936904095103,-0.59206416220972435,3.44712097270396,2.567931240439691,-3.0466431929905839,3.0466431929905839,-2.567931240439691,5.9907034099785523,0.0
749640.0783812654,3955767.5119837918,-22500.0,-1.2701389983544407,2.5307879759358243,2.1222925203465803,1.3108431080514282,0.42860236656543271,-0.16270833372732749,3.3506069535420986,2.5448128323081849,-1.7432118076261831,1.7432118076261831,-2.5448128323081849,5.8222679309401268,0.0
754640.0783812654,3955767.5119837918,-22500.0,-1.4847581529633893,1.7373522239867414,3.4699418117429763,0.96347005140440412,1.2265691700498715,0.20975486367588153,3.3495425071409466,2.2101390786253363,-0.29007727299108332,0.29007727299108332,-2.2101390786253363,5.9479441975584502,0.0
759640.0783812654,3955767.5119837918,-22500.0,-1.4298573466781286,0.79945660498969451,4.3427802315353601,0.52189147306735473,1.7964719888151581,0.49514486407029884,3.3859850368526718,1.6592352982768839,1.1013370786910257,-1.1013370786910257,-1.6592352982768839,6.191371218028932,0.0
764640.0783812654,3955767.5119837918,-22500.0,-1.1378590282522938,-0.11883545938157315,4.7420686971706196,0.066491425811605387,2.1265459238533015,0.68369572823580427,3.4023545603502603,1.0106581052421575,2.2682585004106302,-2.2682585004106302,-1.0106581052421575,6.3877400618795592,0.0
769640.0783812654,3955767.5119837918,-22500.0,-0.68621769079254002,-0.89905206706581398,4.7448012223541154,-0.34055981137691682,2.2447118179841836,0.7824962114363897,3.3646301577010571,0.37128825898167372,3.1226390362712677,-3.1226390362712677,-0.37128825898167372,6.4471306975433036,0.0
774640.0783812654,3955767.5119837918,-22500.0,-0.16490209977985995,-1.4807654573533164,4.463501403080234,-0.66311120260173451,2.2004188307055967,0.80875605361062763,3.2635812683462411,-0.18417876748554063,3.6482976647949257,-3.6482976647949257,0.18417876748554063,6.3471508481287877,0.0
779640.0783812654,3955767.5119837918,-22500.0,0.34833524192941689,-1.8538976213332001,4.0119699647891993,-0.88924834505552497,2.0479324907263736,0.78313900745536202,3.1065193338205597,-0.61769309581298781,3.8804234542288265,-3.8804234542288265,0.61769309581298781,6.1060208820862396,0.0
784640.0783812654,3955767.5119837918,-22500.0,0.79993236159173564,-2.0416443873480858,3.4846800146653689,-1.0244145243110212,1.8352807666682032,0.72501850172097559,2.9086097734060439,-0.92146296234622183,3.8807431073222376,-3.8807431073222376,0.92146296234622183,5.7595645755638918,0.0
789640.0783812654,3955767.5119837918,-22500.0,1.1617044430628449,-2.0831190039817846,2.9492876168022155,-1.0836179952367202,1.5992548315332196,0.65003368023432917,2.6870972598110252,-1.1073739546933534,3.7171616322529717,-3.7171616322529717,1.1073739546933534,5.3465503738668776,0.0
794640.0783812654,3955767.5119837918,-22500.0,1.4258954507445181,-2.0204283174981033,2.4478744315621692,-1.0851541651367527,1.3648188294050512,0.56944756933305363,2.4591313242754489,-1.1969814843209903,3.4510189505650164,-3.4510189505650164,1.1969814843209903,4.901069016026697,0.0
799640.0783812654,3955767.5119837918,-22500.0,1.5982908964078468,-1.8911425082902917,2.002289878981828,-1.0465881970919733,1.1468893310414889,0.49056494549285878,2.2351644166493303,-1.2142306751538965,3.1312930773452661,-3.1312930773452661,1.2142306751538965,4.4496244845184778,0.0
804640.0783812654,3955767.5119837918,-22500.0,1.691946075717456,-1.725122715428717,1.6203492456390682,-0.98274237765457795,0.95291342491068765,0.4175889875872501,2.017887309733807,-1.1811660066533307,2.793564940575096,-2.793564940575096,1.1811660066533307,4.0109222187361029,0.0
809640.0783812654,3955767.5119837918,-22500.0,1.7225595770639885,-1.5441258286775299,1.3012105148853028,-0.90507266255381802,0.78533606387924959,0.35252820340213581,1.8118635078146152,-1.1159901986943566,2.4615512716960741,-2.4615512716960741,1.1159901986943566,3.5969377337022221,0.0
814640.0783812654,3955767.5119837918,-22500.0,1.7055687045293089,-1.3628234080292914,1.0393705109915063,-0.82183652656763717,0.64357256542942154,0.29596729418502876,1.6206633330548688,-1.0326310912448973,2.1496160459859981,-2.1496160459859981,1.0326310912448973,3.2144032028477905,0.0
659640.0783812654,3960767.5119837918,-22500.0,-1.9113949352934076,-0.70802741046198825,-0.1691354367235092,-0.7803488825541669,-0.30180010128130663,-0.24818256288641635,1.2870300235120939,-0.10841254214589992,0.15659875871144174,-0.15659875871144174,0.10841254214589992,2.5510757501350345,0.0
664640.0783812654,3960767.5119837918,-22500.0,-2.1282770036429897,-0.92025004288335077,-0.30800692964753662,-0.9327389068951385,-0.4228594161062087,-0.32007310981590786,1.5124939101762984,-0.20970508808571525,0.22296667872309134,-0.22296667872309134,0.20970508808571525,2.9964280927925899,0.0
669640.0783812654,3960767.5119837918,-22500.0,-2.3406661915469242,-1.1747502831108161,-0.5052044071922408,-1.1085796254282674,-0.58431390551625595,-0.41284771881369819,1.780718496777113,-0.34206834974167899,0.29426424656024164,-0.29426424656024164,0.34206834974167899,3.5211072339610645,0.0
674640.0783812654,3960767.5119837918,-22500.0,-2.5319182797359514,-1.4717573868629623,-0.77956798944115202,-1.3066097292677918,-0.79726652559888667,-0.53178882836121055,2.0959024322549435,-0.51004386394157675,0.3630224524304575,-0.3630224524304575,0.51004386394157675,4.1343826682032692,0.0
679640.0783812654,3960767.5119837918,-22500.0,-2.6785160840874731,-1.8054395301094417,-1.1530153331596851,-1.5218339607073943,-1.0741142489668174,-0.68271658972258376,2.4610238272570828,-0.71583838164103308,0.41581754154408446,-0.41581754154408446,0.71583838164103308,4.8429030856983477,0.0
684640.0783812654,3960767.5119837918,-22500.0,-2.7497315534623996,-2.1599808166318728,-1.648535534517509,-1.743443927196739,-1.4271863564923448,-0.87133928673872552,2.8764136279520702,-0.95670721184148233,0.43088015998306362,-0.43088015998306362,0.95670721184148233,5.6478700718641468,0.0
689640.0783812654,3960767.5119837918,-22500.0,-2.7091792384330433,-2.504763079491398,-2.2856753451890919,-1.9523781606550468,-1.8659837499732113,-1.1019702938221538,3.3375141997199624,-1.2211669995280654,0.37591465679067781,-0.37591465679067781,1.2211669995280654,6.5409753599276863,0.0
694640.0783812654,3960767.5119837918,-22500.0,-2.5197556182374181,-2.7896601365937759,-3.0723124782566282,-2.1191007265367161,-2.3924380460083237,-1.3753569901388505,3.8320861038488845,-1.4842716348571181,0.20742572995625019,-0.20742572995625019,1.4842716348571181,7.4991310649162219,0.0
699640.0783812654,3960767.5119837918,-22500.0,-2.1535055754400676,-2.9427947682787421,-3.9919110803456306,-2.2028476569789484,-2.9938781451719998,-1.6854882693242654,4.3372344030238157,-1.7030735854267278,-0.12614880805442175,0.12614880805442175,1.7030735854267278,8.4786105099750912,0.0
704640.0783812654,3960767.5119837918,-22500.0,-1.6069151779433011,-2.8748036517095126,-4.987094267923033,-2.1543922992910232,-3.6343023405614767,-2.015647204734373,4.8172758093753894,-1.8148534900971554,-0.67433798156725477,0.67433798156725477,1.8148534900971554,9.4102737607844897,0.0
709640.0783812654,3960767.5119837918,-22500.0,-0.9191356175874078,-2.4947109790605713,-5.9439097322963432,-1.9248067796156498,-4.2463982929796291,-2.3347786726203736,5.2244800913364688,-1.742343944055188,-1.464786289869018,1.464786289869018,1.742343944055188,10.199029414413658,0.0
714640.0783812654,3960767.5119837918,-22500.0,-0.18551846167290376,-1.7407869073096891,-6.6863279290841779,-1.4817104557214236,-4.7293219891885583,-2.5963583829233809,5.5056943895242592,-1.4106335204983533,-2.474266403248131,2.474266403248131,1.4106335204983533,10.732061130045489,0.0
719640.0783812654,3960767.5119837918,-22500.0,0.4462560592723947,-0.62268206829922323,-6.9945176958001891,-0.83091473166370189,-4.959097732745704,-2.7427679995156207,5.6165531020368382,-0.77731330344296112,-3.598893371829643,3.598893371829643,0.77731330344296112,10.900394016639174,0.0
724640.0783812654,3960767.5119837918,-22500.0,0.80958809418854094,0.74135848494311085,-6.6572862309242522,-0.035286643410921865,-4.8166899521433511,-2.7174521441402133,5.5375384845783957,0.13112765752711431,-4.6418405636499269,4.6418405636499269,-0.13112765752711431,10.635428424235636,0.0
729640.0783812654,3960767.5119837918,-22500.0,0.7812665410946511,2.1193640147907584,-5.5528930028018566,0.78255050662665926,-4.2305845042842662,-2.4836802050955438,5.2848224188174466,1.1951477540918387,-5.3407830595382908,5.3407830595382908,-1.1951477540918387,9.9552279683492966,0.0
734640.0783812654,3960767.5119837918,-22500.0,0.34843078652211079,3.2153074525874978,-3.7265393843889258,1.464826507986787,-3.2178551540067182,-2.0432270475599896,4.9211124194998455,2.2135082848088814,-5.4438058342076268,5.4438058342076268,-2.2135082848088814,9.005276579441075,0.0
739640.0783812654,3960767.5119837918,-22500.0,-0.36155835595415015,3.76756302578511,-1.4164678801158852,1.8678932290325916,-1.8995299559872323,-1.44457471201485,4.5543104988177285,2.9599833597749909,-4.8103355312783194,4.8103355312783194,-2.9599833597749909,8.063410272886772,0.0
744640.0783812654,3960767.5119837918,-22500.0,-1.1182591255114294,3.6512781236432836,1.0024211972871151,1.9147370893544524,-0.47407709764973743,-0.77319311675734304,4.2983983791213038,3.2653351686955583,-3.4841178086854621,3.4841178086854621,-3.2653351686955583,7.4533870383373841,0.0
749640.0783812654,3960767.5119837918,-22500.0,-1.6797118358113483,2.9258358240578475,3.1392451695458377,1.6219494236045309,0.84322051614719928,-0.12632080433629944,4.2048778026655445,3.0808607358472284,-1.6902832943115054,1.6902832943115054,-3.0808607358472284,7.3386929248832278,0.0
754640.0783812654,3960767.5119837918,-22500.0,-1.8863641874426007,1.8001276722918325,4.7100775561569321,1.0864744517484946,1.8850427457229837,0.41561246582425165,4.2295748272047362,2.4875699280484289,0.24604949119635555,-0.24604949119635555,-2.4875699280484289,7.5861784102837078,0.0
759640.0783812654,3960767.5119837918,-22500.0,-1.7059612199688932,0.54151863013755086,5.6024168674010024,0.44272545252389661,2.5699470949595704,0.80744608838898502,4.2783974065082297,1.6508108712134784,2.0126034397233532,-2.0126034397233532,-1.6508108712134784,7.9146891689178922,0.0
764640.0783812654,3960767.5119837918,-22500.0,-1.2162626033833808,-0.61677431266398031,5.8636005934277984,-0.18423969740100793,2.9022355836809401,1.0418019170632533,4.2734484317353765,0.75244945245364292,3.395439089469078,-3.395439089469078,-0.75244945245364292,8.1085454291049786,0.0
769640.0783812654,3960767.5119837918,-22500.0,-0.55099153775302512,-1.5286926077658505,5.640055182654458,-0.70845830375653185,2.9447888884924573,1.1392420192767909,4.1794551640760202,-0.063187760947700955,4.3073683726709664,-4.3073683726709664,0.063187760947700955,8.0779590006740136,0.0
774640.0783812654,3960767.5119837918,-22500.0,0.15511048080432507,-2.1414313327567434,5.1085609286535423,-1.090141465715549,2.7846500948262443,1.1340500002533158,3.9968052168643533,-0.71246374022449865,4.7673575623299627,-4.7673575623299627,0.71246374022449865,7.8250305863559708,0.0
779640.0783812654,3960767.5119837918,-22500.0,0.80030245069277939,-2.4716587927915823,4.4271885589231204,-1.3268046600247636,2.5061087926983134,1.0621838861859483,3.745409899404839,-1.1685740174890671,4.8577639468571157,-4.8577639468571157,1.1685740174890671,7.3975224103748474,0.0
784640.0783812654,3960767.5119837918,-22500.0,1.3260917863228028,-2.5734636563989515,3.7127866507421268,-1.4385419174365448,2.1763067692811049,0.95411403369884829,3.451710544748706,-1.4440808974447381,4.6832546706165026,-4.6832546706165026,1.4440808974447381,6.8562208829135356,0.0
789640.0783812654,3960767.5119837918,-22500.0,1.7116630827407999,-2.5119567232948339,3.0386503342503568,-1.4546878587673666,1.8413985490957838,0.83219349274739052,3.1417022159861276,-1.5717841707853015,4.3429419331198389,-4.3429419331198389,1.5717841707853015,6.2571385431116786,0.0
794640.0783812654,3960767.5119837918,-22500.0,1.9619964449218534,-2.3471082863815496,2.4426116119385961,-1.4048327978315609,1.5288904681034168,0.71093688025562962,2.8346976531526731,-1.5901758730036877,3.9167788314404053,-3.9167788314404053,1.5901758730036877,5.6442319990140666,0.0
799640.0783812654,3960767.5119837918,-22500.0,2.0961052208752879,-2.1266197057915392,1.9379960215855829,-1.3141830670838035,1.2523379032862343,0.59861436666700518,2.5384311906970054,-1.5348476922508394,3.462263142238037,-3.462263142238037,1.5348476922508394,5.0482201309044656,0.0
804640.0783812654,3960767.5119837918,-22500.0,2.1382124956944741,-1.8846727230259599,1.5233876439843321,-1.2020261862893933,1.0160914637672667,0.49910799125499844,2.2592839104708893,-1.4347140521688968,3.0167708467424244,-3.0167708467424244,1.4347140521688968,4.4882971442883992,0.0
809640.0783812654,3960767.5119837918,-22500.0,2.1122846050239441,-1.643639112280328,1.1898052342877599,-1.0819551098823625,0.81909697214498389,0.41351434027169376,2.0023290171197816,-1.3112738566957867,2.6020250583433708,-2.6020250583433708,1.3112738566957867,3.9747951896886664,0.0
814640.0783812654,3960767.5119837918,-22500.0,2.0392562542342136,-1.4167948456179804,0.92533047969450788,-0.96285655834618222,0.65755252379827767,0.34133476000744223,1.7699705308488238,-1.1794107090841686,2.2286948387944361,-2.2286948387944361,1.1794107090841686,3.5117996298760032,0.0
819640.0783812654,3960767.5119837918,-22500.0,1.9360405542330068,-1.2109926323792932,0.7177695386136016,-0.85007361677297699,0.52658730090936845,0.2812745007420181,1.5625232016544208,-1.0487515209545426,1.9002427326176792,-1.9002427326176792,1.0487515209545426,3.0993142667296256,0.0
654640.0783812654,3965767.5119837918,-22500.0,-1.7842131223362852,-0.39535998395056327,0.059237359206833817,-0.6741581765820398,-0.1536416951689632,-0.19735637483416091,1.1286464871149389,0.09060902329444627,0.022310211898750404,-0.022310211898750404,-0.09060902329444627,2.2123168360432577,0.0
659640.0783812654,3965767.5119837918,-22500.0,-2.0426157110717011,-0.5636913338944517,-0.0052742949848122167,-0.82347104732667542,-0.23712205696701896,-0.25883822774905135,1.3300472116176938,0.034602506635486072,0.079934836327903019,-0.079934836327903019,-0.034602506635486072,2.6181475280501565,0.0
664640.0783812654,3965767.5119837918,-22500.0,-2.3213399152124987,-0.77815668671922589,-0.10828477664492672,-1.0037853865272643,-0.35378026812357877,-0.3403616402232893,1.5736357125610432,-0.046896035074438243,0.15104519319689808,-0.15104519319689808,0.046896035074438243,3.1068785057802533,0.0
669640.0783812654,3965767.5119837918,-22500.0,-2.6111510268867715,-1.0465537773586553,-0.26639569943749775,-1.2188117705053128,-0.51532452636616322,-0.44829263896754135,1.8687811936922092,-0.16095597658945832,0.23436834114509225,-0.23436834114509225,0.16095597658945832,3.6937066950563064,0.0
674640.0783812654,3965767.5119837918,-22500.0,-2.8957688514279436,-1.3746893853542905,-0.5016642427324155,-1.4704743934777227,-0.73666886017635358,-0.5906024265058053,2.2251226608254431,-0.3149347615652423,0.32493872507825711,-0.32493872507825711,0.3149347615652423,4.3944237546176721,0.0
679640.0783812654,3965767.5119837918,-22500.0,-3.1493976200712446,-1.7632667952853924,-0.84208849547709141,-1.7569392833563389,-1.0359515397741723,-0.77683276538678692,2.6503473072203292,-0.51500572669908018,0.41147040515761579,-0.41147040515761579,0.51500572669908018,5.2235928188140788,0.0
684640.0783812654,3965767.5119837918,-22500.0,-3.3345868209749052,-2.2029016396227283,-1.320763856049064,-2.069611993750919,-1.4336216148255805,-1.0175792506427119,3.1490903360587179,-0.76336189402413679,0.47273897733742609,-0.47273897733742609,0.76336189402413679,6.191282991357542,0.0
689640.0783812654,3965767.5119837918,-22500.0,-3.4017542903718456,-2.6669703389320789,-1.9722386490396904,-2.3890203552923026,-1.9497229370272058,-1.3230635063208858,3.7210016718290673,-1.053555615850025,0.47329352339177072,-0.47329352339177072,1.053555615850025,7.2977842588666011,0.0
694640.0783812654,3965767.5119837918,-22500.0,-3.2927088684336185,-3.1028245139852864,-2.8238954705462889,-2.6800016210107689,-2.5981593559500511,-1.7002035229856596,4.3568171456260556,-1.3637139255169495,0.35977965024403458,-0.35977965024403458,1.3637139255169495,8.5258637985557382,0.0
699640.0783812654,3965767.5119837918,-22500.0,-2.9514395609379833,-3.4238110196919598,-3.8798951250501084,-2.8876910094870754,-3.3766701294405506,-2.1475737066894727,5.0331521149276606,-1.6483771515548076,0.060878514812110707,-0.060878514812110707,1.6483771515548076,9.8307685892310666,0.0
704640.0783812654,3965767.5119837918,-22500.0,-2.3452048999445547,-3.5077825436297481,-5.0964885718642963,-2.9375498771995443,-4.25211964430755,-2.6480779546340827,5.7073217359684145,-1.8319158632862007,-0.5038404725403578,0.5038404725403578,1.8319158632862007,11.129725136426408,0.0
709640.0783812654,3965767.5119837918,-22500.0,-1.4955255801236995,-3.2115211174293212,-6.3521453443065452,-2.7445519928866933,-5.1434574967096829,-3.1604817525323718,6.314946347436706,-1.8098995971576803,-1.3993925618277014,1.3993925618277014,1.8098995971576803,12.295427653640621,0.0
714640.0783812654,3965767.5119837918,-22500.0,-0.5099951475479636,-2.4113275785054054,-7.4252887469939433,-2.2368165852593673,-5.9099116656408022,-3.6134299425424365,6.7752114135668009,-1.4677709852021854,-2.6312384657254917,2.6312384657254917,1.4677709852021854,13.161540388080939,0.0
719640.0783812654,3965767.5119837918,-22500.0,0.4068671938508987,-1.071542706164136,-8.0038899189315753,-1.3941351076038122,-6.3580287313954535,-3.9084568666648893,7.0089834912873084,-0.72414814002490369,-4.089398777677884,4.089398777677884,0.72414814002490369,13.55052588933191,0.0
724640.0783812654,3965767.5119837918,-22500.0,0.99245288636861195,0.68005202893255345,-7.7538917376280017,-0.28962222689327105,-6.2821308433396039,-3.9390253196182212,6.9680792442828441,0.407074634202925,-5.5099374723857792,5.5099374723857792,-0.407074634202925,13.331172974279577,0.0
729640.0783812654,3965767.5119837918,-22500.0,1.0267994552962301,2.5200209259145958,-6.4503966024274781,0.89236069201213153,-5.5397658279836097,-3.6267015947675096,6.6641274769193446,1.7657513078999401,-6.5001262025321473,6.5001262025321473,-1.7657513078999401,12.501033905409818,0.0
734640.0783812654,3965767.5119837918,-22500.0,0.45961309310102072,3.9953382982880026,-4.1228008954098225,1.8912424936768442,-4.135160424205746,-2.9623164621520872,6.1901147939333798,3.0529699438359308,-6.6581329915052319,6.6581329915052319,-3.0529699438359308,11.266971911132291,0.0
739640.0783812654,3965767.5119837918,-22500.0,-0.52046082017510531,4.6919679024964616,-1.1183788703558835,2.4610712061541511,-2.2585666882489099,-2.027840920199151,5.7160682455363183,3.9248127457346458,-5.7541194242976976,5.7541194242976976,-3.9248127457346458,10.062111323457421,0.0
744640.0783812654,3965767.5119837918,-22500.0,-1.5458275665378181,4.4224877892782297,1.9889579846532299,2.4743551230001537,-0.24048756770354726,-0.97872129596279289,5.4168634160644693,4.1378168696408428,-3.8675009226908519,3.8675009226908519,-4.1378168696408428,9.3823087104173055,0.0
749640.0783812654,3965767.5119837918,-22500.0,-2.239151667422961,3.3092781932160946,4.6141953802361284,1.9738361585126516,1.5657348584662805,0.0093076123524536598,5.349946518486516,3.6570104627444651,-1.3772429454926214,1.3772429454926214,-3.6570104627444651,9.4080334865968211,0.0
754640.0783812654,3965767.5119837918,-22500.0,-2.3809764458310578,1.7080191335301707,6.3728915271518787,1.1397810030744959,2.9059744713509805,0.79942774579892495,5.418047283018093,2.655455546117409,1.1973865312493415,-1.1973865312493415,-2.655455546117409,9.8431544784768228,0.0
759640.0783812654,3965767.5119837918,-22500.0,-1.9718018064909879,0.034593478119765479,7.1700973037071494,0.20116030453022915,3.6856324044070319,1.3272762022378775,5.472021710460953,1.4159282457440809,3.4000805073918334,-3.4000805073918334,-1.4159282457440809,10.255488380766373,0.0
764640.0783812654,3965767.5119837918,-22500.0,-1.1767761713694562,-1.3891593792433496,7.1489465156666592,-0.65024806761662313,3.9526490461445527,1.5986566891475491,5.4137071643867998,0.20910735680925674,4.9674481744219658,-4.9674481744219658,-0.20910735680925674,10.384664844308293,0.0
769640.0783812654,3965767.5119837918,-22500.0,-0.21873365238493206,-2.4011137882507496,6.5689447414290365,-1.3030238242232925,3.83603531006105,1.664045908376492,5.2167166967241778,-0.78418851186634253,5.8449692332021206,-5.8449692332021206,0.78418851186634253,10.167245985975979,0.0
774640.0783812654,3965767.5119837918,-22500.0,0.70996853172003582,-2.9817966126982101,5.6942941479259659,-1.7247587950581362,3.4829696079702903,1.5893241649087357,4.9021764874707445,-1.4888480566901778,6.1252341004168231,-6.1252341004168231,1.4888480566901778,9.6552947682476677,0.0
779640.0783812654,3965767.5119837918,-22500.0,1.4875379050671724,-3.1990242459464846,4.7310302101244073,-1.936758804443873,3.0186465138511553,1.435122584919664,4.510674764687824,-1.9104816003409386,5.966950750204723,-5.966950750204723,1.9104816003409386,8.9433802944584322,0.0
784640.0783812654,3965767.5119837918,-22500.0,2.0625924096314039,-3.153533435854885,3.8106778899182778,-1.9855670675149431,2.5312341379453613,1.2473984451406217,4.0843281724752636,-2.0986989279353914,5.5329185771264511,-5.5329185771264511,2.0986989279353914,8.1257960037364736,0.0
789640.0783812654,3965767.5119837918,-22500.0,2.434495564829009,-2.9431577542846594,3.0009090357234767,-1.9221622539462628,2.0733524367873586,1.0562048922145124,3.6561468504059378,-2.1169516176570555,4.957219548991044,-4.957219548991044,2.1169516176570555,7.2779268115793263,0.0
794640.0783812654,3965767.5119837918,-22500.0,2.6307792992682231,-2.6462109387770734,2.3251676987902985,-1.7907731789128181,1.6706015471846458,0.87852581259617502,3.2436728125045939,-2.0244719515064653,4.3355320093213621,-4.3355320093213621,2.0244719515064653,6.4520471991620019,0.0
799640.0783812654,3965767.5119837918,-22500.0,2.6896577851406005,-2.3178615845936914,1.780980825743079,-1.6249504184404451,1.3309909005082121,0.72218655500612172,2.8577779909208214,-1.8685279050340231,3.7283876792872244,-3.7283876792872244,1.8685279050340231,5.6799903149325841,0.0
804640.0783812654,3965767.5119837918,-22500.0,2.6493034243479476,-1.993014735315666,1.3532874819838265,-1.447759173382196,1.0525464718809261,0.58932777068348929,2.5059602452054097,-1.6831024319201919,3.1693411968632121,-3.1693411968632121,1.6831024319201919,4.9780820636889018,0.0
809640.0783812654,3965767.5119837918,-22500.0,2.5426142478229066,-1.6913186175891897,1.0227263189026021,-1.2737118776390224,0.82851060938231358,0.478957822245418,2.1914127507308141,-1.490647789143426,2.6734885180077246,-2.6734885180077246,1.490647789143426,4.3520342368294411,0.0
814640.0783812654,3965767.5119837918,-22500.0,2.3955211654008566,-1.4220340640502176,0.77012405787514826,-1.111059373370588,0.65049368378353889,0.38861583960915069,1.914030699928261,-1.3048021280123834,2.2444275814612382,-2.2444275814612382,1.3048021280123834,3.8009070182750562,0.0
819640.0783812654,3965767.5119837918,-22500.0,2.2272038694976346,-1.1879146234177775,0.57854388696693948,-0.96381159714563935,0.51018037698129226,0.31535641660800112,1.6717067216312584,-1.1330088667697891,1.8792616945120724,-1.8792616945120724,1.1330088667697891,3.3199891454601653,0.0
654640.0783812654,3970767.5119837918,-22500.0,-1.8173703769545124,-0.21484499713764374,0.18830542929713245,-0.67731993838587889,-0.080503014565791689,-0.19561222188142477,1.1488296033872292,0.22291825818984889,-0.078079471128050248,0.078079471128050248,-0.22291825818984889,2.2213325008563598,0.0
659640.0783812654,3970767.5119837918,-22500.0,-2.1209086807446522,-0.36479349451334975,0.16075874997624043,-0.84308718699583152,-0.1513422055531693,-0.26155661156235094,1.362295624645689,0.19330136616055948,-0.028034841081992917,0.028034841081992917,-0.19330136616055948,2.6497353845583786,0.0
664640.0783812654,3970767.5119837918,-22500.0,-2.4616909099216331,-0.56527597641203486,0.10318754513260418,-1.0489713810579047,-0.2553638168438872,-0.35112428394479417,1.6232985654952579,0.14125416753695674,0.039391881663823798,-0.039391881663823798,-0.14125416753695674,3.1741159092233406,0.0
669640.0783812654,3970767.5119837918,-22500.0,-2.8342751602614014,-0.82862678838146697,-0.00072524010980373754,-1.3024776591951757,-0.40627717758349896,-0.47287586928143577,1.9431524672988174,0.058529713348696916,0.12574484883731754,-0.12574484883731754,-0.058529713348696916,3.815555483213803,0.0
674640.0783812654,3970767.5119837918,-22500.0,-3.2255212138044667,-1.1672621809339481,-0.1742782082892598,-1.6103687910782343,-0.62263955276816918,-0.63814178902550212,2.335646190176238,-0.064580234771219602,0.22974335607712015,-0.22974335607712015,0.064580234771219602,4.5978580620731009,0.0
679640.0783812654,3970767.5119837918,-22500.0,-3.6106186694873452,-1.5908004390656851,-0.44957090178375231,-1.9764916448308234,-0.92875380264897112,-0.86146046527908671,2.8161784659596925,-0.23821779963875445,0.34433975377209391,-0.34433975377209391,0.23821779963875445,5.5460905214259322,0.0
684640.0783812654,3970767.5119837918,-22500.0,-3.9484632552323671,-2.1006167407583787,-0.86856377841509602,-2.3979633930961732,-1.3548166986796699,-1.1605589721681728,3.3984149159470469,-0.47043960967315485,0.45205651418300291,-0.45205651418300291,0.47043960967315485,6.6833201610887816,0.0
689640.0783812654,3970767.5119837918,-22500.0,-4.1776476011901176,-2.6807057632262845,-1.4816822634185653,-2.8591191552498594,-1.9351352787476102,-1.5552169321331359,4.0902058396775152,-0.7622118955325603,0.51836353916712419,-0.51836353916712419,0.7622118955325603,8.0244546463846564,0.0
694640.0783812654,3970767.5119837918,-22500.0,-4.2160321417508335,-3.2842208868584577,-2.340855018288909,-3.3230259696624573,-2.7023834500364479,-2.0639060717598747,4.8892625869298572,-1.0988620908088569,0.48382112569442493,-0.48382112569442493,1.0988620908088569,9.5659172331520139,0.0
699640.0783812654,3970767.5119837918,-22500.0,-3.9692809505004831,-3.8171200830343954,-3.4822786230555636,-3.7217323965570115,-3.6750222853969938,-2.6966616547178472,5.7759842904554937,-1.4377014439869094,0.25806805051208426,-0.25806805051208426,1.4377014439869094,11.270289359820834,0.0
704640.0783812654,3970767.5119837918,-22500.0,-3.3557560751947912,-4.1252494480679198,-4.8938334265176202,-3.9494335391416993,-4.8350929241844387,-3.4427230705314962,6.7037318710856253,-1.6942279115236873,-0.27697834019685974,0.27697834019685974,1.6942279115236873,13.046876210581267,0.0
709640.0783812654,3970767.5119837918,-22500.0,-2.3532993098085568,-3.9993601313082854,-6.4663215527575346,-3.8674661973796027,-6.09665943242537,-4.2531501301218313,7.5902725055203319,-1.7350429173186659,-1.2420464003065281,1.2420464003065281,1.7350429173186659,14.733518041406967,0.0
714640.0783812654,3970767.5119837918,-22500.0,-1.0616489766650838,-3.2203117217884918,-7.9415298105161902,-3.3341528106623377,-7.2740039536883305,-5.0233011531226683,8.3180009829066446,-1.3934752203724265,-2.6996730695816273,2.6996730695816273,1.3934752203724265,16.092423732361013,0.0
719640.0783812654,3970767.5119837918,-22500.0,0.25142927256373854,-1.6618963731608238,-8.8948848556628981,-2.268894480357786,-8.0735098032515626,-5.5878325873101033,8.7541229273754713,-0.52700575005559447,-4.5577209080347112,4.5577209080347112,0.52700575005559447,16.840972202843968,0.0
724640.0783812654,3970767.5119837918,-22500.0,1.1799869276263906,0.56690725498009853,-8.8112743308736068,-0.73858223011770174,-8.1445852321030632,-5.7468847464943993,8.7975891637286061,0.88088033607317362,-6.4769673880067238,6.4769673880067238,-0.88088033607317362,16.739239426367433,0.0
729640.0783812654,3970767.5119837918,-22500.0,1.3351552528746353,3.0251407128700714,-7.2897481513471121,0.98386351744696232,-7.2098213687280817,-5.3345660385959057,8.441595309288429,2.6182378097357244,-7.8727654576864161,7.8727654576864161,-2.6182378097357244,15.736943881637961,0.0
734640.0783812654,3970767.5119837918,-22500.0,0.58534787624507945,5.0144047300922407,-4.3127230037730326,2.461726435110795,-5.2346204774513989,-4.3103857537568171,7.8247187857719727,4.2354594213519245,-8.0980341891269543,8.0980341891269543,-4.2354594213519245,14.134937776181403,0.0
739640.0783812654,3970767.5119837918,-22500.0,-0.78591132397547625,5.8694800642815839,-0.39247864759941925,3.2643289384600309,-2.5243503734239749,-2.8167225578171893,7.2230856926774107,5.2022259446462176,-6.7727510136379347,6.7727510136379347,-5.2022259446462176,12.629921788795839,0.0
744640.0783812654,3970767.5119837918,-22500.0,-2.177449762480113,5.3107391570893574,3.578203673317069,3.1789283136425226,0.35617007750494195,-1.1461082461700056,6.9067137664158107,5.1722690132700615,-4.0482349549245802,4.0482349549245802,-5.1722690132700615,11.981833986520119,0.0
749640.0783812654,3970767.5119837918,-22500.0,-2.9940796958967191,3.5908192913682062,6.7214053318430267,2.3117574088345529,2.8184058400253287,0.37597344961280543,6.916235118433506,4.1679619448690133,-0.5773486354482511,0.5773486354482511,-4.1679619448690133,12.310607523143039,0.0
754640.0783812654,3970767.5119837918,-22500.0,-2.9503751133460563,1.3219336761688416,8.5411614656744828,1.0049295277192576,4.4844145181256128,1.5172228062078059,7.0497325646183091,2.5419647777015566,2.8063901827135052,-2.8063901827135052,-2.5419647777015566,13.01066393062249,0.0
759640.0783812654,3970767.5119837918,-22500.0,-2.140882269624961,-0.8570551136775223,9.0275055464493246,-0.35150236913082122,5.2747688130686106,2.1969019536649022,7.0819342134959333,0.76646721963248554,5.4557450976905439,-5.4557450976905439,-0.76646721963248554,13.459088087757992,0.0
764640.0783812654,3970767.5119837918,-22500.0,-0.89147608267400025,-2.528177129385579,8.5061259580547688,-1.4741124261087313,5.3398428230355064,2.4629558052768115,6.9064437725319303,-0.77801018116926768,7.0901003506005154,-7.0901003506005154,0.77801018116926768,13.389523766824547,0.0
769640.0783812654,3970767.5119837918,-22500.0,0.44379105178087702,-3.5516320986564773,7.407031412716174,-2.2375727089750956,4.9269309754670232,2.428932516474501,6.5279069841273243,-1.8972187105669951,7.7560232521358126,-7.7560232521358126,1.8972187105669951,12.817601135836775,0.0
774640.0783812654,3970767.5119837918,-22500.0,1.6111757354670695,-3.9888919677834354,6.0982789988488459,-2.6439257938642018,4.2722280572729918,2.2163476063046015,6.0062202336850197,-2.5644361210592552,7.6807610497873053,-7.6807610497873053,2.5644361210592552,11.884673572939946,0.0
779640.0783812654,3970767.5119837918,-22500.0,2.4878818456832623,-3.9927629735415611,4.8226601614898748,-2.7635922570399378,3.549371886248768,1.9227018636872124,5.4124344421939465,-2.8520968743314525,7.1338874959505549,-7.1338874959505549,2.8520968743314525,10.752818491044486,0.0
784640.0783812654,3970767.5119837918,-22500.0,3.0538555175086097,-3.7258732282279419,3.7052772846026159,-2.6859312049245245,2.8628321188726851,1.6128229295325398,4.8043097681278955,-2.8672579035385724,6.3461444971215819,-6.3461444971215819,2.8672579035385724,9.5559479753156111,0.0
789640.0783812654,3970767.5119837918,-22500.0,3.3478885780335585,-3.3204514430946568,2.7886701264091442,-2.491064729091371,2.2628018684472759,1.3231468116778431,4.2172028485475455,-2.7116775464777163,5.481616852260494,-5.481616852260494,2.7116775464777163,8.3864922488788221,0.0
794640.0783812654,3970767.5119837918,-22500.0,3.4316040244288422,-2.8680833161103116,2.0682773021793119,-2.2394021455848185,1.7645093861296861,1.0701337497490448,3.6719225221512213,-2.4650020808599318,4.6411355421165936,-4.6411355421165936,2.4650020808599318,7.29922583806988,0.0
799640.0783812654,3970767.5119837918,-22500.0,3.3674661348351886,-2.424517044627335,1.5180848492902963,-1.9713531634302783,1.3640692313579215,0.85812004474396486,3.1803794749149459,-2.1822554881757212,3.8776038402948898,-3.8776038402948898,2.1822554881757212,6.320751096901942,0.0
804640.0783812654,3970767.5119837918,-22500.0,3.2084869983408879,-2.0192076280213644,1.105910122069429,-1.7112341037409999,1.0490553592176537,0.68504199258094667,2.7467581508580565,-1.8977663542295709,3.2123096867713796,-3.2123096867713796,1.8977663542295709,5.4590276926189256,0.0
809640.0783812654,3970767.5119837918,-22500.0,2.9952595024037754,-1.6644738199260729,0.80109610558385558,-1.4719600910613981,0.80460879213748715,0.54604540595831619,2.3698500363205235,-1.6307637314374173,2.6479022453216565,-2.6479022453216565,1.6307637314374173,4.7109055951717638,0.0
814640.0783812654,3970767.5119837918,-22500.0,2.7566926724813441,-1.3625119463342701,0.57759489140797438,-1.2590631871747602,0.61651193569637985,0.43551717643591703,2.0454009126190789,-1.3904470333031442,2.1773012319725198,-2.1773012319725198,1.3904470333031442,4.0673765611486283,0.0
819640.0783812654,3970767.5119837918,-22500.0,2.5121651428178025,-1.1101484361521476,0.41461964223368852,-1.0736558970128447,0.4724615507984975,0.34810065972232124,1.7677841783032529,-1.1798453126575763,1.7892310032232779,-1.7892310032232779,1.1798453126575763,3.5169315961386669,0.0
824640.0783812654,3970767.5119837918,-22500.0,2.273897017577144,-0.90179343631010922,0.29619731033485486,-0.91442692196331743,0.36238336071377136,0.2791196913716712,1.5310336153482713,-0.99847698602877166,1.471372062749555,-1.471372062749555,0.99847698602877166,3.0475484034935518,0.0
649640.0783812654,3975767.5119837918,-22500.0,-1.4942979543333612,0.082483313769997124,0.2811795845480744,-0.5156087266834376,0.037162096333160893,-0.13661107919227497,0.97885353142996889,0.34270625495097318,-0.21944329672808938,0.21944329672808938,-0.34270625495097318,1.8458608351701753,0.0
654640.0783812654,3975767.5119837918,-22500.0,-1.7824873192219148,0.0033805831638178199,0.30241731837824382,-0.65343666784382337,0.0058507642772301794,-0.18556239155860718,1.159148394437562,0.35530097681761663,-0.20039044228658442,0.20039044228658442,-0.35530097681761663,2.2019618073205911,0.0
659640.0783812654,3975767.5119837918,-22500.0,-2.1221010351264122,-0.1128898018936768,0.31433698471860111,-0.82978533002884824,-0.045666147812968134,-0.25342182912210581,1.3812452755128937,0.35767878643377676,-0.16677857000650215,0.16677857000650215,-0.35767878643377676,2.6429889765515013,0.0
664640.0783812654,3975767.5119837918,-22500.0,-2.5174114518680732,-0.27930184491637822,0.30822867434665885,-1.0549439691204332,-0.12750105552286323,-0.34790800096938418,1.6560070015404043,0.34378959455739372,-0.11421884238455128,0.11421884238455128,-0.34378959455739372,3.1909669059182661,0.0
669640.0783812654,3975767.5119837918,-22500.0,-2.9690078766561014,-0.51199965418050686,0.2701984479561983,-1.3409980406679323,-0.25439935681299108,-0.47988963424126019,1.9971097433846647,0.30533545610502943,-0.038309477174963052,0.038309477174963052,-0.30533545610502943,3.8730885551071292,0.0
674640.0783812654,3975767.5119837918,-22500.0,-3.4703319418761578,-0.82986589296408775,0.17869222546184718,-1.701125031945121,-0.44753773940562952,-0.6644983036787474,2.4216396510804206,0.23149915702029017,0.064025884682077594,-0.064025884682077594,-0.23149915702029017,4.7220659072240503,0.0
679640.0783812654,3975767.5119837918,-22500.0,-4.0023845867284811,-1.2526040855950487,0.0013316090546904023,-2.1476755975165376,-0.73662191768147733,-0.92237699308797727,2.9505725667514282,0.10925666374336467,0.19178974769428275,-0.19178974769428275,-0.10925666374336467,5.7755633334372227,0.0
684640.0783812654,3975767.5119837918,-22500.0,-4.5263432385486331,-1.7959324213721155,-0.30850073843348796,-2.6880618939748864,-1.1617980927899463,-1.2807287844020854,3.6080440561659564,-0.07492762165715075,0.33483351931623362,-0.33483351931623362,0.07492762165715075,7.0736972232498339,0.0
689640.0783812654,3975767.5119837918,-22500.0,-4.9746951588235016,-2.4617758858605363,-0.8138648192807133,-3.3170691314060372,-1.7740936275124313,-1.7733307738604769,4.4168426005884749,-0.33063748616574457,0.46537801406260676,-0.46537801406260676,0.33063748616574457,8.6529184660794005,0.0
694640.0783812654,3975767.5119837918,-22500.0,-5.2436693349126511,-3.2209515590293694,-1.5917522690444295,-4.0041085427668532,-2.6316328089875514,-2.4377836469014209,5.3897553737128137,-0.65425519780951624,0.52557477219823967,-0.52557477219823967,0.65425519780951624,10.533819209995867,0.0
699640.0783812654,3975767.5119837918,-22500.0,-5.1939804940724628,-3.9870629501580912,-2.7190302350254769,-4.6750296208031585,-3.7866676124226433,-3.3069628340514141,6.5188918145132426,-1.0128876757840111,0.41292431625413462,-0.41292431625413462,1.0128876757840111,12.70000839291594,0.0
704640.0783812654,3975767.5119837918,-22500.0,-4.6729683701992277,-4.5858465489422535,-4.236317195910976,-5.1921359702616616,-5.2563636756332315,-4.3904611092422483,7.7609870611729566,-1.3217424705111696,-0.028502190137174588,0.028502190137174588,1.3217424705111696,15.066518783620861,0.0
709640.0783812654,3975767.5119837918,-22500.0,-3.5751563253253384,-4.7376061007129744,-6.0796228515110657,-5.3450554726752975,-6.9715096664444003,-5.6426991685337127,9.0191228009680451,-1.422883851446926,-0.99194278714170458,0.99194278714170458,1.422883851446926,17.441858385776062,0.0
714640.0783812654,3975767.5119837918,-22500.0,-1.9482735310885197,-4.0913181680648396,-7.98454494235017,-4.8782971604015168,-8.7088696949317299,-6.9213903945224722,10.131094520465105,-1.0884804097519165,-2.6361535246449108,2.6361535246449108,1.0884804097519165,19.501092724322753,0.0
719640.0783812654,3975767.5119837918,-22500.0,-0.10988260178346648,-2.3609684309981471,-9.4104406955731736,-3.5873949464754435,-10.04241316514439,-7.9574243318881539,10.885437397319791,-0.087581606213560814,-4.9345155938072338,4.9345155938072338,0.087581606213560814,20.808139853151513,0.0
724640.0783812654,3975767.5119837918,-22500.0,1.3333054820706185,0.42632052527586944,-9.593500886739033,-1.4868653835443428,-10.388179926582161,-8.3801115288689054,11.089575962671708,1.656081139840504,-7.4829351354416183,7.4829351354416183,-1.656081139840504,20.941092157051553,0.0
729640.0783812654,3975767.5119837918,-22500.0,1.7034863846342754,3.6943134674895735,-7.8441814496514235,1.0326047536671763,-9.2175284009444365,-7.8418431565558473,10.691155410190225,3.8675124544361221,-9.4250712512479016,9.4250712512479016,-3.8675124544361221,19.752640443304212,0.0
734640.0783812654,3975767.5119837918,-22500.0,0.7003886693210668,6.3638548779588726,-4.036469641441351,3.2306153778619127,-6.3995603929234077,-6.2218466982819844,9.8990630921758562,5.863618813225413,-9.7143434800394832,9.7143434800394832,-5.863618813225413,17.698452321060955,0.0
739640.0783812654,3975767.5119837918,-22500.0,-1.2424860715236048,7.3532871425202835,1.0661038728232306,4.3374895089827197,-2.4364298516824534,-3.7764229200170769,9.175702476925931,6.8183972306051057,-7.7184792247044474,7.7184792247044474,-6.8183972306051057,15.939346191124349,0.0
744640.0783812654,3975767.5119837918,-22500.0,-3.1166808033645892,6.2556430441153381,6.057055692206931,4.0003847998472013,1.6815347703223869,-1.0763425531741813,8.9306033744069957,6.2563306063734538,-3.7391474459143614,3.7391474459143614,-6.2563306063734538,15.604294885524611,0.0
749640.0783812654,3975767.5119837918,-22500.0,-3.980300138148515,3.5950981517939233,9.6302169443527106,2.481279145487147,4.967035608996154,1.263972961222567,9.1128311747359394,4.364298960374402,1.0767885906262635,-1.0767885906262635,-4.364298960374402,16.511513133848304,0.0
754640.0783812654,3975767.5119837918,-22500.0,-3.5113997293957588,0.42817995182244478,11.212569960637698,0.43909648846098703,6.88965227820918,2.8606264893119024,9.3267059166382325,1.8343428638957859,5.4006592258148896,-5.4006592258148896,-1.8343428638957859,17.52446397446823,0.0
759640.0783812654,3975767.5119837918,-22500.0,-2.0328321435569578,-2.2963514176749311,11.026720113800744,-1.4728326460510199,7.4736327980963315,3.6488694831610506,9.2637956139768942,-0.57944180916486809,8.3737804451519988,-8.3737804451519988,0.57944180916486809,17.84730002956767,0.0
764640.0783812654,3975767.5119837918,-22500.0,-0.14735938525914077,-4.1010312446131456,9.7153556402402312,-2.869022259584185,7.0873687229663584,3.7897268566166695,8.8504016012349798,-2.3994416428291063,9.8031599738819253,-9.8031599738819253,2.3994416428291063,17.314302190600614,0.0
769640.0783812654,3975767.5119837918,-22500.0,1.6227416973398245,-4.9577459159449644,7.9339660880734515,-3.6568544626547421,6.172829406823058,3.5216297309726539,8.1637791326510136,-3.490257373616481,9.9626597478537118,-9.9626597478537118,3.490257373616481,16.112727163421727,0.0
774640.0783812654,3975767.5119837918,-22500.0,2.9878781491164781,-5.0832227498520846,6.1417298289411688,-3.928129482800808,5.0806268708842612,3.056130920668847,7.3264065843961719,-3.946408144731345,9.2944875872710302,-9.2944875872710302,3.946408144731345,14.525238456534415,0.0
779640.0783812654,3975767.5119837918,-22500.0,3.870772750333638,-4.7510792659946652,4.5775324368885881,-3.8405309303929984,4.025730873551491,2.5384493051138319,6.4443771373681749,-3.9517759689285388,8.2047070709641137,-8.2047070709641137,3.9517759689285388,12.798556589465905,0.0
784640.0783812654,3975767.5119837918,-22500.0,4.3219880071748094,-4.190851959734089,3.3208774495751854,-3.5437929177349892,3.1101914571330664,2.0500964911822108,5.5882017708327751,-3.6868771626064607,6.9832440761348504,-6.9832440761348504,3.6868771626064607,11.102895870143655,0.0
789640.0783812654,3975767.5119837918,-22500.0,4.4429666165302502,-3.5590023385801937,2.3627400971682668,-3.1506091659212663,2.3637455851579472,1.6270997500276545,4.7990893689718481,-3.2901027600383292,5.8027910473918949,-5.8027910473918949,3.2901027600383292,9.5362044080605148,0.0
794640.0783812654,3975767.5119837918,-22500.0,4.3388267133889817,-2.9466107534244079,1.6567629102337214,-2.7341149900936403,1.7782302505896128,1.2784810772218029,4.0972520258604259,-2.8525922383988047,4.7482581991558224,-4.7482581991558224,2.8525922383988047,8.1431656625162852,0.0
799640.0783812654,3975767.5119837918,-22500.0,4.0972081016717548,-2.3982154962443851,1.1482608524261,-2.3360647110771655,1.3299298871333163,0.99967933970655642,3.4879613264769653,-2.4272621790149747,3.8491009315620199,-3.8491009315620199,2.4272621790149747,6.9345925334045511,0.0
804640.0783812654,3975767.5119837918,-22500.0,3.7829431691469688,-1.929579268217017,0.7875286596551373,-1.9768225143692444,0.99176032824474269,0.78070929083465312,2.967327156712162,-2.0406728004293688,3.1042101275536851,-3.1042101275536851,2.0406728004293688,5.9022925450003152,0.0
809640.0783812654,3975767.5119837918,-22500.0,3.4401608559782346,-1.5406691405661639,0.53426102616353843,-1.6636319116354739,0.73887082181894381,0.61049296580389512,2.5268315318989356,-1.7030665355095571,2.4980896688230727,-2.4980896688230727,1.7030665355095571,5.0289492577904982,0.0
814640.0783812654,3975767.5119837918,-22500.0,3.0968325630804769,-1.2239280095802305,0.35774028780647943,-1.396420243132068,0.5505993087951041,0.47884476406565057,2.1562646373744205,-1.4154903298636383,2.0102184302786901,-2.0102184302786901,1.4154903298636383,4.2940683566918425,0.0
819640.0783812654,3975767.5119837918,-22500.0,2.7693734118052094,-0.96905153961386126,0.23540154775790911,-1.1714870310012748,0.4106609584790033,0.3771783996131326,1.8453954405116044,-1.1743523628491916,1.6199198106514998,-1.6199198106514998,1.1743523628491916,3.6772423157964722,0.0
824640.0783812654,3975767.5119837918,-22500.0,2.4664193136087516,-0.76550063024532045,0.15103945581977546,-0.98367663244510928,0.30661572859456726,0.29859024501551978,1.5848086878715868,-0.97412165107963467,1.3085663345890441,-1.3085663345890441,0.97412165107963467,3.1597454656001682,0.0
649640.0783812654,3980767.5119837918,-22500.0,-1.3662549492505944,0.28720056531505428,0.34102800510934594,-0.46084602342670605,0.11259130586583771,-0.11892895350954771,0.97963929909872594,0.4364369164717386,-0.33495721974833231,0.33495721974833231,-0.4364369164717386,1.8065765656032629,0.0
654640.0783812654,3980767.5119837918,-22500.0,-1.6623830618617603,0.25013067096860531,0.38907647954128777,-0.59640230632247337,0.10162796224074223,-0.16546799361840631,1.1619728149743631,0.47641879824980787,-0.33876644803900374,0.33876644803900374,-0.47641879824980787,2.159663906929806,0.0
659640.0783812654,3980767.5119837918,-22500.0,-2.0214941660390155,0.18300799763237321,0.43831916162854939,-0.77418374430790637,0.075799063073655415,-0.23156781086545061,1.3883505119366406,0.5136424696582329,-0.33089733462377668,0.33089733462377668,-0.5136424696582329,2.6014278666242379,0.0
664640.0783812654,3980767.5119837918,-22500.0,-2.4536389052760788,0.072489881733991526,0.48374881934671943,-1.0074883840484647,0.025915045932138909,-0.3260375446357543,1.6711564335331908,0.54361519937934155,-0.30600817820863091,0.30600817820863091,-0.54361519937934155,3.1572490754743736,0.0
669640.0783812654,3980767.5119837918,-22500.0,-2.9671983723222226,-0.099437894662139523,0.51606684654510349,-1.3131755303820583,-0.062231365538832413,-0.4617920226253433,2.0264149995545644,0.55947892512668562,-0.25756076458278965,0.25756076458278965,-0.55947892512668562,3.8597635418612617,0.0
674640.0783812654,3980767.5119837918,-22500.0,-3.5655261538078578,-0.35617907057932302,0.51895972470790219,-1.7117628693788651,-0.21034917531615052,-0.65767490747328761,2.4747280033951045,0.55128057099188144,-0.17847114316527649,0.17847114316527649,-0.55128057099188144,4.750291958469866,0.0
679640.0783812654,3980767.5119837918,-22500.0,-4.2410453047317844,-0.72625795751725364,0.46505888979185478,-2.2264300391200105,-0.45104522685609899,-0.94086470369093589,3.0422919605238437,0.50547610546361588,-0.063038663752541524,0.063038663752541524,-0.50547610546361588,5.8797333553336966,0.0
684640.0783812654,3980767.5119837918,-22500.0,-4.9656703060027896,-1.2405228023233663,0.31043307243761492,-2.8796147730258066,-0.83200285355457337,-1.3496994549688874,3.7616961271741056,0.40538525455513086,0.088612563961524254,-0.088612563961524254,-0.40538525455513086,7.3078174901499837,0.0
689640.0783812654,3980767.5119837918,-22500.0,-5.6767771341525144,-1.9239514212712026,-0.011753400087375963,-3.6849144365767743,-1.4199922984454914,-1.936136952728936,4.6710079320425617,0.23411846665990263,0.26163706326508906,-0.26163706326508906,-0.23411846665990263,9.0985577031683107,0.0
694640.0783812654,3980767.5119837918,-22500.0,-6.2598766497107539,-2.7774457586045611,-0.59563420913032816,-4.6308699564367872,-2.3018168266052883,-2.7656706940232039,5.806785289628821,-0.017238615129946455,0.41070632978371807,-0.41070632978371807,0.017238615129946455,11.308123390381279,0.0
699640.0783812654,3980767.5119837918,-22500.0,-6.5345667771053009,-3.7439657088681155,-1.5576036861448017,-5.6528952304964211,-3.5754452290646572,-3.9098576155106226,7.187165096567627,-0.3320624949929149,0.4361616701741971,-0.4361616701741971,0.3320624949929149,13.959409589110553,0.0
704640.0783812654,3980767.5119837918,-22500.0,-6.2614796437302873,-4.6567627057338576,-3.0063037535220078,-6.5930325997040997,-5.3186128099885934,-5.4226572241083097,8.7871835292698446,-0.63762443298736771,0.15714347238355922,-0.15714347238355922,0.63762443298736771,16.99684554715617,0.0
709640.0783812654,3980767.5119837918,-22500.0,-5.203539752974546,-5.1835249667637644,-4.9636703574526955,-7.1602125699863448,-7.5171935073919851,-7.288817819075204,10.506897660145372,-0.76534092987248226,-0.69626332343301733,0.69626332343301733,0.76534092987248226,20.219877259695934,0.0
714640.0783812654,3980767.5119837918,-22500.0,-3.2795307100033257,-4.8188082126096399,-7.2192147311239676,-6.9323471134930434,-9.9438081555752476,-9.338821057602642,12.138343508476567,-0.42842657414643437,-2.4200836201584481,2.4200836201584481,0.42842657414643437,23.212872065327868,0.0
719640.0783812654,3980767.5119837918,-22500.0,-0.79910740358192578,-3.0288147105349732,-9.1545057022261229,-5.4766414123066705,-12.023175924072948,-11.156352362505594,13.363237086196445,0.71746349476831961,-5.1308363763761022,5.1308363763761022,-0.71746349476831961,25.332164021112821,0.0
724640.0783812654,3980767.5119837918,-22500.0,1.3807377706304629,0.35870641466451142,-9.7049021393968093,-2.6497380661725911,-12.819058382885173,-12.068836629512656,13.840218010146371,2.8494610664114495,-8.4120964652024384,8.4120964652024384,-2.8494610664114495,25.867343211506263,0.0
729640.0783812654,3980767.5119837918,-22500.0,2.1055429895927009,4.6473945580636054,-7.7371958630221993,1.0242524989383697,-11.350897080931778,-11.357637722510601,13.425152965043464,5.6205960966330455,-11.050178798261213,11.050178798261213,-5.6205960966330455,24.496793113347501,0.0
734640.0783812654,3980767.5119837918,-22500.0,0.73810094378455049,8.1793646957667931,-2.9043126703559565,4.2812807648244799,-7.2718357128070741,-8.7101428866857038,12.446514095059619,7.9879044559937649,-11.358451115498916,11.358451115498916,-7.9879044559937649,21.96485774599229,0.0
739640.0783812654,3980767.5119837918,-22500.0,-2.0438084051398699,9.1837423065224311,3.6505878538727683,5.7225106294196122,-1.4312239931378665,-4.6123586877673164,11.704773804966869,8.6624864973459115,-8.2851516650361834,8.2851516650361834,-8.6624864973459115,20.274612222047896,0.0
744640.0783812654,3980767.5119837918,-22500.0,-4.5063698729459389,7.1029595010912212,9.7005509107006596,4.7824962118309156,4.3935383927973737,-0.22077570600608093,11.770619137811892,7.0462105642434603,-2.4527273697284331,2.4527273697284331,-7.0462105642434603,20.909334484240695,0.0
749640.0783812654,3980767.5119837918,-22500.0,-5.1774816277920959,3.0263159486911806,13.357711880178988,2.1093760497244056,8.5582076609013189,3.2961772436143746,12.291200188697715,3.7358960316986538,4.1009450130208487,-4.1009450130208487,-3.7358960316986538,22.778241983689938,0.0
754640.0783812654,3980767.5119837918,-22500.0,-3.8397076130083989,-1.2457009561229582,14.13185633320369,-1.0237291201298506,10.422225221149089,5.3561803455943631,12.55450532517207,0.02862247331742207,9.3175028145483552,-9.3175028145483552,-0.02862247331742207,23.998847675696123,0.0
759640.0783812654,3980767.5119837918,-22500.0,-1.3139827710300105,-4.4051459229675283,12.758258884449944,-3.5756468994357795,10.341008453186395,6.0382590761469972,12.222835185446147,-2.9718490606052752,12.21816124868484,-12.21816124868484,2.9718490606052752,23.790795971330233,0.0
764640.0783812654,3980767.5119837918,-22500.0,1.3701435343530597,-6.0616788957561347,10.359887780014338,-5.1174478686985632,9.1009821628574574,5.7741444086313791,11.352164385990141,-4.8062289773069393,12.943462748205899,-12.943462748205899,4.8062289773069393,22.313677060132214,0.0
769640.0783812654,3980767.5119837918,-22500.0,3.5361357499248447,-6.4633231155110646,7.8188914594617316,-5.710594396642187,7.4209572422911654,5.0263372614817055,10.156241403224868,-5.5545558508316102,12.184797043168254,-12.184797043168254,5.5545558508316102,20.063615061393101,0.0
774640.0783812654,3980767.5119837918,-22500.0,4.9479310025856567,-6.0697220812725945,5.6060128820724602,-5.6298633091226229,5.7582061218360234,4.1304218961520123,8.8435365507737362,-5.5346289115346812,10.667876760454995,-10.667876760454995,5.5346289115346812,17.513447836534059,0.0
779640.0783812654,3980767.5119837918,-22500.0,5.6575653235266286,-5.2898981842302923,3.874204618113354,-5.1634414170142504,4.3272388789093998,3.2754105926597283,7.5598670741878582,-5.0766207042387741,8.9197131312821369,-8.9197131312821369,5.0766207042387741,14.990471459263039,0.0
784640.0783812654,3980767.5119837918,-22500.0,5.8351445124145185,-4.3987797066578773,2.6042927804963476,-4.5291043156086763,3.1870241740988057,2.5425921532856761,6.3876822954465311,-4.4281167366792635,7.2438356427236874,-7.2438356427236874,4.4281167366792635,12.676713736071438,0.0
789640.0783812654,3980767.5119837918,-22500.0,5.6626952218335305,-3.5482277688448267,1.7111406458826424,-3.8633931637423893,2.318982343766661,1.9507443352912592,5.3623161294793826,-3.7428666924560696,5.7782028364026425,-5.7782028364026425,3.7428666924560696,10.649206772490745,0.0
794640.0783812654,3980767.5119837918,-22500.0,5.2887809587963011,-2.8056291014284302,1.1001392923903273,-3.2394595934885579,1.6760113803462833,1.4889348762113799,4.4894265918593117,-3.1021959113435722,4.561532733501374,-4.561532733501374,3.1021959113435722,8.9213988484136095,0.0
799640.0783812654,3980767.5119837918,-22500.0,4.8188162543257436,-2.1894461067991373,0.6901211283472376,-2.6892230703054656,1.2073543806759885,1.1356282922285819,3.7587332709920753,-2.540878927034488,3.5823088113211106,-3.5823088113211106,2.540878927034488,7.4736293426405966,0.0
804640.0783812654,3980767.5119837918,-22500.0,4.3207190546885643,-1.6936905846291628,0.4189192736325868,-2.2209356155941027,0.86874277256220767,0.86813867162916192,3.1530709959280641,-2.0673479271225994,2.80851338458984,-2.80851338458984,2.0673479271225994,6.2722121998622189,0.0
809640.0783812654,3980767.5119837918,-22500.0,3.8346470134927801,-1.3023755271464834,0.24173888455959155,-1.8307947716460329,0.62507263448465344,0.66650679614103425,2.6535923782596611,-1.6768715922103885,2.2033571697212215,-2.2033571697212215,1.6768715922103885,5.2800934123523673,0.0
814640.0783812654,3980767.5119837918,-22500.0,3.3820237282676033,-0.9971166345707424,0.12743248607921789,-1.5098182590586344,0.44988527577349374,0.5145723983099485,2.2423936043555344,-1.3592428640510446,1.7325163764500227,-1.7325163764500227,1.3592428640510446,4.462155068637867,0.0
819640.0783812654,3980767.5119837918,-22500.0,2.9724409996683661,-0.76066237058455055,0.054802755606189239,-1.2475674144314464,0.32380233879420245,0.39981928882511475,1.903638190429499,-1.1028704782410406,1.3667864647638581,-1.3667864647638581,1.1028704782410406,3.7874338079766554,0.0
824640.0783812654,3980767.5119837918,-22500.0,2.6084441564648482,-0.57822730096537545,0.0096114243426161806,-1.0339772406602064,0.23285892702582736,0.31279134344522541,1.6238943847110869,-0.89674194654787842,1.0825066047810037,-1.0825066047810037,0.89674194654787842,3.2297016599761639,0.0
829640.0783812654,3980767.5119837918,-22500.0,2.2886510581227171,-0.4377426257320115,-0.017629585915211649,-0.86012921654610153,0.16707672099402471,0.24644090132386381,1.3920747896376533,-0.73121734999712518,0.8610361834708592,-0.8610361834708592,0.73121734999712518,2.7672566734267328,0.0
644640.0783812654,3985767.5119837918,-22500.0,-0.93171188949880324,0.47308509763695611,0.31104186160446323,-0.28511738913602158,0.17311037394928475,-0.065052179392337914,0.83390324243488922,0.44919069396266842,-0.41698683578569462,0.41698683578569462,-0.44919069396266842,1.4912066401496795,0.0
649640.0783812654,3985767.5119837918,-22500.0,-1.1593122307026611,0.4967918378401262,0.36861608787048045,-0.3775965788848844,0.18862707872308848,-0.093219759074054831,0.98090924693542969,0.50802156423907385,-0.45121858659739134,0.45121858659739134,-0.50802156423907385,1.7655281564492797,0.0
654640.0783812654,3985767.5119837918,-22500.0,-1.4434756637160184,0.50995512239853025,0.43653333046069515,-0.50157771587280486,0.2008064779568508,-0.1340424767894329,1.1626721084401463,0.57321216052837942,-0.48299381561208637,0.48299381561208637,-0.57321216052837942,2.1078842333119105,0.0
659640.0783812654,3985767.5119837918,-22500.0,-1.7977133003061909,0.50491767555191702,0.51540806770854164,-0.66843083450406837,0.20555099147356373,-0.19364488595568688,1.3892416459909251,0.64395574173382086,-0.50890216451871395,0.50890216451871395,-0.64395574173382086,2.5387279423326539,0.0
664640.0783812654,3985767.5119837918,-22500.0,-2.2375806587769671,0.47021171389223826,0.60461475182315727,-0.89363532019144809,0.19589202891655527,-0.28132096778604082,1.6739429652831201,0.71824308496525968,-0.52389503527628745,0.52389503527628745,-0.71824308496525968,3.0853079100894405,0.0
669640.0783812654,3985767.5119837918,-22500.0,-2.7797091754542143,0.38902672655462611,0.70096272765051726,-1.1980127692057805,0.16018037824274822,-0.41123084157768774,2.0344616149658483,0.79214825071852024,-0.52085809443586073,0.52085809443586073,-0.79214825071852024,3.7838568886062021,0.0
674640.0783812654,3985767.5119837918,-22500.0,-3.439308483314941,0.23740220335158893,0.7963556578783253,-1.6089463425034387,0.079229448622516851,-0.6049666709126762,2.49421932089209,0.85886702474658116,-0.49042133309428959,0.49042133309428959,-0.85886702474658116,4.6822068068450866,0.0
679640.0783812654,3985767.5119837918,-22500.0,-4.2248462307921466,-0.017422802291917901,0.87382196767546949,-2.1610027447729272,-0.078057202890689487,-0.89531586808748442,3.0840331929844043,0.90761180899064653,-0.42157680139164844,0.42157680139164844,-0.90761180899064653,5.8425172049142899,0.0
684640.0783812654,3985767.5119837918,-22500.0,-5.1278967250457388,-0.41726608553060623,0.90114080956653886,-2.894565528893744,-0.36101612860017279,-1.3314593467710261,3.8439320747858425,0.92281602654930228,-0.30434295597360383,0.30434295597360383,-0.92281602654930228,7.343175512434116,0.0
689640.0783812654,3985767.5119837918,-22500.0,-6.1055414094386293,-1.0089533604657097,0.82147384578427041,-3.8495441685947411,-0.84544092451673203,-1.9853077284744882,4.8245643406431649,0.88491940863472118,-0.13690000961997434,0.13690000961997434,-0.88491940863472118,9.2776175286510867,0.0
694640.0783812654,3985767.5119837918,-22500.0,-7.0532677504261789,-1.8300247750377305,0.54180506616318314,-5.0486514233681605,-1.6417586722188873,-2.9570009061313831,6.0856269646191308,0.77565694890041836,0.058668687344943515,-0.058668687344943515,-0.77565694890041836,11.745331771370672,0.0
699640.0783812654,3985767.5119837918,-22500.0,-7.7709155966869563,-2.8739850039057813,-0.075453909460240082,-6.461553379992905,-2.8963078013104639,-4.3734467274360602,7.6830662876482974,0.59347050514420618,0.20660446559156742,-0.20660446559156742,-0.59347050514420618,14.826261028174034,0.0
704640.0783812654,3985767.5119837918,-22500.0,-7.9386112072675203,-4.0224212891035789,-1.2012678494743454,-7.9405636601774869,-4.7683444873587284,-6.3654042621642386,9.6343268043492394,0.38724424016960102,0.13133358171704801,-0.13133358171704801,-0.38724424016960102,18.525013913796755,0.0
709640.0783812654,3985767.5119837918,-22500.0,-7.1504325111180904,-4.942170394161435,-2.9729050534306101,-9.1307330024798166,-7.3489061930992197,-8.9963531920512168,11.862523574550343,0.31312425742387823,-0.48943550688159448,0.48943550688159448,-0.31312425742387823,22.671034602698587,0.0
714640.0783812654,3985767.5119837918,-22500.0,-5.0927841800085654,-4.9959101459031414,-5.3170884593439327,-9.4029929345381422,-10.478177804995147,-12.111397035030524,14.128459298890023,0.69387073409033073,-2.1072426915193403,2.1072426915193403,-0.69387073409033073,26.781332065415327,0.0
719640.0783812654,3985767.5119837918,-22500.0,-1.9366904281394905,-3.328021180882017,-7.6478133553991086,-7.95267354674447,-13.464871417523229,-15.11485214908727,15.985608383110563,1.9921815472194249,-5.0786520133240929,5.0786520133240929,-1.9921815472194249,29.964800705592079,0.0
724640.0783812654,3985767.5119837918,-22500.0,1.2161038172938909,0.61277767897996172,-8.6247100294275878,-4.2733998892351384,-14.898540159661247,-16.830328933162971,16.869498464048164,4.5282063466192142,-9.1009269730174154,9.1009269730174154,-4.5282063466192142,31.092371939859994,0.0
729640.0783812654,3985767.5119837918,-22500.0,2.4733488626065605,6.1060542779495695,-6.5065752386725846,1.0162955726799749,-13.031018468831345,-15.803816561201884,16.478971766952665,7.8784376705205741,-12.556296650188793,12.556296650188793,-7.8784376705205741,29.5793652419332,0.0
734640.0783812654,3985767.5119837918,-22500.0,0.55247538455616241,10.655436713910374,-0.53486153068083631,5.7577285474061082,-7.0635142454170836,-11.290417792332542,15.39002924701224,10.458410931371814,-12.771358990787705,12.771358990787705,-10.458410931371814,26.801272631853099,0.0
739640.0783812654,3985767.5119837918,-22500.0,-3.4562129410471787,11.366043305996842,7.6046239414881098,7.3791674335438397,1.5287092613795819,-4.2817579308246252,15.041120188854533,10.283385212608545,-8.0066499629122685,8.0066499629122685,-10.283385212608545,26.269428408304087,0.0
744640.0783812654,3985767.5119837918,-22500.0,-6.5087794018940341,7.5694698763148418,14.42730976261559,5.056745171453966,9.5037310279979668,2.7885573553968692,15.995878830939773,6.7607716747350937,0.44131785149753266,-0.44131785149753266,-6.7607716747350937,29.149198567192734,0.0
749640.0783812654,3985767.5119837918,-22500.0,-6.4014261010458817,1.502453925723328,17.378323460206396,0.39674820078331124,14.213999803976298,7.7329052494903632,17.082790604782495,1.4121113501273612,8.9676647553223088,-8.9676647553223088,-1.4121113501273612,32.287809685308076,0.0
754640.0783812654,3985767.5119837918,-22500.0,-3.4546791582819587,-3.8871360165113025,16.474877096176133,-4.1876390081934023,15.202209492605556,9.8756212519576447,17.198780639967381,-3.5065831940254419,14.591835056049987,-14.591835056049987,3.5065831940254419,33.173439836784397,0.0
759640.0783812654,3985767.5119837918,-22500.0,0.54017039611224171,-7.0657453952909428,13.387126805089641,-7.2258627385675007,13.64943504669729,9.8288639853454587,16.195975581557203,-6.6528038307373087,16.597750310685417,-16.597750310685417,6.6528038307373087,31.58049173361152,0.0
764640.0783812654,3985767.5119837918,-22500.0,4.0291154575493229,-8.0786187755645216,9.7997147441753398,-8.5017062291492955,11.026937435497254,8.595128488463903,14.461346371645902,-7.9162814391309961,15.90364807371318,-15.90364807371318,7.9162814391309961,28.376204425336041,0.0
769640.0783812654,3985767.5119837918,-22500.0,6.3437754714327887,-7.6723543238767649,6.6694037994265152,-8.4722611470483731,8.3399184927840047,6.9707955069523262,12.442948476523849,-7.8362911716962751,13.808664712215549,-13.808664712215549,7.8362911716962751,24.513066378784188,0.0
774640.0783812654,3985767.5119837918,-22500.0,7.4887997458429387,-6.5930470890976851,4.3011880936537805,-7.7095879911267895,6.0540598903817635,5.406004885728751,10.455198663724497,-7.0333667810482456,11.296907263137085,-11.296907263137085,7.0333667810482456,20.652668968300819,0.0
779640.0783812654,3985767.5119837918,-22500.0,7.7543908341502075,-5.3372696519685618,2.6531133802906308,-6.6498892562407708,4.286302177214945,4.086074822421323,8.6638578006605567,-5.9617606132346914,8.9148725012869434,-8.9148725012869434,5.9617606132346914,17.146604873745819,0.0
784640.0783812654,3985767.5119837918,-22500.0,7.465198712299796,-4.1624276540824603,1.5654812664267044,-5.5551247646380952,2.9906769547852061,3.0474978859422985,7.13001871901636,-4.8831700520578298,6.8876565948064172,-6.8876565948064172,4.8831700520578298,14.129672721566386,0.0
789640.0783812654,3985767.5119837918,-22500.0,6.879008245604151,-3.1692402785136018,0.87347922183555826,-4.5547355933847111,2.0698943637664544,2.261160312846505,5.8555617981555219,-3.9194685544158308,5.2602744085530126,-5.2602744085530126,3.9194685544158308,11.613817952556655,0.0
794640.0783812654,3985767.5119837918,-22500.0,6.1695366290847753,-2.3749818286704052,0.44554984530613206,-3.697036615171712,1.4266398358638079,1.6780670794432189,4.8146348313583793,-3.1104653365764605,3.9962811260497357,-3.9962811260497357,3.1104653365764605,9.5530084266404156,0.0
799640.0783812654,3985767.5119837918,-22500.0,5.4413929104948657,-1.7601303806127213,0.18787061076540054,-2.9875515278815268,0.98116706623605665,1.2499851746016624,3.971896828956226,-2.4548168840768367,3.0324488028121035,-3.0324488028121035,2.4548168840768367,7.8807599288136432,0.0
804640.0783812654,3985767.5119837918,-22500.0,4.7511944768746961,-1.2933453701422419,0.0374327534823461,-2.4125081284748147,0.67373316146799234,0.93668406931423609,3.2918431461508986,-1.9340400533550515,2.3044344363069769,-2.3044344363069769,1.9340400533550515,6.5291583186140363,0.0
809640.0783812654,3985767.5119837918,-22500.0,4.1253577191167397,-0.94307327080019165,-0.046627757632369538,-1.9515700756969101,0.46162370298913502,0.70708571561475264,2.7428934935895111,-1.524935560367279,1.7566380239540087,-1.7566380239540087,1.524935560367279,5.4371309848841278,0.0
814640.0783812654,3985767.5119837918,-22500.0,3.5726564060082513,-0.68201756686993009,-0.090252794998858105,-1.5840188932860517,0.31505886732091976,0.53812384760389786,2.2986344883252827,-1.2052624531810463,1.3445191621953718,-1.3445191621953718,1.2052624531810463,4.5530925919593734,0.0
819640.0783812654,3985767.5119837918,-22500.0,3.0922939179823055,-0.48820511690059476,-0.10968281984682933,-1.2913471745369827,0.21354556673611766,0.41303749177567656,1.9376840537225808,-0.95587290500807032,1.0337982858977843,-1.0337982858977843,0.95587290500807032,3.8349346391889445,0.0
824640.0783812654,3985767.5119837918,-22500.0,2.6787793085294123,-0.34462534103153575,-0.11498123228125209,-1.0580445592084173,0.14306158593640411,0.31977304549166735,1.6430245743972147,-0.76115446907682094,0.79866614504903521,-0.79866614504903521,0.76115446907682094,3.2489359015235673,0.0
829640.0783812654,3985767.5119837918,-22500.0,2.3247251583142439,-0.23839913368156646,-0.11232688886625203,-0.87155618046493499,0.094023189264103219,0.24969459947197151,1.4012236382399206,-0.60875417618451155,0.61991610974342193,-0.61991610974342193,0.60875417618451155,2.7683697509013667,0.0
644640.0783812654,3990767.5119837918,-22500.0,-0.67691535960218008,0.62927510349319193,0.29615902631700625,-0.191516846213375,0.22634145398083652,-0.038501967720565022,0.84326784306246283,0.47546236816855125,-0.49905065194267539,0.49905065194267539,-0.47546236816855125,1.4781443218942238,0.0
649640.0783812654,3990767.5119837918,-22500.0,-0.87071679202371055,0.69466127399200917,0.35876156775109791,-0.26522482444792311,0.2593283277703427,-0.059369292273962031,0.98929683058509577,0.54804455078674985,-0.55677327967487089,0.55677327967487089,-0.54804455078674985,1.7414983874010319,0.0
654640.0783812654,3990767.5119837918,-22500.0,-1.1191050662259279,0.76156596128660936,0.43614934060472105,-0.3669735396272592,0.29534124119599886,-0.090791963736094661,1.16954956637438,0.63255883403293711,-0.61865391897250643,0.61865391897250643,-0.63255883403293711,2.0694423995979836,0.0
659640.0783812654,3990767.5119837918,-22500.0,-1.4376273975589959,0.8258034457538771,0.53157360946731047,-0.50807025253054172,0.33275021079609945,-0.13839289188219384,1.3940550159033511,0.73035936239934207,-0.68291685653004741,0.68291685653004741,-0.73035936239934207,2.4818817973069143,0.0
664640.0783812654,3990767.5119837918,-22500.0,-1.8456562408204338,0.88012230169906558,0.64848140656402475,-0.70456129569403136,0.36798793860554901,-0.21100601865735277,1.676276447890761,0.84236770068473743,-0.74626818604469491,0.74626818604469491,-0.84236770068473743,3.0058397027133377,0.0
669640.0783812654,3990767.5119837918,-22500.0,-2.366478933204172,0.91251411516524761,0.78990443415008871,-0.97912394083131826,0.39399704309569217,-0.32261385039608631,2.0343817760219545,0.96853945831303756,-0.80315308490385862,0.80315308490385862,-0.96853945831303756,3.6781403999168094,0.0
674640.0783812654,3990767.5119837918,-22500.0,-3.02629340862305,0.90381790900081349,0.95709102404192292,-1.3634583724808935,0.39755183389910453,-0.49546751535851835,2.4929551396247214,1.1070084397168369,-0.84486992576866315,0.84486992576866315,-1.1070084397168369,4.5489600784868047,0.0
679640.0783812654,3990767.5119837918,-22500.0,-3.8507605123172302,0.8246199896478088,1.1467105584966546,-1.900897700085445,0.35472859804796358,-0.76504094436479486,3.0852340125343631,1.2528395371958718,-0.85882297708101452,0.85882297708101452,-1.2528395371958718,5.6862391611283387,0.0
684640.0783812654,3990767.5119837918,-22500.0,-4.8566129610035285,0.63198670694323877,1.3455118112004805,-2.6481776791269476,0.22349004614778045,-1.1876535028650208,3.8558807505042312,1.3965037272180809,-0.82877200753884439,0.82877200753884439,-1.3965037272180809,7.1804506061971107,0.0
689640.0783812654,3990767.5119837918,-22500.0,-6.0341222897168398,0.26803722727564167,1.5208050614638682,-3.6734838131997947,-0.067758805535893848,-1.8514551528573819,4.864069993529478,1.5227816564666605,-0.73823017176047778,0.73823017176047778,-1.5227816564666605,9.1479309636966946,0.0
694640.0783812654,3990767.5119837918,-22500.0,-7.3145331327127829,-0.33420088146941562,1.6051011306255716,-5.0440676793078749,-0.6358526390352951,-2.8901065428590873,6.1858311350153503,1.612340367115753,-0.58171631396008128,0.58171631396008128,-1.612340367115753,11.72804381462586,0.0
699640.0783812654,3990767.5119837918,-22500.0,-8.5175964157341557,-1.2253809873031927,1.4755499604171547,-6.7898772303909709,-1.6586908930720257,-4.4936219507904154,7.9106307799905355,1.6515556110659968,-0.39263157242905034,0.39263157242905034,-1.6515556110659968,15.06349626372926,0.0
704640.0783812654,3990767.5119837918,-22500.0,-9.2863170460153963,-2.3723684916808159,0.93839541801747139,-8.8209607941306238,-3.3742171399702867,-6.8978002750700904,10.114599335098607,1.6616428998253987,-0.29981448514402775,0.29981448514402775,-1.6616428998253987,19.243085221386313,0.0
709640.0783812654,3990767.5119837918,-22500.0,-9.0566362606899329,-3.5215964554040231,-0.24517996840270423,-10.777190145500322,-6.0161350983905644,-10.306376208553887,12.78386209627161,1.7618494248097876,-0.61570308148021147,0.61570308148021147,-1.7618494248097876,24.17531163196691,0.0
714640.0783812654,3990767.5119837918,-22500.0,-7.1968876276830622,-4.004552061370755,-2.2071149401256589,-11.837952978570975,-9.5952375562952259,-14.663593697260172,15.689410317709974,2.2639447702879201,-1.9043275973031175,1.9043275973031175,-2.2639447702879201,29.370617155678257,0.0
719640.0783812654,3990767.5119837918,-22500.0,-3.5344027525167272,-2.660770807560684,-4.5832847205041789,-10.690592520389371,-13.435188508317159,-19.21013517856516,18.262017198854974,3.7085017770767492,-4.8297641996126659,4.8297641996126659,-3.7085017770767492,33.704673672108534,0.0
724640.0783812654,3990767.5119837918,-22500.0,0.72744911290785608,1.6333379573352576,-5.9680092465677017,-6.1401664287073725,-15.621875396386242,-22.003110320426348,19.64149506026672,6.5703845683311428,-9.4204433935366421,9.4204433935366421,-6.5703845683311428,35.532425519351769,0.0
729640.0783812654,3990767.5119837918,-22500.0,2.6809897273456604,8.3809999882111281,-3.9747519411006973,1.2771495000881394,-13.235710189523806,-20.202166287777608,19.315283240970327,10.348815279511404,-13.761366662467632,13.761366662467632,-10.348815279511404,34.011795585961842,0.0
734640.0783812654,3990767.5119837918,-22500.0,-0.12144994000431782,14.006408567694885,2.8444299828479043,7.9223229211140129,-4.5855758582997277,-12.137756043323218,18.514196737498779,12.694556663569788,-13.786930121662152,13.786930121662152,-12.694556663569788,32.073938630227438,0.0
739640.0783812654,3990767.5119837918,-22500.0,-5.8832244906025606,13.859707337570155,12.183633411081214,9.0523946689707628,7.768101311452857,0.0026588109328879637,19.890997325045131,10.666659137797915,-6.6358947909735875,6.6358947909735875,-10.666659137797915,35.466290524622089,0.0
744640.0783812654,3990767.5119837918,-22500.0,-9.2068721220509939,7.3539927156142069,18.861922344305977,3.7382822250479104,17.935035153277337,10.932431728387964,22.902793990627121,4.116768840848283,5.1053704604032708,-5.1053704604032708,-4.116768840848283,42.394895309642465,0.0
749640.0783812654,3990767.5119837918,-22500.0,-7.1224842623205475,-1.1137121799090179,19.855111665304705,-4.1002174141659937,21.984068281251417,16.792402273084864,24.54148888048087,-3.5891798115875471,15.279895031706252,-15.279895031706252,3.5891798115875471,46.460741728924887,0.0
754640.0783812654,3990767.5119837918,-22500.0,-1.5529207451326574,-7.1276859588014307,16.463183536006284,-10.158680500867016,20.556420073244549,17.576413025014066,23.733730894822383,-9.0315075141698955,20.126772364545815,-20.126772364545815,9.0315075141698955,45.558562977204616,0.0
759640.0783812654,3990767.5119837918,-22500.0,4.1199324447987218,-9.5107088367580825,11.629011644963262,-12.932703525639475,16.488286065670543,15.400017382201876,21.195600934647942,-11.238652910828613,20.075032844025216,-20.075032844025216,11.238652910828613,41.080889435101248,0.0
764640.0783812654,3990767.5119837918,-22500.0,8.0262353111048732,-9.2988349356170499,7.3331679984653828,-13.073458981908098,12.075577481583643,12.245908847666662,17.973706675936608,-11.044681613127068,17.343864800024821,-17.343864800024821,11.044681613127068,35.083047218405312,0.0
769640.0783812654,3990767.5119837918,-22500.0,9.9349888866934322,-7.8710236651462173,4.2212533603306888,-11.770123727079696,8.3797273811510031,9.2217163901729791,14.783022725978199,-9.6415525859041225,13.818186771197606,-13.818186771197606,9.6415525859041225,29.003552405310113,0.0
774640.0783812654,3990767.5119837918,-22500.0,10.349559790714437,-6.1501859227404303,2.2109578243258592,-9.937844570862941,5.6342834003032403,6.7421922301956299,11.963800636270939,-7.8806072060235755,10.511093853348882,-10.511093853348882,7.8806072060235755,23.555956509213853,0.0
779640.0783812654,3990767.5119837918,-22500.0,9.8687726665834159,-4.5791678709038575,1.005567512206428,-8.0920847446053656,3.7197682968209387,4.8601490159311069,9.6168313418188092,-6.2051468176938993,7.7917828923898114,-7.7917828923898114,6.2051468176938993,18.976620557494787,0.0
784640.0783812654,3990767.5119837918,-22500.0,8.9497748420248069,-3.3047921353815291,0.32400109528185816,-6.4602438189578875,2.4296783518602014,3.4882534069359141,7.7242524152444103,-4.7861186854110178,5.6993160600554722,-5.6993160600554722,4.7861186854110178,15.257835867506099,0.0
789640.0783812654,3990767.5119837918,-22500.0,7.8808480217995154,-2.3329026335753777,-0.038645287299833346,-5.1083823064983189,1.5759362451004642,2.508367010083655,6.2222368877359298,-3.6533920691235537,4.1449493929138796,-4.1449493929138796,3.6533920691235537,12.292247055591499,0.0
794640.0783812654,3990767.5119837918,-22500.0,6.821494234679089,-1.617198388832634,-0.21563473345382139,-4.026804004080752,1.0158543329977219,1.8142989426440896,5.0377809209488014,-2.777546082534935,3.0112029210888926,-3.0112029210888926,2.777546082534935,9.947071588865553,0.0
799640.0783812654,3990767.5119837918,-22500.0,5.8486527113941387,-1.1009547137426625,-0.28849204934834671,-3.1773068242761755,0.64965292233387872,1.3231327586367474,4.1044457316357672,-2.1116014627794431,2.1911204218348028,-2.1911204218348028,2.1116014627794431,8.0968754566077443,0.0
804640.0783812654,3990767.5119837918,-22500.0,4.9915512162679496,-0.73328170177021912,-0.30525919158808879,-2.5159570473651502,0.41035272443181381,0.97425105247983501,3.3671303487566782,-1.6092334053415116,1.5993055536824183,-1.5993055536824183,1.6092334053415116,6.6350898723429079,0.0
809640.0783812654,3990767.5119837918,-22500.0,4.2541255592526221,-0.47358480406139669,-0.29349997464648619,-2.0025675093800537,0.25390692514212693,0.72478758219546713,2.7820621499969906,-1.2311790540834857,1.1716525333781309,-1.1716525333781309,1.2311790540834857,5.4757739927189286,0.0
814640.0783812654,3990767.5119837918,-22500.0,3.6282162876183928,-0.29128939266945653,-0.26865510582522256,-1.6036926519818007,0.15161456437497947,0.54491295621793634,2.3151879622767262,-0.9463929608574958,0.86153225440922354,-0.86153225440922354,0.9463929608574958,4.551497486137813,0.0
819640.0783812654,3990767.5119837918,-22500.0,3.1008506613956022,-0.16406588430107755,-0.23913708777268178,-1.2927847185484025,0.084821329122161157,0.41399727495037103,1.9402813695095054,-0.73119292519899337,0.6355639224194064,-0.6355639224194064,0.73119292519899337,3.8100991709719958,0.0
824640.0783812654,3990767.5119837918,-22500.0,2.6580154318197406,-0.075878501877447796,-0.20934852463845027,-1.0492954147584377,0.041385340469198145,0.31777447410023985,1.6372244050812685,-0.56785294859825308,0.47001778561500385,-0.47001778561500385,0.56785294859825308,3.2114879277446082,0.0
829640.0783812654,3990767.5119837918,-22500.0,2.2864553159122556,-0.015312723631113816,-0.18143980000944507,-0.85752779133852919,0.01337400342859724,0.24634291874104688,1.3905888391952268,-0.44322937373864679,0.34805218403574367,-0.34805218403574367,0.44322937373864679,2.724900593515962,0.0
644640.0783812654,3995767.5119837918,-22500.0,-0.36390333426806137,0.75842019656474735,0.25220071542932487,-0.078413629941774601,0.26957673873976651,-0.006845767999659534,0.86506101191946672,0.47025785785323021,-0.55981777574146807,0.55981777574146807,-0.47025785785323021,1.4997180478651813,0.0
649640.0783812654,3995767.5119837918,-22500.0,-0.50525272379311581,0.86201872659820389,0.31052769079121417,-0.12574182085010038,0.31808395566888342,-0.017997575148376962,1.0119527027344319,0.54907402538513306,-0.63846172309938443,0.63846172309938443,-0.54907402538513306,1.756592194461307,0.0
654640.0783812654,3995767.5119837918,-22500.0,-0.69268649823940542,0.97968966516952105,0.38485578216672717,-0.19434685346360725,0.37587103638193359,-0.036327442726038814,1.1924245059597283,0.64353260928279998,-0.72830001052425564,0.72830001052425564,-0.64353260928279998,2.073927353795249,0.0
659640.0783812654,3995767.5119837918,-22500.0,-0.9414433690002888,1.1116566863500377,0.47995311670321666,-0.29392603805932538,0.44408339275871223,-0.066214300242770058,1.4161126635315058,0.7567843918141719,-0.82988631355164677,0.82988631355164677,-0.7567843918141719,2.4699181892304045,0.0
664640.0783812654,3995767.5119837918,-22500.0,-1.2716272130734452,1.2565880211252076,0.60191197394890628,-0.43880370698922838,0.52323396713719128,-0.11482811583030923,1.6959368162894664,0.89236649343945207,-0.94289813067966743,0.94289813067966743,-0.89236649343945207,2.9693488501522931,0.0
669640.0783812654,3995767.5119837918,-22500.0,-1.7092889487594014,1.4102678197462897,0.75828924065363446,-0.65016044513783067,0.61224978710523559,-0.19401414166811959,2.0493499276871145,1.0539960579466754,-1.065392270167002,1.065392270167002,-1.0539960579466754,3.6062698160092639,0.0
674640.0783812654,3995767.5119837918,-22500.0,-2.2870857284511068,1.5634266147138651,0.9579416266992119,-0.95920915667403539,0.70659907053810245,-0.32349890249246765,2.5000693917806434,1.2451049482009824,-1.1926641301080141,1.1926641301080141,-1.2451049482009824,4.4277516293586823,0.0
679640.0783812654,3995767.5119837918,-22500.0,-3.0434623942249353,1.6983711109844626,1.2100797567073671,-1.4114491868149059,0.79471637936183448,-0.53632644189510714,3.0804311170968317,1.4679585816877507,-1.3156640493463811,1.3156640493463811,-1.4679585816877507,5.4989840102976277,0.0
684640.0783812654,3995767.5119837918,-22500.0,-4.0180375162523214,1.7841735203825242,1.5215592717163335,-2.0716253461974046,0.85137545305962292,-0.88794171257689503,3.8344815296738384,1.7222147713740483,-1.4192174392799815,1.4192174392799815,-1.7222147713740483,6.9097325792773692,0.0
689640.0783812654,3995767.5119837918,-22500.0,-5.2385180619345686,1.7709350232943619,1.8905300111548919,-3.0274455694374365,0.8258826548584921,-1.470834326745059,4.8217932610964045,2.0030282022433297,-1.4812124014889732,1.4812124014889732,-2.0030282022433297,8.7812258689301501,0.0
694640.0783812654,3995767.5119837918,-22500.0,-6.6906898183738406,1.5861710215584024,2.293252531388668,-4.3859905687794036,0.62241348799984508,-2.4363411379454321,6.1216275607169468,2.299783071610344,-1.4763142557124251,1.4763142557124251,-2.299783071610344,11.269899313882762,0.0
699640.0783812654,3995767.5119837918,-22500.0,-8.2589955124160248,1.1431326983357706,2.6599409537252128,-6.2473402265022902,0.071429129973611324,-4.0213445400027892,7.8356714638313996,2.5993424555440141,-1.3931177349048633,1.3931177349048633,-2.5993424555440141,14.55793806687687,0.0
704640.0783812654,3995767.5119837918,-22500.0,-9.6281516097603266,0.3856911504664976,2.8386446782363381,-8.6221766946058054,-1.0988755936899948,-6.5626251241152334,10.079528592802539,2.9040939028840147,-1.2830495232277124,1.2830495232277124,-2.9040939028840147,18.806802404169638,0.0
709640.0783812654,3995767.5119837918,-22500.0,-10.170398132738821,-0.58264080022369003,2.5652265087491766,-11.238850598713894,-3.2482881364159635,-10.439275078888629,12.922593730033451,3.2849573710442281,-1.3669674096794844,1.3669674096794844,-3.2849573710442281,24.027079980313751,0.0
714640.0783812654,3995767.5119837918,-22500.0,-8.9611818083029835,-1.235439068455944,1.5171334244091961,-13.204914741740259,-6.643344185455514,-15.795879895732138,16.212767635509959,3.9882254608516381,-2.1959197986255901,2.1959197986255901,-3.9882254608516381,29.802929791006445,0.0
719640.0783812654,3995767.5119837918,-22500.0,-5.2988429232625247,-0.3166140033015809,-0.36143192210790881,-12.698819996951839,-10.877454247274102,-21.815460653786293,19.320007207031306,5.5388410751947212,-4.690930688207267,4.690930688207267,-5.5388410751947212,34.896473642274579,0.0
724640.0783812654,3995767.5119837918,-22500.0,-0.13851651057398026,3.9005031574947613,-2.09052365367481,-7.4895134148915554,-13.81079128651975,-25.57346841797165,21.076831577397684,8.510320210944057,-9.4706809014250073,9.4706809014250073,-8.510320210944057,37.245563208394543,0.0
729640.0783812654,3995767.5119837918,-22500.0,2.5271665674266481,11.576661782160205,-1.063533359457441,2.4011114872544437,-11.134367933296044,-21.866548749964551,20.875966902647821,12.342791478704507,-14.809312356342458,14.809312356342458,-12.342791478704507,36.216456371994191,0.0
734640.0783812654,3995767.5119837918,-22500.0,-1.6307783351758951,18.176558836568304,5.0843779156058337,11.132043964168664,0.45845340001333967,-7.1362095378402071,22.044543730148728,13.771160101285988,-15.113212478689006,15.113212478689006,-13.771160101285988,38.417867553935039,0.0
739640.0783812654,3995767.5119837918,-22500.0,-9.7147166383229582,16.647464367543634,13.910954381811024,10.104762007734209,16.950721957027124,13.686124912186148,28.33622057505654,8.741837527948503,-5.6770478512884228,5.6770478512884228,-8.741837527948503,50.523508510940708,0.0
744640.0783812654,3995767.5119837918,-22500.0,-12.343193872390039,6.7998632679862014,18.780912216741424,-0.98441571556806517,28.245948968757268,29.062040391427296,34.254871371885635,-1.5425378138571522,9.1018961916075796,-9.1018961916075796,1.5425378138571522,62.685923811863276,0.0
749640.0783812654,3995767.5119837918,-22500.0,-6.3869767642082689,-3.6288226258522776,16.936552288784334,-13.119271089271855,29.368462987694798,33.08912990477728,35.193182800009915,-10.763836585905672,19.646523265682763,-19.646523265682763,10.763836585905672,65.764721712356533,0.0
754640.0783812654,3995767.5119837918,-22500.0,2.6380678488880882,-9.0726830682818065,11.554640164995657,-19.604354091433517,23.833415817619631,29.073213909363986,31.803323558422484,-14.939493494166651,22.255156726260065,-22.255156726260065,14.939493494166651,60.387409932684115,0.0
759640.0783812654,3995767.5119837918,-22500.0,9.485244473138561,-9.8213032686359725,6.3513560695848934,-20.425228555759904,16.82492464952778,22.422197236383138,26.568591851169909,-14.761486018028547,19.589166912462062,-19.589166912462062,14.761486018028547,51.06767192952811,0.0
764640.0783812654,3995767.5119837918,-22500.0,12.858225458111344,-8.2615194523765858,2.7659301923267368,-18.176667570731023,10.99312163309213,16.197968686117164,21.291340938523405,-12.488799141821612,15.186737382239112,-15.186737382239112,12.488799141821612,41.293970455336307,0.0
769640.0783812654,3995767.5119837918,-22500.0,13.598111298909389,-6.1440140618120802,0.71108724547330804,-14.947525368610497,6.8784384379643386,11.342111559188469,16.744644905394534,-9.7545876906638469,11.011329693782642,-11.011329693782642,9.7545876906638469,32.673579804097443,0.0
774640.0783812654,3995767.5119837918,-22500.0,12.85465698421388,-4.2495046112600727,-0.31376990937337029,-11.802254865270539,4.1933789669199726,7.8433882439831866,13.093704738859948,-7.3057250063897419,7.7057315782335811,-7.7057315782335811,7.3057250063897419,25.638595217115679,0.0
779640.0783812654,3995767.5119837918,-22500.0,11.459351188422024,-2.7915329711034911,-0.74537284280775096,-9.1342386137704938,2.5085357412747542,5.4151301899467352,10.254382070590179,-5.3564517179447568,5.2935673837378525,-5.2935673837378525,5.3564517179447568,20.106690819939818,0.0
784640.0783812654,3995767.5119837918,-22500.0,9.892336404720103,-1.7495783413895907,-0.86751416578578899,-7.0122322511740229,1.472333196915427,3.7572077479082382,8.0740523880056951,-3.8902382297178311,3.602276480273797,-3.602276480273797,3.8902382297178311,15.8304040389542,0.0
789640.0783812654,3995767.5119837918,-22500.0,8.392326441304526,-1.0356259577506475,-0.84256412147714321,-5.3777941363900474,0.84179751466812802,2.6302692989701151,6.4042055937266653,-2.8179598376753421,2.4391569983040919,-2.4391569983040919,2.8179598376753421,12.545038100879042,0.0
794640.0783812654,3995767.5119837918,-22500.0,7.0584295779615953,-0.55960125799355287,-0.75672270256308805,-4.1379470880094997,0.46066020685969078,1.8621480443069991,5.1221700839211364,-2.0439209106316767,1.6459065221010478,-1.6459065221010478,2.0439209106316767,10.02058471141758,0.0
799640.0783812654,3995767.5119837918,-22500.0,5.9171208469090031,-0.24887314620712581,-0.65305325164813377,-3.2027041802641558,0.23174637233765838,1.3348360787534004,4.1327449963540728,-1.487647752776931,1.1061422310283966,-1.1061422310283966,1.487647752776931,8.0732265889606794,0.0
804640.0783812654,3995767.5119837918,-22500.0,4.9607765152883276,-0.050223357647822951,-0.55156582389383002,-2.4971376472045246,0.095542945980810617,0.96927585229394009,3.3639566479612566,-1.0876431485657656,0.73851998428297216,-0.73851998428297216,1.0876431485657656,6.5618228651287147,0.0
809640.0783812654,3995767.5119837918,-22500.0,4.1681318232516196,0.073546960437423217,-0.46046828743941304,-1.9629047659006047,0.015800384449621566,0.71297728411799477,2.7620084210321871,-0.79899268321874173,0.48753993174247867,-0.48753993174247867,0.79899268321874173,5.3800989743960246,0.0
814640.0783812654,3995767.5119837918,-22500.0,3.5144132719297847,0.147796347530743,-0.38218898927063166,-1.5560661306193486,-0.029558366435001881,0.53111568362773176,2.2868545781198244,-0.58961265465960011,0.31573135522867835,-0.31573135522867835,0.58961265465960011,4.4487107497162288,0.0
819640.0783812654,3995767.5119837918,-22500.0,2.9759344810954347,0.18957784782095879,-0.31650036258577507,-1.2440684055892761,-0.05401380915077434,0.4004866508212524,1.9086764561738598,-0.43681043939722558,0.19786939859055513,-0.19786939859055513,0.43681043939722558,3.7085381083546594,0.0
824640.0783812654,3995767.5119837918,-22500.0,2.5318779675604222,0.21027409826128984,-0.26209224390423663,-1.0029615586138181,-0.065827116884688536,0.305513907702539,1.6052026417625689,-0.32458180673223402,0.11694789842843946,-0.11694789842843946,0.32458180673223402,3.1154473976914332,0.0
829640.0783812654,3995767.5119837918,-22500.0,2.1647185183438515,0.21745083861120673,-0.21733507644361741,-0.81514778196650484,-0.070078347933541937,0.23564422769265589,1.3597160865648903,-0.24162417388316601,0.061454988520809134,-0.061454988520809134,0.24162417388316601,2.6363485816852297,0.0
834640.0783812654,3995767.5119837918,-22500.0,1.8600473338544503,0.21612233990477725,-0.18062858448079627,-0.66766841537584676,-0.069898382557636002,0.18365341518146647,1.1595920238860449,-0.17992412014195147,0.023555317403005496,-0.023555317403005496,0.17992412014195147,2.2462870169458093,0.0
644640.0783812654,4000767.5119837918,-22500.0,-0.0039706132763084661,0.84709384217931571,0.18315037986454358,0.0502247701971597,0.29836754251646974,0.028837896907415974,0.90270502258482366,0.4312710112161186,-0.58969947435802283,0.58969947435802283,-0.4312710112161186,1.5675753856468322,0.0
649640.0783812654,4000767.5119837918,-22500.0,-0.076334348323913018,0.98027116888931798,0.22826620138828888,0.03585497591217579,0.35843770922865381,0.02945279309997717,1.0542121583287452,0.50726358040284014,-0.68311186605341356,0.68311186605341356,-0.50726358040284014,1.8286152680365948,0.0
654640.0783812654,4000767.5119837918,-22500.0,-0.17979798382307932,1.1383828087793462,0.28702520557596733,0.010101324988273964,0.43292585401010386,0.027440527742959259,1.2394893341220619,0.59985210859982563,-0.79374302205378089,0.79374302205378089,-0.59985210859982563,2.1481281855105823,0.0
659640.0783812654,4000767.5119837918,-22500.0,-0.3265482480265019,1.3260295606511903,0.36415810819510513,-0.033478209827050701,0.52551555511248149,0.020413884665269978,1.4678428478969985,0.71310394443004999,-0.92459490591354587,0.92459490591354587,-0.71310394443004999,2.5425841965185962,0.0
664640.0783812654,4000767.5119837918,-22500.0,-0.5334982654833097,1.5481190944546808,0.46615416190759784,-0.10490987448575913,0.64062895141309539,0.0041374245149089824,1.7515702003187419,0.85204397115491626,-1.0787638323075155,1.0787638323075155,-0.85204397115491626,3.0340008380840979,0.0
669640.0783812654,4000767.5119837918,-22500.0,-0.82392519242560525,1.809298338716212,0.60187651054147573,-0.21983092552847464,0.78325513788505741,-0.028911124792356153,2.1070067167649489,1.0227607658050977,-1.2590052605605238,1.2590052605605238,-1.0227607658050977,3.6520610110421474,0.0
674640.0783812654,4000767.5119837918,-22500.0,-1.229326057441237,2.1127523730559052,0.78328345046739389,-0.40262293228455448,0.95829604248869038,-0.092135805626338094,2.5559212071755724,1.2323910690237516,-1.4668811036977585,1.4668811036977585,-1.2323910690237516,4.4370661645456853,0.0
679640.0783812654,4000767.5119837918,-22500.0,-1.7909578681899343,2.4578884941383645,1.0260909523140749,-0.69111295473789891,1.1688346491462436,-0.20951297145902856,3.1273194654504115,1.4888342327907451,-1.7012343842865802,1.7012343842865802,-1.4888342327907451,5.443969759842421,0.0
684640.0783812654,4000767.5119837918,-22500.0,-2.5595434236214181,2.8362009080234816,1.3498766324610396,-1.1431901154543478,1.4121181885735259,-0.42402472083394366,3.8596392389006802,1.7999662305235069,-1.9557176154995206,1.9557176154995206,-1.7999662305235069,6.7476185936800031,0.0
689640.0783812654,4000767.5119837918,-22500.0,-3.5894318403236865,3.2245457697123077,1.7763506673029721,-1.8448198062922196,1.6709204842831922,-0.81252975027699037,4.8031181575895339,2.1721033206190659,-2.2153872656518545,2.2153872656518545,-2.1721033206190659,8.4487659978873744,0.0
694640.0783812654,4000767.5119837918,-22500.0,-4.9190915617018236,3.5758745984427387,2.3228864451074389,-2.9158256483340361,1.8961405689049213,-1.5107654006883957,6.0217279431093056,2.6078129437769304,-2.453699398854944,2.453699398854944,-2.6078129437769304,10.678610013003508,0.0
699640.0783812654,4000767.5119837918,-22500.0,-6.5223718345532991,3.8113347073060115,2.9854313442569542,-4.5008556899292218,1.9746003897018825,-2.7509131306611043,7.5936005711583761,3.1047967600428743,-2.6354606876437581,2.6354606876437581,-3.1047967600428743,13.594594428066776,0.0
704640.0783812654,4000767.5119837918,-22500.0,-8.2074466389973164,3.8298140129147407,3.7011638644447205,-6.7111790736749413,1.6780856547920044,-4.9024227490391157,9.6081725272209546,3.6626337534988629,-2.742150919586809,2.742150919586809,-3.6626337534988629,17.347912238007467,0.0
709640.0783812654,4000767.5119837918,-22500.0,-9.4524889410321666,3.5803774858071518,4.2829898453742317,-9.44159178638653,0.61127036499237197,-8.4605999915451573,12.146342840231458,4.3157385978751126,-2.8571486110169246,2.8571486110169246,-4.3157385978751126,21.977997659888118,0.0
714640.0783812654,4000767.5119837918,-22500.0,-9.2669482564403278,3.2880012278898878,4.3503500447125809,-11.950236918789107,-1.7403180439872321,-13.796581161911149,15.154827789997773,5.2242420571290209,-3.3645915804518913,3.3645915804518913,-5.2242420571290209,27.158299171735507,0.0
719640.0783812654,4000767.5119837918,-22500.0,-6.4883044235864338,3.8943846089623442,3.4029438712763169,-12.231450323968158,-5.5554811611292934,-20.241058451029961,18.076952415951439,6.8162128591419924,-5.2209449592854549,5.2209449592854549,-6.8162128591419924,31.779252340469949,0.0
724640.0783812654,4000767.5119837918,-22500.0,-1.3824121921762531,7.3066896915973052,1.3997259288319845,-7.0519267233055967,-9.3323135656055136,-24.088403055591701,19.632277617412065,9.6984488132385263,-9.747478611051088,9.747478611051088,-9.6984488132385263,34.016200553722896,0.0
729640.0783812654,4000767.5119837918,-22500.0,1.6080164651586377,14.734953955839096,-0.073753421005092828,4.742248276536297,-8.22309184466544,-17.074320247789981,20.326341276314594,13.440471328653523,-16.474109162910981,16.474109162910981,-13.440471328653523,35.243719193175771,0.0
734640.0783812654,4000767.5119837918,-22500.0,-4.1134653005670145,21.969048452551505,1.7941115341087464,15.081412629621655,3.3114837060213462,7.8116661586847638,27.497397497702508,14.198891494353125,-19.455090618527723,19.455090618527723,-14.198891494353125,47.642645366006192,0.0
739640.0783812654,4000767.5119837918,-22500.0,-14.56947634295925,19.941284695300656,6.2442826256453552,9.6218202230037377,21.115939031638113,40.91654030821303,41.070001243210044,6.8664038067898225,-11.220631826802396,11.220631826802396,-6.8664038067898225,71.87064388318737,0.0
744640.0783812654,4000767.5119837918,-22500.0,-14.958770369793685,8.5260230492393241,7.8000022010816243,-10.006969393248102,31.068638282323437,59.025166852018373,48.882875466163952,-5.5839554865494714,3.6985937311076666,-3.6985937311076666,5.5839554865494714,87.875363243738406,0.0
749640.0783812654,4000767.5119837918,-22500.0,-3.6213881618331696,-1.7426930026861165,4.8611538128129528,-26.006435541474559,28.177017124339709,55.334795700398274,46.921475265482442,-14.021308697710321,13.19767845046271,-13.19767845046271,14.021308697710321,86.415477301071391,0.0
754640.0783812654,4000767.5119837918,-22500.0,8.3386264738595361,-5.5864845543389876,0.91403982095291914,-30.374969577605398,19.634623555809483,41.808922225488367,39.305448248864842,-15.493672770675049,14.282322321940628,-14.282322321940628,15.493672770675049,73.769820264512063,0.0
759640.0783812654,4000767.5119837918,-22500.0,14.87929941318564,-5.1909026630440129,-1.6232919038955143,-27.279425307068777,11.862123396035898,28.696448000640231,30.755104921958456,-13.048116227391692,11.226016211379545,-11.226016211379545,13.048116227391692,58.538323622942272,0.0
764640.0783812654,4000767.5119837918,-22500.0,16.635992729204204,-3.5058646672381548,-2.637709324382596,-21.895172920656691,6.6074784840983964,19.025166695398987,23.446337877478022,-9.7181339417378876,7.6180224666834366,-7.6180224666834366,9.7181339417378876,45.047500917305214,0.0
769640.0783812654,4000767.5119837918,-22500.0,15.794221439068043,-1.9153689260058768,-2.7481980535381414,-16.730094659091936,3.4626915357001056,12.519581614748629,17.790201393059537,-6.8269663892834274,4.7674424006459528,-4.7674424006459528,6.8269663892834274,34.358254548186231,0.0
774640.0783812654,4000767.5119837918,-22500.0,13.914241384061123,-0.77227167732733037,-2.4628293662249923,-12.528084742649307,1.6858624343341082,8.2745890274265363,13.562012377548346,-4.6633046350991121,2.8147383404616919,-2.8147383404616919,4.6633046350991121,26.245522826612891,0.0
779640.0783812654,4000767.5119837918,-22500.0,11.811109333715581,-0.048552489124267961,-2.0604555769620156,-9.3270021097795421,0.71588271656701563,5.5245705096963222,10.42734913967854,-3.1432152778589781,1.5622608000983425,-1.5622608000983425,3.1432152778589781,20.180688625215446,0.0
784640.0783812654,4000767.5119837918,-22500.0,9.8435441124969341,0.36973243897562819,-1.6661447439511521,-6.9566318846042758,0.20248170955763634,3.7377323533484059,8.0984268359120577,-2.1050926273019628,0.78754934977566948,-0.78754934977566948,2.1050926273019628,15.658708935849326,0.0
789640.0783812654,4000767.5119837918,-22500.0,8.1379748032696675,0.58773134946019845,-1.3251627851774892,-5.2205296681714195,-0.058079118923187407,2.5669012567040119,6.3571203684517039,-1.404471865565903,0.32056629189883423,-0.32056629189883423,1.404471865565903,12.275023096148114,0.0
794640.0783812654,4000767.5119837918,-22500.0,6.7139736663279104,0.68209912074075441,-1.0466573875684944,-3.9511549339960981,-0.1807661941600735,1.790708159527213,5.0442988709581478,-0.93328041148122365,0.046260127140787866,-0.046260127140787866,0.93328041148122365,9.7255834398880481,0.0
799640.0783812654,4000767.5119837918,-22500.0,5.5473589693746268,0.70367260084994299,-0.82551301788158271,-3.0197250065821932,-0.22953594734259108,1.2691143870233554,4.0452258533934016,-0.61615415135773133,-0.10929263593121563,0.10929263593121563,0.61615415135773133,7.7879337443212417,0.0
804640.0783812654,4000767.5119837918,-22500.0,4.600004487841491,0.68453194649498794,-0.65229306456705183,-2.3317209405442343,-0.239689138179949,0.91348267219783974,3.277383830208914,-0.40215171094847124,-0.19245701302446591,0.19245701302446591,0.40215171094847124,6.3010503415673442,0.0
809640.0783812654,4000767.5119837918,-22500.0,3.8329501695017765,0.64428186417305977,-0.5173587015508565,-1.8192452514789155,-0.23058085675519857,0.66738130256143358,2.6813149482468885,-0.25728912899316908,-0.23197947588057263,0.23197947588057263,0.25728912899316908,5.1486474934900306,0.0
814640.0783812654,4000767.5119837918,-22500.0,3.2114844089944277,0.5945904045356164,-0.41232916212656467,-1.4339454209500975,-0.21272432517414069,0.49454849298715797,2.2139776690186159,-0.1589786308395095,-0.2455822556269309,0.2455822556269309,0.1589786308395095,4.2465353995332329,0.0
819640.0783812654,4000767.5119837918,-22500.0,2.7065488740830563,0.54220534998850678,-0.33040686624352095,-1.1414355150172029,-0.19173672101493958,0.37141674771589656,1.8440116610238535,-0.092183842615977049,-0.24415369598629605,0.24415369598629605,0.092183842615977049,3.5334293881094792,0.0
824640.0783812654,4000767.5119837918,-22500.0,2.2945827417438682,0.49087749202953962,-0.26626518769531954,-0.91718907044259734,-0.17052931546513322,0.28247492783997086,1.5483914943731476,-0.046850222980001729,-0.23435941770565499,0.23435941770565499,0.046850222980001729,2.9643967506227318,0.0
829640.0783812654,4000767.5119837918,-22500.0,1.956800867465839,0.44255946040236849,-0.21580286238429469,-0.74361347969044023,-0.15052505860037063,0.21737890102002419,1.3100689399769414,-0.016213462589021413,-0.22025641383814526,0.22025641383814526,0.016213462589021413,2.5062230789649038,0.0
834640.0783812654,4000767.5119837918,-22500.0,1.6783498905656036,0.39814283794883515,-0.17588845347305773,-0.60799836567409493,-0.13233693460475257,0.16913773409314789,1.1163103180070091,0.004308404811522934,-0.20428889017646457,0.20428889017646457,-0.004308404811522934,2.1341416328176743,0.0
644640.0783812654,4005767.5119837918,-22500.0,0.38581672002981032,0.88442303899215058,0.096705685269292435,0.18855027529302887,0.30915101225908276,0.066983286708504175,0.95643272944278834,0.35970347200239944,-0.58091463601362914,0.58091463601362914,-0.35970347200239944,1.6831668617763329,0.0
649640.0783812654,4005767.5119837918,-22500.0,0.39424563486564551,1.033937462988054,0.12174904876181598,0.2116991562837624,0.37507550058315597,0.080752970499049975,1.1172531793082507,0.42358082129371,-0.6796812050419403,0.6796812050419403,-0.42358082129371,1.9623151844387343,0.0
654640.0783812654,4005767.5119837918,-22500.0,0.39170039289401698,1.2153637227788221,0.15502029797197059,0.23573595165223152,0.45847033258747266,0.097311854437240053,1.3136018723934495,0.50188543298706123,-0.7991767211149583,0.7991767211149583,-0.50188543298706123,2.3025274291339635,0.0
659640.0783812654,4005767.5119837918,-22500.0,0.37150098943116028,1.4365007091764015,0.19969148733824232,0.25885128289873072,0.56472270745268405,0.11686447009600313,1.5550152509899084,0.59842316584246336,-0.94422784547097904,0.94422784547097904,-0.59842316584246336,2.7201028141768528,0.0
664640.0783812654,4005767.5119837918,-22500.0,0.3236290341808119,1.7070299821196921,0.260302066603395,0.27756886915483964,0.70099460000362579,0.13917032907797616,1.8539146069361527,0.71806032189870939,-1.1206798937385525,1.1206798937385525,-0.71806032189870939,3.2362821117625753,0.0
669640.0783812654,4005767.5119837918,-22500.0,0.23316991315275343,2.0387523433706249,0.34338047322310833,0.28551526826515844,0.87673088693554235,0.16293733645017713,2.2264750796052675,0.8669710515907626,-1.3354126192095819,1.3354126192095819,-0.8669710515907626,3.8787730993640825,0.0
674640.0783812654,4005767.5119837918,-22500.0,0.078164804954139938,2.4455732757778028,0.45832810909005539,0.27133572014724011,1.1041506827082519,0.18457236410618555,2.6936545341918441,1.0528710583783947,-1.5961147807473304,1.5961147807473304,-1.0528710583783947,4.6836092715168318,0.0
679640.0783812654,4005767.5119837918,-22500.0,-0.17311884824554696,2.9428586044099689,0.61861743824704307,0.21522506774719471,1.3984343819616094,0.19564356528862561,3.2822499338198048,1.2851472542506714,-1.9105507710292127,1.9105507710292127,-1.2851472542506714,5.697187150608781,0.0
684640.0783812654,4005767.5119837918,-22500.0,-0.56503433460937891,3.5454244984949179,0.84324914493110437,0.083351685763520006,1.7768539717079188,0.17779323930015517,4.0255745610350022,1.574708116103406,-2.2848656312327673,2.2848656312327673,-1.574708116103406,6.9779309689397433,0.0
689640.0783812654,4005767.5119837918,-22500.0,-1.1557785156293374,4.2628558460277501,1.1580483140902835,-0.18047728008149602,2.2550360505597067,0.092732410138180635,4.9627334076586207,1.9332857325333892,-2.7202881960915635,2.7202881960915635,-1.9332857325333892,8.5960941629521326,0.0
694640.0783812654,4005767.5119837918,-22500.0,-2.0121100341538662,5.0901917414484616,1.5953502063454348,-0.66529213643872731,2.8362879204473104,-0.13674251675440829,6.1342190216239052,2.3719837182429298,-3.2077611604096536,3.2077611604096536,-2.3719837182429298,10.628125104379219,0.0
699640.0783812654,4005767.5119837918,-22500.0,-3.1859497522936091,5.9921976521352063,2.1880436445932738,-1.4996996760512074,3.4855817269424669,-0.66013792638783886,7.5694202471595151,2.8997332174904757,-3.7218607311655276,3.7218607311655276,-2.8997332174904757,13.137742185127049,0.0
704640.0783812654,4005767.5119837918,-22500.0,-4.6498301899532262,6.8839917906980581,2.9482628379299456,-2.8326991313625114,4.0733604491963522,-1.748132821564387,9.2598592651967842,3.5259589841196175,-4.2227503384750538,4.2227503384750538,-3.5259589841196175,16.128263291848604,0.0
709640.0783812654,4005767.5119837918,-22500.0,-6.1598758340002,7.6296887296968494,3.8112453950554683,-4.7258432175967995,4.2724703447272159,-3.8272066338860862,11.118522706103537,4.282586646800028,-4.6966960534662077,4.6966960534662077,-4.282586646800028,19.442338285501833,0.0
714640.0783812654,4005767.5119837918,-22500.0,-7.0562065098964686,8.1322013996328995,4.5184442301045991,-6.8244105406196427,3.4278708695141633,-7.3533580271375829,12.947949614600191,5.3022586934707423,-5.311459489113302,5.311459489113302,-5.3022586934707423,22.602367052892046,0.0
719640.0783812654,4005767.5119837918,-22500.0,-6.2463508181471621,8.6632239643955824,4.4542176890706457,-7.6774038561095832,0.59565591120234007,-12.071823139519662,14.30215718817912,6.9944217046538597,-6.7925525063836769,6.7925525063836769,-6.9944217046538597,24.7754014292683,0.0
724640.0783812654,4005767.5119837918,-22500.0,-3.2291102411721688,10.455365084285212,2.6554242258798482,-4.1729571929765736,-4.6081654902697666,-14.835351153581952,14.161493436261035,10.177292944280095,-10.854493160702097,10.854493160702097,-10.177292944280095,26.105941059273416,0.0
729640.0783812654,4005767.5119837918,-22500.0,-1.0995490090189675,15.455230303521606,-1.4112100362373028,6.1499301766171479,-9.6359849888280795,-6.4737041489032832,19.234954430871881,15.28646178908879,-19.263319142793918,19.263319142793918,-15.28646178908879,33.70337870604876,0.0
734640.0783812654,4005767.5119837918,-22500.0,-6.9403115933401702,22.489794594192325,-6.3382520026498392,16.056106722169694,-8.0922401239499262,23.753363249917086,32.466464389737496,19.505336320550537,-29.165649276878799,29.165649276878799,-19.505336320550537,58.405531008462056,0.0
739640.0783812654,4005767.5119837918,-22500.0,-17.643707818828759,24.07782292731525,-9.5879688146744186,7.4538097445483986,1.3181858762737066,64.564132914462803,51.834182600684983,16.631995083912923,-31.001871253183925,31.001871253183925,-16.631995083912923,89.843722383844067,0.0
744640.0783812654,4005767.5119837918,-22500.0,-15.64606332828499,17.551486483168642,-10.789388600600406,-17.323143424673194,8.1975865127250405,81.461930845721511,59.322126769299956,7.3267658046404112,-22.382509754047717,22.382509754047717,-7.3267658046404112,104.91885951672919,0.0
749640.0783812654,4005767.5119837918,-22500.0,-1.261187714840857,10.444767461243682,-10.625539558517506,-33.533663501130704,7.3120601190640473,68.19596183590177,53.59063632682772,0.0076882199910341953,-12.903443941707607,12.903443941707607,-0.0076882199910341953,97.075258591220873,0.0
754640.0783812654,4005767.5119837918,-22500.0,10.847807915642033,6.8201697240032448,-9.3643387542613272,-34.359855358612052,3.558632321461495,46.538865495921641,42.396872254107549,-2.355914785523225,-7.757718464918506,7.757718464918506,2.355914785523225,78.250303979000648,0.0
759640.0783812654,4005767.5119837918,-22500.0,15.841317843801635,5.401352411222307,-7.5738529178445724,-28.181038467202502,0.704372049121198,29.545709177779528,31.781145360804206,-2.0927442923489545,-5.5777383101036744,5.5777383101036744,2.0927442923489545,59.401146939538279,0.0
764640.0783812654,4005767.5119837918,-22500.0,16.183967183132449,4.6964846467389778,-5.8182578005742984,-21.25487213324211,-0.7578643566338904,18.565420971089853,23.548449398208444,-1.2331677857715948,-4.5173755405878708,4.5173755405878708,1.2331677857715948,44.332485333787837,0.0
769640.0783812654,4005767.5119837918,-22500.0,14.565760962776002,4.1396650805953472,-4.3552910099273685,-15.581110490959254,-1.3187233842379018,11.791086444117679,17.542266450705792,-0.50881923135340079,-3.7954260012838552,3.7954260012838552,0.50881923135340079,33.138283798179934,0.0
774640.0783812654,4005767.5119837918,-22500.0,12.410186879899445,3.6101785888230702,-3.2264282338644561,-11.351586798325476,-1.4209551347856737,7.6115573509994787,13.210170264806372,-0.038587499522552582,-3.1957164789403887,3.1957164789403887,0.038587499522552582,24.984581883418262,0.0
779640.0783812654,4005767.5119837918,-22500.0,10.312566057056758,3.1088985997394389,-2.3867553573975937,-8.298308543042852,-1.3226242368099861,5.0018382924203859,10.071329661320254,0.22814421638430993,-2.6760467655652658,2.6760467655652658,-0.22814421638430993,19.048975959413291,0.0
784640.0783812654,4005767.5119837918,-22500.0,8.4788018660243392,2.6529064441265828,-1.7722709387900255,-6.1147880636177554,-1.1541202601505347,3.3478148962388397,7.7758808195328326,0.36091227448166696,-2.2306384081612975,2.2306384081612975,-0.36091227448166696,14.700170667829324,0.0
789640.0783812654,4005767.5119837918,-22500.0,6.9503404643631734,2.252099763843884,-1.3248717080825496,-4.5523869284375857,-0.97562766454845584,2.2825071750223436,6.0789643374055338,0.41302866205341082,-1.8557324497467604,1.8557324497467604,-0.41302866205341082,11.484101251652815,0.0
794640.0783812654,4005767.5119837918,-22500.0,5.7050784546542337,1.9080643593766473,-0.99869390352884857,-3.4280632997092249,-0.81196817967422008,1.5847527679485227,4.8101306656534746,0.41950454752414046,-1.5445492226823196,1.5445492226823196,-0.41950454752414046,9.0802412899128147,0.0
799640.0783812654,4005767.5119837918,-22500.0,4.7009568402768114,1.6171635032462925,-0.75968029682374438,-2.6120732404213372,-0.67117427128437535,1.1198409434057914,3.8503328418481111,0.40181006068172676,-1.2884738860839335,1.2884738860839335,-0.40181006068172676,7.2631695895912065,0.0
804640.0783812654,4005767.5119837918,-22500.0,3.8940029123068856,1.3733284612692165,-0.5832627950108431,-2.0138675198671381,-0.55383226725629175,0.80473141083003785,3.1159022912922527,0.3725857325039183,-1.0786392916352376,1.0786392916352376,-0.3725857325039183,5.8739499623924702,0.0
809640.0783812654,4005767.5119837918,-22500.0,3.2450403141551818,1.1698299393947822,-0.45194527104984294,-1.5705424843462912,-0.45759100765933391,0.58755135297312533,2.5475729741752366,0.33902879313696732,-0.90687761644492881,0.90687761644492881,-0.33902879313696732,4.7998684931237232,0.0
814640.0783812654,4005767.5119837918,-22500.0,2.7214860478885439,1.0002215214029864,-0.35331617805631127,-1.2383322002071278,-0.37924129883007784,0.43542971423656257,2.1029894799792581,0.30508261287821414,-0.7661192021557105,0.7661192021557105,-0.30508261287821414,3.9603651680135372,0.0
819640.0783812654,4005767.5119837918,-22500.0,2.2971509953953007,0.85875847120863702,-0.27855849162061402,-0.98662564514592588,-0.31561167712090038,0.32722221198877405,1.7515903212075741,0.27278618586480052,-0.65046328586491742,0.65046328586491742,-0.27278618586480052,3.2973406763380133,0.0
824640.0783812654,4005767.5119837918,-22500.0,1.9513498873525428,0.74052366110741852,-0.22137986608513155,-0.79385130605008258,-0.26390521678152695,0.24911909305879762,1.4711029069184556,0.24308531077388165,-0.55508923387298481,0.55508923387298481,-0.24308531077388165,2.7684869913367787,0.0
829640.0783812654,4005767.5119837918,-22500.0,1.6678798780681976,0.64140645532188967,-0.17726032049894896,-0.64467264506373656,-0.22178371921538526,0.19196316498325511,1.2451302659552084,0.21631301891400656,-0.47610722283917184,0.47610722283917184,-0.21631301891400656,2.3426861664070526,0.0
834640.0783812654,4005767.5119837918,-22500.0,1.4340865335113269,0.55801772552846596,-0.14292820488139121,-0.52808118696423989,-0.18734610694920298,0.149591544697464,1.0614790078527563,0.19247078158773978,-0.41039911654087358,0.41039911654087358,-0.19247078158773978,1.9968203700133778,0.0
644640.0783812654,4010767.5119837918,-22500.0,0.78403116172964782,0.86393285473337988,0.003483909321416412,0.32930529505746625,0.29983993971951928,0.10566111796688954,1.0229516711238031,0.26049297809084437,-0.52891030775913839,0.52891030775913839,-0.26049297809084437,1.8368772110885978,0.0
649640.0783812654,4010767.5119837918,-22500.0,0.87817138887220814,1.0134816680424263,0.0051465482503234841,0.3917099051192322,0.36477428307935478,0.13306980119650449,1.1972383768722279,0.30426524684955464,-0.6214127055319929,0.6214127055319929,-0.30426524684955464,2.1465746224950877,0.0
654640.0783812654,4010767.5119837918,-22500.0,0.98406541783299151,1.1964218164864926,0.0079236114189467442,0.46838692122419068,0.44745484469030916,0.16906255321706315,1.4104409324694871,0.35752964905646722,-0.73448597849221753,0.73448597849221753,-0.35752964905646722,2.524798220450351,0.0
659640.0783812654,4010767.5119837918,-22500.0,1.1019745826295315,1.421625663602029,0.012473086617101463,0.56290191777703413,0.55366879430930793,0.21674007678281315,1.6730780512441696,0.42273071057497968,-0.87349993217654165,0.87349993217654165,-0.42273071057497968,2.9898948162829853,0.0
664640.0783812654,4010767.5119837918,-22500.0,1.2310489818910129,1.7005304367001011,0.019838942674330798,0.67960296006566445,0.6913262344316774,0.28042413082389728,1.9988454690334632,0.50299870195970819,-1.0453192026747888,1.0453192026747888,-0.50299870195970819,3.5656834883490562,0.0
669640.0783812654,4010767.5119837918,-22500.0,1.3683589464395736,2.0478056193580043,0.031684562944895106,0.82359633200142246,0.87125579430627131,0.36612926806645207,2.405543979034813,0.60233002026927251,-1.2586579272031477,1.2586579272031477,-0.60233002026927251,4.2830157942577465,0.0
674640.0783812654,4010767.5119837918,-22500.0,1.5072606207994828,2.4820359779923891,0.050669768345006957,1.0004514756826404,1.1082227014130857,0.4821536702455142,2.9161300054849075,0.72579204701102196,-1.5244171056076588,1.5244171056076588,-0.72579204701102196,5.1815084373257827,0.0
679640.0783812654,4010767.5119837918,-22500.0,1.6347056026843436,3.0261844925752781,0.081054153473205201,1.2153005000916923,1.4220811850104762,0.63970400051771914,3.559666894042615,0.87973697757794689,-1.8558644119237329,1.8558644119237329,-0.87973697757794689,6.3110350727069697,0.0
684640.0783812654,4010767.5119837918,-22500.0,1.726968805122963,3.707262267920191,0.12964083011593336,1.4706818491322957,1.838655856476803,0.85323476012582167,4.3715451659134708,1.0720093642062833,-2.2683567855934417,2.2683567855934417,-1.0720093642062833,7.7318361310585431,0.0
689640.0783812654,4010767.5119837918,-22500.0,1.7432716722942629,4.5539499887045807,0.20717839143160388,1.7619517019270268,2.3890928423532976,1.1395949738328595,5.391400563919877,1.312199702736325,-2.7780509117931951,2.7780509117931951,-1.312199702736325,9.510457461670601,0.0
694640.0783812654,4010767.5119837918,-22500.0,1.617360542678234,5.5896678717793504,0.33021024734041132,2.0683958572235208,3.1042708053512875,1.5137345389712564,6.6551196729042585,1.6123504857625051,-3.3987948005690862,3.3987948005690862,-1.6123504857625051,11.705193236592489,0.0
699640.0783812654,4010767.5119837918,-22500.0,1.2493910626819531,6.8167487241197993,0.52277991537278234,2.3379282706151518,3.9957847749514235,1.9760398147560674,8.1732513048037614,1.9898756669687088,-4.1367810577489497,4.1367810577489497,-1.9898756669687088,14.32776243709786,0.0
704640.0783812654,4010767.5119837918,-22500.0,0.5067531819769735,8.1862478846203732,0.81553833151976984,2.4659693441149457,5.004152205942014,2.4823221719879376,9.8813929123079998,2.4788733194435402,-4.9860438451109479,4.9860438451109479,-2.4788733194435402,17.256876610246138,0.0
709640.0783812654,4010767.5119837918,-22500.0,-0.74454235088317411,9.5539888555264589,1.2348701052240301,2.2820020064019597,5.8760477412965866,2.8864416805484638,11.543116894664488,3.1683168289284036,-5.9418919247692035,5.9418919247692035,-3.1683168289284036,20.073799428319266,0.0
714640.0783812654,4010767.5119837918,-22500.0,-2.5399271302160975,10.656722224229876,1.7643128788811882,1.5945143407625086,5.9176828608877043,2.8682766447181911,12.617213142245273,4.3117645531044104,-7.0890251209314883,7.0890251209314883,-4.3117645531044104,21.86043156092105,0.0
719640.0783812654,4010767.5119837918,-22500.0,-4.6198330636097316,11.23881648214298,2.2475743677489062,0.41583351288698639,3.63890948236905,1.9658643880443518,12.394108785190969,6.57500719958243,-8.8894948783927994,8.8894948783927994,-6.57500719958243,21.551861986488454,0.0
724640.0783812654,4010767.5119837918,-22500.0,-6.2578022854337823,11.59159469106301,2.2174624861711347,-0.46387997397546588,-3.3018336625826894,0.13713617342298925,12.826745718722936,11.363924024688817,-12.763790392737956,12.763790392737956,-11.363924024688817,22.248002767595619,0.0
729640.0783812654,4010767.5119837918,-22500.0,-6.8908610616238182,13.47540385968815,0.79215739876686608,1.1394878697168285,-16.455938237557096,-0.14545911987120236,21.694868497509383,20.537055584409355,-21.404134056312007,21.404134056312007,-20.537055584409355,37.599903026110788,0.0
734640.0783812654,4010767.5119837918,-22500.0,-8.6939533392549322,19.465116854254216,-2.7381012077534752,6.0349448034143363,-31.975486241377233,9.0524863345824134,38.942091799798305,33.725430781642956,-36.341821407903282,36.341821407903282,-33.725430781642956,67.512534281117553,0.0
739640.0783812654,4010767.5119837918,-22500.0,-13.898602247364765,27.773806078674795,-7.171332664755135,5.3220819889196012,-39.514586287912834,31.42316549890397,54.398623049651135,43.868871191431843,-51.074253528627942,51.074253528627942,-43.868871191431843,94.221872243056325,0.0
744640.0783812654,4010767.5119837918,-22500.0,-13.976732791627056,31.321906692331186,-9.5867379569585705,-7.5175095468811524,-34.864026681636766,47.446223793593845,58.306869512980171,42.47218477679823,-53.599888909951957,53.599888909951957,-42.47218477679823,101.39837584224144,0.0
749640.0783812654,4010767.5119837918,-22500.0,-5.2427811702800211,28.206820724728217,-9.1321833355288202,-18.990581915938144,-25.289832496738935,43.640257580495955,50.817043878802451,32.601598603055812,-44.168373963127941,44.168373963127941,-32.601598603055812,89.343899720810242,0.0
754640.0783812654,4010767.5119837918,-22500.0,3.5243559529210433,22.4076105342332,-7.3263072498955006,-21.187231688375558,-17.13190385060749,31.365200940018791,39.469400580744121,22.417791911654593,-32.14514514481246,32.14514514481246,-22.417791911654593,70.202898457436319,0.0
759640.0783812654,4010767.5119837918,-22500.0,8.0096617553303613,16.97449223112358,-5.4619366990977651,-18.23158204541129,-11.617404878650756,20.645397826819014,29.357349460453726,15.107889992335487,-22.574372052053427,22.574372052053427,-15.107889992335487,52.705156797124758,0.0
764640.0783812654,4010767.5119837918,-22500.0,9.259057935589901,12.758748177048311,-3.967028989794545,-14.249468281947557,-8.05967007241075,13.353466936534803,21.697191908943793,10.371119925989744,-15.930464295159171,15.930464295159171,-10.371119925989744,39.220153223801248,0.0
769640.0783812654,4010767.5119837918,-22500.0,8.919948883218197,9.6629712425687195,-2.8632563499992543,-10.754912879759788,-5.7233257956805925,8.6832035496241868,16.158164372303272,7.3171323775224391,-11.438429939682061,11.438429939682061,-7.3171323775224391,29.351375136706366,0.0
774640.0783812654,4010767.5119837918,-22500.0,7.9660970670858964,7.406219342201755,-2.0714014613767264,-8.029450731916425,-4.1433010465577969,5.7144117768432157,12.176718579792553,5.2986149965789133,-8.3721429188860093,8.3721429188860093,-5.2986149965789133,22.196700165976551,0.0
779640.0783812654,4010767.5119837918,-22500.0,6.8618448768989859,5.7476548863792907,-1.5084152270939202,-5.9928728719729421,-3.048320105195546,3.8159551114316632,9.2955254755626413,3.9251021052894339,-6.2403161996945586,6.2403161996945586,-3.9251021052894339,16.987370642206155,0.0
784640.0783812654,4010767.5119837918,-22500.0,5.8073530540205205,4.5142077699138952,-1.1081977976933812,-4.4956874552580057,-2.2753095010103599,2.5894269493436832,7.1887089601455649,2.9655703400035236,-4.7298259774157518,4.7298259774157518,-2.9655703400035236,13.161500401396522,0.0
789640.0783812654,4010767.5119837918,-22500.0,4.8767574941344369,3.5858306089918068,-0.82234673969733307,-3.3998186271522179,-1.7213563081783827,1.7868622794566209,5.6302790947757257,2.2798416479701,-3.6404589182153071,3.6404589182153071,-2.2798416479701,10.322676628983347,0.0
794640.0783812654,4010767.5119837918,-22500.0,4.0864819566134729,2.8790232009505918,-0.61663141076643602,-2.5960119614865786,-1.3190564876506536,1.254083899522707,4.463727796369656,1.7800097348414476,-2.8418715623628987,2.8418715623628987,-1.7800097348414476,8.1929575292695169,0.0
799640.0783812654,4010767.5119837918,-22500.0,3.4283567304525091,2.3350213635409194,-0.4672182295038107,-2.0029639750128205,-1.02319525704805,0.89490110561144876,3.5800739172511293,1.4092570411914582,-2.2475342612378135,2.2475342612378135,-1.4092570411914582,6.5770806091835299,0.0
804640.0783812654,4010767.5119837918,-22500.0,2.8853944007766348,1.9119562309363907,-0.35760302226668284,-1.5618719007311204,-0.80295411656981808,0.64888727934586632,2.9028451861815525,1.1299005947753897,-1.7989532095369676,1.7989532095369676,-1.1299005947753897,5.3371600021488188,0.0
809640.0783812654,4010767.5119837918,-22500.0,2.4389914717019829,1.5796583834658546,-0.27634912313017213,-1.2307435320764615,-0.63706578689419235,0.47770969281573905,2.3779048737433297,0.91639130599699925,-1.4559275461449888,1.4559275461449888,-0.91639130599699925,4.375141361272747,0.0
814640.0783812654,4010767.5119837918,-22500.0,2.071938440443986,1.3161632279202542,-0.21549510322915114,-0.9797057116746708,-0.51069142720162741,0.35675999394084001,1.9665595557135318,0.75107115453366724,-1.1904040843423065,1.1904040843423065,-0.75107115453366724,3.6207149268697649,0.0
819640.0783812654,4010767.5119837918,-22500.0,1.769438503001707,1.1053228470285852,-0.16945984942977466,-0.78747350166965036,-0.41336631339782132,0.27002932495353726,1.6408734534549199,0.62152510714481302,-0.9825253392042933,0.9825253392042933,-0.62152510714481302,3.0229996993847674,0.0
824640.0783812654,4010767.5119837918,-22500.0,1.5192332896004868,0.93515391409376458,-0.13429774457566962,-0.63880763394502693,-0.33763190792939318,0.20695678461958508,1.3804690958879799,0.51888807328743958,-0.81804547738137756,0.81804547738137756,-0.51888807328743958,2.5448172045458466,0.0
829640.0783812654,4010767.5119837918,-22500.0,1.3113655674231028,0.79668204259405573,-0.10719350971212371,-0.52272214773045955,-0.27811581922499146,0.16047579996443692,1.1703279056994973,0.43673919668460703,-0.68661414979412538,0.68661414979412538,-0.43673919668460703,2.1587309639281536,0.0
834640.0783812654,4010767.5119837918,-22500.0,1.137829455862394,0.68312613256204302,-0.086119010706099314,-0.43123331844152235,-0.23090766072217891,0.12579088898327628,0.99926741727627444,0.37036645771557258,-0.58062062651583268,0.58062062651583268,-0.37036645771557258,1.8442923750687101,0.0
644640.0783812654,4015767.5119837918,-22500.0,1.1671906011566733,0.78482787733608617,-0.084435936712908874,0.4645776489210946,0.27022918547430291,0.14277487735350147,1.0963576023452244,0.14188000933480074,-0.43339396800262087,0.43339396800262087,-0.14188000933480074,2.0120247673825289,0.0
649640.0783812654,4015767.5119837918,-22500.0,1.3439109869594121,0.91734840032918696,-0.10507598990143702,0.56472870020192356,0.32707790647713875,0.18327815766912006,1.2864382907720953,0.16026907095239226,-0.5074589169604784,0.5074589169604784,-0.16026907095239226,2.3594850321523886,0.0
654640.0783812654,4015767.5119837918,-22500.0,1.5544569720314698,1.0787036714939608,-0.13152603200906562,0.69208259978399311,0.39896132952646873,0.237949652568508,1.5198000473163698,0.18150453641762543,-0.59784016055202016,0.59784016055202016,-0.18150453641762543,2.7859238111676947,0.0
659640.0783812654,4015767.5119837918,-22500.0,1.8059555633159239,1.2763342431069813,-0.16565925207475801,0.85545086060251474,0.49058809213948151,0.31270224989456047,1.8084421391042715,0.206043783411615,-0.70886089389294693,0.70886089389294693,-0.206043783411615,3.3132244016947383,0.0
664640.0783812654,4015767.5119837918,-22500.0,2.1067146975792665,1.5197496966487158,-0.21000881800384735,1.0668620714961614,0.60829701834706607,0.41630835219685625,2.168135917020217,0.23441698227246649,-0.84613863885339402,0.84613863885339402,-0.23441698227246649,3.9701454100195352,0.0
669640.0783812654,4015767.5119837918,-22500.0,2.4659360824417349,1.8210269979523377,-0.26799520007282218,1.342774831649503,0.76060356926002348,0.56195307470699041,2.6196281631203302,0.26726487322259712,-1.0169894840339821,1.0169894840339821,-0.26726487322259712,4.7945048692324201,0.0
674640.0783812654,4015767.5119837918,-22500.0,2.8927734956340565,2.1952882628002794,-0.34419938118149135,1.7056566287059589,0.95883727019574971,0.76969435393994523,3.1901104686224087,0.30544683956594609,-1.2309456730946584,1.2309456730946584,-0.30544683956594609,5.8358273498965429,0.0
679640.0783812654,4015767.5119837918,-22500.0,3.3940123339883317,2.6609497232360599,-0.44463267625657033,2.1858543185123178,1.2177183226816699,1.0703525271768985,3.9148160626333954,0.3503423563808018,-1.5004042049279698,1.5004042049279698,-0.3503423563808018,7.1581587453601996,0.0
684640.0783812654,4015767.5119837918,-22500.0,3.9689486090335655,3.239263541550399,-0.57683634090738622,2.823306733523343,1.5553924944537811,1.5115722517489403,4.8382552582036427,0.40466576802102971,-1.8414276298888315,1.8414276298888315,-0.40466576802102971,8.8420337002356568,0.0
689640.0783812654,4015767.5119837918,-22500.0,4.5987546983504872,3.9521510693069661,-0.74934253454622102,3.6676279435418837,1.9916149334174253,2.1669013653154154,6.0137785641094581,0.47461416971812698,-2.2747665151768044,2.2747665151768044,-0.47461416971812698,10.982842761068284,0.0
694640.0783812654,4015767.5119837918,-22500.0,5.2254114412249901,4.8164406007918652,-0.96928731415672797,4.7725145738910664,2.5407885495401223,3.1480997118347478,7.4983900535792882,0.57542071232844094,-2.8274249686513686,2.8274249686513686,-0.57542071232844094,13.678925466705925,0.0
699640.0783812654,4015767.5119837918,-22500.0,5.7121505354837092,5.8315440881201868,-1.235221072043847,6.1743154000082185,3.1920694634824329,4.6174652010128394,9.3363103055764647,0.74543600063007531,-3.536071324873717,3.536071324873717,-0.74543600063007531,16.99453665544317,0.0
704640.0783812654,4015767.5119837918,-22500.0,5.7754548914772972,6.9579408995826642,-1.5183171757057083,7.8312119745041233,3.8596070345450655,6.7844999867547102,11.519117520823633,1.0807821685825716,-4.4567809263772453,4.4567809263772453,-1.0807821685825716,20.868377870386094,0.0
709640.0783812654,4015767.5119837918,-22500.0,4.8893124747945169,8.092087586949166,-1.7178177646722042,9.4744633885553302,4.2716589156649309,9.8322856119597137,13.901798253484127,1.8156599042436732,-5.6939540721467017,5.6939540721467017,-1.8156599042436732,24.924470795717685,0.0
714640.0783812654,4015767.5119837918,-22500.0,2.2288516793761857,9.0773222436263907,-1.5673355637481405,10.296889008992427,3.7631985101938907,13.610930596479545,16.036061642454086,3.4845681925687941,-7.4746559749166348,7.4746559749166348,-3.4845681925687941,28.194456140546105,0.0
719640.0783812654,4015767.5119837918,-22500.0,-3.0301902031040373,9.870682487231015,-0.47943625490406788,8.4911822306307592,1.0223103577905945,16.694662458200369,16.888039883391084,7.1455414035298546,-10.275662687842171,10.275662687842171,-7.1455414035298546,29.274390055582785,0.0
724640.0783812654,4015767.5119837918,-22500.0,-10.179321169993932,11.016111542382657,2.5570954022339527,1.4272633845502076,-5.7851432974640442,14.25655733310537,17.064423915872066,14.301922843207484,-14.796333120353184,14.796333120353184,-14.301922843207484,30.309766893884095,0.0
729640.0783812654,4015767.5119837918,-22500.0,-13.987344509187654,14.028337531220956,8.4641748041742471,-10.199019246735194,-17.504372922125992,-3.2361561210334093,24.659466586177899,25.577401011201623,-21.178961965705611,21.178961965705611,-25.577401011201623,46.903413672605886,0.0
734640.0783812654,4015767.5119837918,-22500.0,-8.3538694761951522,20.062426324163177,16.020511243176241,-13.351115633777297,-31.218493156746682,-37.732610024832475,47.062287544422034,38.750828952650885,-28.3797534032445,28.3797534032445,-38.750828952650885,82.700375451599697,0.0
739640.0783812654,4015767.5119837918,-22500.0,-3.46786792311917,27.295736677760566,20.31071828805463,3.7016780468310606,-40.37245297884683,-58.785737895519254,63.500308167939394,49.915658477195215,-36.425005164794804,36.425005164794804,-49.915658477195215,110.03159774656778,0.0
744640.0783812654,4015767.5119837918,-22500.0,-10.081994640594456,31.684623968401461,17.930834977212427,18.576483389665967,-40.072726859033956,-42.066604877629892,61.722744828749924,53.926717135068166,-43.172775145405616,43.172775145405616,-53.926717135068166,107.55550687606012,0.0
749640.0783812654,4015767.5119837918,-22500.0,-14.733021728595467,30.728960869026601,12.048981013440555,15.183813737034983,-32.342897550469658,-15.268927668773369,49.359615160757812,47.744770089508336,-42.461683204394674,42.461683204394674,-47.744770089508336,85.991605830827524,0.0
754640.0783812654,4015767.5119837918,-22500.0,-11.674333182814689,25.968976988279909,6.8956209668190569,6.0479182624925354,-23.204918023990913,-0.5939377122856272,36.502016308573815,36.520486747662844,-35.321220008494649,35.321220008494649,-36.520486747662844,63.325791190781892,0.0
759640.0783812654,4015767.5119837918,-22500.0,-6.3766401167516813,20.383510959480976,3.6525427421017524,0.0057140917309265599,-15.989169552030745,4.0849455346480603,26.573319459708074,26.099800608461614,-26.894015906796277,26.894015906796277,-26.099800608461614,46.027507119282319,0.0
764640.0783812654,4015767.5119837918,-22500.0,-2.2479392434740202,15.55872919514613,1.8682045454523852,-2.6185228040756567,-11.008526077639086,4.5825402556156005,19.50161458494804,18.332101060778843,-19.829871269713845,19.829871269713845,-18.332101060778843,33.850228076769049,0.0
769640.0783812654,4015767.5119837918,-22500.0,0.24826601330281522,11.820224558928643,0.93446485601463303,-3.3390118854727531,-7.6762727545893421,3.8449621198917057,14.517105203615735,12.946781937753148,-14.549819947138964,14.549819947138964,-12.946781937753148,25.304439535820585,0.0
774640.0783812654,4015767.5119837918,-22500.0,1.546241839885363,9.0261698669275798,0.45357019277611887,-3.2237919265330364,-5.438319878534231,2.9351366889672641,10.967165445820999,9.2712086930256277,-10.745018931598466,10.745018931598466,-9.2712086930256277,19.208338452688334,0.0
779640.0783812654,4015767.5119837918,-22500.0,2.112141938853906,6.9549029798391455,0.20728140917987328,-2.8134130552776053,-3.9158259622697389,2.1606460246409585,8.4027222639364805,6.749378608280912,-8.0230516948828683,8.0230516948828683,-6.749378608280912,14.784526510460005,0.0
784640.0783812654,4015767.5119837918,-22500.0,2.2697734684240194,5.4153088146219428,0.082118541806180473,-2.3468610596725274,-2.86485923559467,1.5714804634456105,6.5243672483814441,4.9971533124397407,-6.0673011998089095,6.0673011998089095,-4.9971533124397407,11.526840744926497,0.0
789640.0783812654,4015767.5119837918,-22500.0,2.2158816870063833,4.262758306087564,0.019733526454260495,-1.917369668725587,-2.1285889198317065,1.1426489254347334,5.1304835221524394,3.7611225695161767,-4.6490909495696062,4.6490909495696062,-3.7611225695161767,9.0968584679179472,0.0
794640.0783812654,4015767.5119837918,-22500.0,2.0626153716774103,3.3921283116066734,-0.010007358706180107,-1.5532225894184781,-1.6051402388263338,0.83564786932620494,4.083144241358764,2.8753681727240039,-3.6089554159750987,3.6089554159750987,-2.8753681727240039,7.2625549046091296,0.0
799640.0783812654,4015767.5119837918,-22500.0,1.871190779651063,2.7279342885968174,-0.022811075197606671,-1.2559844503938069,-1.2275572515974051,0.61658793665286649,3.2866734543804412,2.2306356892228849,-2.8367559904519388,2.8367559904519388,-2.2306356892228849,5.8620055350997626,0.0
804640.0783812654,4015767.5119837918,-22500.0,1.673595648472374,2.2160503795215214,-0.026939235085640841,-1.0176606191711073,-0.95131109659446145,0.45970901480110538,2.6739112313362696,1.7542049653968219,-2.2563484116080907,2.2563484116080907,-1.7542049653968219,4.7807529483376889,0.0
809640.0783812654,4015767.5119837918,-22500.0,1.4855258972422682,1.817526013585802,-0.026763072309505299,-0.82798794002508058,-0.7464264080088906,0.34653241167628379,2.1971951516376098,1.3970433360835228,-1.8147653004603144,1.8147653004603144,-1.3970433360835228,3.937027872311845,0.0
814640.0783812654,4015767.5119837918,-22500.0,1.3138206121797593,1.5041654703035146,-0.024596124303977101,-0.6772758404143151,-0.59247483212401797,0.26412279290130919,1.8223491196668489,1.1256370962104119,-1.4748432942684193,1.4748432942684193,-1.1256370962104119,3.2718526863251389,0.0
819640.0783812654,4015767.5119837918,-22500.0,1.1606329984268113,1.25539781366567,-0.021652430337191598,-0.5573059343426684,-0.47535498255122488,0.20350070632286066,1.5246043294967544,0.91675390436805748,-1.210236260648123,1.210236260648123,-0.91675390436805748,2.7422664532537633,0.0
824640.0783812654,4015767.5119837918,-22500.0,1.0257460365574191,1.0560902254793583,-0.018554589746313029,-0.46144509417933527,-0.3852095165845516,0.1584340772512377,1.2858254465764198,0.7540663485899598,-1.0020656092269213,1.0020656092269213,-0.7540663485899598,2.316677134051548,0.0
829640.0783812654,4015767.5119837918,-22500.0,0.90783417115494558,0.89501097114793116,-0.015606588749402198,-0.38446898399459961,-0.31506072678495445,0.12457803986617547,1.0925968878947012,0.62594407899793303,-0.83665319046633824,0.83665319046633824,-0.62594407899793303,1.9716275678360069,0.0
834640.0783812654,4015767.5119837918,-22500.0,0.80513873033841576,0.76374816275811341,-0.012941703938491223,-0.32231151873936065,-0.25990848805779176,0.098881838087721732,0.93489425087648959,0.52399455338328904,-0.70397937646243824,0.70397937646243824,-0.52399455338328904,1.6895338498691459,0.0
644640.0783812654,4020767.5119837918,-22500.0,1.512574347964506,0.65236665070082156,-0.15535889961788291,0.58671572109702319,0.22211191892097934,0.17629812108029924,1.1696377006195589,0.014344330889175083,-0.29869511757312855,0.29869511757312855,-0.014344330889175083,2.1900387651180546,0.0
649640.0783812654,4020767.5119837918,-22500.0,1.7608795947059552,0.75260771679279881,-0.19291879428423409,0.71993872497424849,0.26450758322629309,0.22834973552120802,1.3754185656071987,0.0057073486156070385,-0.34349400363929716,0.34349400363929716,-0.0057073486156070385,2.5760055819412448,0.0
654640.0783812654,4020767.5119837918,-22500.0,2.0611902650559686,0.87183523493851178,-0.24113237145257396,0.89129292616811873,0.31658894595708448,0.29936224036840031,1.6288070289371033,-0.0069400349143882711,-0.39674051004402849,0.39674051004402849,0.0069400349143882711,3.0516578972323116,0.0
659640.0783812654,4020767.5119837918,-22500.0,2.4258843910379211,1.0139086683873715,-0.30345095523819199,1.1138285589599626,0.38070313021883434,0.39758728086322015,1.9432731671185859,-0.025037056216057119,-0.46031118138872029,0.46031118138872029,0.025037056216057119,3.6425316421218064,0.0
664640.0783812654,4020767.5119837918,-22500.0,2.8700575649595126,1.1832762540486232,-0.38452805130269196,1.4056656014977071,0.45961880618923523,0.53544859696654235,2.3366596257434482,-0.050415833623356276,-0.53657397576752652,0.53657397576752652,0.050415833623356276,4.3825113315408073,0.0
669640.0783812654,4020767.5119837918,-22500.0,3.411537901626319,1.3848214227978239,-0.49060864388731756,1.7920668607033972,0.55637697008868003,0.73192214928850408,2.8326749892387242,-0.085255886182673213,-0.62857364980374997,0.62857364980374997,0.085255886182673213,5.3166909736132464,0.0
674640.0783812654,4020767.5119837918,-22500.0,4.0700761347927124,1.6234244086579914,-0.62996279157743018,2.3082489013766554,0.67380169958386193,1.0163896945355406,3.4628204631967465,-0.13177970899868341,-0.74035739140744616,0.74035739140744616,0.13177970899868341,6.5050370669007949,0.0
679640.0783812654,4020767.5119837918,-22500.0,4.864599125622191,1.9029930365326866,-0.81322617572695177,3.002926923130103,0.81325479258483402,1.4348862269510669,4.268728796944723,-0.1912941233735807,-0.87761451029796422,0.87761451029796422,0.1912941233735807,8.0267258535939998,0.0
684640.0783812654,4020767.5119837918,-22500.0,5.8062216657567074,2.2245861528939628,-1.0532457424055315,3.9420353653714924,0.97177028545446653,2.0601293788973689,5.3046496802344594,-0.26167183102607672,-1.0490486704103437,1.0490486704103437,0.26167183102607672,9.9843674901901274,0.0
689640.0783812654,4020767.5119837918,-22500.0,6.8823974138241013,2.5831924163497137,-1.3633920801460471,5.2104173139267882,1.1358268542025272,3.0071070790297192,6.6392076337213544,-0.33124752632012927,-1.2694901611690834,1.2694901611690834,0.33124752632012927,12.505614502803715,0.0
694640.0783812654,4020767.5119837918,-22500.0,8.0234597176819182,2.9631562549406492,-1.7518391602272887,6.9048610066220313,1.2684323882800987,4.4553557996021311,8.3541665485364422,-0.36474260808464065,-1.5671353946589504,1.5671353946589504,0.36474260808464065,15.735549408991231,0.0
699640.0783812654,4020767.5119837918,-22500.0,9.0367179652461438,3.3345555194011922,-2.2061877301427426,9.1009200055698916,1.2838936779044701,6.6739119497918011,10.53467978877471,-0.27229630178825015,-2.0003322351697168,2.0003322351697168,0.27229630178825015,19.804144536979301,0.0
704640.0783812654,4020767.5119837918,-22500.0,9.4894677488463568,3.6609938650356773,-2.65697361681254,11.751384802583885,1.0036558628179497,10.024180627360819,13.23688998087707,0.15412748531110254,-2.6950169358024256,2.6950169358024256,-0.15412748531110254,24.735249183822042,0.0
709640.0783812654,4020767.5119837918,-22500.0,8.5435960368825175,3.9520538944502435,-2.9011693470233624,14.429100883256714,0.097847409917941636,14.848346153590027,16.39639600331278,1.3541954929011482,-3.9197490917704947,3.9197490917704947,-1.3541954929011482,30.238562859617584,0.0
714640.0783812654,4020767.5119837918,-22500.0,4.8735756860704003,4.4390057524720739,-2.4720549491900821,15.788866151821697,-1.9197163715666505,20.965260178362357,19.611619427704017,4.1333715440077583,-6.1957737924843581,6.1957737924843581,-4.1333715440077583,35.343164854640825,0.0
719640.0783812654,4020767.5119837918,-22500.0,-2.7614694370264545,5.9632562009788765,-0.51892098079356397,12.822869440611408,-5.3684421064233918,26.124309656431524,21.843673476960561,9.5469666740821459,-10.277908705326812,10.277908705326812,-9.5469666740821459,38.2238044375489,0.0
724640.0783812654,4020767.5119837918,-22500.0,-12.9502000272381,10.263249231671484,3.9736894380763603,1.3233468060295044,-9.1589612156231546,22.740912790295805,22.561361205884339,17.619293750861605,-16.268570092852439,16.268570092852439,-17.619293750861605,39.104442546842066,0.0
729640.0783812654,4020767.5119837918,-22500.0,-17.323700584745342,18.283103157545355,11.041940353826407,-17.613538744464766,-9.002083603185957,-3.7413117671431277,30.338346227735823,24.11585351731074,-20.737197152812485,20.737197152812485,-24.11585351731074,52.730029960860008,0.0
734640.0783812654,4020767.5119837918,-22500.0,-6.5046463092355369,25.06340569845332,18.428866173311327,-24.862301906114848,-0.88280353341023732,-58.339401540955151,52.699842530123036,21.341269731431122,-16.061480561813053,16.061480561813053,-21.341269731431122,91.335685913630954,0.0
739640.0783812654,4020767.5119837918,-22500.0,5.0581858103022519,22.69324022389155,23.184613279918526,0.10466851068855125,7.2531096680339857,-103.08240452745852,71.164264888615037,13.321014798780244,-4.30664994402402,4.30664994402402,-13.321014798780244,125.24361197413742,0.0
744640.0783812654,4020767.5119837918,-22500.0,-3.9163898640620198,16.013445098672101,23.878063478990178,31.833826652538797,4.0413056909074943,-95.32716167330689,69.523794204642485,14.519338394136268,-1.6556465152789155,1.6556465152789155,-14.519338394136268,124.60994565596958,0.0
749640.0783812654,4020767.5119837918,-22500.0,-18.429676452696526,13.469052688422131,20.500731930777341,38.303480329635839,-4.2976302684665688,-57.908176082251181,54.038259991823729,21.401633198991732,-8.8829742479218385,8.8829742479218385,-21.401633198991732,98.04166245878524,0.0
754640.0783812654,4020767.5119837918,-22500.0,-22.23162669608174,13.409019526964007,15.215720351424881,27.904032773814013,-8.8614723164900528,-27.493637939117143,37.909585751170574,23.882740477622878,-14.804418247916754,14.804418247916754,-23.882740477622878,68.832612535059198,0.0
759640.0783812654,4020767.5119837918,-22500.0,-18.312678121888794,12.82162546227104,10.373802830579709,16.33040104578264,-9.3369035730094545,-11.336277552204923,26.285239305719777,21.549036517669084,-16.023888205423948,16.023888205423948,-21.549036517669084,47.18280948304789,0.0
764640.0783812654,4020767.5119837918,-22500.0,-12.744266576168148,11.367757502603149,6.8230934200160833,8.5299736417676773,-8.0289536384041948,-4.1133407510160422,18.652661828853486,17.471462920871939,-14.460178956123096,14.460178956123096,-17.471462920871939,32.982440746298479,1.0
769640.0783812654,4020767.5119837918,-22500.0,-8.1187462048316306,9.5801143699549041,4.4540256920842323,4.0756838997352913,-6.36192545596899,-1.1336719184851507,13.604892990213719,13.504579209110144,-12.023965684447525,12.023965684447525,-13.504579209110144,23.783098380367974,0.0
774640.0783812654,4020767.5119837918,-22500.0,-4.8656960273878553,7.8545397342373207,2.9271526651583892,1.7068370424348103,-4.8727468284829598,0.013043291266776369,10.162160633306932,10.249715705089898,-9.6363744558466635,9.6363744558466635,-10.249715705089898,17.651163052488876,0.0
779640.0783812654,4020767.5119837918,-22500.0,-2.7353962508733423,6.3581795491174464,1.9497804884401828,0.50042543005101292,-3.6878862102481205,0.39904772149010925,7.7421066521026987,7.7523948565985767,-7.6077145304548273,7.6077145304548273,-7.7523948565985767,13.413512909498293,0.0
784640.0783812654,4020767.5119837918,-22500.0,-1.3903127171472076,5.1263875724515158,1.320327312308581,-0.085948130371517356,-2.7887381480202169,0.48107699251869179,5.998113029054478,5.8875484430691687,-5.983629017419525,5.983629017419525,-5.8875484430691687,10.390856374908099,0.0
789640.0783812654,4020767.5119837918,-22500.0,-0.56095281056280533,4.1379981095061291,0.90998718827344782,-0.34896695081297302,-2.1192739733492485,0.45039908268883738,4.7157176002883725,4.5070328730629639,-4.7170371886176925,4.7170371886176925,-4.5070328730629639,8.1796848694147144,0.0
794640.0783812654,4020767.5119837918,-22500.0,-0.060786218483507931,3.3540284577637456,0.6384665747796302,-0.44664202988041429,-1.6234336217767753,0.38551370563497883,3.756658012719305,3.484395629110046,-3.7392596736151082,3.7392596736151082,-3.484395629110046,6.5291392840528006,0.0
799640.0783812654,4020767.5119837918,-22500.0,0.23219105383876651,2.734461207527398,0.45590065291403525,-0.46219622859650855,-1.255443307598469,0.31723727575980981,3.0287413252049364,2.7226126829376622,-2.9857611368468144,2.9857611368468144,-2.7226126829376622,5.2763033680558102,0.0
804640.0783812654,4020767.5119837918,-22500.0,0.39584181481604513,2.2443392472457599,0.33113516646513502,-0.43913813637937454,-0.98069767534677554,0.25641822310329682,2.4688751424496624,2.1504645932578192,-2.403407116290758,2.403407116290758,-2.1504645932578192,4.3115671077798456,0.0
809640.0783812654,4020767.5119837918,-22500.0,0.47934833310721797,1.8551749835502989,0.2444942529149319,-0.3999765084296657,-0.77389900727376093,0.20576494120730754,2.0329932271432938,1.7166308988039933,-1.9508392771671401,1.9508392771671401,-1.7166308988039933,3.5591399855137951,0.0
814640.0783812654,4020767.5119837918,-22500.0,0.51366383013968242,1.544528733873278,0.18338688789988497,-0.35612479709541905,-0.61680962535721473,0.1648775428473882,1.6897985960802246,1.3843438872135168,-1.5966903250843338,1.5966903250843338,-1.3843438872135168,2.9654818577620063,0.0
819640.0783812654,4020767.5119837918,-22500.0,0.51825266181204488,1.2950179049801014,0.13964045976043743,-0.31314392104536964,-0.4963301195305963,0.1323547129821129,1.4167385971714022,1.1272330762890315,-1.3174353915321122,1.3174353915321122,-1.1272330762890315,2.4921037268660675,0.0
824640.0783812654,4020767.5119837918,-22500.0,0.50535022106305438,1.0932764966235853,0.10787272929570121,-0.27352636731522972,-0.40303337317598692,0.10664041663278902,1.1973494393443247,0.9262917928862191,-1.0954890918393561,1.0954890918393561,-0.9262917928862191,2.1109234724030039,0.0
829640.0783812654,4020767.5119837918,-22500.0,0.48263579599142437,0.92904641944340538,0.084487639274564402,-0.23817926839081846,-0.33009967808404234,0.086332277345246747,1.0194677167668957,0.76772296189788691,-0.9176888570228936,0.9176888570228936,-0.76772296189788691,1.8011824312567428,0.0
834640.0783812654,4020767.5119837918,-22500.0,0.45490828624596291,0.79444359312285573,0.067048517111009565,-0.20721509234570812,-0.27256061944264448,0.07026589510191654,0.8740062848117196,0.64142751975756029,-0.7741432492556295,0.7741432492556295,-0.64142751975756029,1.5473531225328103,0.0
644640.0783812654,4025767.5119837918,-22500.0,1.8009957434282902,0.47719696008341794,-0.19979940808899313,0.68922931232962281,0.15906495495723144,0.20450818164543103,1.2360487758651229,-0.11088286483393603,-0.13332655665514251,0.13332655665514251,0.11088286483393603,2.3541189712794788,0.0
649640.0783812654,4025767.5119837918,-22500.0,2.1035625180629891,0.53396920035011164,-0.24559640780077069,0.84827020418037402,0.18222919583013547,0.26573829752883255,1.4551085051977353,-0.14435563271645496,-0.14108264010806648,0.14108264010806648,0.14435563271645496,2.7735326085730239,0.0
654640.0783812654,4025767.5119837918,-22500.0,2.4699717124901928,0.59643426048987946,-0.30345767794720113,1.0531658863915685,0.2079282247266096,0.34947128052753129,1.7250878783493837,-0.18737440721938489,-0.14710122429559577,0.14710122429559577,0.18737440721938489,3.291162943277703,0.0
659640.0783812654,4025767.5119837918,-22500.0,2.9151618126626269,0.66369759986141297,-0.37682541998427194,1.3195549575404868,0.23537580970926678,0.46552998232421056,2.0604316229831192,-0.24249218546144072,-0.15004776247506915,0.15004776247506915,0.24249218546144072,3.9351091496222965,0.0
664640.0783812654,4025767.5119837918,-22500.0,3.4570575377504444,0.73357566721988055,-0.47005315127844011,1.6690312562294363,0.26264034098380229,0.62868270657509473,2.4802791675030815,-0.3126356285608532,-0.14802153266790391,0.14802153266790391,0.3126356285608532,4.742667724496636,0.0
669640.0783812654,4025767.5119837918,-22500.0,4.1162654152965468,0.80169807536002502,-0.58847831979841281,2.131450118320692,0.28563545825632891,0.86142389991907686,3.0100726588484514,-0.40073969573076573,-0.13845670982573058,0.13845670982573058,0.40073969573076573,5.7634688125083597,0.0
674640.0783812654,4025767.5119837918,-22500.0,4.9145025124205848,0.86010927931758774,-0.73825431861603408,2.7479132217433229,0.2962845490546977,1.1984224103276719,3.6836431147152169,-0.50873589399893704,-0.11820352202251921,0.11820352202251921,0.50873589399893704,7.0634702997919279,0.0
679640.0783812654,4025767.5119837918,-22500.0,5.8702340514468307,0.89521258275608662,-0.92556843099067365,3.5742104031656958,0.27920476431643115,1.6936078609045075,4.5457784762616766,-0.63512325164037553,-0.084164665090117108,0.084164665090117108,0.63512325164037553,8.7296410983754615,0.0
684640.0783812654,4025767.5119837918,-22500.0,6.9885051352079817,0.88508211986839269,-1.1544431698396547,4.6836282568189906,0.20579322029736125,2.4312510851091682,5.6550532755791831,-0.76953120851601642,-0.035400657343115316,0.035400657343115316,0.76953120851601642,10.874418237423543,0.0
689640.0783812654,4025767.5119837918,-22500.0,8.2392783345046858,0.79692598359126599,-1.4214823308714921,6.1657219765311906,0.023965789139959608,3.5424692123713295,7.0860931965072966,-0.88110821440805331,0.021173210495913919,-0.021173210495913919,0.88110821440805331,13.637116350838394,0.0
694640.0783812654,4025767.5119837918,-22500.0,9.5144205562798927,0.58785629783673998,-1.7044463002225441,8.1119849511083455,-0.35862253037330855,5.2270095323733399,8.9287812285723227,-0.89483537907843125,0.05681917529002567,-0.05681917529002567,0.89483537907843125,17.17499427584049,0.0
699640.0783812654,4025767.5119837918,-22500.0,10.549196487456788,0.21855766450163513,-1.9395267276940371,10.566640001307826,-1.0984260490318425,7.7726501762767199,11.277102408079946,-0.64627864062445517,-0.010755345042009423,0.010755345042009423,0.64627864062445517,21.626984603819075,0.0
704640.0783812654,4025767.5119837918,-22500.0,10.798557287689592,-0.29541536788568773,-1.9817605452269176,13.39608555285862,-2.4372871226275583,11.539061220510575,14.188389949171242,0.19461886798568728,-0.38300227169994172,0.38300227169994172,-0.19461886798568728,27.014754973801146,0.0
709640.0783812654,4025767.5119837918,-22500.0,9.3045418562830289,-0.74235254282167762,-1.553965846231679,15.99754235551422,-4.6737067836599664,16.801011046518166,17.575963393441082,2.2154126334939868,-1.4944813527094978,1.4944813527094978,-2.2154126334939868,33.022002660822245,0.0
714640.0783812654,4025767.5119837918,-22500.0,4.7667798315726468,-0.41351114973187991,-0.24207259671768663,16.78740580039824,-7.9307370166502382,23.183622966326922,21.00032105087929,6.2362803163524578,-4.1306473333673903,4.1306473333673903,-6.2362803163524578,38.615666341161095,0.0
719640.0783812654,4025767.5119837918,-22500.0,-3.5504747414811799,2.2804975624873673,2.2612594947929563,12.754578841280573,-11.377672799461122,28.2196564661111,23.466062209119585,12.693552768333717,-9.2385685057793658,9.2385685057793658,-12.693552768333717,41.838643610880546,0.0
724640.0783812654,4025767.5119837918,-22500.0,-13.172746089122423,9.4338048224356186,5.3298991777299634,0.66339639285300933,-11.66936128867793,25.030427934769726,24.26961317754995,19.523847981818381,-16.490686707115227,16.490686707115227,-19.523847981818381,42.092789092688079,0.0
729640.0783812654,4025767.5119837918,-22500.0,-15.802563969951677,20.334687034675017,6.4595131789362545,-16.836773506369909,-2.481252261633129,2.7536749075646503,28.8710382130641,19.226622131005833,-20.889385308925796,20.889385308925796,-19.226622131005833,50.361024749746143,0.0
734640.0783812654,4025767.5119837918,-22500.0,-4.7512958809479793,26.354120685130312,3.4248660787630523,-23.573966484360863,18.44185048486364,-40.488144300893516,45.289920096832866,3.4167827761976186,-12.867153905861663,12.867153905861663,-3.4167827761976186,80.045502600629931,0.0
739640.0783812654,4025767.5119837918,-22500.0,7.2253597750444918,18.143703632780227,-0.026675944410840619,-4.4109552556605536,37.439100541302651,-79.086177014031975,61.147050831464043,-19.125645986056362,6.9913760012566053,-6.9913760012566053,19.125645986056362,110.12424496241958,0.0
744640.0783812654,4025767.5119837918,-22500.0,1.6948343323801418,3.6344681129263106,1.8043852918025425,24.401876495221561,37.566615499122122,-83.222489988244348,62.936908536600072,-25.837868248281641,20.098524353196961,-20.098524353196961,25.837868248281641,115.23888818697519,0.0
749640.0783812654,4025767.5119837918,-22500.0,-13.20643044979311,-3.15898806764028,6.4416448077377746,36.959386531165947,23.646722170391364,-60.603657098093073,52.144343099844626,-14.848094787780623,17.097806735859169,-17.097806735859169,14.848094787780623,96.794819152606877,0.0
754640.0783812654,4025767.5119837918,-22500.0,-21.682964173510232,-1.9872155335248345,8.9578528397953185,32.808871270759873,9.921911286350392,-35.682842211704624,38.076031815924054,-1.3851969091122647,7.2888769241839526,-7.2888769241839526,1.3851969091122647,71.416175360632735,0.0
759640.0783812654,4025767.5119837918,-22500.0,-21.731642070075292,1.2532979517775027,8.73054132803132,23.306332716711392,1.8449117991116417,-18.920644977783354,26.580389984939124,6.4961773754940149,-0.56404329481460458,0.56404329481460458,-6.4961773754940149,49.946931968733196,0.0
764640.0783812654,4025767.5119837918,-22500.0,-17.822998163885366,3.5449870997516184,7.2129407416514164,14.947171563957408,-1.7049598427862414,-9.5893769165077369,18.667076116519929,9.2423097766390754,-4.6380839287119882,4.6380839287119882,-9.2423097766390754,34.714976527462198,0.0
769640.0783812654,4025767.5119837918,-22500.0,-13.283575070988263,4.5321031261406386,5.5061829804528299,9.1417009747167519,-2.8287601129367546,-4.7601937105609675,13.416835161153307,9.2259297537120517,-6.0433925975008149,6.0433925975008149,-9.2259297537120517,24.533413574253011,0.0
774640.0783812654,4025767.5119837918,-22500.0,-9.4290377213375205,4.6499483246267621,4.0537786836823209,5.4612325020128498,-2.8863821615610461,-2.3215387004410379,9.8816337229616007,8.1176271684068713,-6.0524483104012035,6.0524483104012035,-8.1176271684068713,17.771005083614906,0.0
779640.0783812654,4025767.5119837918,-22500.0,-6.5174686948132816,4.3263362362884612,2.943346126442024,3.2139761971814691,-2.5553502233090488,-1.0984092621639392,7.4415277571716976,6.7524849642374312,-5.4688359474086186,5.4688359474086186,-6.7524849642374312,13.203576537692712,0.0
784640.0783812654,4025767.5119837918,-22500.0,-4.4316014262898751,3.8303929032232311,2.1331760487457139,1.862116851514275,-2.1321996473925973,-0.48699955191529853,5.7149209492996622,5.4736862874543943,-4.7073080870561688,4.7073080870561688,-5.4736862874543943,10.04080408161961,0.0
789640.0783812654,4025767.5119837918,-22500.0,-2.9745068736132581,3.3038452920937731,1.5534292322625551,1.0531805393872751,-1.7323038895563543,-0.1838618784892318,4.4651255327461961,4.3900992655573097,-3.9560147341413154,3.9560147341413154,-4.3900992655573097,7.7929725920742134,0.0
794640.0783812654,4025767.5119837918,-22500.0,-1.9685908674409074,2.8118108817792011,1.1408044559255639,0.57014666372462086,-1.3918614517400647,-0.036697453295109657,3.542049297772393,3.5124267930360027,-3.2877543292652378,3.2877543292652378,-3.5124267930360027,6.1562495851833656,0.0
799640.0783812654,4025767.5119837918,-22500.0,-1.2776925427019274,2.3786878905942381,0.84648401277275787,0.28253764748979249,-1.1150706759141999,0.03140993327509909,2.8480359911321278,2.816235554657617,-2.7214071886691147,2.7214071886691147,-2.816235554657617,4.938543225429,0.0
804640.0783812654,4025767.5119837918,-22500.0,-0.80412613924911736,2.0090174554373981,0.63520238052353784,0.11244444089452443,-0.89476655463416754,0.059622653976528175,2.3179299800644566,2.2687042619803779,-2.252872288805325,2.252872288805325,-2.2687042619803779,4.0153102646143335,0.0
809640.0783812654,4025767.5119837918,-22500.0,-0.47990057816128068,1.6985813645980137,0.48220456728134781,0.013289605708669945,-0.72097598313028355,0.068019868520678026,1.9072502450925755,1.8388473718383884,-1.8697605912617301,1.8697605912617301,-1.8388473718383884,3.3036632618691737,0.0
814640.0783812654,4025767.5119837918,-22500.0,-0.25831982257471725,1.4399669685317524,0.37030808633604295,-0.042915005055930149,-0.58417532427701413,0.066932343622302493,1.5850016212120113,1.5006548954055972,-1.5579734086072139,1.5579734086072139,-1.5006548954055972,2.7470568911508058,0.0
819640.0783812654,4025767.5119837918,-22500.0,-0.10745596622930086,1.225195459127983,0.28761045811637675,-0.073099190412798817,-0.47631106120857597,0.061661514498650212,1.3291891958030226,1.2334100828522694,-1.3043901439067234,1.3043901439067234,-1.2334100828522694,2.3060408623302697,0.0
824640.0783812654,4025767.5119837918,-22500.0,-0.0054694165900644222,1.0468560698632705,0.22584037940566587,-0.08757299384105767,-0.3909297014564061,0.054894094128975598,1.1239487843170264,1.0210273718979495,-1.0977633160414446,1.0977633160414446,-1.0210273718979495,1.9525351159510209,0.0
829640.0783812654,4025767.5119837918,-22500.0,0.062625420967635612,0.89850896503495981,0.17921426354197137,-0.092652082241324499,-0.32299342417876414,0.047951957041631632,0.95766889013957424,0.85116569478726789,-0.92883244115473307,0.92883244115473307,-0.85116569478726789,1.6661937441053523,0.0
834640.0783812654,4025767.5119837918,-22500.0,0.1071579219068888,0.7747486315220149,0.14365599833256512,-0.09222149793158578,-0.26861841967207956,0.0414457266523863,0.82173670746505656,0.71439953937359335,-0.79013210410756352,0.79013210410756352,-0.71439953937359335,1.4320394119058859,0.0
644640.0783812654,4030767.5119837918,-22500.0,2.0189713292935938,0.27378707095199667,-0.21186986382891848,0.76749926881834507,0.085945166289811983,0.22617104598550106,1.290052353820945,-0.22340628207272775,0.051178054494038477,-0.051178054494038477,0.22340628207272775,2.4910912749463239,0.0
649640.0783812654,4030767.5119837918,-22500.0,2.3546802239641531,0.28138586631747642,-0.25558524234461372,0.94348774365684041,0.087249060208786297,0.29367922226511423,1.5181913617640095,-0.27625108581863389,0.084073406360764796,-0.084073406360764796,0.27625108581863389,2.9346771156209797,0.0
654640.0783812654,4030767.5119837918,-22500.0,2.7585826656830696,0.2803808578973388,-0.30888802858975234,1.1692227006236147,0.083248780266924963,0.38572514471718988,1.79887111000425,-0.34170539617257767,0.12944245814730049,-0.12944245814730049,0.34170539617257767,3.4812404245345516,0.0
659640.0783812654,4030767.5119837918,-22500.0,3.2451803538550643,0.26519363641147975,-0.3735453859894548,1.4610305784219781,0.069915658250447349,0.51280150541301062,2.1467196425281738,-0.42223836168956946,0.19174589738302711,-0.19174589738302711,0.42223836168956946,4.1596657470523031,0.0
664640.0783812654,4030767.5119837918,-22500.0,3.8309540854624746,0.22738312901938437,-0.45116942753632006,1.8410283476592806,0.04059474569181127,0.69051064978542886,2.5809611221257316,-0.52006925785545444,0.27687553559919337,-0.27687553559919337,0.52006925785545444,5.0079346310615174,0.0
669640.0783812654,4030767.5119837918,-22500.0,4.5332313768830232,0.15433233524771828,-0.54261158370475127,2.3390429306847964,-0.015702011350112552,0.94229034860247329,3.1268910850902212,-0.6361904388873123,0.3923590906739361,-0.3923590906739361,0.6361904388873123,6.0759811596320246,0.0
674640.0783812654,4030767.5119837918,-22500.0,5.3672442098791793,0.02751453138589266,-0.64669893792292088,2.99478786888166,-0.11711315514096277,1.3036352603857058,3.8177174197489521,-0.76826136899406738,0.54721283943386534,-0.54721283943386534,0.76826136899406738,7.4291182143428944,0.0
679640.0783812654,4030767.5119837918,-22500.0,6.3396087670936128,-0.17949468596679247,-0.75772968714300915,3.8596964396036872,-0.29352345743336278,1.8285350439040373,4.6966887382184517,-0.9062872006931092,0.75079601431214427,-0.75079601431214427,0.9062872006931092,9.1516269137939386,0.0
684640.0783812654,4030767.5119837918,-22500.0,7.4350530184469195,-0.50246858055275323,-0.86071948262315656,4.9966734004326288,-0.59385366464245071,2.5989310336016103,5.8191314782151276,-1.0240804683759106,1.0092097225031038,-1.0092097225031038,1.0240804683759106,11.349193593742388,0.0
689640.0783812654,4030767.5119837918,-22500.0,8.5911222135960426,-0.98501525320440464,-0.92282389884204985,6.4734191500630169,-1.0969382641172931,3.7374623605736774,7.2531774537838594,-1.0630590856923916,1.3161330177557982,-1.3161330177557982,1.0630590856923916,14.146793933596962,0.0
694640.0783812654,4030767.5119837918,-22500.0,9.6534187191346668,-1.66779401748429,-0.87904041123581667,8.3394544400878541,-1.9255923690541417,5.4211525725769683,9.0756378134646898,-0.90325677157568207,1.6319362341349983,-1.6319362341349983,0.90325677157568207,17.674174138986075,0.0
699640.0783812654,4030767.5119837918,-22500.0,10.305122750134556,-2.5540063199075629,-0.61188251317102582,10.566623603916319,-3.2579330483814632,7.8850891436389681,11.354227238100099,-0.31675867949252134,1.8403472311659992,-1.8403472311659992,0.31675867949252134,22.02248574085672,0.0
704640.0783812654,4030767.5119837918,-22500.0,9.9809030482561969,-3.5229064630647016,0.066445450483715793,12.91818859666799,-5.3127150566888774,11.381760928003693,14.099941689459749,1.090112474775317,1.6692075987532158,-1.6692075987532158,-1.090112474775317,27.14210459465156,0.0
709640.0783812654,4030767.5119837918,-22500.0,7.8372920256122374,-4.1521217930741701,1.3915840968314825,14.708545139226221,-8.2417538766089642,16.009090988053874,17.169699812325799,3.8919672817389426,0.57796075003983738,-0.57796075003983738,-3.8919672817389426,32.642338239311975,0.0
714640.0783812654,4030767.5119837918,-22500.0,3.0076115684387981,-3.4525997290345631,3.4777949521907057,14.494335684490872,-11.782585164056979,21.23775971022398,20.119113318689429,8.6272229720799487,-2.2961133681220112,2.2961133681220112,-8.6272229720799487,37.50325900321009,0.0
719640.0783812654,4030767.5119837918,-22500.0,-4.4199910536194205,0.22547655960007632,5.8176940502875185,10.080878694501701,-14.489792133144789,24.974184258916502,22.140512593926715,14.923385691712875,-7.7778114383880084,7.7778114383880084,-14.923385691712875,40.034816358188436,0.0
724640.0783812654,4030767.5119837918,-22500.0,-11.576564217891754,8.2159067267650006,6.4817801944437283,-0.036241926572344096,-12.810447108915614,22.594633597457229,22.739773277921053,19.639041388875786,-15.177832836564017,15.177832836564017,-19.639041388875786,39.642518585100355,0.0
729640.0783812654,4030767.5119837918,-22500.0,-12.374943633384953,18.428584587408285,2.2881337867744165,-12.747174222229226,-1.9880074495690618,8.3318903770219901,24.551107183874926,15.754592057094698,-19.836076441696584,19.836076441696584,-15.754592057094698,43.108223884117017,0.0
734640.0783812654,4030767.5119837918,-22500.0,-3.6814982865665957,22.944723236491992,-7.4737621199062101,-17.809482022221371,18.05194851609842,-17.661302468488913,33.27183680772356,-2.1333162682783726,-14.139184177352805,14.139184177352805,2.1333162682783726,60.541998172599193,0.0
739640.0783812654,4030767.5119837918,-22500.0,5.8433726315661945,15.040592728129344,-16.496022614798886,-7.0100814874528057,36.66052098889638,-42.585601158518003,44.130255179253673,-25.990351261944561,2.5426800907608325,-2.5426800907608325,25.990351261944561,81.367091070136752,0.0
744640.0783812654,4030767.5119837918,-22500.0,4.3441835613603743,0.5978706230163866,-17.083311606247548,12.047133771968134,41.286227732973124,-51.360260346599411,47.792570897645597,-37.972580580654878,18.087788628987301,-18.087788628987301,37.972580580654878,88.98677633818545,0.0
749640.0783812654,4030767.5119837918,-22500.0,-5.9447320990175809,-8.7432800397469865,-10.390238880224787,24.589464719382605,32.556500707885206,-43.878897052995896,42.928702933661839,-32.590836077100747,22.170380368803688,-22.170380368803688,32.590836077100747,80.704177041217903,0.0
754640.0783812654,4030767.5119837918,-22500.0,-14.951982124188772,-9.9310126655883479,-2.9335889734010103,26.33063752441787,20.047225686434139,-30.598832138701816,33.967915838963691,-19.489773880389528,17.060993456718236,-17.060993456718236,19.489773880389528,64.488540939743288,0.0
759640.0783812654,4030767.5119837918,-22500.0,-18.312940324006451,-6.8989064295480365,1.7128296568386605,21.904835657453219,10.201058971582487,-19.084496308358144,25.11426237400169,-7.9438877675386941,9.6300019665088037,-9.6300019665088037,7.9438877675386941,48.078194458287093,0.0
764640.0783812654,4030767.5119837918,-22500.0,-17.370213890168344,-3.3363278313444318,3.604033454189981,16.101854758364077,4.2051640258929517,-11.261245606775571,18.159777472506473,-0.76805755803157538,3.7304759127966278,-3.7304759127966278,0.76805755803157538,34.833319924779765,0.0
769640.0783812654,4030767.5119837918,-22500.0,-14.548340760348001,-0.69523340636768216,3.8869690749370713,11.118473620671427,1.0581208164343787,-6.4841747334892785,13.20802755047484,2.7866925946706802,0.087320761228452115,-0.087320761228452115,-2.7866925946706802,25.137547564919377,0.0
774640.0783812654,4030767.5119837918,-22500.0,-11.407608463912565,0.88853553045655398,3.4761746904224409,7.4427561289831292,-0.40784443674582349,-3.7003354226176759,9.7565221680864962,4.1334001975383936,-1.8045349339319394,1.8045349339319394,-4.1334001975383936,18.310298519341643,0.0
779640.0783812654,4030767.5119837918,-22500.0,-8.629044652059358,1.6884441482871881,2.8666924487629761,4.9106366889943516,-0.98905758704151936,-2.1073242275254409,7.3314349155241931,4.3371672786119415,-2.6015994988043767,2.6015994988043767,-4.3371672786119415,13.547808644666551,0.0
784640.0783812654,4030767.5119837918,-22500.0,-6.4002108907439723,1.9984155652312394,2.2740697363630198,3.2209286328648639,-1.1398865997589753,-1.199676311190041,5.6041279946916234,4.0274085920169558,-2.7924230675594073,2.7924230675594073,-4.0274085920169558,10.20685898922617,0.0
789640.0783812654,4030767.5119837918,-22500.0,-4.6969777102722032,2.0325711621768461,1.7716094435746215,2.1086331753563305,-1.0982119169436846,-0.6813343891936855,4.3546328482834031,3.5334017701317624,-2.680149123727503,2.680149123727503,-3.5334017701317624,7.8322230997339126,0.0
794640.0783812654,4030767.5119837918,-22500.0,-3.4274210520964754,1.9258863624920517,1.3707387638744029,1.3793877966935806,-0.98194777852516202,-0.38385472988869279,3.4360033925453193,3.0123690946552637,-2.4360911776636645,2.4360911776636645,-3.0123690946552637,6.1163736966250717,0.0
799640.0783812654,4030767.5119837918,-22500.0,-2.4927130903032158,1.7569996914548245,1.0601217473664575,0.90078847002302465,-0.84664580396044187,-0.21226856623937618,2.7496737520420407,2.5315086375051821,-2.1508545685716967,2.1508545685716967,-2.5315086375051821,4.8545700698633212,0.0
804640.0783812654,4030767.5119837918,-22500.0,-1.8081338399141877,1.5691245484450995,0.82263631678369453,0.58558821394332572,-0.71667023277718167,-0.11298108606334471,2.2289331758433359,2.1138189431833996,-1.8691833384941567,1.8691833384941567,-2.1138189431833996,3.9103685353888427,0.0
809640.0783812654,4030767.5119837918,-22500.0,-1.307343307265713,1.3845784077915817,0.64190794139424912,0.37709736240577557,-0.60129127850400765,-0.055557880463741285,1.8280699196410441,1.7619948389638873,-1.6109806561788114,1.6109806561788114,-1.7619948389638873,3.1920112543490937,0.0
814640.0783812654,4030767.5119837918,-22500.0,-0.94060706548390693,1.2138567195389802,0.50431584967609622,0.23862348695386873,-0.50276733001308804,-0.022563072335054588,1.5153155771015121,1.4703287237809155,-1.3832456656427716,1.3832456656427716,-1.4703287237809155,2.6369674017626274,0.0
819640.0783812654,4030767.5119837918,-22500.0,-0.67144747893509038,1.061003589329653,0.39920437015559984,0.14637471922182974,-0.4203173050773461,-0.0039088684308408346,1.268263300588333,1.2303846037045147,-1.1866090983673669,1.1866090983673669,-1.2303846037045147,2.2019682483257861,0.0
824640.0783812654,4030767.5119837918,-22500.0,-0.47338820082495586,0.92668991736569617,0.31848434508087425,0.084847142253759236,-0.35202539929185306,0.0062985364198005741,1.0708752527561685,1.0335470971781189,-1.01881261589635,1.01881261589635,-1.0335470971781189,1.8565926057474245,0.0
829640.0783812654,4030767.5119837918,-22500.0,-0.32728651572703166,0.80993508912570988,0.25610401752688411,0.043869779194899018,-0.29571977164628965,0.011533548072401324,0.91150769280681876,0.87204744809408308,-0.87650652883017199,0.87650652883017199,-0.87204744809408308,1.5791098443822416,0.0
834640.0783812654,4030767.5119837918,-22500.0,-0.2193016404433023,0.70904742033578771,0.20756345500065557,0.016719961672946537,-0.24934991787616301,0.013859702907975889,0.7815918874480231,0.73927513704956105,-0.75614124692875351,0.75614124692875351,-0.73927513704956105,1.3537574123536149,0.0
644640.0783812654,4035767.5119837918,-22500.0,2.1598857424856721,0.058315461482886716,-0.1899414323403541,0.81916816398810099,0.0082097099876204758,0.24064447940928035,1.3277999635888942,-0.31501039588949359,0.2418876034195637,-0.2418876034195637,0.31501039588949359,2.5920654355657446,0.0
649640.0783812654,4035767.5119837918,-22500.0,2.5067562704931712,0.016857740567835816,-0.22150147565625611,1.0027457380547735,-0.012663416355915044,0.31134515699193471,1.5597936097665417,-0.37962562298577607,0.31457333420248201,-0.31457333420248201,0.37962562298577607,3.048180374005188,0.0
654640.0783812654,4035767.5119837918,-22500.0,2.9189742422753753,-0.04610394562194544,-0.25678062187777706,1.2361461124343651,-0.046241504153693554,0.40708529409693539,1.8439754050026096,-0.45693976436838835,0.4092533825816369,-0.4092533825816369,0.45693976436838835,3.6076065036486278,0.0
659640.0783812654,4035767.5119837918,-22500.0,3.4080754033393292,-0.13967401360593942,-0.29466162797079715,1.5346451284888116,-0.099290551338633154,0.53816531544649593,2.1943064915810093,-0.54812860833639321,0.53266590649985601,-0.53266590649985601,0.54812860833639321,4.2980963715140419,0.0
664640.0783812654,4035767.5119837918,-22500.0,3.9857305408657848,-0.27657872710294873,-0.33241318862297986,1.918300790553666,-0.18223510545951943,0.71962464293139394,2.6288416461839468,-0.65303539174396386,0.69331514012739703,-0.69331514012739703,0.65303539174396386,5.1554872077227518,0.0
669640.0783812654,4035767.5119837918,-22500.0,4.6616460229889443,-0.47435173606124542,-0.36436266621666136,2.4130884094998852,-0.31118025229810869,0.97355915317032515,3.1708688169737527,-0.76848602289577306,0.90147593979327656,-0.90147593979327656,0.76848602289577306,6.2258257783210746,0.0
674640.0783812654,4035767.5119837918,-22500.0,5.4392990698198638,-0.75653153819318564,-0.37962252200331309,3.0517401316263646,-0.51100796414310767,1.3325292410664022,3.8501977534146969,-0.88510187030034215,1.1685341238643656,-1.1685341238643656,0.88510187030034215,7.5675753121456832,0.0
679640.0783812654,4035767.5119837918,-22500.0,6.307844951251127,-1.1532526908897638,-0.35830199718079492,3.8733731315472251,-0.81997748405281468,1.8443995617107893,4.7043721740667426,-0.98145185207931074,1.5047506958064665,-1.5047506958064665,0.98145185207931074,9.2532156464274795,0.0
684640.0783812654,4035767.5119837918,-22500.0,7.2276180121114297,-1.6996394508719999,-0.26547451808910749,4.9198236538888933,-1.2961466372173926,2.5787207462242527,5.7791388738822649,-1.0137010879878439,1.9136040855603031,-1.9136040855603031,1.0137010879878439,11.368569370801092,0.0
689640.0783812654,4035767.5119837918,-22500.0,8.1058217325297086,-2.4283563486236481,-0.042345878656403102,6.2243230384709056,-2.0251616316335324,3.6337784023090758,7.126421342752403,-0.89823822691881905,2.379216978857654,-2.379216978857654,0.89823822691881905,14.006213720358968,0.0
694640.0783812654,4035767.5119837918,-22500.0,8.7596855971982404,-3.3487743002643171,0.40447314071955176,7.7841722548201204,-3.1263342752195578,5.1404829207809861,8.7959384584780445,-0.48515061977229834,2.8409328317981926,-2.8409328317981926,0.48515061977229834,17.245688589994433,0.0
699640.0783812654,4035767.5119837918,-22500.0,8.870799062336518,-4.399169475789189,1.2094866732140939,9.5036416780534587,-4.7467508134399399,7.2518153569093968,10.813944708170343,0.47466410946655024,3.1470478929059915,-3.1470478929059915,-0.47466410946655024,21.107437015452913,0.0
704640.0783812654,4035767.5119837918,-22500.0,7.9564865528321231,-5.353490946271152,2.5304572570823654,11.091000758344912,-7.0167162425410954,10.090545215322445,13.140603806144869,2.3474451422280218,2.9837899591816157,-2.9837899591816157,-2.3474451422280218,25.461517531366223,0.0
709640.0783812654,4035767.5119837918,-22500.0,5.4378450968483545,-5.6771386747636017,4.456610038867078,11.912712966152407,-9.9106502966512995,13.601747247316084,15.600043213785757,5.5487315185122501,1.8037480494078419,-1.8037480494078419,-5.5487315185122501,29.878314823768623,0.0
714640.0783812654,4035767.5119837918,-22500.0,0.96854169922627575,-4.4051467728230316,6.7571612837048471,10.895501358762544,-12.93334522428232,17.240462699609441,17.803109148364651,10.226780437083256,-1.1329803422950695,1.1329803422950695,-10.226780437083256,33.470249910551026,0.0
719640.0783812654,4035767.5119837918,-22500.0,-4.8117894079182175,-0.33447606706536848,8.4254401440868474,6.7820655999475763,-14.631373097746717,19.513124015848135,19.181347759201365,15.482255641854621,-6.3230275895353598,6.3230275895353598,-15.482255641854621,35.006960690180669,0.0
724640.0783812654,4035767.5119837918,-22500.0,-9.4170729722170332,6.9168310496338012,7.3363487637312259,-0.74056365268272939,-12.351074274426971,17.788259265424859,19.47474486546577,18.292319647942762,-12.871642214314598,12.871642214314598,-18.292319647942762,34.17374582417051,0.0
729640.0783812654,4035767.5119837918,-22500.0,-9.1488812144451472,14.954949107428076,1.1335867112616222,-9.1197532224564046,-3.4440508336087339,9.4649122554330489,20.006385467627709,13.72330159351923,-17.199750155019295,17.199750155019295,-13.72330159351923,34.883411287013807,0.0
734640.0783812654,4035767.5119837918,-22500.0,-2.9786072301655402,18.208008711773346,-9.7402233266748297,-12.680905193340728,11.323132397578597,-4.8942426853193171,23.629472776826727,-0.91182208905696616,-14.29148145842883,14.29148145842883,0.91182208905696616,43.567041615145456,0.0
739640.0783812654,4035767.5119837918,-22500.0,3.8871267988411162,12.680160494606532,-19.871818578080049,-7.3586439032808775,25.556527785455511,-19.5407424503498,29.779198435448066,-20.145186169721097,-3.2297029472529104,3.2297029472529104,20.145186169721097,56.222306474660293,0.0
744640.0783812654,4035767.5119837918,-22500.0,4.6109776134511584,1.6744059315791873,-23.055430039606559,3.7526818099340815,31.854433238257513,-27.552736280470405,33.414914735517243,-32.857540161529293,9.5927104427121481,-9.5927104427121481,32.857540161529293,63.28391345683697,0.0
749640.0783812654,4035767.5119837918,-22500.0,-1.1055479367329659,-7.3926647213534924,-18.819457607467953,13.34945014572606,28.970290706222645,-27.205763120731071,32.200695484778066,-33.478649681639823,16.744946502035713,-16.744946502035713,33.478649681639823,61.229716133212122,0.0
754640.0783812654,4035767.5119837918,-22500.0,-8.1619033591090311,-10.820986558074178,-11.576538859129343,17.438004983885985,21.353039826188269,-21.914003839867522,27.587262096574804,-25.757104177065447,16.778389783216706,-16.778389783216706,25.757104177065447,52.775106119362228,0.0
759640.0783812654,4035767.5119837918,-22500.0,-12.636416403335772,-9.857844341918705,-5.2684636184238478,16.836972399974165,13.59176581172971,-15.627252875426004,21.906445237658094,-16.104114182146681,12.823695291988505,-12.823695291988505,16.104114182146681,42.207329583863924,0.0
764640.0783812654,4035767.5119837918,-22500.0,-13.911021948779458,-7.1250902770086153,-1.2212070184598527,13.986114049962913,7.739225196833063,-10.38604574442002,16.692539974877526,-8.2558589233493276,8.1254364692769929,-8.1254364692769929,8.2558589233493276,32.365835034865498,0.0
769640.0783812654,4035767.5119837918,-22500.0,-13.039178393687015,-4.3528773974577435,0.87150214955037997,10.698544006803992,3.9620971277475587,-6.6421787260185958,12.533562006827266,-3.0742381190457353,4.287897291573044,-4.287897291573044,3.0742381190457353,24.346577101711837,0.0
774640.0783812654,4035767.5119837918,-22500.0,-11.190588531453715,-2.2034499171441233,1.7201506953514263,7.8170239502166421,1.7447242172322035,-4.1676959412529895,9.4367554731683541,-0.091638674208358473,1.6607077761377043,-1.6607077761377043,0.091638674208358473,18.230546496898452,0.0
779640.0783812654,4035767.5119837918,-22500.0,-9.1275007615056598,-0.74991966442719249,1.9042557303818517,5.5716878076199521,0.53024169066344318,-2.5955088344503996,7.1733539034488789,1.4226427709408367,0.056163695565228711,-0.056163695565228711,-1.4226427709408367,13.710176797647353,0.0
784640.0783812654,4035767.5119837918,-22500.0,-7.2263228713417629,0.14540125968668047,1.7829860039967349,3.9224780739391938,-0.091164539756733304,-1.6149785902986142,5.5158546739756487,2.0633748837823731,-0.82995521747073409,0.82995521747073409,-2.0633748837823731,10.408955636294666,0.0
789640.0783812654,4035767.5119837918,-22500.0,-5.6235125842888616,0.65069840077759333,1.5492408157094257,2.7476641682524154,-0.37992215810510727,-1.0074541910756849,4.2944255857556906,2.2256715828974198,-1.2589010198283261,1.2589010198283261,-2.2256715828974198,7.9999225497317381,0.0
794640.0783812654,4035767.5119837918,-22500.0,-4.3345872847762665,0.90378174923780563,1.2960712511474886,1.9232938706225422,-0.4897744680631973,-0.630895148335752,3.3864881598319991,2.1467914733892437,-1.4158709690871969,1.4158709690871969,-2.1467914733892437,6.2317497241953159,0.0
799640.0783812654,4035767.5119837918,-22500.0,-3.3248176499603574,1.0023546459457973,1.0631255212985786,1.3483181360777157,-0.50768594799046574,-0.39649066664685567,2.704435988329744,1.9604192908087725,-1.4205115589785753,1.4205115589785753,-1.9604192908087725,4.9214913154543609,0.0
804640.0783812654,4035767.5119837918,-22500.0,-2.5449488269521523,1.010791585495088,0.86370751317488226,0.947575988641571,-0.48142045646298764,-0.24966098956381966,2.186094845409138,1.7380577445632599,-1.3459540401793855,1.3459540401793855,-1.7380577445632599,3.9392300619025913,0.0
809640.0783812654,4035767.5119837918,-22500.0,-1.946949701264217,0.96966897715694245,0.69914188375409914,0.66759745269189641,-0.43652872026294942,-0.15705019859197197,1.787416299364526,1.5157695694745654,-1.2351284258563147,1.2351284258563147,-1.5157695694745654,3.1935572199459217,0.0
814640.0783812654,4035767.5119837918,-22500.0,-1.4897053255686581,0.90375637911230389,0.56593951720765023,0.4711784936312528,-0.3862475343030502,-0.098248473275111284,1.477097097399015,1.3101606923474189,-1.1122995710410477,1.1122995710410477,-1.3101606923474189,2.6201913211195986,0.0
819640.0783812654,4035767.5119837918,-22500.0,-1.1401344411651722,0.82774075883144482,0.45917152133696998,0.3326927261565652,-0.3371011094673072,-0.060702268957836411,1.2327460180220109,1.127524745995601,-0.99055785884018899,0.99055785884018899,-1.127524745995601,2.1737157547804213,0.0
824640.0783812654,4035767.5119837918,-22500.0,-0.87247908373076777,0.75004089616977365,0.37394172632159078,0.23454253226821062,-0.29201751434166334,-0.036632203363244388,1.0382069544631509,0.96892683977566996,-0.87646728701460674,0.87646728701460674,-0.96892683977566996,1.821791760767665,0.0
829640.0783812654,4035767.5119837918,-22500.0,-0.66703825179554754,0.67525250019406668,0.30594491841451765,0.16462950634007684,-0.25204345175344356,-0.021175439484550342,0.88170632308202745,0.83296383392077944,-0.77287246103957785,0.77287246103957785,-0.83296383392077944,1.5411701788053369,0.0
644640.0783812654,4040767.5119837918,-22500.0,2.2240180516075485,-0.15351034669700081,-0.13649480996587976,0.84416679731478095,-0.068792611553204305,0.24788746932949848,1.3472727281084524,-0.38050371673171907,0.42619547923114504,-0.42619547923114504,0.38050371673171907,2.6523909378446366,0.0
649640.0783812654,4040767.5119837918,-22500.0,2.5619137910370808,-0.23878560530966,-0.14770891353526533,1.026548940762229,-0.11007103922205222,0.31883988510937061,1.5776440491320849,-0.44854259797599533,0.53384299287536263,-0.53384299287536263,0.44854259797599533,3.1087557873412934,0.0
654640.0783812654,4040767.5119837918,-22500.0,2.9565662506998467,-0.3552571388600535,-0.15458925714823102,1.2555799080624181,-0.1701136449202818,0.41397676563679847,1.8579682439430547,-0.52658706223127516,0.6704379296940346,-0.6704379296940346,0.52658706223127516,3.664497261590391,0.0
659640.0783812654,4040767.5119837918,-22500.0,3.4149994753296378,-0.51377037358812383,-0.15269425046739341,1.5442122240362379,-0.25750875911286103,0.54271919494536724,2.2008291868643015,-0.61365640836979662,0.84369880642417816,-0.84369880642417816,0.61365640836979662,4.344606155579279,0.0
664640.0783812654,4040767.5119837918,-22500.0,3.9423339089649416,-0.7285892631286045,-0.13461476074283996,1.9087050662302447,-0.38491343781496962,0.71849241590006441,2.6221238546222922,-0.70621681476932507,1.0628163323383271,-1.0628163323383271,0.70621681476932507,5.180511098122337,0.0
669640.0783812654,4040767.5119837918,-22500.0,4.5389760236540715,-1.01798014693028,-0.088198494465925939,2.368881278268725,-0.5709685985825802,0.96045142780089721,3.1417577219644048,-0.79594578946513495,1.3379997122926353,-1.3379997122926353,0.79594578946513495,6.211262848551697,0.0
674640.0783812654,4040767.5119837918,-22500.0,5.1956690408107651,-1.4042497676883763,0.0061571452375006669,2.947641541438224,-0.84298515783533146,1.2958309623755391,3.7842237516831849,-0.86589783768052797,1.6790187633093225,-1.6790187633093225,0.86589783768052797,7.4843109758379258,0.0
679640.0783812654,4040767.5119837918,-22500.0,5.8851968061723658,-1.9122621284924528,0.17943798576074291,3.6687234647226159,-1.2404707563540625,1.7629225589764139,4.5786648276213953,-0.88414172135724389,2.0916919443886415,-2.0916919443886415,0.88414172135724389,9.0550132003124801,0.0
684640.0783812654,4040767.5119837918,-22500.0,6.5492930412559787,-2.5644344404889421,0.47922318350410426,4.5507619400383517,-1.8191417741763125,2.4142793421763438,5.5575481121180106,-0.79371442916902879,2.5704469547433271,-2.5704469547433271,0.79371442916902879,10.983140235854778,0.0
689640.0783812654,4040767.5119837918,-22500.0,7.0797959751205157,-3.3684503189166213,0.97526079730057824,5.5942114810788857,-2.653852758465685,3.3186773695399308,6.7523388354769782,-0.4980683502059231,3.0839145587623031,-3.0839145587623031,0.4980683502059231,13.323110162261157,0.0
694640.0783812654,4040767.5119837918,-22500.0,7.2958717309646755,-4.2914514033945474,1.7617778802928943,6.7558052583735728,-3.8359516249448959,4.5578915211416327,8.1836361299791562,0.15655693722629294,3.5494850645836182,-3.5494850645836182,-0.15655693722629294,16.102373894927123,0.0
699640.0783812654,4040767.5119837918,-22500.0,6.9274988557660055,-5.2126410510241321,2.9465370307467733,7.9044169936368238,-5.4544730471331029,6.2093926726883835,9.8422586291419307,1.3930515387917808,3.793900368080747,-3.793900368080747,-1.3930515387917808,19.279862891507985,0.0
704640.0783812654,4040767.5119837918,-22500.0,5.6342886459378922,-5.8506409019868784,4.6046130594421593,8.7575815535504979,-7.540310133018739,8.2981062698056931,11.657894681729172,3.4827309836041591,3.5061734610896638,-3.5061734610896638,-3.4827309836041591,22.67693885250856,0.0
709640.0783812654,4040767.5119837918,-22500.0,3.1191138095003161,-5.6873544317812597,6.6598286624651237,8.8218628186331163,-9.9423786208292384,10.693322854390994,13.457920646920105,6.6315858549072004,2.2186323528860878,-2.2186323528860878,-6.6315858549072004,25.887326239903988,0.0
714640.0783812654,4040767.5119837918,-22500.0,-0.58717412692433602,-3.9805612931132619,8.6622075726867926,7.4204715076210395,-12.118099007817641,12.939355207719641,14.941844765330329,10.680699782731365,-0.58605605657902693,0.58605605657902693,-10.680699782731365,28.225445829600815,0.0
719640.0783812654,4040767.5119837918,-22500.0,-4.6854077761970201,-0.069271354958348713,9.5260794070250014,3.9780626893318467,-12.917520454236083,14.085839128601176,15.75205450027455,14.587645295130995,-5.0804599302350173,5.0804599302350173,-14.587645295130995,28.90735358725496,0.0
724640.0783812654,4040767.5119837918,-22500.0,-7.3767832898410344,5.8316068167032666,7.5670874565824287,-1.2936050547949751,-10.679618263758931,12.76455470732818,15.794355097946527,16.005457860811248,-10.362772451154086,10.362772451154086,-16.005457860811248,27.878470413535464,0.0
729640.0783812654,4040767.5119837918,-22500.0,-6.6562141774712531,11.693584577358381,1.4429881764864891,-6.6277604517882889,-4.1507740571622769,7.8945839031274412,15.823421236298962,11.922701723560728,-13.943982094968383,13.943982094968383,-11.922701723560728,27.443780860689785,0.0
734640.0783812654,4040767.5119837918,-22500.0,-2.395718331340019,14.022378187412842,-8.0152600134864045,-9.0215540844410391,5.8592906131359435,-0.051588399019586575,17.273648255229613,1.1899132160655519,-12.769991884612523,12.769991884612523,-1.1899132160655519,31.421132595365659,0.0
739640.0783812654,4040767.5119837918,-22500.0,2.3894483056993447,10.579795000528318,-17.042912311303105,-6.479938850054479,15.820407581852425,-8.4942239258450343,20.243164393647753,-12.852520371736553,-6.0719468096147908,6.0719468096147908,12.852520371736553,38.693622396734078,0.0
744640.0783812654,4040767.5119837918,-22500.0,3.8623339129128795,3.0399669387438619,-21.42717207881379,-0.2197425911311621,21.663486077720073,-14.268508911526578,22.897753346220593,-23.810532710988412,3.0147896762164255,-3.0147896762164255,23.810532710988412,44.10845113002884,0.0
749640.0783812654,4040767.5119837918,-22500.0,1.118610066384369,-4.345915260827935,-20.057508781871636,6.2926631763596994,21.961190675468856,-15.977060123438685,23.246898350923999,-27.471546415390712,9.9734616343371201,-9.9734616343371201,27.471546415390712,44.732599528235788,0.0
754640.0783812654,4040767.5119837918,-22500.0,-3.5904664261073922,-8.5648649515719324,-15.14695239382459,10.38403664531225,18.354331358752908,-14.483901518825105,21.269842727180343,-24.53274596320788,12.625405680347917,-12.625405680347917,24.53274596320788,40.994259246903432,0.0
759640.0783812654,4040767.5119837918,-22500.0,-7.6416035585004138,-9.3815965368737988,-9.6024976771020398,11.574772628889571,13.418359346485406,-11.529910355849426,18.033101516771023,-18.399765053007982,11.71470517557664,-11.71470517557664,18.399765053007982,34.89220149535128,0.0
764640.0783812654,4040767.5119837918,-22500.0,-9.8528839718396082,-8.1033059564246646,-5.1293041215093833,10.761784604711659,8.9125302529687964,-8.4586036493819208,14.54686455918816,-12.065972708643853,9.0856270494896254,-9.0856270494896254,12.065972708643853,28.291492399983536,0.0
769640.0783812654,4040767.5119837918,-22500.0,-10.330153639251622,-6.0758876049827419,-2.1418672440894224,9.0358178671720673,5.4990412424004917,-5.9016207407465853,11.404529031225174,-6.9887686726459837,6.1964038756731714,-6.1964038756731714,6.9887686726459837,22.289088136285748,0.0
774640.0783812654,4040767.5119837918,-22500.0,-9.6777318349762886,-4.1067727826029161,-0.39794554534985543,7.1412065292625684,3.1757021111311334,-3.9983617406830558,8.8370102927153482,-3.454765802004522,3.7630299269498679,-3.7630299269498679,3.454765802004522,17.306323392182808,0.0
779640.0783812654,4040767.5119837918,-22500.0,-8.4789726143913722,-2.5194879317320584,0.50026667316815154,5.4439471752375876,1.6986228192433468,-2.6667584167685234,6.8517249249392753,-1.2185484856024607,1.9746420317544571,-1.9746420317544571,1.2185484856024607,13.372673976891075,0.0
784640.0783812654,4040767.5119837918,-22500.0,-7.1283932135639159,-1.3637575490908644,0.88939918302204857,4.0642974983281199,0.80404300493463865,-1.766637515373946,5.3450622706264603,0.089061247064976201,0.77020634700889645,-0.77020634700889645,-0.089061247064976201,10.349805645360394,0.0
789640.0783812654,4040767.5119837918,-22500.0,-5.841493660632521,-0.57660267414514255,0.99878406893193528,3.000337089935655,0.28406251368799396,-1.1690421691546846,4.2027860362682805,0.79024320297436024,0.012532510162550636,-0.012532510162550636,-0.79024320297436024,8.0564192358910738,0.0
794640.0783812654,4040767.5119837918,-22500.0,-4.7124925969725364,-0.06793737973077367,0.96789506229568489,2.2036197015998731,-0.0050311722796806428,-0.77538644774268051,3.3345709311546203,1.1190217466345147,-0.43269007567477979,0.43269007567477979,-1.1190217466345147,6.3233742080609829,0.0
799640.0783812654,4040767.5119837918,-22500.0,-3.7666882178722507,0.24414665276437958,0.87545453381885308,1.6164816208182373,-0.15599920655335925,-0.51644489114157854,2.6716198442287493,1.2303708980340673,-0.67150035857695811,0.67150035857695811,-1.2303708980340673,5.0116210972552384,0.0
804640.0783812654,4040767.5119837918,-22500.0,-2.9954835183505995,0.42337811260835845,0.76320251831549879,1.1871454847658989,-0.22638924607879304,-0.34568615759502735,2.1620697892949288,1.2213799052495189,-0.77964560774286507,0.77964560774286507,-1.2213799052495189,4.0135815666754864,0.0
809640.0783812654,4040767.5119837918,-22500.0,-2.3765681709287771,0.51566390780533522,0.65176343841987194,0.87402816633963054,-0.2510276117365613,-0.23252870156854594,1.7672821185139276,1.1505722482314451,-0.80825498516324212,0.80825498516324212,-1.1505722482314451,3.2485971087943071,0.0
814640.0783812654,4040767.5119837918,-22500.0,-1.8843280184846893,0.5526392789378195,0.55026438450573412,0.64553165882826058,-0.25062374175953939,-0.15707858106037775,1.4586854464907111,1.052093562545227,-0.79060193673783941,0.79060193673783941,-1.052093562545227,2.6571193226279219,0.0
819640.0783812654,4040767.5119837918,-22500.0,-1.4946370494056922,0.55549780287505213,0.46185316185811448,0.47834850172880899,-0.23730815502952188,-0.10643242008577161,1.2152124621200397,0.94518694673851922,-0.74776282606165112,0.74776282606165112,-0.94518694673851922,2.1954698920247107,0.0
824640.0783812654,4040767.5119837918,-22500.0,-1.1866663905173458,0.53815491320405884,0.38674250879501842,0.35555580719117169,-0.21806888362662774,-0.072207023787899977,1.021310414075784,0.84020162303691626,-0.69277216269224651,0.69277216269224651,-0.84020162303691626,1.8316356081136342,0.0
829640.0783812654,4040767.5119837918,-22500.0,-0.94324311145884299,0.50959610672187927,0.32383600418658526,0.26495996646599562,-0.19684116912790647,-0.048931288444328792,0.86545223638827484,0.74229012947091344,-0.63348377633363051,0.63348377633363051,-0.74229012947091344,1.5420877255558654,0.0
649640.0783812654,4045767.5119837918,-22500.0,2.530191988188522,-0.46843897295660664,-0.042916900995923248,1.0182084901812696,-0.19875450160778746,0.31705376245336764,1.5719287057548548,-0.48164139572471287,0.72819778627849041,-0.72819778627849041,0.48164139572471287,3.116293532145328,0.0
654640.0783812654,4045767.5119837918,-22500.0,2.8873380003617855,-0.62535546617995608,-0.015483936181067559,1.2331327195801542,-0.28002829601619994,0.40800673332095255,1.8418647039725013,-0.55057844122363664,0.89573755557550816,-0.89573755557550816,0.55057844122363664,3.6533144357320357,0.0
659640.0783812654,4045767.5119837918,-22500.0,3.2911019745811538,-0.82974751034046834,0.032426363293135169,1.4991431909671222,-0.39359576521411344,0.52934496185553737,2.1687648051665755,-0.62130927289880233,1.10325894654504,-1.10325894654504,0.62130927289880233,4.303380637158555,0.0
664640.0783812654,4045767.5119837918,-22500.0,3.7400094625654332,-1.0947842060202544,0.11205596884956982,1.8279494994057803,-0.55269396322052688,0.6922729030161856,2.5657539248689636,-0.6868021569322309,1.3587934895675531,-1.3587934895675531,0.6868021569322309,5.0921474380819856,0.0
669640.0783812654,4045767.5119837918,-22500.0,4.2259835059845026,-1.4358480590332976,0.2402654069606148,2.2325531430331376,-0.77594186270602583,0.91221465925247625,3.0485293510115108,-0.7340039302191762,1.670057637760864,-1.670057637760864,0.7340039302191762,6.0500728214002955,0.0
674640.0783812654,4045767.5119837918,-22500.0,4.729571075144368,-1.8692912318887285,0.4419525396383121,2.7258258549021739,-1.0891908431077493,1.2101589997185698,3.6351894892850183,-0.740003637916405,2.0422231999453642,-2.0422231999453642,0.740003637916405,7.2119467964430797,0.0
679640.0783812654,4045767.5119837918,-22500.0,5.2128475411498059,-2.409104255912907,0.75299000328408616,3.3172502417897207,-1.5274821634689337,1.6140312180622638,4.3453081322774416,-0.66630945693123034,2.4734702292517805,-2.4734702292517805,0.66630945693123034,8.6148129872995476,0.0
684640.0783812654,4045767.5119837918,-22500.0,5.6097430261175107,-3.0596457834163293,1.2230088845563976,4.0063801867719011,-2.1363052983598725,2.159477897239154,5.1976008547771473,-0.4509761418560494,2.9468079883505833,-2.9468079883505833,0.4509761418560494,10.292779731258811,0.0
689640.0783812654,4045767.5119837918,-22500.0,5.8148178873845904,-3.8015965345875213,1.9159912761590534,4.7709390715563567,-2.9701405279070991,2.8885868081082906,6.2051379988371158,0.00060434574471224245,3.4162037385530644,-3.4162037385530644,-0.00060434574471224245,12.266295343202312,0.0
694640.0783812654,4045767.5119837918,-22500.0,5.6748727266970533,-4.5676961081314342,2.9038012225433816,5.5472739735308529,-4.0839618883336763,3.843457713919447,7.366618394561474,0.82238861391923113,3.7854671866738041,-3.7854671866738041,-0.82238861391923113,14.522481165868795,0.0
699640.0783812654,4045767.5119837918,-22500.0,4.9947422846474741,-5.2065732623701457,4.2428668400209562,6.2026767831543808,-5.5097208484883069,5.0490639020792889,8.6521452027960244,2.1811009660047596,3.8816305915843738,-3.8816305915843738,-2.1811009660047596,16.983079677595065,0.0
704640.0783812654,4045767.5119837918,-22500.0,3.5795846239008209,-5.441796429445354,5.9181983213026941,6.5062941564826442,-7.2060437965797517,6.477404437914811,9.9834911232077008,4.2333504478111603,3.4347789608065309,-3.4347789608065309,-4.2333504478111603,19.460365625439877,0.0
709640.0783812654,4045767.5119837918,-22500.0,1.3447074990763681,-4.8567830640664571,7.7387641928228339,6.1230476871345001,-8.9714283191040476,7.9866332245271217,11.214987696064645,7.009434512230964,2.0982690295171267,-2.0982690295171267,-7.009434512230964,21.615504414343587,0.0
714640.0783812654,4045767.5119837918,-22500.0,-1.4934149596212987,-2.9771073015598715,9.1942950376920702,4.6836580643653472,-10.334521575115827,9.2448075970145158,12.136417413867418,10.193169670237715,-0.42674054524166305,0.42674054524166305,-10.193169670237715,22.969023290006742,0.0
719640.0783812654,4045767.5119837918,-22500.0,-4.2204759976404045,0.45114194714543437,9.3677469391259063,1.9990741951832349,-10.50084911753477,9.6914856247812509,12.544438360783374,12.848689354625538,-4.0988834807973467,4.0988834807973467,-12.848689354625538,23.076971625420214,0.0
724640.0783812654,4045767.5119837918,-22500.0,-5.6708527298310045,4.981986038344334,7.1304268289872281,-1.5860356303386862,-8.5295666996171366,8.6514100763847406,12.44030874871294,13.353843766706717,-8.13938897457016,8.13938897457016,-13.353843766706717,22.04369039218783,0.0
729640.0783812654,4045767.5119837918,-22500.0,-4.8353957066955875,9.1187249289629015,1.8448211567544526,-4.9442814747129455,-3.8963233306325793,5.7030086620984068,12.296487512208467,9.9978617450369622,-10.90436605766986,10.90436605766986,-9.9978617450369622,21.298348170433268,0.0
734640.0783812654,4045767.5119837918,-22500.0,-1.8872915670840338,10.765330972703952,-5.6793784306511554,-6.4948322915981604,2.7681305481643594,1.1722280703161601,12.901932586543357,2.3628365410484014,-10.586256857114876,10.586256857114876,-2.3628365410484014,23.07717010287146,0.0
739640.0783812654,4045767.5119837918,-22500.0,1.4220809458250379,8.6802046815775942,-13.008180706637814,-5.244503382847431,9.5335498146480688,-3.7335704713360895,14.384101734714323,-7.5594777735039909,-6.6462153182821151,6.6462153182821151,7.5594777735039909,27.232954619371682,0.0
744640.0783812654,4045767.5119837918,-22500.0,2.9265125414260598,3.6970988541104575,-17.450700467201091,-1.6862386573623926,14.184408299557234,-7.5269709528707089,15.951460695262661,-16.145124112380184,-0.6069755560749579,0.6069755560749579,16.145124112380184,31.058354849937462,0.0
749640.0783812654,4045767.5119837918,-22500.0,1.794186430634243,-1.8252848489356439,-17.900532002005576,2.5220947620430216,15.634157616867382,-9.3453783712317939,16.68485772888566,-20.569943875892495,4.9601042611020922,-4.9601042611020922,20.569943875892495,32.479836504416589,0.0
754640.0783812654,4045767.5119837918,-22500.0,-1.0811508670534369,-5.8004162647327151,-15.252136323418757,5.7949041056276407,14.34750222848337,-9.2977065496961071,16.044648997944929,-20.442104474636672,8.2613379952685193,-8.2613379952685193,20.442104474636672,31.162824212707896,0.0
759640.0783812654,4045767.5119837918,-22500.0,-4.1746700509075962,-7.5228056679576394,-11.278146591162058,7.4637928074838102,11.598857651139847,-8.0819788924699481,14.357510836037866,-17.273323168836487,9.0563175353991383,-9.0563175353991383,17.273323168836487,27.90114488075093,0.0
764640.0783812654,4045767.5119837918,-22500.0,-6.4322290946040948,-7.4267087767473532,-7.4205123598395799,7.7046946278737201,8.5606739964885747,-6.4319446372623688,12.193019274541822,-12.972492708530904,8.1213460948396445,-8.1213460948396445,12.972492708530904,23.756838395088796,0.0
769640.0783812654,4045767.5119837918,-22500.0,-7.5488581323497019,-6.3234868982966859,-4.3737620453469548,7.0448410446355378,5.907663644281695,-4.8306239962019637,9.9979829433660434,-8.8721051000785369,6.4110020164090145,-6.4110020164090145,8.8721051000785369,19.554786173840313,0.0
774640.0783812654,4045767.5119837918,-22500.0,-7.7034378282549074,-4.8879508756316232,-2.2574538376042255,5.9832076617886294,3.8687643526716897,-3.4955944510244801,8.0257438405421961,-5.5718262057804937,4.6052167186827786,-4.6052167186827786,5.5718262057804937,15.76145189237638,0.0
779640.0783812654,4045767.5119837918,-22500.0,-7.2322892094863054,-3.5157677737615547,-0.91773584754753668,4.8513189027487629,2.4205180845711598,-2.4726575104418651,6.3789520786102383,-3.1750527938411994,3.0462340334493825,-3.0462340334493825,3.1750527938411994,12.559347416299177,0.0
784640.0783812654,4045767.5119837918,-22500.0,-6.441009137153852,-2.3752864430623362,-0.1344415781731059,3.820741390113279,1.4440111260197124,-1.7269236121793345,5.0669615656086746,-1.5539436890657079,1.8403410879937696,-1.8403410879937696,1.5539436890657079,9.9619954646177806,0.0
789640.0783812654,4045767.5119837918,-22500.0,-5.5435137130302943,-1.5008626698074217,0.2854750250279332,2.9560307762810476,0.80945903030934108,-1.1990024815356171,4.0423581088297151,-0.5176389466647906,0.97164523656386015,-0.97164523656386015,0.5176389466647906,7.903516456952417,0.0
794640.0783812654,4045767.5119837918,-22500.0,-4.6660920075081327,-0.86503255395542,0.48319768892719067,2.2637001986771925,0.4089802757261633,-0.83138026386147434,3.2436547530838169,0.11004647669306802,0.37815194267795538,-0.37815194267795538,-0.11004647669306802,6.2923613364775743,0.0
799640.0783812654,4045767.5119837918,-22500.0,-3.8716827413832759,-0.42041388211298142,0.55244342611470321,1.7245414087162936,0.16301913879429605,-0.57744429356829363,2.6202028527753436,0.46626028115930895,-0.0089024758085717859,0.0089024758085717859,-0.46626028115930895,5.0381416419983465,0.0
804640.0783812654,4045767.5119837918,-22500.0,-3.1838362444448571,-0.11965181446234065,0.55172594238624273,1.3114108092318764,0.016585045758231127,-0.40248621545595442,2.1323594412407676,0.64882920113814668,-0.24902543862438878,0.24902543862438878,-0.64882920113814668,4.0624618929730039,0.0
809640.0783812654,4045767.5119837918,-22500.0,-2.6043149878028133,0.077089205976467318,0.51598126160242486,0.99765028992525351,-0.066908358827064904,-0.28181585967758038,1.7491005858391349,0.72399601873031327,-0.38833784995343612,0.38833784995343612,-0.72399601873031327,3.3015969304110446,0.0
814640.0783812654,4045767.5119837918,-22500.0,-2.1242791949319755,0.20063415517692129,0.46526561513898623,0.76033658703680129,-0.11123306325360163,-0.19830635052511442,1.4463777837198188,0.73510370937345293,-0.46046947408443623,0.46046947408443623,-0.73510370937345293,2.7055381146271134,0.0
819640.0783812654,4045767.5119837918,-22500.0,-1.7307692249071831,0.2737289901939573,0.41061013640784672,0.58101618142567502,-0.13159763447414632,-0.14023476723582792,1.2057344505495844,0.7098049996730964,-0.48903118290343484,0.48903118290343484,-0.7098049996730964,2.2358093994432635,0.0
824640.0783812654,4045767.5119837918,-22500.0,-1.4101455592114807,0.31267192613332195,0.35773484026301083,0.44536473777784136,-0.13762520273157586,-0.099624350083607538,1.0130913538539852,0.66536592917077297,-0.4901795110867157,0.4901795110867157,-0.66536592917077297,1.863111571036892,0.0
829640.0783812654,4045767.5119837918,-22500.0,-1.1497334380609727,0.32891659804428425,0.30931993970128829,0.3424924862465214,-0.13534887348266325,-0.071053717828693616,0.8577336968372844,0.61233144730497768,-0.47475889829573109,0.47475889829573109,-0.61233144730497768,1.5652332273956548,0.0
649640.0783812654,4050767.5119837918,-22500.0,2.426977068795185,-0.66021228081467709,0.081751120057882362,0.98298561264595785,-0.27425102478599545,0.30743196649183607,1.5452101149388104,-0.48149386798313765,0.88809834405741628,-0.88809834405741628,0.48149386798313765,3.0747045065987932,0.0
654640.0783812654,4050767.5119837918,-22500.0,2.7337639659561601,-0.84252603171425655,0.14468476558741289,1.1769460670451295,-0.37043702848463467,0.39155282540569214,1.7997775482727472,-0.53401695896982471,1.0740786665347297,-1.0740786665347297,0.53401695896982471,3.580773832371253,0.0
659640.0783812654,4050767.5119837918,-22500.0,3.069090564080116,-1.0720722435430945,0.23814125321738316,1.4120391989963317,-0.5008580350632782,0.50197035053857497,2.1043823234157633,-0.58024733892230906,1.2989857933339546,-1.2989857933339546,0.58024733892230906,4.1855883804449823,0.0
664640.0783812654,4050767.5119837918,-22500.0,3.4261119557194579,-1.3590355793910569,0.37561679751368526,1.6955303566445168,-0.67793824331655539,0.64748175295010291,2.4689477439474685,-0.61030114565642646,1.5683837360531181,-1.5683837360531181,0.61030114565642646,4.9085957267126519,0.0
669640.0783812654,4050767.5119837918,-22500.0,3.7906836192664306,-1.713705872645491,0.57605053597092859,2.0342064442014753,-0.9183180783659789,0.83969413737037557,2.9045656487814981,-0.60784705461612876,1.886057664132829,-1.886057664132829,0.60784705461612876,5.7714930192621461,0.0
674640.0783812654,4050767.5119837918,-22500.0,4.137466702744689,-2.1442732778839479,0.86542051473276382,2.4325331064905842,-1.243770800943603,1.0935910976408449,3.4228961952854862,-0.54685222687105262,2.2513070972753844,-2.2513070972753844,0.54685222687105262,6.7969137418733299,0.0
679640.0783812654,4050767.5119837918,-22500.0,4.4248924812685253,-2.652478405475466,1.278060478687953,2.8892561702609401,-1.6816709888144814,1.4277945445953157,4.0348447435199013,-0.38732157736595485,2.6542256677376823,-2.6542256677376823,0.38732157736595485,8.005508395040204,0.0
684640.0783812654,4050767.5119837918,-22500.0,4.5895867131485337,-3.2258193204863419,1.8565732442330074,3.3916148217982132,-2.2640798481771442,1.8639315265052623,4.7480740891618654,-0.070509781608995903,3.0680379874467603,-3.0680379874467603,0.070509781608995903,9.4103327954643525,0.0
689640.0783812654,4050767.5119837918,-22500.0,4.5422766793200129,-3.8248479424203334,2.647941342216642,3.9063145536131736,-3.0236089381355695,2.4239652367236619,5.5627830185846427,0.4845921450642805,3.4377522216757068,-3.4377522216757068,-0.4845921450642805,11.007082087096192,0.0
694640.0783812654,4050767.5119837918,-22500.0,4.1699191268582174,-4.3648709338313703,3.6913908638799073,4.3670902918397765,-3.9828795599470004,3.1235445292280737,6.4651052805361315,1.3789490330006706,3.6656780860618317,-3.6656780860618317,-1.3789490330006706,12.758678838492582,0.0
699640.0783812654,4050767.5119837918,-22500.0,3.3528909834853486,-4.694692507681717,4.9911436134728158,4.6610958261574424,-5.1330053625676939,3.9586143305284502,7.4177549343861751,2.7161253937886589,3.5981400217552806,-3.5981400217552806,-2.7161253937886589,14.573933335576825,0.0
704640.0783812654,4050767.5119837918,-22500.0,2.0098007558276847,-4.5833788442918815,6.4666436545933426,4.6219707767186051,-6.3967775417404242,4.8827185325117606,8.3493572858048193,4.5550131707332966,3.025738092859978,-3.025738092859978,-4.5550131707332966,16.284323050501261,0.0
709640.0783812654,4050767.5119837918,-22500.0,0.17924730156638974,-3.7408701610463893,7.8803673096722893,4.0468608169224414,-7.5783258180129076,5.7760653432100382,9.1489694311188483,6.8170196951268043,1.7216344210517103,-1.7216344210517103,-6.8170196951268043,17.633391530849025,0.0
714640.0783812654,4050767.5119837918,-22500.0,-1.8757696584630166,-1.9132028790584557,8.7695032019675487,2.763245674496777,-8.3195061045172984,6.4182420378991658,9.6807001000909398,9.1514878634446397,-0.44996313974046043,0.44996313974046043,-9.1514878634446397,18.312580590635616,0.0
719640.0783812654,4050767.5119837918,-22500.0,-3.6106671867559088,0.91845734821585723,8.4574819747541792,0.76207995559125441,-8.1158168952713865,6.4953171611197682,9.8414938282790203,10.8238308856256,-3.3456157245368701,3.3456157245368701,-10.8238308856256,18.10201806982441,0.0
724640.0783812654,4050767.5119837918,-22500.0,-4.3203804722193189,4.2898075869482861,6.2613209724301777,-1.6410953979638079,-6.4676221851461868,5.6854922990738874,9.6772699748337718,10.785028647468668,-6.3534835558941802,6.3534835558941802,-10.785028647468668,17.175216939654305,0.0
729640.0783812654,4050767.5119837918,-22500.0,-3.5275434640934478,7.1694874437719873,1.9385910782057392,-3.7536599008962539,-3.1901015720490657,3.838659908259904,9.4994792738624998,8.1008013033854169,-8.4141751398048079,8.4141751398048079,-8.1008013033854169,16.458423464965794,0.0
734640.0783812654,4050767.5119837918,-22500.0,-1.46440292810106,8.3152180620203389,-3.851740202718501,-4.7341290224386787,1.2714875767982274,1.1665286068548566,9.7644823479301461,2.6707666714886464,-8.4620881196365083,8.4620881196365083,-2.6707666714886464,17.274739649521877,0.0
739640.0783812654,4050767.5119837918,-22500.0,0.83281324986089189,7.0335990651102573,-9.5650750106900748,-4.0785484480933203,5.8423638442114427,-1.7367738209280557,10.579246849173483,-4.3054981288592451,-6.1467696392222049,6.1467696392222049,4.3054981288592451,19.715943912894193,0.0
744640.0783812654,4050767.5119837918,-22500.0,2.1175696114645191,3.7505053524807521,-13.510694084821429,-2.0003421358879239,9.299894206470098,-4.1466097356159537,11.515139733892157,-10.748354766211207,-2.2217281121885222,2.2217281121885222,10.748354766211207,22.343934217353748,0.0
749640.0783812654,4050767.5119837918,-22500.0,1.7727172292872106,-0.22265481184544725,-14.804521606784117,0.68410732758058068,10.919538940435491,-5.5739539163027194,12.117145708192718,-14.854966548997545,1.8744324809173527,-1.8744324809173527,14.854966548997545,23.79606329073783,0.0
754640.0783812654,4050767.5119837918,-22500.0,0.10701996118039062,-3.5393090207572837,-13.710288634647142,3.0741013914690427,10.750535013449097,-5.9523405592811844,12.055492387809723,-16.009363468977337,4.8983727230612315,-4.8983727230612315,16.009363468977337,23.591571480068648,0.0
759640.0783812654,4050767.5119837918,-22500.0,-2.0555199853882167,-5.4941834295689942,-11.201020002776186,4.6338579323604323,9.3779014749131111,-5.5433177032566592,11.254014919978326,-14.763827070493235,6.3603693552542238,-6.3603693552542238,14.763827070493235,21.970854109571693,0.0
764640.0783812654,4050767.5119837918,-22500.0,-3.9620008129585944,-6.0935039723561415,-8.2922458516860456,5.2824521150708401,7.4934828337901873,-4.7135114276383741,9.9790654324987536,-12.187122140535022,6.4596977637363384,-6.4596977637363384,12.187122140535022,19.483934232001658,0.0
769640.0783812654,4050767.5119837918,-22500.0,-5.2249838996373619,-5.7347279110899265,-5.655190776245747,5.2234156402062792,5.6110960349795898,-3.7663464102516255,8.5221744212064685,-9.2483863877490293,5.7026066177892147,-5.7026066177892147,9.2483863877490293,16.670541046876146,0.0
774640.0783812654,4050767.5119837918,-22500.0,-5.7971911929768698,-4.8757329161575571,-3.5757129157646919,4.738990628629332,3.999952873108283,-2.8850508771037706,7.0922189675430296,-6.5540450097735601,4.5780510862337351,-4.5780510862337351,6.5540450097735601,13.915371012252297,0.0
779640.0783812654,4050767.5119837918,-22500.0,-5.8177080810534942,-3.8638259462901079,-2.0808141960353086,4.0675793066814956,2.7426857756542438,-2.1490238537814936,5.8059896420017463,-4.3654794480984176,3.4191442219205386,-3.4191442219205386,4.3654794480984176,11.432592404279884,0.0
784640.0783812654,4050767.5119837918,-22500.0,-5.4765213210823678,-2.9029942489107459,-1.0767043156076659,3.3664377395041485,1.8187792191583272,-1.572719075938295,4.7120518804780325,-2.7212549140618063,2.3991667405060322,-2.3991667405060322,2.7212549140618063,9.3073495518481302,0.0
789640.0783812654,4050767.5119837918,-22500.0,-4.940989726568997,-2.0852086590279968,-0.43890897608233415,2.7205458664762032,1.1671193452281119,-1.139172712191278,3.818130687900029,-1.5524466125446208,1.5793627913717805,-1.5793627913717805,1.5524466125446208,7.5459495151562752,0.0
794640.0783812654,4050767.5119837918,-22500.0,-4.331758499233203,-1.433734758345572,-0.055080878776873052,2.1653234585670447,0.72077762477777529,-0.82098173780771933,3.1044069161315027,-0.75670110235881594,0.95875012184468633,-0.95875012184468633,0.75670110235881594,6.1149234498510721,0.0
799640.0783812654,4050767.5119837918,-22500.0,-3.7245305982103876,-0.93714532489451541,0.16152737566073888,1.7074784367079121,0.42187936705497064,-0.59084664277093113,2.5360743414756692,-0.23532528628838223,0.50910915338558149,-0.50910915338558149,0.23532528628838223,4.9657690947788815,0.0
804640.0783812654,4050767.5119837918,-22500.0,-3.1608548300255839,-0.57049340981935692,0.27240574176546023,1.3395351033060698,0.22555650714921605,-0.42569764412712396,2.0824938004638698,0.09279939477395438,0.19490305688382487,-0.19490305688382487,-0.09279939477395438,4.0484483380737908,0.0
809640.0783812654,4050767.5119837918,-22500.0,-2.6595197076298067,-0.30652990766063792,0.31886155501473634,1.0485092008518717,0.099080893186303143,-0.30756057886784521,1.7198614682381128,0.2890164396642414,-0.017246383332695875,0.017246383332695875,-0.2890164396642414,3.3176623012742898,0.0
814640.0783812654,4050767.5119837918,-22500.0,-2.2255596788108916,-0.1207200245508922,0.32762942870594752,0.8204915931517589,0.019444173574563812,-0.22305355605097277,1.4292240571349817,0.39745327544620934,-0.15506799252853931,0.15506799252853931,-0.39745327544620934,2.7350506638828511,0.0
819640.0783812654,4050767.5119837918,-22500.0,-1.8564610433931354,0.0071003219485279859,0.31552071781445457,0.64275570484401201,-0.029156874483877784,-0.16247357439976995,1.1954520163513731,0.44883610624736542,-0.24011342643299299,0.24011342643299299,-0.44883610624736542,2.2693379501057276,0.0
824640.0783812654,4050767.5119837918,-22500.0,-1.5460804312278846,0.092670101499202767,0.29283827346313068,0.50451354317864228,-0.057414072359935363,-0.11889104749343274,1.0065640362866481,0.46407785434690652,-0.28846453048267362,0.28846453048267362,-0.46407785434690652,1.8955897242345339,0.0
654640.0783812654,4055767.5119837918,-22500.0,2.5206852859132396,-1.0008209367262972,0.31024382332570216,1.0962078615981956,-0.43867213651613879,0.36733061210121098,1.7371727912743493,-0.48531080774672525,1.2007519205605115,-1.2007519205605115,0.48531080774672525,3.4569301057193145,0.0
659640.0783812654,4055767.5119837918,-22500.0,2.7831503729269649,-1.2363857973710435,0.44341793884791625,1.2963617052204401,-0.57691344720689974,0.46484507054576546,2.0144048820243863,-0.50329407368746293,1.4274348436754978,-1.4274348436754978,0.50329407368746293,4.0063413657431397,0.0
664640.0783812654,4055767.5119837918,-22500.0,3.0472558021897918,-1.5207841505910404,0.62821337684090894,1.5311016188654281,-0.7594195781173595,0.59077990622556853,2.3405358579831943,-0.49577860949941743,1.6910731415687874,-1.6910731415687874,0.49577860949941743,4.6524235362587376,0.0
669640.0783812654,4055767.5119837918,-22500.0,3.2957373139282677,-1.8585606769888472,0.88305625069748028,1.8023313062018538,-0.99972745740838764,0.75331874123061293,2.7225650861966293,-0.4450453346195975,1.9911886504201626,-1.9911886504201626,0.4450453346195975,5.4089906374386372,0.0
674640.0783812654,4055767.5119837918,-22500.0,3.5017530973576485,-2.2498765468005724,1.2313909854608807,2.1085370831663894,-1.3143635221197651,0.96236935104004095,3.1668373022628531,-0.32496423959518406,2.3215379811309211,-2.3215379811309211,0.32496423959518406,6.2883993997378171,0.0
679640.0783812654,4055767.5119837918,-22500.0,3.6260690762788261,-2.6860866645224819,1.7013727477798246,2.4418600004977198,-1.7222428010612973,1.2292118791532998,3.6776683305374673,-0.098487960668208752,2.6657854360996227,-2.6657854360996227,0.098487960668208752,7.2984754863325501,0.0
684640.0783812654,4055767.5119837918,-22500.0,3.6150838569053745,-3.1429001580526448,2.3234693741515824,2.783743979501673,-2.2425222388259471,1.5652856328781006,4.2552089688410373,0.28414902648293205,2.9912903727985798,-2.9912903727985798,-0.28414902648293205,8.4374323981879904,0.0
689640.0783812654,4055767.5119837918,-22500.0,3.4017946072252019,-3.570869894370206,3.1238928719523136,3.0991237820333213,-2.8895790201759799,1.9793910955545631,4.8923389466050908,0.8844899101526833,3.2412195369908314,-3.2412195369908314,-0.8844899101526833,9.6861351177084387,0.0
694640.0783812654,4055767.5119837918,-22500.0,2.9134188269004535,-3.8843078090504406,4.1107872639349701,3.3299967112020932,-3.6632657535525981,2.4723094520901823,5.5702560975985396,1.7682680101366124,3.326695343041095,-3.326695343041095,-1.7682680101366124,10.997507117382767,0.0
699640.0783812654,4055767.5119837918,-22500.0,2.0909172775966405,-3.9528922493529373,5.2497772927779165,3.3911525272706631,-4.5325980097441683,3.0278470037317304,6.2527651276357279,2.984980837781201,3.1237764578142198,-3.1237764578142198,-2.984980837781201,12.284370395211155,0.0
704640.0783812654,4055767.5119837918,-22500.0,0.92513719914271686,-3.6058261588692573,6.4278464223612932,3.1740734759660172,-5.4127915541182121,3.6002416195552431,6.8815381429457529,4.527442140486607,2.4849027477020282,-2.4849027477020282,-4.527442140486607,13.410472850335273,0.0
709640.0783812654,4055767.5119837918,-22500.0,-0.49241050988583646,-2.6649938561334063,7.4131016905627058,2.5685755230667024,-6.1410998077931813,4.1007605318493336,7.3780267975838552,6.2689262819633482,1.2789889887980257,-1.2789889887980257,-6.2689262819633482,14.195830783068029,0.0
714640.0783812654,4055767.5119837918,-22500.0,-1.9237854714883034,-1.0242405986416216,7.8357505853933862,1.5115566317666713,-6.4676122912481473,4.391888829326275,7.6604801794192934,7.8933321283253663,-0.52843149766193687,0.52843149766193687,-7.8933321283253663,14.456482209436901,0.0
719640.0783812654,4055767.5119837918,-22500.0,-2.9897650150938255,1.2277863160081923,7.2371950434577803,0.06020100111585943,-6.0893247770929317,4.3038641142204321,7.6854176528078524,8.8679716190149289,-2.7662699304436504,2.7662699304436504,-8.8679716190149289,14.105635861083915,0.0
724640.0783812654,4055767.5119837918,-22500.0,-3.2827103023908477,3.6958041362339573,5.233784965473995,-1.5428677581141346,-4.7540480648369456,3.6877371926664813,7.512946062901162,8.5403550939908435,-4.9804191098320656,4.9804191098320656,-8.5403550939908435,13.329485857601387,0.0
729640.0783812654,4055767.5119837918,-22500.0,-2.5931805781027566,5.6925624187610895,1.7775547425058464,-2.878681618363764,-2.4216258722230175,2.4998003882960225,7.3533178983715146,6.4130683697533915,-6.4939358199620223,6.4939358199620223,-6.4130683697533915,12.745616910104376,0.0
734640.0783812654,4055767.5119837918,-22500.0,-1.1299327284519711,6.4796022030246894,-2.6330939443702226,-3.4914449053498346,0.60547118416636614,0.87417319776110081,7.4784973427298675,2.5105034821232981,-6.6733085942665262,6.6733085942665262,-2.5105034821232981,13.149696242863302,0.0
739640.0783812654,4055767.5119837918,-22500.0,0.47967724270969753,5.6648218910928634,-7.0145041053509845,-3.1201166465384511,3.7128064862139283,-0.88304552379978274,7.9619562549068137,-2.4292040412642493,-5.2972512616103407,5.2972512616103407,2.4292040412642493,14.650531619237622,0.0
744640.0783812654,4055767.5119837918,-22500.0,1.5009017477390778,3.4757475887354814,-10.301321842111385,-1.8650962644351512,6.2104779452254295,-2.4054362207296598,8.5690089909287881,-7.1851217139722436,-2.750365188439325,2.750365188439325,7.1851217139722436,16.457120310684939,0.0
749640.0783812654,4055767.5119837918,-22500.0,1.5090934459604439,0.65488142866122212,-11.847604326554668,-0.14371888829324206,7.6387178287697308,-3.4220584807581012,8.9978747733424367,-10.623186868813047,0.15765868029274888,-0.15765868029274888,10.623186868813047,17.698935938954676,0.0
754640.0783812654,4055767.5119837918,-22500.0,0.57901321199207634,-1.951920668017942,-11.6580146239782,1.5362803682794151,7.9279877253966671,-3.8512380245193198,9.1127206787878343,-12.193066808459589,2.6203187678888984,-2.6203187678888984,12.193066808459589,17.950718417102422,0.0
759640.0783812654,4055767.5119837918,-22500.0,-0.86187768471058734,-3.7829327508785071,-10.231030746929051,2.8063505251121126,7.331336699033006,-3.7832812528278494,8.7828745213277948,-12.022880212219428,4.1776792088438039,-4.1776792088438039,12.022880212219428,17.226392382360487,0.0
764640.0783812654,4055767.5119837918,-22500.0,-2.3275315454171643,-4.6855897698449498,-8.2164051202756667,3.5288941773105114,6.2316804324808475,-3.3933198176869492,8.0662744988998192,-10.659283527879147,4.7813546930011555,-4.7813546930011555,10.659283527879147,15.7880810767015,0.0
769640.0783812654,4055767.5119837918,-22500.0,-3.483624748716081,-4.8076403155747007,-6.1447748938491982,3.7529797743645994,4.9727247919591546,-2.8554822391489458,7.1332165339024689,-8.7271806114999642,4.6490071092229321,-4.6490071092229321,8.7271806114999642,13.961612656840495,0.0
774640.0783812654,4055767.5119837918,-22500.0,-4.1988612588942109,-4.4169872911242436,-4.3283486047981095,3.6176864053073094,3.7821510767408797,-2.2970146882220512,6.1345847350331493,-6.7127976826817939,4.0781381690158938,-4.0781381690158938,6.7127976826817939,12.024406334162666,0.0
779640.0783812654,4055767.5119837918,-22500.0,-4.4929992243895001,-3.7690116071079967,-2.8871942890803304,3.2723746292944575,2.7717620243426038,-1.790558062835278,5.1732074349799975,-4.902683734634202,3.3247302800422389,-3.3247302800422389,4.902683734634202,10.165227550477036,0.0
784640.0783812654,4055767.5119837918,-22500.0,-4.4600262689467369,-3.0490645345454923,-1.8203675406673221,2.8359738096509193,1.9717099995393597,-1.3662522974486515,4.3061968768580154,-3.4167374632117715,2.5602226599091997,-2.5602226599091997,3.4167374632117715,8.4884789593136087,0.0
789640.0783812654,4055767.5119837918,-22500.0,-4.2099540387129748,-2.3672913416234334,-1.0704058862556676,2.3871295247971802,1.367286430054353,-1.0281136604712808,3.557401283382176,-2.2691375518498904,1.8769477140144668,-1.8769477140144668,2.2691375518498904,7.036129138352134,0.0
794640.0783812654,4055767.5119837918,-22500.0,-3.8381381650391955,-1.7760474331051175,-0.56474284052928925,1.9699899980648796,0.92547485388994155,-0.76721909416237311,2.9310631404381975,-1.4211838401096706,1.3111751876961011,-1.3111751876961011,1.4211838401096706,5.8110631650959048,0.0
799640.0783812654,4055767.5119837918,-22500.0,-3.4150864258684157,-1.2909457032732796,-0.23639417630555398,1.6045223034429386,0.61017172427274546,-0.57006204431567675,2.420723226666619,-0.81583832971921555,0.86618239718453105,-0.86618239718453105,0.81583832971921555,4.7952911997129162,0.0
804640.0783812654,4055767.5119837918,-22500.0,-2.9872732171027692,-0.90764911531310122,-0.03140783292290926,1.2959256717932646,0.38922239950960102,-0.42297833752807412,2.0083703076274237,-0.39621187762402504,0.52912604807495578,-0.52912604807495578,0.39621187762402504,3.961978161008175,0.0
809640.0783812654,4055767.5119837918,-22500.0,-2.5821722203991748,-0.61292360532222623,0.090463135373931192,1.0414716896130682,0.23669818970739584,-0.3140566495754617,1.6735372239577011,-0.1134694559480373,0.28139423157006754,-0.28139423157006754,0.1134694559480373,3.2824649426446006,0.0
814640.0783812654,4055767.5119837918,-22500.0,-2.2138758578650624,-0.39099883463308671,0.15781916545862096,0.83485820884409068,0.13285171639323687,-0.23367658684537984,1.4008662004184602,0.071099029047959297,0.10411110472413874,-0.10411110472413874,-0.071099029047959297,2.7298812004665907,0.0
819640.0783812654,4055767.5119837918,-22500.0,-1.8878155709019433,-0.22678083168770163,0.1903217280344599,0.66871058796382699,0.063167478944574154,-0.17440337098784955,1.1784064708327628,0.1867286086751882,-0.019397013943046604,0.019397013943046604,-0.1867286086751882,2.2806820862117778,0.0
824640.0783812654,4055767.5119837918,-22500.0,-1.6042337756359526,-0.10719773234660751,0.20116259536434269,0.53587575955404865,0.017217293277380152,-0.1306428330013053,0.99647635184106276,0.2548105761394574,-0.10282044025001363,0.10282044025001363,-0.2548105761394574,1.9150358843952393,0.0
654640.0783812654,4060767.5119837918,-22500.0,2.2719214685498268,-1.1010098162934454,0.46781540807498856,0.99990148354805952,-0.48457040540248086,0.33802465535245568,1.6568858454919502,-0.41424521808166614,1.276538861013178,-1.276538861013178,0.41424521808166614,3.2933725587942244,0.0
659640.0783812654,4060767.5119837918,-22500.0,2.4643714114131137,-1.327115753132019,0.63149888555523181,1.1646257390315504,-0.62287314169761676,0.42196989835519827,1.9034472162658274,-0.40411951545278268,1.4923209521100391,-1.4923209521100391,0.40411951545278268,3.7820688612390607,0.0
664640.0783812654,4060767.5119837918,-22500.0,2.6433588988983576,-1.5906236627341264,0.84948045004323403,1.3519315195094752,-0.80067871323371775,0.52810620931404728,2.1882941568511742,-0.36185876039933096,1.7354265402310078,-1.7354265402310078,0.36185876039933096,4.3467751530862486,0.0
669640.0783812654,4060767.5119837918,-22500.0,2.791150287729713,-1.8908964691091859,1.1377207312970727,1.5603830147692541,-1.0280699916988947,0.66182798455866332,2.5151200705251098,-0.27013964458672379,2.0016496500489942,-2.0016496500489942,0.27013964458672379,4.9948769644644573,0.0
674640.0783812654,4060767.5119837918,-22500.0,2.8827816981680474,-2.2217181106519961,1.5148474277750457,1.7849112921167567,-1.3163320881237963,0.82915184815095722,2.8862809160250578,-0.10516322846448944,2.2805666493258991,-2.2805666493258991,0.10516322846448944,5.730917782424072,0.0
679640.0783812654,4060767.5119837918,-22500.0,2.8851064319794504,-2.567502930554622,2.0006433161255801,2.0146288280826878,-1.676780378906054,1.0361253008018749,3.3016532755807093,0.16426154119631997,2.5520500463530711,-2.5520500463530711,-0.16426154119631997,6.5538408411875926,0.0
684640.0783812654,4060767.5119837918,-22500.0,2.7573211791986032,-2.8981995426211045,2.6123516091127574,2.2300000387640089,-2.1182335837918282,1.2875644976500786,3.7571488755308717,0.5762618932441399,2.7818986432285433,-2.7818986432285433,-0.5762618932441399,7.4529359125564216,0.0
689640.0783812654,4060767.5119837918,-22500.0,2.4546200046089361,-3.1633922779752854,3.357373757139865,2.3997209746586003,-2.642351458217751,1.5847404905381475,4.2427314794033553,1.1723290576529786,2.9173185278234604,-2.9173185278234604,-1.1723290576529786,8.4023889323354091,0.0
694640.0783812654,4060767.5119837918,-22500.0,1.9372663670062262,-3.2873893750188112,4.2207800949720067,2.4783777900706672,-3.236042271808385,1.9216257666507119,4.7394064293347666,1.9879308351715892,2.8842466420920978,-2.8842466420920978,-1.9879308351715892,9.3549003187907793,0.0
699640.0783812654,4060767.5119837918,-22500.0,1.1873355804985797,-3.1693047432944632,5.1468696130303719,2.4071331977656811,-3.8607098302312206,2.2795797645015496,5.2158183181827047,3.0340370664623069,2.5904917584805189,-2.5904917584805189,-3.0340370664623069,10.236098799668081,0.0
704640.0783812654,4060767.5119837918,-22500.0,0.23332247380510535,-2.6949438770372662,6.0170290363224437,2.1210999336295,-4.4399003536274186,2.6211957123344849,5.6275010351202415,4.2675161133746116,1.9408519434964195,-1.9408519434964195,-4.2675161133746116,10.94376305579314,0.0
709640.0783812654,4060767.5119837918,-22500.0,-0.82303974243589562,-1.7687647672127111,6.6326337331353518,1.5676391933191687,-4.850526099235493,2.8857338768546756,5.9221045196249129,5.5538324298477839,0.87073380861562866,-0.87073380861562866,-5.5538324298477839,11.359205002015921,0.0
714640.0783812654,4060767.5119837918,-22500.0,-1.7934463945995451,-0.36983866973288965,6.721079235932832,0.73725852576814532,-4.9277889553484364,2.9909043142109457,6.0542264531797993,6.6373314873884102,-0.6007621101385312,0.6007621101385312,-6.6373314873884102,11.38160735458619,0.0
719640.0783812654,4060767.5119837918,-22500.0,-2.4281158380707941,1.3800074979839234,5.9890027497916991,-0.29965565081837264,-4.4967167592988364,2.8471519010167308,6.0129057861504451,7.1500204073988156,-2.3131282911519753,2.3131282911519753,-7.1500204073988156,10.996263381227632,0.0
724640.0783812654,4060767.5119837918,-22500.0,-2.4989787332326232,3.1741036899850723,4.2354215994070019,-1.3706798904438426,-3.436555093535675,2.3876973376933175,5.8568903860506136,6.6952009527874266,-3.9402627773063346,3.9402627773063346,-6.6952009527874266,10.37370442166737,0.0
729640.0783812654,4060767.5119837918,-22500.0,-1.9256897877419406,4.5611639406119595,1.4964025094351929,-2.2230977699879917,-1.7619896964692034,1.6075239379690067,5.729554173146127,5.0137321897535729,-5.0490704323382785,5.0490704323382785,-5.0137321897535729,9.932587532083442,0.0
734640.0783812654,4060767.5119837918,-22500.0,-0.87375897479712983,5.0977192088265264,-1.8633042150266295,-2.6049992694078967,0.32450864811091679,0.59071438332648418,5.7963764580219506,2.1699610777264096,-5.2573250931476139,5.2573250931476139,-2.1699610777264096,10.159096869562227,0.0
739640.0783812654,4060767.5119837918,-22500.0,0.26795605342371343,4.5586850562648999,-5.2094397230482929,-2.3781983711367713,2.4618973383073124,-0.49861707039589337,6.1029934449428636,-1.3709982737648998,-4.4262657081545465,4.4262657081545465,1.3709982737648998,11.130399847834527,0.0
744640.0783812654,4060767.5119837918,-22500.0,1.0551813905571445,3.0719686928556085,-7.8627620239277851,-1.5940659774671646,4.250834736033803,-1.4683157668185667,6.5158883048674214,-4.8733546402214145,-2.7592555874939038,2.7592555874939038,4.8733546402214145,12.39097452267468,0.0
749640.0783812654,4060767.5119837918,-22500.0,1.2034108954343661,1.0686631943123335,-9.3690104060993491,-0.47450151208419705,5.4037335653838285,-2.1677317164361414,6.839075916930728,-7.6218456558629493,-0.71995269488636726,0.71995269488636726,7.6218456558629493,13.386640436904129,0.0
754640.0783812654,4060767.5119837918,-22500.0,0.70219258824842068,-0.92242093916495249,-9.6450887955712687,0.6915011243171566,5.8343434475913529,-2.5341431477578107,6.9701952859141763,-9.1938152354872962,1.1807560832157078,-1.1807560832157078,9.1938152354872962,13.789801213009085,0.0
759640.0783812654,4060767.5119837918,-22500.0,-0.23277725912441805,-2.492334520812534,-8.931134338305057,1.6647453794313649,5.6441995181087083,-2.593825235256574,6.8704927440928776,-9.553351521788084,2.5844639000790881,-2.5844639000790881,9.553351521788084,13.535841875244662,0.0
764640.0783812654,4060767.5119837918,-22500.0,-1.3034288805046284,-3.4577374053041239,-7.6207558102876867,2.3201664679948539,5.0377918317323021,-2.4283585729427677,6.4897994800615209,-8.9571181381733158,3.3638998128736817,-3.3638998128736817,8.9571181381733158,12.736676903332608,0.0
769640.0783812654,4060767.5119837918,-22500.0,-2.2603995200278604,-3.8387724422491498,-6.0930413225860276,2.6446415196046278,4.2301060220007676,-2.1332873740602949,5.9095230389896543,-7.7794639304190127,3.5811778116255208,-3.5811778116255208,7.7794639304190127,11.578634408792903,0.0
774640.0783812654,4060767.5119837918,-22500.0,-2.9628629526965216,-3.7717318791849701,-4.6195998863217325,2.6963357031636122,3.388908986093818,-1.7893891481589652,5.2301343927088864,-6.3670713290168957,3.3940953153347548,-3.3940953153347548,6.3670713290168957,10.247371885304057,0.0
779640.0783812654,4060767.5119837918,-22500.0,-3.3734623958560777,-3.4233339710380517,-3.348334108530536,2.5597614822407917,2.6177227222649493,-1.4514566264536037,4.5316279011467717,-4.9679606400590348,2.9736983005613982,-2.9736983005613982,4.9679606400590348,8.8892429720922959,0.0
784640.0783812654,4060767.5119837918,-22500.0,-3.5227058092481882,-2.9380504892200685,-2.3303429684189907,2.315079143204319,1.9646766923835939,-1.1495086477853638,3.8670199899355335,-3.7231601073252163,2.4584220764251361,-2.4584220764251361,3.7231601073252163,7.6012592159707122,0.0
789640.0783812654,4060767.5119837918,-22500.0,-3.4716363436126647,-2.4185905811406814,-1.5576482584186353,2.0241500562341863,1.4404697723846869,-0.89536398230747316,3.2657035552849134,-2.6902466364905573,1.9407252546425866,-1.9407252546425866,2.6902466364905573,6.4369811332335534,0.0
794640.0783812654,4060767.5119837918,-22500.0,-3.285727953526218,-1.9269885766393038,-0.99440856590747306,1.7282179731189398,1.0351783857254426,-0.68972885390943295,2.7399210860596734,-1.8740108128111861,1.4721502375669613,-1.4721502375669613,1.8740108128111861,5.418112464340739,0.0
799640.0783812654,4060767.5119837918,-22500.0,-3.0213031669491426,-1.4941741103299988,-0.59695473204960103,1.4512465851013197,0.73018009917899973,-0.52768440570091768,2.2912925924357812,-1.2518878759893639,1.0748172615532898,-1.0748172615532898,1.2518878759893639,4.5459549952829423,0.0
804640.0783812654,4060767.5119837918,-22500.0,-2.7209468418628684,-1.1306530634832708,-0.32426990017963225,1.2048359518806289,0.50518921320306476,-0.40221445095008529,1.9167099223168986,-0.79091580071121259,0.7526664971584246,-0.7526664971584246,0.79091580071121259,3.8103798097255779,0.0
809640.0783812654,4060767.5119837918,-22500.0,-2.4138918948233146,-0.83516035253589649,-0.14219263943543534,0.99269644005402469,0.34172673445959462,-0.30615852043506309,1.6103894440134221,-0.4573321622798005,0.49996227220294204,-0.49996227220294204,0.4573321622798005,3.1959614734928614,0.0
814640.0783812654,4060767.5119837918,-22500.0,-2.1184713465277878,-0.60062113872479672,-0.024179818176261324,0.81401260249746388,0.2244142336531762,-0.23312323899754145,1.3592852986612212,-0.22111272340027682,0.30683387427384429,-0.30683387427384429,0.22111272340027682,2.6857583613237437,0.0
819640.0783812654,4060767.5119837918,-22500.0,-1.8449884110964898,-0.41781459052347458,0.049493874736923245,0.66569782418647894,0.14111914455344721,-0.17779140393712126,1.1517542727263956,-0.057519932238206548,0.16248280213259164,-0.16248280213259164,0.057519932238206548,2.2634145686067026,0.0
659640.0783812654,4065767.5119837918,-22500.0,2.1380828710467159,-1.3543947461718868,0.79108938906752568,1.0272897925447266,-0.64222315552327447,0.37673632721562955,1.7773720671150788,-0.29515236678115508,1.5021250212149599,-1.5021250212149599,0.29515236678115508,3.5285536494940382,0.0
664640.0783812654,4065767.5119837918,-22500.0,2.2448117461266772,-1.5853993386821219,1.0274159718542151,1.1715871630465791,-0.80811140304307083,0.46420955601753405,2.0212007582755782,-0.22414778252099632,1.7152840975010222,-1.7152840975010222,0.22414778252099632,4.0127738285444403,0.0
669640.0783812654,4065767.5119837918,-22500.0,2.3119104868378817,-1.8371470560264258,1.3288679454550847,1.3254610730244787,-1.0143422450828488,0.5717394367350781,2.2950346158067783,-0.10178866577450618,1.9388164824700831,-1.9388164824700831,0.10178866577450618,4.5570215498106714,0.0
674640.0783812654,4065767.5119837918,-22500.0,2.3183051193286621,-2.0992955336389958,1.7083840106263339,1.4822530097507045,-1.2676882024915248,0.70259417632836951,2.5985585816931693,0.091900315148253808,2.1598622925032194,-2.1598622925032194,-0.091900315148253808,5.1604764028234742,0.0
679640.0783812654,4065767.5119837918,-22500.0,2.2384565266205594,-2.3529134929618403,2.1772840096451413,1.6305836791703991,-1.5735211791529904,0.85941445548001638,2.9291490660296033,0.38102430621463945,2.3571390568072066,-2.3571390568072066,-0.38102430621463945,5.8167053785151772,0.0
684640.0783812654,4065767.5119837918,-22500.0,2.0442345574192462,-2.5672581690308451,2.7412509635088989,1.7527869807081484,-1.9334670919931534,1.043156286701943,3.281080946775873,0.79201977399665124,2.4983336181772344,-2.4983336181772344,-0.79201977399665124,6.5107505449816214,0.0
689640.0783812654,4065767.5119837918,-22500.0,1.7093912164085603,-2.6969501599308834,3.3936931365855973,1.8236564613147954,-2.3416966365494942,1.2514241904808829,3.6441289343751495,1.349081376658146,2.5382456491178633,-2.5382456491178633,-1.349081376658146,7.2157037128278594,0.0
694640.0783812654,4065767.5119837918,-22500.0,1.2177099329189955,-2.6812767712048262,4.106039358771981,1.8104057686911266,-2.779699710284024,1.476122951460938,4.0010842252995609,2.0652920826851311,2.4194114843667629,-2.4194114843667629,-2.0652920826851311,7.8894534783037615,0.0
699640.0783812654,4065767.5119837918,-22500.0,0.57522532336161525,-2.448566555786841,4.8156573785300614,1.6753128587294885,-3.2100176555407978,1.7006256680998431,4.3264183469254816,2.9282547761866766,2.0779453521143632,-2.0779453521143632,-2.9282547761866766,8.473175340956244,0.0
704640.0783812654,4065767.5119837918,-22500.0,-0.17514561152927441,-1.9294865890575188,5.4145638517999339,1.3828934623197613,-3.5706929770547293,1.897206786530615,4.5880987508920041,3.8808043048476577,1.4578812171270961,-1.4578812171270961,-3.8808043048476577,8.8944438848637919,0.0
709640.0783812654,4065767.5119837918,-22500.0,-0.94203762078702102,-1.0822950658506485,5.7459846870266524,0.91294409368124496,-3.7741221128296001,2.0263197608543462,4.7532381379627315,4.8015662726912787,0.53603007780359757,-0.53603007780359757,-4.8015662726912787,9.0793628245533711,0.0
714640.0783812654,4065767.5119837918,-22500.0,-1.5872118206920538,0.071614515544103294,5.6196073878333106,0.27841420964393326,-3.7157589648549294,2.0400733746220636,4.7992859799306071,5.4966326704783199,-0.64555753027071683,0.64555753027071683,-5.4966326704783199,8.9790186412396888,0.0
719640.0783812654,4065767.5119837918,-22500.0,-1.9519370821224993,1.4133374381377737,4.8558188550227008,-0.45767962967043729,-3.2976286868950542,1.8921127948355057,4.7313298699298514,5.7192423681592359,-1.951651131215266,1.951651131215266,-5.7192423681592359,8.6137652583527249,0.0
724640.0783812654,4065767.5119837918,-22500.0,-1.9122226682606929,2.7162191826185338,3.3583667195309514,-1.1774934234224721,-2.4660574087130263,1.5538487547711475,4.6003236036824422,5.2314005744868375,-3.1521622027997296,3.1521622027997296,-5.2314005744868375,8.1278443639497553,0.0
729640.0783812654,4065767.5119837918,-22500.0,-1.4469922244996434,3.6850156521427797,1.1921466699268235,-1.7278563638506661,-1.2518219858324651,1.0323023861559566,4.5045334762525195,3.9015821147264842,-3.9680174555730923,3.9680174555730923,-3.9015821147264842,7.8079710422956561,0.0
734640.0783812654,4065767.5119837918,-22500.0,-0.68062351540610955,4.0496874266044447,-1.3796453587511885,-1.9665329510480569,0.20997734358088013,0.38010366836866849,4.5463171723258524,1.799174350133012,-4.1644383187770551,4.1644383187770551,-1.799174350133012,7.9554495111137733,0.0
739640.0783812654,4065767.5119837918,-22500.0,0.14029363001434453,3.678893530371901,-3.9415046006095116,-1.8187189536947501,1.7015105156530297,-0.31163127843229743,4.7524396900547075,-0.7759116353073785,-3.6539704753081534,3.6539704753081534,0.7759116353073785,8.6158023104283199,0.0
744640.0783812654,4065767.5119837918,-22500.0,0.7402091742768816,2.6481884969002358,-6.0534366805186464,-1.3127562140827067,2.9854804712401704,-0.93856384397181247,5.0430115418577746,-3.3683331781820609,-2.5480589721769684,2.5480589721769684,3.3683331781820609,9.5139312590150791,0.0
749640.0783812654,4065767.5119837918,-22500.0,0.92947917214402442,1.2148380062733095,-7.4003444232322355,-0.57123711748770623,3.8815462526496689,-1.4155952769881248,5.2927523355961625,-5.5217610123135481,-1.1182086211655173,1.1182086211655173,5.5217610123135481,10.293537411152007,0.0
754640.0783812654,4065767.5119837918,-22500.0,0.67234646944709864,-0.28824831945751767,-7.8822411690481209,0.23834785240637527,4.316197628052663,-1.7000898189384868,5.4147192837447786,-6.9300834220364127,0.31305492360089149,-0.31305492360089149,6.9300834220364127,10.715530119031717,0.0
759640.0783812654,4065767.5119837918,-22500.0,0.07469712892781831,-1.5748081416834632,-7.6056469965825659,0.96390241874200799,4.3245375097064978,-1.7958330684286832,5.4082577301621226,-7.507634658673954,1.4864571538557136,-1.4864571538557136,7.507634658673954,10.698248135985198,0.0
764640.0783812654,4065767.5119837918,-22500.0,-0.6855281347341925,-2.480261091486883,-6.8010562943048969,1.5090473077874698,4.0133157030550715,-1.7401006923485458,5.2232712038081699,-7.3609699310475349,2.2683413566596897,-2.2683413566596897,7.3609699310475349,10.279562498073187,0.0
769640.0783812654,4065767.5119837918,-22500.0,-1.4351958183808682,-2.9695984275722811,-5.7243582642785809,1.8417271641545996,3.5121987475778234,-1.5841715581377886,4.8731918378760639,-6.702891131389384,2.6483805176714479,-2.6483805176714479,6.702891131389384,9.5612848792490226,0.0
774640.0783812654,4065767.5119837918,-22500.0,-2.0537237613822805,-3.0995801605280247,-4.5872908968076596,1.979219272130061,2.9362784792870449,-1.3770023392745594,4.4204701908921438,-5.7640376873881287,2.6974012659173709,-2.6974012659173709,5.7640376873881287,8.6620289590626616,0.0
779640.0783812654,4065767.5119837918,-22500.0,-2.4846291721123945,-2.968950144924996,-3.5297637121774348,1.9649546466445433,2.3682038712442957,-1.1563296714747435,3.9230465221237965,-4.7354833234107208,2.5182532571631131,-2.5182532571631131,4.7354833234107208,7.6874730155291324,0.0
784640.0783812654,4065767.5119837918,-22500.0,-2.7231725101354591,-2.6795096639757578,-2.6235167538512898,1.8487093253036546,1.8565120649968145,-0.94653777633407499,3.4245881304381323,-3.7472609097650786,2.2100244320591647,-2.2100244320591647,3.7472609097650786,6.7172699914415466,0.0
789640.0783812654,4065767.5119837918,-22500.0,-2.7958440073998543,-2.314950845056142,-1.8902378998137075,1.6745709149687906,1.4225747275613538,-0.76054089301786043,2.9536158451414067,-2.8716425286384526,1.850291957458448,-1.850291957458448,2.8716425286384526,5.8034567559069821,0.0
794640.0783812654,4065767.5119837918,-22500.0,-2.7420439010014963,-1.934304899648043,-1.3215003197901229,1.4760340920817934,1.069803071863586,-0.60309555619121002,2.525978907691369,-2.1374579753283767,1.4911376016248141,-1.4911376016248141,2.1374579753283767,4.9748011860979231,0.0
799640.0783812654,4065767.5119837918,-22500.0,-2.6018363083400313,-1.5738812706564882,-0.89446862184760612,1.2756862918611631,0.79163407690669207,-0.47397455168067809,2.1483019921930935,-1.5459120621771514,1.1625757909102901,-1.1625757909102901,1.5459120621771514,4.2430348232068242,0.0
804640.0783812654,4065767.5119837918,-22500.0,-2.4096039867407781,-1.2525843984773612,-0.58206090015931533,1.0870726322858633,0.57716728822338281,-0.37037485715734947,1.8212280629742905,-1.0834010245218204,0.87849849622680398,-0.87849849622680398,1.0834010245218204,3.6087449430285847,0.0
809640.0783812654,4065767.5119837918,-22500.0,-2.1918606768615847,-0.9775529418768345,-0.35848917164411825,0.91714056169832558,0.41458107767849101,-0.28848892981504465,1.5420912949397214,-0.73023025343503201,0.64240927121944802,-0.64240927121944802,0.73023025343503201,3.0660054893766162,0.0
814640.0783812654,4065767.5119837918,-22500.0,-1.9674386754405568,-0.74879843220629894,-0.20168772460651885,0.7684677036273283,0.29291472230574217,-0.22440992727993925,1.3077704735300153,-0.46579203981273115,0.45189087057315386,-0.45189087057315386,0.46579203981273115,2.6056464039272416,0.0
819640.0783812654,4065767.5119837918,-22500.0,-1.7487304687778007,-0.56252364920050124,-0.093933697145258011,0.64098455461475623,0.2028088486065544,-0.17458210379809644,1.1153609079846281,-0.27121795379007535,0.30166214399928853,-0.30166214399928853,0.27121795379007535,2.2173579437356588,0.0
659640.0783812654,4070767.5119837918,-22500.0,1.8229115407435794,-1.331122144626143,0.9162727714636999,0.89229817582304183,-0.63971865893862678,0.33176736789452771,1.6427905492902908,-0.18638393032186074,1.4677387451437118,-1.4677387451437118,0.18638393032186074,3.2596843662766934,0.0
664640.0783812654,4070767.5119837918,-22500.0,1.872144629454656,-1.5240186664302526,1.1574867551749928,0.99963966351405698,-0.78927190410321846,0.4025203330804199,1.8479274768114702,-0.094096374049008835,1.6464031587826025,-1.6464031587826025,0.094096374049008835,3.6680840158646895,0.0
669640.0783812654,4070767.5119837918,-22500.0,1.8790471164014881,-1.7239954125315735,1.4552789238504065,1.1085148096750583,-0.97013127793919662,0.48736807029723095,2.0733182874859719,0.04789745773704146,1.8246619010820893,-1.8246619010820893,-0.04789745773704146,4.1173973115075002,0.0
674640.0783812654,4070767.5119837918,-22500.0,1.8272085979570918,-1.9187444299816296,1.8171216866118161,1.2120361413643908,-1.185588924876092,0.58777889581978915,2.3171228217121533,0.25516986790126006,1.9888508138472365,-1.9888508138472365,-0.25516986790126006,4.6035295587016778,0.0
679640.0783812654,4070767.5119837918,-22500.0,1.6985716099129535,-2.0888942949093243,2.2471124478558777,1.2998281797837228,-1.4368725461873106,0.70436961873432702,2.575772791429964,0.5448336063654422,2.1185956673795152,-2.1185956673795152,-0.5448336063654422,5.1173822607104995,0.0
684640.0783812654,4070767.5119837918,-22500.0,1.4757572717326843,-2.2063754075010396,2.7423090224488349,1.3573518234455695,-1.721249384518049,0.83612480283627166,2.8436031441185836,0.93319261132002262,2.1856119714521838,-2.1856119714521838,-0.93319261132002262,5.6429600584466986,0.0
689640.0783812654,4070767.5119837918,-22500.0,1.1462255258094294,-2.2337531680887706,3.2874487784700923,1.3657519000653198,-2.0293840845575479,0.97930889576463565,3.1111819641143574,1.4312727328021122,2.1536243145866605,-2.1536243145866605,-1.4312727328021122,6.1554932899021395,0.0
694640.0783812654,4070767.5119837918,-22500.0,0.70855273608804736,-2.1258610410626679,3.8482642514829908,1.3028499813174339,-2.3421023737524225,1.1261285331000259,3.3635602671072014,2.0375820435924057,1.9806658534936072,-1.9806658534936072,-2.0375820435924057,6.620236454562324,0.0
699640.0783812654,4070767.5119837918,-22500.0,0.18034216924860133,-1.8355449365055025,4.3646071525443721,1.1460969024315284,-2.6271970253570203,1.2633931663725704,3.5810610010778876,2.728066213260925,1.6253714129947299,-1.6253714129947299,-2.728066213260925,6.9931454404748177,0.0
704640.0783812654,4070767.5119837918,-22500.0,-0.39421130128822635,-1.3252670204229784,4.746228249916971,0.87822777685027131,-2.8376729098282412,1.3717230364321802,3.7418306374688952,3.4447628213145149,1.0586489755886976,-1.0586489755886976,-3.4447628213145149,7.2253011625925394,0.0
709640.0783812654,4070767.5119837918,-22500.0,-0.94113970632937061,-0.58491296769976298,4.875969586382106,0.49567896569988384,-2.9136759943633628,1.4261931868828264,3.8265012057909384,4.0872859702119833,0.2805866073755614,-0.2805866073755614,-4.0872859702119833,7.2735120285484092,0.0
714640.0783812654,4070767.5119837918,-22500.0,-1.3635280235813427,0.34735095297020657,4.6260291647629543,0.018223951248019666,-2.7906901984465318,1.3994522138493719,3.8260455559054241,4.5142946817148664,-0.66095789070165378,0.66095789070165378,-4.5142946817148664,7.1194548038754339,0.0
719640.0783812654,4070767.5119837918,-22500.0,-1.5629414543847919,1.3695784994622928,3.8905967944274535,-0.50404664110894459,-2.4154078934041641,1.2679251460586554,3.7522860393584785,4.5632538669445193,-1.6583908464751449,1.6583908464751449,-4.5632538669445193,6.7976949461068168,0.0
724640.0783812654,4070767.5119837918,-22500.0,-1.4741233106892846,2.3185057011530206,2.6305458528532442,-0.99207245266754918,-1.7671423452751347,1.020365583697119,3.6467646178950073,4.0925290226637125,-2.5506034891676856,2.5506034891676856,-4.0925290226637125,6.4248842527335048,0.0
729640.0783812654,4070767.5119837918,-22500.0,-1.1012821787802252,3.0004098086501858,0.91432847930841255,-1.3521278636344003,-0.87741158030327915,0.66598525722749879,3.5771080075405637,3.038053592255789,-3.1558364306398508,3.1558364306398508,-3.038053592255789,6.1988286811136248,0.0
734640.0783812654,4070767.5119837918,-22500.0,-0.53566122324074805,3.2482515082298575,-1.0689224549091974,-1.5021345780455428,0.16333842164906368,0.23787730349654612,3.6075319753365953,1.4615634972659242,-3.3270757464482994,3.3270757464482994,-1.4615634972659242,6.3085580186641401,0.0
739640.0783812654,4070767.5119837918,-22500.0,0.062930861055453896,2.9840867969378286,-3.0423455603028415,-1.4006851842437644,1.2203680280388542,-0.21176343470378325,3.7530635366448655,-0.43933288511813595,-3.0085671888882652,3.0085671888882652,0.43933288511813595,6.7774014380216521,0.0
744640.0783812654,4070767.5119837918,-22500.0,0.51934793070649099,2.2545832269109356,-4.7158681706688865,-1.0644276838123365,2.1489875634322848,-0.62438917221265178,3.9635641168922198,-2.3755366023173439,-2.2635146030926743,2.2635146030926743,2.3755366023173439,7.4317433619921038,0.0
749640.0783812654,4070767.5119837918,-22500.0,0.70649851632158434,1.2175595590244774,-5.8711582301295895,-0.56357427590117914,2.8348667468183373,-0.95089562067244771,4.157958979120445,-4.0512816114488626,-1.2547890685848613,1.2547890685848613,4.0512816114488626,8.0386792461253744,0.0
754640.0783812654,4070767.5119837918,-22500.0,0.58591375695850345,0.085348501154820899,-6.4170981651678094,0.002658162129431531,3.2220722944276301,-1.1634876908580671,4.2707129082407027,-5.2498989773304805,-0.18740627568912238,0.18740627568912238,5.2498989773304805,8.4272549576004732,0.0
759640.0783812654,4070767.5119837918,-22500.0,0.20749741566825713,-0.94473838798447818,-6.3937725982333617,0.53780428442152473,3.3179390221711644,-1.2590217659934084,4.2938882136670617,-5.8815914674162375,0.75699470445048034,-0.75699470445048034,5.8815914674162375,8.5216198860699599,0.0
764640.0783812654,4070767.5119837918,-22500.0,-0.32403916504615615,-1.7401823328103587,-5.9328743067583254,0.97241209333957779,3.1771150948326556,-1.2541148623483447,4.2185909987041939,-5.9795854864970996,1.4636955050200848,-1.4636955050200848,5.9795854864970996,8.3253271205203809,0.0
769640.0783812654,4070767.5119837918,-22500.0,-0.89299844399152462,-2.2483405952557729,-5.2014659288420635,1.2732705618639999,2.8762614880799799,-1.1760018221640738,4.0156520201717516,-5.659328915184326,1.8946873407480531,-1.8946873407480531,5.659328915184326,7.8912022302372877,0.0
774640.0783812654,4070767.5119837918,-22500.0,-1.4060291198406158,-2.482668217367054,-4.3547849462922787,1.4391822366012206,2.4912548813440027,-1.053649389744397,3.719767221852174,-5.0674648038381189,2.0722499757696426,-2.0722499757696426,5.0674648038381189,7.2926077499711965,0.0
779640.0783812654,4070767.5119837918,-22500.0,-1.8067005879782727,-2.4959405508071035,-3.5101735572558912,1.4898172402806849,2.083216222134642,-0.9118127274015434,3.371048956378623,-4.3415007377479959,2.0521206556045524,-2.0521206556045524,4.3415007377479959,6.6025945758763269,0.0
784640.0783812654,4070767.5119837918,-22500.0,-2.0742395967908576,-2.3545559908905509,-2.7409670530183448,1.4540108830776231,1.6937161552522297,-0.76849939536452117,3.0030997162010209,-3.5880813214569827,1.8992794426454827,-1.8992794426454827,3.5880813214569827,5.882203987301601,0.0
789640.0783812654,4070767.5119837918,-22500.0,-2.2139306136659376,-2.1209519159776047,-2.0827887830325862,1.3610796753687406,1.3462408910944734,-0.63495370913597737,2.6405165045816261,-2.8775529421944555,1.6722640147610628,-1.6722640147610628,2.8775529421944555,5.1762259099975925,0.0
794640.0783812654,4070767.5119837918,-22500.0,-2.2458375418208014,-1.8449435759364461,-1.5445562500914225,1.235976245429663,1.0505199457310139,-0.51694688186528859,2.2992611498516284,-2.2484159795398817,1.4161162773735165,-1.4161162773735165,2.2484159795398817,4.513707831820903,0.0
799640.0783812654,4070767.5119837918,-22500.0,-2.1955843076981756,-1.5616458069929973,-1.1191857227829762,1.0975347494798495,0.8072776384587329,-0.41642405932883264,1.9882465958423754,-1.7156657617687632,1.1613652722270356,-1.1613652722270356,1.7156657617687632,3.9107558789079784,0.0
804640.0783812654,4070767.5119837918,-22500.0,-2.0883613163395536,-1.2930738749751685,-0.7918141458748732,0.95862685566465,0.61218643276210771,-0.3329828754071959,1.7112379748814939,-1.2792111977918794,0.92617072864358396,-0.92617072864358396,1.2792111977918794,3.3739872931670756,0.0
809640.0783812654,4070767.5119837918,-22500.0,-1.9457971752729626,-1.0511454837376821,-0.54517220861034754,0.82719606229680775,0.45865408309877892,-0.26498064475125171,1.4685616993827444,-0.93060175082928187,0.71950136618694094,-0.71950136618694094,0.93060175082928187,2.9036652826556479,0.0
814640.0783812654,4070767.5119837918,-22500.0,-1.7848679464147688,-0.84077680889428685,-0.36263530940675326,0.70752715631232888,0.33956290064213468,-0.21027186968536468,1.2584709888595418,-0.65770889549336853,0.54418912831025446,-0.54418912831025446,0.65770889549336853,2.4962104071075784,0.0
664640.0783812654,4075767.5119837918,-22500.0,1.5372528609901002,-1.424505306846356,1.2408309995900908,0.84203925397812562,-0.75162726398308899,0.34525057834282069,1.6755450015620721,0.021039417996755572,1.5440200327802458,-1.5440200327802458,-0.021039417996755572,3.3264044975987699,0.0
669640.0783812654,4075767.5119837918,-22500.0,1.5024311442001439,-1.5749066592664698,1.5224576243574031,0.91538897839585864,-0.9060003428217388,0.41116152918475174,1.8582467733329142,0.17262072844112253,1.6788516708344012,-1.6788516708344012,-0.17262072844112253,3.6919423731885956,0.0
674640.0783812654,4075767.5119837918,-22500.0,1.4147621142420581,-1.7092807028675241,1.8533879851046411,0.97884803895399131,-1.0844529183705109,0.48702359717519267,2.0511992338403906,0.38106754857482739,1.7918409907659048,-1.7918409907659048,-0.38106754857482739,4.0776816864225278,0.0
679640.0783812654,4075767.5119837918,-22500.0,1.2626098396659653,-1.8097475813598676,2.2323073064257621,1.023728915655622,-1.2856382859221658,0.57237822671668759,2.2510164476086376,0.65740102958156277,1.8648297895997326,-1.8648297895997326,-0.65740102958156277,4.4737308493871204,0.0
684640.0783812654,4075767.5119837918,-22500.0,1.0367767746642618,-1.8526261040657481,2.6507346864809906,1.0388390946629686,-1.5046214438063277,0.66540219652870503,2.4527065825309453,1.0100257637216949,1.8744859680314336,-1.8744859680314336,-1.0100257637216949,4.8649819796905929,0.0
689640.0783812654,4075767.5119837918,-22500.0,0.73384768686124469,-1.8090380568423496,3.0892407491391931,1.0108682726660589,-1.7311627159558582,0.76225397937245665,2.6475362759492236,1.44093807861519,1.7932131753292158,-1.7932131753292158,-1.44093807861519,5.2302933498688953,0.0
694640.0783812654,4075767.5119837918,-22500.0,0.36052536525216689,-1.647485323778469,3.5133418710711308,0.92566367173702824,-1.9479180247486361,0.85638179166528516,2.8231290890637166,1.9403772260307981,1.5919985404001744,-1.5919985404001744,-1.9403772260307981,5.5424830589192835,0.0
699640.0783812654,4075767.5119837918,-22500.0,-0.061784362928306129,-1.3393382185892215,3.8702691479298861,0.7707730630894879,-2.1291113837018583,0.93799497931468534,2.9651775729095142,2.4803917957059913,1.2460009817740487,-1.2460009817740487,-2.4803917957059913,5.769966850942807,0.0
704640.0783812654,4075767.5119837918,-22500.0,-0.49378788903729598,-0.86775541198845096,4.0887210731734918,0.53943538294954785,-2.2406186964241046,0.99404172285425652,3.0595248397578372,3.0088680775110532,0.74321012324529079,-0.74321012324529079,-3.0088680775110532,5.8811664831530823,0.0
709640.0783812654,4075767.5119837918,-22500.0,-0.87908848242513138,-0.23930518811532778,4.0844294706105346,0.23565271454512268,-2.2426850380617607,1.0091440551997597,3.0956802918424353,3.4469959916453163,0.095258978386256521,-0.095258978386256521,-3.4469959916453163,5.8529447759976252,0.0
714640.0783812654,4075767.5119837918,-22500.0,-1.1517284470313456,0.50463500861771293,3.774086409672937,-0.12094596069423885,-2.0963354208712519,0.96789250016445028,3.0721313379193109,3.6942807806530471,-0.65258635365759332,0.65258635365759332,-3.6942807806530471,5.6839514822376938,0.0
719640.0783812654,4075767.5119837918,-22500.0,-1.2517805823907275,1.2821239835781011,3.0978911516200562,-0.4927614037282162,-1.7735225410738327,0.85854951316405848,3.0025371187227652,3.6447604680953818,-1.4174330479880635,1.4174330479880635,-3.6447604680953818,5.4120243792588205,0.0
724640.0783812654,4075767.5119837918,-22500.0,-1.1464748980148161,1.9770320357588973,2.0463121389118393,-0.82711457510604314,-1.2690549330310912,0.67749950863212427,2.9196035442732082,3.2146428381049317,-2.0865974339757196,2.0865974339757196,-3.2146428381049317,5.1290382821248972,0.0
729640.0783812654,4075767.5119837918,-22500.0,-0.84929859674716845,2.4613588869139713,0.68115419985909598,-1.065940020396444,-0.61002588020245974,0.43293533546918567,2.8700841847630096,2.3750461405061021,-2.5401844322106006,2.5401844322106006,-2.3750461405061021,4.9723186671283246,0.0
734640.0783812654,4075767.5119837918,-22500.0,-0.42655814185072954,2.6300589668228387,-0.86145159909463431,-1.1608398242513671,0.1425732290558917,0.1458481519220142,2.8947799479975593,1.1767908232110793,-2.684317004377955,2.684317004377955,-1.1767908232110793,5.0617167258629712,0.0
739640.0783812654,4075767.5119837918,-22500.0,0.016027148014733098,2.4360949976276398,-2.393846768504353,-1.0883909087417321,0.9034300829608618,-0.15299872235370185,3.0017278513211307,-0.24727865502367252,-2.4829209499946554,2.4829209499946554,0.24727865502367252,5.406916826588442,0.0
744640.0783812654,4075767.5119837918,-22500.0,0.36451252288116753,1.909431743455531,-3.7213191595411517,-0.85887593575443177,1.5821129591977452,-0.42972686014895772,3.1581335481816297,-1.7091221514025317,-1.9730075162174736,1.9730075162174736,1.7091221514025317,5.8940431721200861,0.0
749640.0783812654,4075767.5119837918,-22500.0,0.53282181355784597,1.1494818851785995,-4.6917185773114412,-0.51386755106454107,2.1050446629592239,-0.65533156207244081,3.3104550393302099,-3.0136318946110654,-1.2546767995247876,1.2546767995247876,3.0136318946110654,6.3678661991792751,0.0
754640.0783812654,4075767.5119837918,-22500.0,0.48724479016256683,0.2938598195471317,-5.2298037035276526,-0.1135168953871466,2.4315308855736464,-0.81190246059325888,3.4116154921181026,-4.0084027709859997,-0.45983581336324164,0.45983581336324164,4.0084027709859997,6.7067045264481537,0.0
759640.0783812654,4075767.5119837918,-22500.0,0.24954436362657786,-0.52183412598655021,-5.3440588262410023,0.28058756437987054,2.5582494454414952,-0.89491820639032726,3.4442141711117431,-4.6151232872187666,0.28579594166388,-0.28579594166388,4.6151232872187666,6.8471573022552468,0.0
764640.0783812654,4075767.5119837918,-22500.0,-0.11918191696832872,-1.1961448392151404,-5.1079907217994007,0.6198462305147503,2.5124897129927435,-0.9114646864657191,3.4255016684704742,-4.8335663786254193,0.89157383552273184,-0.89157383552273184,4.8335663786254193,6.7783557868331243,0.0
769640.0783812654,4075767.5119837918,-22500.0,-0.54320122618568001,-1.6760441056218414,-4.6284623285251776,0.87592186093552948,2.3390666518577059,-0.87593089322721296,3.315163457877448,-4.722980976439306,1.3133904447870353,-1.3133904447870353,4.722980976439306,6.5256085536998336,0.0
774640.0783812654,4075767.5119837918,-22500.0,-0.95401049853634501,-1.9538416110784675,-4.0152081626549183,1.0405829914073133,2.0868934674883928,-0.80525789168086592,3.1259911004246419,-4.3735486491045226,1.5490585738810794,-1.5490585738810794,4.3735486491045226,6.1330842691903165,0.0
779640.0783812654,4075767.5119837918,-22500.0,-1.3030171627164155,-2.0537656276131129,-3.3602782080598459,1.1207324577763389,1.799240684759712,-0.71525503173357452,2.8848714720193378,-3.8800030300042314,1.6247256193210433,-1.6247256193210433,3.8800030300042314,5.6498453144863436,0.0
784640.0783812654,4075767.5119837918,-22500.0,-1.5646119884299685,-2.0161778205946201,-2.7292367189872033,1.1318923072605178,1.5088792741156063,-0.61854670632318032,2.6166117679265737,-3.3240407449163532,1.579831726974581,-1.579831726974581,3.3240407449163532,5.1207236691060602,0.0
789640.0783812654,4075767.5119837918,-22500.0,-1.7327308794744714,-1.8847039979702873,-2.161361622901651,1.0925036243745123,1.2372568823909109,-0.52396631120185766,2.341058571076565,-2.7664464896633572,1.4553261876316004,-1.4553261876316004,2.7664464896633572,4.58174459327779,0.0
794640.0783812654,4075767.5119837918,-22500.0,-1.8146701799590603,-1.6981992342615697,-1.6747087824826103,1.0200645878101393,0.99608626303373327,-0.43688660076076741,2.0725123044986802,-2.2465174241950918,1.2866423228309327,-1.2866423228309327,2.2465174241950918,4.0589211628945678,0.0
799640.0783812654,4075767.5119837918,-22500.0,-1.8249172080958771,-1.4871453239281898,-1.2726086295270949,0.92912203203771282,0.78987145181564522,-0.3599775207266106,1.8202376458535916,-1.7855214308037746,1.1008294529997067,-1.1008294529997067,1.7855214308037746,3.5690743790300155,0.0
804640.0783812654,4075767.5119837918,-22500.0,-1.7803722622513307,-1.2731120890843122,-0.94955635606422095,0.83064780414875561,0.6184132068119671,-0.29403576114765517,1.589445290232572,-1.3915371187279066,0.91644377675959621,-0.91644377675959621,1.3915371187279066,3.1215788374203992,0.0
809640.0783812654,4075767.5119837918,-22500.0,-1.6972807735756885,-1.0698778614810363,-0.69567188581703754,0.73224361298068419,0.47883901484489039,-0.23869881540939183,1.3823604903401256,-1.0640688977959147,0.74485225156995971,-0.74485225156995971,1.0640688977959147,2.720307241476442,0.0
669640.0783812654,4080767.5119837918,-22500.0,1.1840224705603712,-1.4085814028899175,1.5395900911278895,0.74815234611716896,-0.83068097101089355,0.34415401767425857,1.6554113349992812,0.27052117430968026,1.5173495182982228,-1.5173495182982228,-0.27052117430968026,3.2912050239744191,0.0
674640.0783812654,4080767.5119837918,-22500.0,1.0776349690452458,-1.4923305089525774,1.8324079573858281,0.78266899022406666,-0.975321060691833,0.40073966779152226,1.8063686620131487,0.4710140821259251,1.5870810971791651,-1.5870810971791651,-0.4710140821259251,3.5932420743700382,0.0
679640.0783812654,4080767.5119837918,-22500.0,0.91952458252813452,-1.5382035249258865,2.1558245871915029,0.7985234307581367,-1.1329940440735478,0.46243284964310566,1.9595134009017789,0.72524070927652207,1.6152723657938808,-1.6152723657938808,-0.72524070927652207,3.8941788399752175,0.0
684640.0783812654,4080767.5119837918,-22500.0,0.70618630828248352,-1.5273901161476457,2.498439947521971,0.78753588105358074,-1.298010372823158,0.52724976685618885,2.1101195574131704,1.0359673718196625,1.5835825880131087,-1.5835825880131087,-1.0359673718196625,4.1807635471544682,0.0
689640.0783812654,4080767.5119837918,-22500.0,0.43966949099581359,-1.438828870449739,2.8398861231173544,0.74077066996519725,-1.460695941721774,0.59179725255974869,2.2502149104500262,1.3996214694842681,1.4719782608122607,-1.4719782608122607,-1.3996214694842681,4.4358595748385232,0.0
694640.0783812654,4080767.5119837918,-22500.0,0.13030469372714315,-1.2518885566600972,3.1486300590836183,0.64972547739077768,-1.6065234268402855,0.65095774115290206,2.3702650015148339,1.8026368384749265,1.2614789310645582,-1.2614789310645582,-1.8026368384749265,4.6390434717853424,0.0
699640.0783812654,4080767.5119837918,-22500.0,-0.20096757448509731,-0.95091046745209096,3.3809989877765179,0.50826631688995905,-1.7157993778011618,0.69775872600164646,2.460384728521976,2.2176672325465687,0.93862331683032174,-0.93862331683032174,-2.2176672325465687,4.7684991844343809,0.0
704640.0783812654,4080767.5119837918,-22500.0,-0.52183361348902524,-0.53153537575567433,3.4828123812930754,0.31525062104813945,-1.7644740365633458,0.72362041094134244,2.5118747076936461,2.6009170737494323,0.50149784222315041,-0.50149784222315041,-2.6009170737494323,4.8048503729299554,0.0
709640.0783812654,4080767.5119837918,-22500.0,-0.79087962065607809,-0.007842400140287354,3.3951283977052098,0.077420667969822971,-1.7266735391212535,0.71918964612480085,2.5198053499373247,2.8925126251944584,-0.033690039451907072,0.033690039451907072,-2.8925126251944584,4.7375290165387414,0.0
714640.0783812654,4080767.5119837918,-22500.0,-0.96410276069430267,0.58190111906809661,3.0650050093508709,-0.18832929822431865,-1.5792899560284746,0.67588445043179424,2.4865156887430753,3.0220871842808501,-0.62764057031155374,0.62764057031155374,-3.0220871842808501,4.5738695944065819,0.0
719640.0783812654,4080767.5119837918,-22500.0,-1.0056161498621401,1.1741185875691802,2.4604757548567457,-0.45460056057556075,-1.308269658465455,0.58804565110198093,2.4251437349420844,2.9209424873365446,-1.2176242055101996,1.2176242055101996,-2.9209424873365446,4.3497275363481887,0.0
724640.0783812654,4080767.5119837918,-22500.0,-0.90028147884708798,1.6865858730414871,1.5862968927151537,-0.68628465254692184,-0.91518441711978726,0.45523895151872545,2.3609241826713925,2.5398178884970521,-1.7245785786382504,1.7245785786382504,-2.5398178884970521,4.136334488059715,0.0
729640.0783812654,4080767.5119837918,-22500.0,-0.6636573204560261,2.0339277110344005,0.4945385530803621,-0.84690194920401107,-0.42168944362923899,0.28391221777921116,2.3263533100384839,1.8678381164507318,-2.0683197247723584,2.0683197247723584,-1.8678381164507318,4.0295924209078278,0.0
734640.0783812654,4080767.5119837918,-22500.0,-0.34386010958525282,2.1489767305105505,-0.71631976355806581,-0.90730848802752817,0.13068838059606169,0.087533182141194349,2.347654347802532,0.94532158928397592,-2.1877343941143241,2.1877343941143241,-0.94532158928397592,4.1061746629658922,0.0
739640.0783812654,4080767.5119837918,-22500.0,-0.012193954444801905,2.0028845952613827,-1.9169417758721448,-0.85397889205210809,0.68674005862575438,-0.11528502341090484,2.4288129134130592,-0.13674103480000377,-2.0590977600993874,2.0590977600993874,0.13674103480000377,4.3680253223959902,0.0
744640.0783812654,4080767.5119837918,-22500.0,0.25557913098785373,1.6155396951711758,-2.9742844614492636,-0.69352237741279132,1.1886088800877626,-0.30437067653876043,2.5476206567181907,-1.2532543822466564,-1.7047311121639683,1.7047311121639683,1.2532543822466564,4.7379531138653288,0.0
749640.0783812654,4080767.5119837918,-22500.0,0.40039638737828626,1.0511452423598806,-3.7813257535120912,-0.45131546766474562,1.5881443501203178,-0.46218053581553181,2.6679415265032365,-2.2731613595097309,-1.1876148403208249,1.1876148403208249,2.2731613595097309,5.1103977673194549,0.0
754640.0783812654,4080767.5119837918,-22500.0,0.39492393660836872,0.40044003029211472,-4.278589323845587,-0.16467881573005505,1.8562488390797121,-0.57715066080572086,2.7562345655925449,-3.0890102567043778,-0.59386878392496789,0.59386878392496789,3.0890102567043778,5.3984298593014701,0.0
759640.0783812654,4080767.5119837918,-22500.0,0.24704449728530314,-0.2430181024211498,-4.4605548291292889,0.12661546625037079,1.9862867366823866,-0.64516827086365702,2.7937692585967127,-3.6373635894244023,-0.010368793373150664,0.010368793373150664,3.6373635894244023,5.5514527503623983,0.0
764640.0783812654,4080767.5119837918,-22500.0,-0.0078399340370739357,-0.80342630842328833,-4.3670480014362525,0.38893993948916566,1.9913316494610858,-0.66898074008442254,2.7994834961940374,-3.9044094523331294,0.49403331979657428,-0.49403331979657428,3.9044094523331294,5.5537610092725789,0.0
769640.0783812654,4080767.5119837918,-22500.0,-0.32069196888670176,-1.2341061415736194,-4.0655092638559012,0.59997847774660173,1.8973910285444497,-0.65615723926160785,2.7465629047882323,-3.9179965672628958,0.87832221583426695,-0.87832221583426695,3.9179965672628958,5.4156432625179569,0.0
774640.0783812654,4080767.5119837918,-22500.0,-0.64274100834466119,-1.5186521412222789,-3.6317959432958631,0.74983923570646416,1.7356069051137615,-0.61655965961862369,2.6291540119351886,-3.7319964240301706,1.1295893335749909,-1.1295893335749909,3.7319964240301706,5.1629522523802018,0.0
779640.0783812654,4080767.5119837918,-22500.0,-0.93514403530838019,-1.6647773628293989,-3.1352638130738919,0.83907793430950395,1.5358354790013751,-0.56014074042334694,2.4647672549666542,-3.409737641647288,1.2567440737719222,-1.2567440737719222,3.409737641647288,4.8279586651166015,0.0
784640.0783812654,4080767.5119837918,-22500.0,-1.1731325925570861,-1.6951251735831452,-2.6303963560073251,0.87524056630026559,1.322705018681958,-0.49548961123102458,2.2712407799325596,-3.0111367171534145,1.2817305014892142,-1.2817305014892142,3.0111367171534145,4.4426854666998983,0.0
789640.0783812654,4080767.5119837918,-22500.0,-1.3456492816493626,-1.6385363279130971,-2.1544003508118439,0.86933770961172852,1.1140991762276085,-0.42916538303925672,2.0639457212187846,-2.5852170274688513,1.2314430975039996,-1.2314430975039996,2.5852170274688513,4.0349135478097882,0.0
794640.0783812654,4080767.5119837918,-22500.0,-1.4523986877028863,-1.5236197634425188,-1.7287883422046579,0.83307597440977021,0.92138219967533586,-0.36563225138305322,1.8548783440009156,-2.1674791058850764,1.1319456810266981,-1.1319456810266981,2.1674791058850764,3.6264248633875535,0.0
799640.0783812654,4080767.5119837918,-22500.0,-1.5000895593936954,-1.3750152344205819,-1.3628560857628726,0.7771012976619921,0.75055839864681673,-0.30754616932863527,1.6526114526269582,-1.7805707922727265,1.0052430707833357,-1.0052430707833357,1.7805707922727265,3.2328021260334325,0.0
804640.0783812654,4080767.5119837918,-22500.0,-1.499020132397189,-1.2118825238598459,-1.057513884578057,0.71014387715465344,0.6037245677226204,-0.25618066378815918,1.4627068820293117,-1.4366432795453883,0.86809848100170539,-0.86809848100170539,1.4366432795453883,2.8641223988991222,0.0
674640.0783812654,4085767.5119837918,-22500.0,0.80786795695405456,-1.2822248765626272,1.7693856757689159,0.62076892374236803,-0.86598960294531668,0.32816751524296706,1.5854236039761596,0.5292509380923679,1.3871202391489756,-1.3871202391489756,-0.5292509380923679,3.1550035437872874,0.0
679640.0783812654,4085767.5119837918,-22500.0,0.65499108178323995,-1.2876367765091454,2.0382195661939249,0.61796865659178168,-0.98733841418765378,0.37227244788701991,1.7022462075979268,0.75679677952243118,1.3818567362981278,-1.3818567362981278,-0.75679677952243118,3.3806076306122939,0.0
684640.0783812654,4085767.5119837918,-22500.0,0.4622942919605128,-1.2407586455652133,2.3112979548076309,0.59223827518210848,-1.1093187769650537,0.41689789817120509,1.8136444725061871,1.0244204985743046,1.3224850327738351,-1.3224850327738351,-1.0244204985743046,3.5870966667175064,0.0
689640.0783812654,4085767.5119837918,-22500.0,0.23467691813631153,-1.127007440800565,2.5693205890380009,0.53786618482721571,-1.2235066333067632,0.4592755820969327,1.9129912250810941,1.325556325510779,1.1950930817952572,-1.1950930817952572,-1.325556325510779,3.7611023170160891,0.0
694640.0783812654,4085767.5119837918,-22500.0,-0.016635722544014915,-0.9338021045731012,2.7851436024291343,0.45011448975425367,-1.3183147835376703,0.49558390359675097,1.9933927080906766,1.6456725020422243,0.98803534433807427,-0.98803534433807427,-1.6456725020422243,3.8877808389287698,0.0
699640.0783812654,4085767.5119837918,-22500.0,-0.2731499476067849,-0.65401463138158966,2.9240402220911332,0.32658472028437674,-1.3791639226397503,0.52098911525814984,2.0482989824797828,1.9602575141198306,0.69526704462144695,-0.69526704462144695,-1.9602575141198306,3.9526099929669973,0.0
704640.0783812654,4085767.5119837918,-22500.0,-0.50951667404275869,-0.29020435407958084,2.9459759898849676,0.16885465017348081,-1.3894569027697576,0.52994090007440109,2.0727072049905368,2.2340110497594527,0.32034475089348924,-0.32034475089348924,-2.2340110497594527,3.944493175430952,0.0
709640.0783812654,4085767.5119837918,-22500.0,-0.69606415049226222,0.14123287221989206,2.8106061483287785,-0.015955122826355465,-1.332614980234184,0.51680792045856083,2.0650195861842917,2.4223907227810866,-0.11976544857767091,0.11976544857767091,-2.4223907227810866,3.8604202756573911,0.0
714640.0783812654,4085767.5119837918,-22500.0,-0.80385147282416625,0.60749316975995082,2.4851232599270667,-0.21425260179039141,-1.1952068070578221,0.47686962160445623,2.0292948703136622,2.4765703249044,-0.59249711516008385,0.59249711516008385,-2.4765703249044,3.7115705996332795,0.0
719640.0783812654,4085767.5119837918,-22500.0,-0.81177722972337063,1.0602064169974963,1.9539620954741599,-0.40636807295788052,-0.97077359779701133,0.40754806961196105,1.9771701448879064,2.3521354108414201,-1.0508110235207722,1.0508110235207722,-2.3521354108414201,3.5296535774193312,0.0
724640.0783812654,4085767.5119837918,-22500.0,-0.71405213522636601,1.441129276961552,1.2279485735488109,-0.56879613293786835,-0.66342184740656074,0.30959589422294709,1.9278948489941652,2.0203934360489382,-1.4389066079904365,1.4389066079904365,-2.0203934360489382,3.3693961456740684,0.0
729640.0783812654,4085767.5119837918,-22500.0,-0.5253084654209611,1.6926978671612074,0.34943090099370883,-0.67827784717671347,-0.28986658243878749,0.1878277535614413,1.9041916900761438,1.4793914228584222,-1.7023920597818756,1.7023920597818756,-1.4793914228584222,3.2981589608223247,0.0
734640.0783812654,4085767.5119837918,-22500.0,-0.2805743513134944,1.7712570526906515,-0.60983916484320377,-0.71690611335856957,0.12130502297071101,0.050997529111697602,1.9230892674667746,0.76054658330244396,-1.8007342836323978,1.8007342836323978,-0.76054658330244396,3.365351790633917,0.0
739640.0783812654,4085767.5119837918,-22500.0,-0.02882357694753877,1.6588431824300629,-1.5592807867829745,-0.67671989278039613,0.53362913495682529,-0.089356914589478809,1.986279118100222,-0.072723727969585039,-1.7180663392764597,1.7180663392764597,0.072723727969585039,3.5688557810083004,0.0
744640.0783812654,4085767.5119837918,-22500.0,0.17853683687536925,1.3690342913379236,-2.4064189214677918,-0.56210482819468321,0.90927073816591153,-0.22090319382912166,2.0782778672024036,-0.93544316920707216,-1.4682164557685424,1.4682164557685424,0.93544316920707216,3.8548649542246469,0.0
749640.0783812654,4085767.5119837918,-22500.0,0.30040654056805471,0.94426786130798934,-3.0751316751000792,-0.38898746099467568,1.2161711238705015,-0.33278234916448762,2.1741760014037563,-1.7379956944951818,-1.0917006466838399,1.0917006466838399,1.7379956944951818,4.1501697367972952,0.0
754640.0783812654,4085767.5119837918,-22500.0,0.31537678149945447,0.44542733220593872,-3.5193395000887486,-0.18104779230193632,1.4336139665086984,-0.41746336886311047,2.2499576111268618,-2.404101024694199,-0.64563234447693729,0.64563234447693729,2.404101024694199,4.3921712214907025,0.0
759640.0783812654,4085767.5119837918,-22500.0,0.22470876238022591,-0.062432668175677851,-3.728176127968144,0.035673817836035904,1.5546389094876019,-0.47166514518722596,2.2896923299877909,-2.8840966034741933,-0.19029700014190576,0.19029700014190576,2.8840966034741933,4.541339832352449,0.0
764640.0783812654,4085767.5119837918,-22500.0,0.048733546978810001,-0.52328256578768795,-3.7222265730226911,0.2379466628293998,1.5850214284598463,-0.49620944992150562,2.3039318339966752,-3.1600748109381605,0.22299319233739823,-0.22299319233739823,3.1600748109381605,4.5815230379847378,0.0
769640.0783812654,4085767.5119837918,-22500.0,-0.18096663424527534,-0.89854497156281055,-3.5436065906321761,0.40886113553521991,1.5397511610397401,-0.4950492780553713,2.2859437351946901,-3.2428812811475671,0.55942912077071028,-0.55942912077071028,3.2428812811475671,4.51508592739214,0.0
774640.0783812654,4085767.5119837918,-22500.0,-0.43026423227422972,-1.1695637032138642,-3.2440336721704037,0.53913247481041637,1.4385253404575704,-0.47391998132060342,2.2163503167941334,-3.1637042310024759,0.80265937834781309,-0.80265937834781309,3.1637042310024759,4.3566112727673181,0.0
779640.0783812654,4085767.5119837918,-22500.0,-0.66939059260970679,-1.3351909897057597,-2.8744626773202029,0.62649696815677558,1.3016364336940047,-0.43904472869343986,2.1061401465269487,-2.9639223520000262,0.95228999130606073,-0.95228999130606073,2.9639223520000262,4.1269606076391474,0.0
784640.0783812654,4085767.5119837918,-22500.0,-0.87680236076603613,-1.4066929317324335,-2.4782052619624158,0.67396484516025434,1.147063750044176,-0.39616726585155754,1.9679237453502663,-2.6861969358119229,1.0190290507747617,-1.0190290507747617,2.6861969358119229,3.8485709519153111,0.0
789640.0783812654,4085767.5119837918,-22500.0,-1.0401288426367692,-1.4021212012917792,-2.0877831907552267,0.68773004748315902,0.98895856076600674,-0.34999834751879078,1.8132961895488038,-2.3683601805623686,1.0194644728565645,-1.0194644728565645,2.3683601805623686,3.5422795621053367,0.0
794640.0783812654,4085767.5119837918,-22500.0,-1.1550845364415654,-1.3415789339659911,-1.7247062580005517,0.67530768209244774,0.83728812938702557,-0.30402543105941959,1.6519171627504536,-2.0403113271995919,0.97175821846866406,-0.97175821846866406,2.0403113271995919,3.2255743672689339,0.0
799640.0783812654,4085767.5119837918,-22500.0,-1.2233892015298793,-1.2439767684466929,-1.4010111139447685,0.644173476917278,0.69823262274927445,-0.26057284306686201,1.4912174976042498,-1.7233138457225223,0.89276006348744863,-0.89276006348744863,1.7233138457225223,2.9119549377692566,0.0
679640.0783812654,4090767.5119837918,-22500.0,0.45440675726761842,-1.0646078891659334,1.8962814043337985,0.47506128013946369,-0.85342205289952955,0.29914879940217037,1.4776875995870409,0.76062047158952439,1.1708858929637247,-1.1708858929637247,-0.76062047158952439,2.9307298030262436,0.0
684640.0783812654,4090767.5119837918,-22500.0,0.28555766852987979,-0.99548189831380463,2.1086677415931852,0.44213796023020291,-0.94195289077103728,0.32951115630683131,1.5591384222394393,0.9870988907716971,1.094662912837203,-1.094662912837203,-0.9870988907716971,3.0768110932939816,0.0
689640.0783812654,4090767.5119837918,-22500.0,0.095133094304708704,-0.87063586358441736,2.2978292910961899,0.3868711916927175,-1.0201438701013394,0.35686306665115675,1.6284770580280656,1.2328479114865298,0.96190034031693727,-0.96190034031693727,-1.2328479114865298,3.1920166703809154,0.0
694640.0783812654,4090767.5119837918,-22500.0,-0.10622985533287911,-0.68313097299702319,2.4413421067043672,0.30691466697437331,-1.0790533838711902,0.37843282369235598,1.6809130604670484,1.4839914267148677,0.76606820404493026,-0.76606820404493026,-1.4839914267148677,3.2658796663402683,0.0
699640.0783812654,4090767.5119837918,-22500.0,-0.30313088580698894,-0.43112332922813656,2.5123708073844577,0.2019441617192784,-1.1081239952017972,0.39092878481779209,1.7122834481739573,1.7196733570800287,0.50569621804029308,-0.50569621804029308,-1.7196733570800287,3.2891344009525447,0.0
704640.0783812654,4090767.5119837918,-22500.0,-0.47628137305623902,-0.12056658718290736,2.4819453581827111,0.074635517802832368,-1.0960761549889326,0.3907991688562355,1.7200034222424117,1.9121981668475549,0.18692431691352018,-0.18692431691352018,-1.9121981668475549,3.2561299609123613,0.0
709640.0783812654,4090767.5119837918,-22500.0,-0.60477428269378841,0.23251990348296625,2.3229504937257413,-0.068537943211330582,-1.0324283630625566,0.37468129094391539,1.7043702737582342,2.0288680068612255,-0.17440840183149409,0.17440840183149409,-2.0288680068612255,3.1681766170691357,0.0
714640.0783812654,4090767.5119837918,-22500.0,-0.66978885994384718,0.60116708386417628,2.0156492589064405,-0.21702788209123661,-0.90956872718338955,0.3400217053141622,1.6699783186345174,2.0359717284036876,-0.55203349811742941,0.55203349811742941,-2.0359717284036876,3.037592168891273,0.0
719640.0783812654,4090767.5119837918,-22500.0,-0.65921807400234211,0.94895184095832985,1.5538729552465966,-0.3568026077475776,-0.72505622553985238,0.28577631691776556,1.626688580830447,1.9048391457415399,-0.91080148212347223,0.91080148212347223,-1.9048391457415399,2.8913665239848187,0.0
724640.0783812654,4090767.5119837918,-22500.0,-0.57205833131966588,1.2344668782381492,0.95027763029514434,-0.47201084078437588,-0.48357159776568115,0.21302224406100667,1.5890982349211293,1.6190148570368628,-1.2110281246767953,1.2110281246767953,-1.6190148570368628,2.7713416407131217,0.0
729640.0783812654,4090767.5119837918,-22500.0,-0.42097426155295525,1.4184502980311078,0.23867140002464884,-0.54759945580120239,-0.19779993365756629,0.12526867078500728,1.5731984471188727,1.1807054509172921,-1.4152906266770269,1.4152906266770269,-1.1807054509172921,2.7250982801878747,0.0
734640.0783812654,4090767.5119837918,-22500.0,-0.23161643596295378,1.4720771399143375,-0.52823004694480868,-0.57235299156223618,0.11234744801011795,0.02828464951725497,1.5901476428227261,0.61419993723575927,-1.4962224311882455,1.4962224311882455,-0.61419993723575927,2.7846510398189723,0.0
739640.0783812654,4090767.5119837918,-22500.0,-0.038198259746973849,1.3840038179367193,-1.2860126159488676,-0.54150267222092985,0.42232495567403461,-0.070615467163744797,1.6403736600880858,-0.035579483919634836,-1.4430334996802725,1.4430334996802725,0.035579483919634836,2.9459788062527408,0.0
744640.0783812654,4090767.5119837918,-22500.0,0.12373576065026351,1.1637270904451218,-1.969344411102518,-0.45803554315404538,0.70688082440583067,-0.16370561712847476,1.7128147391142472,-0.70978511691781476,-1.2645024112505001,1.2645024112505001,0.70978511691781476,3.1706754330736673,0.0
749640.0783812654,4090767.5119837918,-22500.0,0.22517480241247442,0.83990576739350831,-2.5234328600219351,-0.33220334701731746,0.94430370699770194,-0.24411435401969886,1.7899558647263896,-1.3460785441193199,-0.98724188612899177,0.98724188612899177,1.3460785441193199,3.407009741963043,0.0
754640.0783812654,4090767.5119837918,-22500.0,0.24960896770034874,0.45409574451427287,-2.9128698375095028,-0.17935459757512806,1.1198079498616629,-0.30687850148742968,1.854434969320679,-1.8898044842913628,-0.64973312138465689,0.64973312138465689,1.8898044842913628,3.6094450064220944,0.0
759640.0783812654,4090767.5119837918,-22500.0,0.19534343502393206,0.051980791836478378,-3.125553174623886,-0.016793661464623192,1.2271947071635125,-0.34951796177506894,1.8936345611511216,-2.3026959255492931,-0.29412121617225306,0.29412121617225306,2.3026959255492931,3.7473687442738779,0.0
764640.0783812654,4090767.5119837918,-22500.0,0.073885015146623323,-0.32515165078791003,-3.1712198842950534,0.13936942526102902,1.2685616285429924,-0.37204259487975422,1.9099274821497796,-2.5670043985590536,0.041660949034645345,-0.041660949034645345,2.5670043985590536,3.8060036106169575,0.0
769640.0783812654,4090767.5119837918,-22500.0,-0.094476714657448724,-0.64645264515267109,-3.0758996690645,0.2765614811781924,1.2524685315357285,-0.37648781130009079,1.9124967586718997,-2.6847303183290041,0.32939354868482584,-0.32939354868482584,2.6847303183290041,3.7837564440801219,0.0
774640.0783812654,4090767.5119837918,-22500.0,-0.28608800424550296,-0.89408607448509325,-2.8745408133557766,0.38688139991298415,1.1913308275561181,-0.36619066276405532,1.874478696774049,-2.6731888368487651,0.55283295615201422,-0.55283295615201422,2.6731888368487651,3.6883832813375128,0.0
779640.0783812654,4090767.5119837918,-22500.0,-0.47869982979004955,-1.0626330556063373,-2.603984623369715,0.46707913507878024,1.0988239209003603,-0.34503345745095115,1.802238350338824,-2.5588875221876544,0.70706188194765729,-0.70706188194765729,2.5588875221876544,3.5331401156433961,0.0
784640.0783812654,4090767.5119837918,-22500.0,-0.6546236461221232,-1.156418565093281,-2.2977015626094293,0.51772810081137033,0.98784061213481555,-0.31682112828806497,1.7045933043515717,-2.3715603879162108,0.79596619081164466,-0.79596619081164466,2.3715603879162108,3.3335232885080255,0.0
789640.0783812654,4090767.5119837918,-22500.0,-0.80207941296353202,-1.1860259761422778,-1.982771013744238,0.54202867654642939,0.86922261384866628,-0.28486954898882116,1.5901399183827192,-2.1395432422391432,0.82901380549859049,-0.82901380549859049,2.1395432422391432,3.1048681140926409,0.0
794640.0783812654,4090767.5119837918,-22500.0,-0.91507901877604902,-1.1649918085730346,-1.678865764218916,0.54460660186817944,0.75122307734192162,-0.25180422459978424,1.4664485668628156,-1.886910886522962,0.81824121070087596,-0.81824121070087596,1.886910886522962,2.8608249285472152,0.0
689640.0783812654,4095767.5119837918,-22500.0,0.0026079394441845716,-0.66351532537775726,2.0380944711253792,0.27528445089889675,-0.84842960224503172,0.27795559775781475,1.3892471177658987,1.1317048263864364,0.7686825923814562,-0.7686825923814562,-1.1317048263864364,2.7140663258692763,0.0
694640.0783812654,4095767.5119837918,-22500.0,-0.15721372804546027,-0.48851870642095219,2.1268594846689099,0.20485804672953825,-0.88256758235872868,0.29014109573615654,1.4221782277072996,1.3267648513857677,0.58827165572998896,-0.58827165572998896,-1.3267648513857677,2.7520818046730731,0.0
699640.0783812654,4095767.5119837918,-22500.0,-0.30748421515777524,-0.26621417674472841,2.1500724828180022,0.11716312183517817,-0.89135743809639656,0.29502292479736519,1.4380637874283864,1.5014549771199224,0.35975243520932776,-0.35975243520932776,-1.5014549771199224,2.7494090496852182,0.0
704640.0783812654,4095767.5119837918,-22500.0,-0.43382373370022526,-0.0038464785633974211,2.0871112924075814,0.015121189018283483,-0.86722408303301368,0.29034576100800857,1.4358506677153837,1.6344281628708219,0.090146451434664043,-0.090146451434664043,-1.6344281628708219,2.7038701497512263,0.0
709640.0783812654,4095767.5119837918,-22500.0,-0.52167356300084766,0.28416729286851677,1.9200658289923713,-0.095787118596567647,-0.80362894560451392,0.27411813950261854,1.4168348472243975,1.7018781179691307,-0.20661381188395056,0.20661381188395056,-1.7018781179691307,2.6190641187792156,0.0
714640.0783812654,4095767.5119837918,-22500.0,-0.55892209985337715,0.57618830433695045,1.637538731744659,-0.20753673956843263,-0.69641723462391214,0.24499442004565677,1.3855265060156787,1.6805851214378071,-0.50967109886307982,0.50967109886307982,-1.6805851214378071,2.5070171684489693,0.0
719640.0783812654,4095767.5119837918,-22500.0,-0.53888109696942521,0.84491274124833182,1.2385511283089135,-0.31012863013683389,-0.5451930802059779,0.20267141589831467,1.3500687028692364,1.5520695181378128,-0.79275621708246091,0.79275621708246091,-1.5520695181378128,2.3901850385414765,0.0
724640.0783812654,4095767.5119837918,-22500.0,-0.46285007986641952,1.0607350634585864,0.73552560476170237,-0.39277842478318248,-0.35436967762135463,0.14820249668340515,1.3215044063872889,1.3071448382783559,-1.0274010895509675,1.0274010895509675,-1.3071448382783559,2.3004899229900491,0.0
729640.0783812654,4095767.5119837918,-22500.0,-0.34135194952335557,1.1965594578554384,0.15520295280210375,-0.44559851633087527,-0.13350405577093077,0.084119354804496699,1.3111623384168865,0.94971619116252726,-1.1874975973368316,1.1874975973368316,-0.94971619116252726,2.2717241162622908,0.0
734640.0783812654,4095767.5119837918,-22500.0,-0.19331037542045693,1.2330637882584117,-0.46333766765733403,-0.46143651213408632,0.10336836164881652,0.014277881060446104,1.3264103340654889,0.49852221997016288,-1.2542540000579492,1.2542540000579492,-0.49852221997016288,2.3246993470303043,0.0
739640.0783812654,4095767.5119837918,-22500.0,-0.043009823573356379,1.1629940106882153,-1.0736238826501725,-0.43739045273802457,0.33942936696305931,-0.056587551996041562,1.3670094673848241,-0.014131396727265377,-1.2202130422430819,1.2202130422430819,0.014131396727265377,2.4547076429328807,0.0
744640.0783812654,4095767.5119837918,-22500.0,0.084540687169314052,0.9931322275647555,-1.6287856162114518,-0.37553956823271378,0.55750310766603384,-0.12352637082298681,1.4248906672880703,-0.54676020264680369,-1.0910721621232569,1.0910721621232569,0.54676020264680369,2.6337703146882432,0.0
749640.0783812654,4095767.5119837918,-22500.0,0.16857560383169951,0.7432190996181478,-2.0889035838012551,-0.2826367982692144,0.74264223902642756,-0.18209897590687221,1.4875106887878946,-1.0552893384699937,-0.88465430089250918,0.88465430089250918,1.0552893384699937,2.8246896171007561,0.0
754640.0783812654,4095767.5119837918,-22500.0,0.19643556280029173,0.44208887543793302,-2.4268161518973503,-0.168831993878933,0.88422919480822559,-0.22899044962206722,1.5421748782266904,-1.500147512535762,-0.62729240364991146,0.62729240364991146,1.500147512535762,2.9939708730762096,0.0
759640.0783812654,4095767.5119837918,-22500.0,0.16529351810824466,0.1221745880985,-2.6310127194416513,-0.045799085654589566,0.977108350189269,-0.26237059496801068,1.5790952695153726,-1.8520310942337255,-0.34872150190649887,0.34872150190649887,1.8520310942337255,3.1179544710439031,0.0
764640.0783812654,4095767.5119837918,-22500.0,0.081497165394384355,-0.18605405791872551,-2.705225190886559,0.075212194927592832,1.0215864495363114,-0.28194462858924885,1.5953818179234713,-2.0950462189197605,-0.076934080028557394,0.076934080028557394,2.0950462189197605,3.1838397632323114,0.0
769640.0783812654,4095767.5119837918,-22500.0,-0.041937552425694177,-0.45835771611781673,-2.6653323697195899,0.18493003378706058,1.0224778394412077,-0.28873198039078118,1.6089223385952149,-2.2268744404990692,0.16574554337978364,-0.16574554337978364,2.2268744404990692,3.1882478213318395,0.0
774640.0783812654,4095767.5119837918,-22500.0,-0.18869588203602705,-0.67897087118599231,-2.5348066202823714,0.27694933954614792,0.98759132092943414,-0.28467474063143555,1.5915345653728745,-2.2565017986321738,0.36470858895622271,-0.36470858895622271,2.2565017986321738,3.134866424574505,0.0
779640.0783812654,4095767.5119837918,-22500.0,-0.34239817267463207,-0.84081665109414427,-2.3400146813627845,0.34792481781561507,0.92610210683470851,-0.27219572875438824,1.5457416922863945,-2.2005697249372274,0.51324193730765355,-0.51324193730765355,2.2005697249372274,3.0319475515779968,0.0
784640.0783812654,4095767.5119837918,-22500.0,-0.48901207582360046,-0.94421144058692064,-2.1063488951682618,0.39722005981230957,0.84715569425348614,-0.25380428261979615,1.4776668362013694,-2.079460868881077,0.61133050413305723,-0.61133050413305723,2.079460868881077,2.8900669005427733,0.0
789640.0783812654,4095767.5119837918,-22500.0,-0.6181804464419508,-0.99478160870525545,-1.8556608664639367,0.42624581181441268,0.75888849378963363,-0.2318064934082153,1.3936084322712696,-1.9139507008968937,0.66375122960423427,-0.66375122960423427,1.9139507008968937,2.7203558378543007,0.0
699640.0783812654,4100767.5119837918,-22500.0,-0.29701219802870943,-0.14578785705454608,1.8361036356654714,0.060051411083276517,-0.718579213874593,0.22403310161102838,1.2137706688903187,1.307382788076475,0.24840165819248461,-0.24840165819248461,-1.307382788076475,2.3095173649598011,0.0
704640.0783812654,4100767.5119837918,-22500.0,-0.38890667796947048,0.074458956778159613,1.754470021291106,-0.021466049661083918,-0.68875477597201962,0.21737881397071285,1.205957416056743,1.3970919559565407,0.02100517816902514,-0.02100517816902514,-1.3970919559565407,2.2590510802140846,0.0
709640.0783812654,4100767.5119837918,-22500.0,-0.44839459697015521,0.30916499308266149,1.5890314293873877,-0.1075439438620948,-0.62879972031138953,0.20237057352861204,1.1861902579531534,1.4311752272068121,-0.22315216010212102,0.22315216010212102,-1.4311752272068121,2.1809006322643123,0.0
714640.0783812654,4100767.5119837918,-22500.0,-0.4677723304215593,0.54121384193181821,1.333626047484459,-0.19214128174432896,-0.53658617595782998,0.17833025582486386,1.1586007720550566,1.39365280303072,-0.46765484794550538,0.46765484794550538,-1.39365280303072,2.0861118796185312,0.0
719640.0783812654,4100767.5119837918,-22500.0,-0.44358120179957455,0.75015287932254626,0.98998325450993474,-0.26811655386766586,-0.41269171073066813,0.14529342212475302,1.1298096026591133,1.2726431590906513,-0.69281951322363755,0.69281951322363755,-1.2726431590906513,1.993108495234067,0.0
724640.0783812654,4100767.5119837918,-22500.0,-0.37809630388634091,0.91466740203118335,0.56938800129788125,-0.32806098084235247,-0.26095685357186621,0.10416934108663826,1.108170293388389,1.0632617827307327,-0.87803491761528685,0.87803491761528685,-1.0632617827307327,1.9262358007517499,0.0
729640.0783812654,4100767.5119837918,-22500.0,-0.27987552983273811,1.0158373242724772,0.092911608041299845,-0.36538560857611352,-0.088569918215750526,0.056779800060156899,1.1017617420748649,0.76987343989288859,-1.0048397012585124,1.0048397012585124,-0.76987343989288859,1.9096168497072499,0.0
734640.0783812654,4100767.5119837918,-22500.0,-0.16299584114322538,1.0405239927775767,-0.41020664820436392,-0.37545126545986923,0.094456906271684404,0.00573832736924369,1.1154783609149472,0.40695443605785742,-1.0601229484285,1.0601229484285,-0.40695443605785742,1.9567894958321521,0.0
739640.0783812654,4100767.5119837918,-22500.0,-0.044951680528434415,0.98403670948996769,-0.90597945087301257,-0.356467238035722,0.27640830322157373,-0.045830909149332147,1.1487556778575259,-0.0019329132428149709,-1.0386499869385903,1.0386499869385903,0.0019329132428149709,2.0630096016761326,0.0
744640.0783812654,4100767.5119837918,-22500.0,0.056374350816850473,0.8513084009712083,-1.3602938524822978,-0.30990826723848913,0.44539459569515577,-0.094689161400234131,1.1956018630649643,-0.4270606184185427,-0.94419392644146194,0.94419392644146194,0.4270606184185427,2.2075322260727406,0.0
749640.0783812654,4100767.5119837918,-22500.0,0.12591703141510974,0.65618623823191868,-1.7437174749318298,-0.2403169958760393,0.59096265428105044,-0.13791155689948537,1.246881107513321,-0.83678569885227316,-0.78890734673173546,0.78890734673173546,0.83678569885227316,2.3631724796090747,0.0
754640.0783812654,4100767.5119837918,-22500.0,0.15397258302641351,0.41899284694137212,-2.0353720610125134,-0.1545326274451537,0.70542612253612025,-0.17325305467351718,1.2932013932520992,-1.2021439847183739,-0.59108162386431584,0.59108162386431584,1.2021439847183739,2.5050111677052356,0.0
759640.0783812654,4100767.5119837918,-22500.0,0.13746331307435708,0.16301685150634596,-2.2250458419824848,-0.060548975996208648,0.78463753820213122,-0.19937627782604042,1.3270051493769048,-1.5007140538296113,-0.371908712902009,0.371908712902009,1.5007140538296113,2.6147301995833043,0.0
764640.0783812654,4100767.5119837918,-22500.0,0.079730160131010142,-0.089160045142494884,-2.3132408366204027,0.033709887612879803,0.82808766022753777,-0.21590600793077949,1.3439150356038481,-1.7189429893792889,-0.15208657266749226,0.15208657266749226,1.7189429893792889,2.6815494194548286,0.0
769640.0783812654,4100767.5119837918,-22500.0,-0.010891626317436315,-0.31865908021696043,-2.3094601632320328,0.12142098848654537,0.83841392790423352,-0.22332579431375146,1.3612027002926539,-1.8526509608755344,0.050952167359272216,-0.050952167359272216,1.8526509608755344,2.7014671645172292,0.0
774640.0783812654,4100767.5119837918,-22500.0,-0.12317231818171033,-0.51211574782553515,-2.2293901764023563,0.19752526051922517,0.82051671450705022,-0.22276423944801424,1.3570964243117183,-1.9059216293813241,0.22472269209372076,-0.22472269209372076,1.9059216293813241,2.6757969417469072,0.0
779640.0783812654,4100767.5119837918,-22500.0,-0.24516001742554283,-0.66220036056347742,-2.0917785441778052,0.25897179083624028,0.78053957343118319,-0.21573585492299122,1.3296119876722778,-1.8889501732714693,0.3621845744754475,-0.3621845744754475,1.8889501732714693,2.6095314068448077,0.0
709640.0783812654,4105767.5119837918,-22500.0,-0.38498203468813746,0.31662439741293136,1.3177296333777018,-0.11003053432332671,-0.49469848017729079,0.15073437406864942,0.99997549628638849,1.2073394050972661,-0.22898029587408608,0.22898029587408608,-1.2073394050972661,1.829016527165682,0.0
714640.0783812654,4105767.5119837918,-22500.0,-0.39299615900696366,0.5017487366779535,1.0893245394740669,-0.17448541583114158,-0.41605282778201569,0.13108015366417977,0.97614906774512544,1.1614112839911714,-0.4273617170788524,0.4273617170788524,-1.1614112839911714,1.7495634314295441,0.0
719640.0783812654,4105767.5119837918,-22500.0,-0.36772174690914655,0.66525911665332038,0.79368442257524163,-0.23124961420590878,-0.31440546829650279,0.1052239153861919,0.95289929719898669,1.050158052693146,-0.60788152982807642,0.60788152982807642,-1.050158052693146,1.6756940366743962,0.0
724640.0783812654,4105767.5119837918,-22500.0,-0.31171865888582784,0.79169178022230136,0.44065064701692097,-0.2751814218653133,-0.19296544690306541,0.073907095921371666,0.93655437799016727,0.87122201747127614,-0.75547498790850987,0.75547498790850987,-0.87122201747127614,1.62598981370804,0.0
729640.0783812654,4105767.5119837918,-22500.0,-0.23186976302904355,0.86768303923301782,0.046821480066212742,-0.30182869744963142,-0.057148729596540999,0.03844305863393245,0.9329129388771038,0.62883434677852101,-0.85691797663475266,0.85691797663475266,-0.62883434677852101,1.6177531343358285,0.0
734640.0783812654,4105767.5119837918,-22500.0,-0.13873782939118229,0.88417762295669244,-0.36572231871206845,-0.30813437192426429,0.085818568489655037,0.00062768143977756706,0.94523987903787321,0.33421729669919265,-0.90292492001509894,0.90292492001509894,-0.33421729669919265,1.6597661201791993,0.0
739640.0783812654,4105767.5119837918,-22500.0,-0.045101341126068194,0.83811362731866446,-0.77180458969672605,-0.29298014640241787,0.2276493596270269,-0.037440136858048367,0.97283736328739479,0.004783605722729789,-0.88976661751160635,0.88976661751160635,-0.004783605722729789,1.7475731389069236,0.0
744640.0783812654,4105767.5119837918,-22500.0,0.03606036423844295,0.7331371212840081,-1.1462601513236084,-0.2574292130937253,0.35997809643045015,-0.073600514438217052,1.0111860030724917,-0.33783851673372672,-0.81998770286858602,0.81998770286858602,0.33783851673372672,1.8655522528254518,0.0
749640.0783812654,4105767.5119837918,-22500.0,0.093676402836378,0.57912557429843037,-1.4671366945371302,-0.20459670702960886,0.47538562943841389,-0.1058911255742121,1.0535284132928262,-0.67060303145505862,-0.70201374374722447,0.70201374374722447,0.67060303145505862,1.9935371406638247,0.0
754640.0783812654,4105767.5119837918,-22500.0,0.12028793635956353,0.3906160346874975,-1.718319737310392,-0.13917252498443269,0.56825749262106207,-0.13277040552748393,1.0928354129168079,-0.97207753689068133,-0.54873313244096211,0.54873313244096211,0.97207753689068133,2.112780410112101,0.0
759640.0783812654,4105767.5119837918,-22500.0,0.11296799086120694,0.18452139813328636,-1.8910632423149867,-0.066709826463579147,0.63531069834964427,-0.1532628846359019,1.1232587909980103,-1.2250624293248791,-0.37540622628967879,0.37540622628967879,1.2250624293248791,2.2090357998777956,0.0
764640.0783812654,4105767.5119837918,-22500.0,0.073317958262935343,-0.022322666985583172,-1.9842250615160428,0.0071557135805904049,0.67571845306559741,-0.16700652666007224,1.1408730787936465,-1.4183003040576052,-0.19740444210812791,0.19740444210812791,1.4183003040576052,2.2733666599108195,0.0
769640.0783812654,4105767.5119837918,-22500.0,0.0066579925124238375,-0.21526446298405644,-2.0033196275885077,0.077395096616665215,0.69085779244574463,-0.17420520288010183,1.1581417572555157,-1.5470436647285655,-0.02825563942166831,0.02825563942166831,1.5470436647285655,2.3017450753453685,0.0
729640.0783812654,4110767.5119837918,-22500.0,-0.19397359544407267,0.7454512729275472,0.013018953218651009,-0.25109034996227186,-0.035183255812143363,0.026038506720846177,0.79559479698839053,0.51740049312323766,-0.73601885993433158,0.73601885993433158,-0.51740049312323766,1.3804549436566971,0.0
734640.0783812654,4110767.5119837918,-22500.0,-0.11911844828496791,0.75624775874742456,-0.32784893838053336,-0.25493675060942705,0.077631782686263001,-0.0023357398753383707,0.80666207583861982,0.27616520088613705,-0.77451211304265843,0.77451211304265843,-0.27616520088613705,1.4178762533291058,0.0
739640.0783812654,4110767.5119837918,-22500.0,-0.044150552218491276,0.71830153521129991,-0.66307568416109475,-0.24272118782769178,0.18935287415188293,-0.030811160242498359,0.82977984228500901,0.0082464679693006193,-0.76688222417444418,0.76688222417444418,-0.0082464679693006193,1.491200150093259,0.0
744640.0783812654,4110767.5119837918,-22500.0,0.021378350768027726,0.63434642011264775,-0.97386154203693365,-0.21522135231184752,0.29400453255143422,-0.05792160860126333,0.86149202533495117,-0.2703988090012297,-0.7148739411868521,0.7148739411868521,0.2703988090012297,1.5884996927316826,0.0
749640.0783812654,4110767.5119837918,-22500.0,0.069233142005777751,0.51153793278624882,-1.2436511859326298,-0.17461140693654301,0.38624718001772407,-0.082328060806284117,0.8967293455238492,-0.54275926117786377,-0.62441970984360351,0.62441970984360351,0.54275926117786377,1.6946076187124761,0.0
709640.0783812654,3920767.5119837918,-27500.0,0.079773622705074876,-0.11751642940239632,-1.8837158294486998,-0.091966204245959055,-0.89677261256641927,-0.33224533811733614,1.2104372977021514,-0.42558822713057276,-0.83292493863254313,0.83292493863254313,0.42558822713057276,2.3865168356394308,0.0
714640.0783812654,3920767.5119837918,-27500.0,0.12961208481262665,0.072839221737068388,-1.8358875716117997,-0.0086081330995999399,-0.87911353791339975,-0.32798462198925959,1.1962872351830283,-0.29791870175869339,-0.97931596141064292,0.97931596141064292,0.29791870175869339,2.3468784096421405,0.0
719640.0783812654,3920767.5119837918,-27500.0,0.15052470827810688,0.26911612686730646,-1.7196537697229324,0.077387808244362685,-0.83288462275203978,-0.31433378179251331,1.16934375591884,-0.1477064204565266,-1.1031812007468167,1.1031812007468167,0.1477064204565266,2.2716998226412062,0.0
724640.0783812654,3920767.5119837918,-27500.0,0.13942919664816503,0.45708961345713028,-1.5333289765926859,0.16030164172551242,-0.75731590643095692,-0.29096491251121553,1.1303336852083008,0.016629213072298255,-1.1909930141018941,1.1909930141018941,-0.016629213072298255,2.1651509118634138,0.0
729640.0783812654,3920767.5119837918,-27500.0,0.09701530896540346,0.62161880844054729,-1.2813474371316862,0.23404021646700601,-0.65404928440339394,-0.25831011614243227,1.0821727447828249,0.18414891790003196,-1.2306143026670613,1.2306143026670613,-0.18414891790003196,2.035501998506831,0.0
734640.0783812654,3920767.5119837918,-27500.0,0.028074225225311191,0.74862071162606414,-0.97450715210158012,0.29289153437218751,-0.5272447952061603,-0.21760449848073035,1.0296907813593639,0.34256919282167853,-1.2131949851322321,1.2131949851322321,-0.34256919282167853,1.8952126595225625,0.0
739640.0783812654,3920767.5119837918,-27500.0,-0.058924579884309061,0.82709848617548587,-0.62919179144613779,0.33230371991561575,-0.38329916506518424,-0.17080928198355666,0.97887392507452775,0.47982172713190563,-1.1347721123116243,1.1347721123116243,-0.47982172713190563,1.760177961512241,0.0
744640.0783812654,3920767.5119837918,-27500.0,-0.15299111175751945,0.85078516659466519,-0.26561846405130574,0.34952644261138083,-0.23019127922959665,-0.12041747334987828,0.93573338294756025,0.58569803467627446,-0.99718388968594251,0.99718388968594251,-0.58569803467627446,1.6475409316610499,0.0
749640.0783812654,3920767.5119837918,-27500.0,-0.24228352449483062,0.81902479583188037,0.09458754297013261,0.34397301685300496,-0.076562913774306671,-0.06917335765634991,0.90484768968960894,0.65322929875270219,-0.80804577839508984,0.80804577839508984,-0.65322929875270219,1.5716476182955208,0.0
754640.0783812654,3920767.5119837918,-27500.0,-0.31591644317403877,0.73669658470998733,0.43101060919938128,0.31722663772072535,0.069288778285372776,-0.019758773986771117,0.88803562570062144,0.67950621200502337,-0.57976553176103096,0.57976553176103096,-0.67950621200502337,1.5391126693324173,0.0
759640.0783812654,3920767.5119837918,-27500.0,-0.36550587517740984,0.61323268203039738,0.7267348413258935,0.27270282917272476,0.20031236602375566,0.025493955193565652,0.88387775151811576,0.66578911628416282,-0.32781596840841243,0.32781596840841243,-0.66578911628416282,1.5461058544788679,0.0
764640.0783812654,3920767.5119837918,-27500.0,-0.38614107558333549,0.46099954655688685,0.96989746494433249,0.21506142787883556,0.31133938010769124,0.064812586354601034,0.88843531698446254,0.61694273300056235,-0.068654402260721004,0.068654402260721004,-0.61694273300056235,1.5804435487894077,0.0
699640.0783812654,3925767.5119837918,-27500.0,-0.12606277701527968,-0.55519057972008878,-2.0086110992822768,-0.31025486554676107,-1.013446003139137,-0.39668388014866807,1.3834475309550103,-0.66861919006211801,-0.5497603371437435,0.5497603371437435,0.66861919006211801,2.7207478845916229,0.0
704640.0783812654,3925767.5119837918,-27500.0,-0.013918741306977147,-0.3898709631444322,-2.1057643804177841,-0.23320657460355698,-1.0596693359184319,-0.41479317228434165,1.4074721684376796,-0.59475322969247846,-0.73363871482170206,0.73363871482170206,0.59475322969247846,2.7723279720280587,0.0
709640.0783812654,3925767.5119837918,-27500.0,0.081639092622285206,-0.18880933575833217,-2.1427666484569174,-0.1405717593460265,-1.0791983509201091,-0.42371618195499172,1.4127409274198133,-0.48353023255865435,-0.92386758243504175,0.92386758243504175,0.48353023255865435,2.7819930044315906,0.0
714640.0783812654,3925767.5119837918,-27500.0,0.150021317283628,0.038254382117220667,-2.1051173686694105,-0.036539906503751676,-1.0658450443791367,-0.42128922695841892,1.4004383643022456,-0.33672607188115877,-1.1061575521188041,1.1061575521188041,0.33672607188115877,2.7459305133723118,0.0
719640.0783812654,3925767.5119837918,-27500.0,0.18247517505896232,0.27662664510597623,-1.9824868064956631,0.072671020840588796,-1.015167568841852,-0.40591376997882905,1.3712217551639225,-0.16046165239907917,-1.2633172327139424,1.2633172327139424,0.16046165239907917,2.6639309203671919,0.0
724640.0783812654,3925767.5119837918,-27500.0,0.17393916016186425,0.5077625765681637,-1.7711228849669964,0.17926249511520204,-0.92544976192550976,-0.37688615992917246,1.3261181449829953,0.034715859555278894,-1.3771091499947454,1.3771091499947454,-0.034715859555278894,2.5405768800702293,0.0
729640.0783812654,3925767.5119837918,-27500.0,0.12452828713978607,0.71138383025240493,-1.4756230197219449,0.27470311347201604,-0.79842742409535361,-0.33464872420940334,1.2687362272717451,0.23460170347584319,-1.4308110301057273,1.4308110301057273,-0.23460170347584319,2.3861308337854488,0.0
734640.0783812654,3925767.5119837918,-27500.0,0.040177884901617951,0.86832990692163636,-1.1095030398479386,0.35086714908835903,-0.63953773143925385,-0.28088833238029148,1.2053231705128042,0.42296672905750543,-1.4120333974453991,1.4120333974453991,-0.42296672905750543,2.2167691173230906,0.0
739640.0783812654,3925767.5119837918,-27500.0,-0.067867570803626445,0.96357576387186095,-0.69421219158240932,0.40124586713942395,-0.45755127688011332,-0.21843398000546316,1.1438040171052926,0.58381280207911113,-1.3151538863192491,1.3151538863192491,-0.58381280207911113,2.0535725884082834,0.0
744640.0783812654,3925767.5119837918,-27500.0,-0.18472592437938337,0.98870541094029318,-0.2566297999765414,0.42195724865074286,-0.26359464529966581,-0.15095215683015623,1.0921599143591953,0.70378163783315051,-1.1427236336587223,1.1427236336587223,-0.70378163783315051,1.9193604764366683,0.0
749640.0783812654,3925767.5119837918,-27500.0,-0.29435969794965111,0.94321695693764074,0.17449015729929579,0.41230917897272956,-0.069738641809127255,-0.082492838798769563,1.056302295798474,0.77415348535595241,-0.90542213017764617,0.90542213017764617,-0.77415348535595241,1.8327399438469802,0.0
754640.0783812654,3925767.5119837918,-27500.0,-0.38226311631836313,0.83434240437886598,0.57235158369173322,0.37478526261557465,0.11254983406956853,-0.016980334278726642,1.0381989599061547,0.79196424495706341,-0.62052498048904936,0.62052498048904936,-0.79196424495706341,1.8010531754607417,0.0
759640.0783812654,3925767.5119837918,-27500.0,-0.4376974617691729,0.67548285965784649,0.9153897252915848,0.31448018933780036,0.2737641521909806,0.042244475566482489,1.0353668612600733,0.76002102391777482,-0.30925955801510219,0.30925955801510219,-0.76002102391777482,1.8171821580861081,0.0
764640.0783812654,3925767.5119837918,-27500.0,-0.45499157318737443,0.48372481214514534,1.1893540184446716,0.23815337497529371,0.40726614067958683,0.092744400944022351,1.0421412210528187,0.68590797415877547,0.0063004445784580754,-0.0063004445784580754,-0.68590797415877547,1.8635818166528775,0.0
769640.0783812654,3925767.5119837918,-27500.0,-0.43373619777062383,0.27708458641324291,1.3879434594705375,0.15314530651050789,0.50962988302362833,0.13312603972483858,1.0518609341981768,0.58032550725238052,0.30610211342345134,-0.30610211342345134,-0.58032550725238052,1.9201729284663303,0.0
774640.0783812654,3925767.5119837918,-27500.0,-0.37801745459754443,0.07208647117476169,1.512126621280752,0.066393067948160245,0.58045553773378744,0.1630055023169722,1.0587179964555447,0.45521460066800346,0.57420935904328119,-0.57420935904328119,-0.45521460066800346,1.9703650729780184,0.0
689640.0783812654,3930767.5119837918,-27500.0,-0.47173620999028326,-0.91329309440651985,-1.8253398518432757,-0.52075461114463439,-0.99844227185093937,-0.42035867618140071,1.4628133812955826,-0.77764554466130753,-0.21414874215897095,0.21414874215897095,0.77764554466130753,2.8654767704004858,0.0
694640.0783812654,3930767.5119837918,-27500.0,-0.33544322703931673,-0.83281861878234442,-2.0395130601863465,-0.47850588629849722,-1.104323215352059,-0.46212021173944939,1.5406887320872982,-0.78048629480036491,-0.3762683205703411,0.3762683205703411,0.78048629480036491,3.0216366630433904,0.0
699640.0783812654,3930767.5119837918,-27500.0,-0.19023408889800808,-0.70128276106147491,-2.2264508016322302,-0.41245793891927662,-1.196713232073384,-0.49898390874183968,1.6015459431032519,-0.74697594627756558,-0.57025616148359037,0.57025616148359037,0.74697594627756558,3.1456236703918155,0.0
704640.0783812654,3930767.5119837918,-27500.0,-0.047828979598742688,-0.51695624240070193,-2.3657344941479908,-0.32205049742387926,-1.2663147565228763,-0.52756389897678546,1.6409119307380671,-0.67044733785556287,-0.78953214417315709,0.78953214417315709,0.67044733785556287,3.2271336164167588,0.0
709640.0783812654,3930767.5119837918,-27500.0,0.077646341320318599,-0.28383260829379969,-2.4354986206320857,-0.20923563243405216,-1.3032538520719137,-0.54424906831515718,1.6563491495566913,-0.5472659195238887,-1.0219251847111734,1.0219251847111734,0.5472659195238887,3.2570188043330925,0.0
714640.0783812654,3930767.5119837918,-27500.0,0.17142557641296882,-0.012905130316454103,-2.4152008464871053,-0.078997791700243569,-1.2982854177488266,-0.54562366555657027,1.6481364410802801,-0.37846613699090048,-1.2495429974953534,1.2495429974953534,0.37846613699090048,3.2289183962309704,0.0
719640.0783812654,3930767.5119837918,-27500.0,0.22062048372077217,0.27758500280509285,-2.2891573787553847,0.06055926025103292,-1.2443140392451821,-0.52900165247615583,1.617224869702359,-0.17099624830807014,-1.4498358088104188,1.4498358088104188,0.17099624830807014,3.1411221054814225,0.0
724640.0783812654,3930767.5119837918,-27500.0,0.21705273183085866,0.56339154484914022,-2.050223250972901,0.19874422165461392,-1.1379707210542913,-0.49298700624289588,1.5651297495049399,0.061921072488875684,-1.598059187783947,1.598059187783947,-0.061921072488875684,2.9984163733791163,0.0
729640.0783812654,3930767.5119837918,-27500.0,0.15968013010158691,0.81714035046082023,-1.7027023085027702,0.32348519777053464,-0.98086641054532675,-0.43792987577547543,1.4964119226311587,0.30170399298897088,-1.6709519654438458,1.6709519654438458,-0.30170399298897088,2.8135400315720496,0.0
734640.0783812654,3930767.5119837918,-27500.0,0.055811956175758216,1.0124818774589144,-1.2635219175837582,0.4230668011755202,-0.78012290653404914,-0.3661394860169162,1.4192510223283883,0.52669355611965285,-1.6509698087919871,1.6509698087919871,-0.52669355611965285,2.6076964007467467,0.0
739640.0783812654,3930767.5119837918,-27500.0,-0.079470347348479756,1.1286425843414285,-0.76101824507700144,0.4880446845789369,-0.54790658767836142,-0.28175448675640019,1.3442737421987037,0.71545886144676529,-1.5300442446534355,1.5300442446534355,-0.71545886144676529,2.4091969737787888,0.0
744640.0783812654,3930767.5119837918,-27500.0,-0.22575712710455642,1.154207151766558,-0.23131678956455995,0.51286486415624655,-0.29994793083501703,-0.19025756155678739,1.2822043793196276,0.85037867290179747,-1.3117821856405949,1.3117821856405949,-0.85037867290179747,2.2487926388318962,0.0
749640.0783812654,3930767.5119837918,-27500.0,-0.36106619653283223,1.0890793180772382,0.28695963434260752,0.49675531875499962,-0.053334018789322014,-0.097725236673016511,1.2407145800218118,0.92057439292841847,-1.0113789804851145,1.0113789804851145,-0.92057439292841847,2.1507548838281294,0.0
754640.0783812654,3930767.5119837918,-27500.0,-0.46589902650224679,0.94409573029372074,0.75838126717351839,0.44366115779529802,0.17591160954958535,-0.0099845688557530649,1.2217555240525311,0.92342843871637381,-0.65319038729701129,0.65319038729701129,-0.92342843871637381,2.1226972793791652,0.0
759640.0783812654,3930767.5119837918,-27500.0,-0.52650838786893805,0.73849412733575259,1.1554326885389388,0.36128280307413796,0.37489697628627611,0.068129033967704408,1.2211259897203832,0.86436675770750881,-0.26662070943756289,0.26662070943756289,-0.86436675770750881,2.1521417450543474,0.0
764640.0783812654,3930767.5119837918,-27500.0,-0.53661581033125272,0.49605414332638137,1.4612810480969403,0.2595289526057844,0.53515472276561982,0.13326161869941286,1.2306785746949664,0.7551216832930423,0.11856348046853976,-0.11856348046853976,-0.7551216832930423,2.2139169629415809,0.0
769640.0783812654,3930767.5119837918,-27500.0,-0.49737753232534354,0.24099572538214067,1.6702726754955328,0.14881559469093761,0.65299949706686411,0.18371306753474556,1.2415623573116454,0.61109495257421464,0.4763548683104451,-0.4763548683104451,-0.61109495257421464,2.2816936123169285,0.0
774640.0783812654,3930767.5119837918,-27500.0,-0.41593125428054256,-0.0054135472534217761,1.7864911194486568,0.038604035644680859,0.72905594596345358,0.21931834371313128,1.2466357478240773,0.4485730059474301,0.78726779701478267,-0.78726779701478267,-0.4485730059474301,2.3354324840915655,0.0
779640.0783812654,3930767.5119837918,-27500.0,-0.30316579810019512,-0.22699092925812508,1.8211154681828259,-0.063578272437355324,0.76723998843395524,0.24112731829528092,1.2414331621270676,0.28241553066634706,1.0394643666544976,-1.0394643666544976,-0.28241553066634706,2.3633169613790583,0.0
784640.0783812654,3930767.5119837918,-27500.0,-0.17138689930694748,-0.41341661852325395,1.7894025335047981,-0.15257063313827673,0.77352642684974138,0.2509946874818228,1.2240657501379355,0.12455686748275896,1.2284338687296992,-1.2284338687296992,-0.12455686748275896,2.3606149087688495,0.0
684640.0783812654,3935767.5119837918,-27500.0,-0.75269251111811886,-1.1005945496654943,-1.6693942264373405,-0.67198709611244056,-0.99930813014953845,-0.45626334537851992,1.5485704616472278,-0.78944142791727745,-0.040999809812096555,0.040999809812096555,0.78944142791727745,3.0305815757224526,0.0
689640.0783812654,3935767.5119837918,-27500.0,-0.61908336521837548,-1.0839977848434206,-1.9403723407442777,-0.65901826507977646,-1.1431094008464946,-0.51657026597581568,1.6660517339304894,-0.83690010522188074,-0.17785566134557151,0.17785566134557151,0.83690010522188074,3.2618904090898408,0.0
694640.0783812654,3935767.5119837918,-27500.0,-0.4588866781518422,-1.0136388628303741,-2.2082597483006929,-0.61901395198690601,-1.2841846626672893,-0.57586593933990338,1.771507751404819,-0.85342911601080018,-0.35803263145943831,0.35803263145943831,0.85342911601080018,3.4711189422569517,0.0
699640.0783812654,3935767.5119837918,-27500.0,-0.28143676057082223,-0.87991739280596282,-2.4523446105399396,-0.54769746936930008,-1.4123428504009019,-0.63020276253706142,1.8581253155665765,-0.82800102620916194,-0.58137465509273256,0.58137465509273256,0.82800102620916194,3.6447439080541404,0.0
704640.0783812654,3935767.5119837918,-27500.0,-0.1010805925121544,-0.67775223817449159,-2.6466549306405636,-0.44296016624074169,-1.5150090997636771,-0.6747116598580557,1.9193185456834283,-0.75079556635084821,-0.84176270437185818,0.84176270437185818,0.75079556635084821,3.768451130179781,0.0
709640.0783812654,3935767.5119837918,-27500.0,0.063642803500874465,-0.40933849888042179,-2.7619232917927863,-0.30607763894970008,-1.5781633100352968,-0.70394650663393799,1.9503666764850121,-0.61544664474232669,-1.1254133187963502,1.1254133187963502,0.61544664474232669,3.8287942828906751,0.0
714640.0783812654,3935767.5119837918,-27500.0,0.19220510746954467,-0.086471058207769624,-2.7691958007579531,-0.14271773548250979,-1.5880083603307544,-0.71250085685506859,1.9498445727963676,-0.42152974554890515,-1.4101556740918177,1.4101556740918177,0.42152974554890515,3.8154999150744358,0.0
719640.0783812654,3935767.5119837918,-27500.0,0.26563829918726828,0.26847108892099175,-2.6448692695430904,0.036648578583382517,-1.5332639588095764,-0.69586193395641482,1.9185256232763579,-0.17666183565742855,-1.6664242353216647,1.6664242353216647,0.17666183565742855,3.7242499827375211,0.0
724640.0783812654,3935767.5119837918,-27500.0,0.27085890420388431,0.62375157455682195,-2.3763145515254585,0.21730380069098737,-1.4077119857212141,-0.6513684502522562,1.8585643462214028,0.10259669839566798,-1.8604585031804532,1.8604585031804532,-0.10259669839566798,3.5595722826010281,0.0
729640.0783812654,3935767.5119837918,-27500.0,0.20464723114823447,0.9421401565014309,-1.9666562705138986,0.38198710341292902,-1.212367784674971,-0.57904548707515235,1.7758660904338546,0.3917599573926176,-1.9595945060008835,1.9595945060008835,-0.3917599573926176,3.337249171184729,0.0
734640.0783812654,3935767.5119837918,-27500.0,0.075899706770890071,1.1870032563760862,-1.4370611354845808,0.51357099930661565,-0.95655843414064234,-0.48205148805296333,1.6812986070847789,0.66161909991074652,-1.938695417919831,1.938695417919831,-0.66161909991074652,3.0853540406331139,0.0
739640.0783812654,3935767.5119837918,-27500.0,-0.094940109209541559,1.3292654792083152,-0.82531190892860895,0.59813868942234238,-0.65736800533579076,-0.3665316784078369,1.5893144339804901,0.88315273636793545,-1.7860461624789341,1.7860461624789341,-0.88315273636793545,2.8424267843542452,0.0
744640.0783812654,3935767.5119837918,-27500.0,-0.27950263307145051,1.3532897497486465,-0.18050948206712356,0.62763255990314781,-0.33736142249102907,-0.24083146141708628,1.5145070097225108,1.0329370192140157,-1.5068520513535821,1.5068520513535821,-1.0329370192140157,2.6504438197327067,0.0
749640.0783812654,3935767.5119837918,-27500.0,-0.44727721919668201,1.2598667571550837,0.44493076417717242,0.60129183348324988,-0.021066195967265836,-0.11422898183019442,1.4668627287913756,1.0975066449416091,-1.1230678973780908,1.1230678973780908,-1.0975066449416091,2.5411783912220591,0.0
754640.0783812654,3935767.5119837918,-27500.0,-0.57183734184261603,1.0654247515934578,1.0038507196606909,0.52547057471390124,0.26887964689592875,0.0044919766188227118,1.4479413713770513,1.0753998030245913,-0.66947477139588107,0.66947477139588107,-1.0753998030245913,2.5214023074526022,0.0
759640.0783812654,3935767.5119837918,-27500.0,-0.6356616363193559,0.79786611534953111,1.4612119461663446,0.41196744984511879,0.51491996999096745,0.108265647736304,1.4507719179744751,0.97642547673691538,-0.18718340785367893,0.18718340785367893,-0.97642547673691538,2.5699679833439988,0.0
764640.0783812654,3935767.5119837918,-27500.0,-0.63234154535400222,0.49049716499718243,1.7977062597817404,0.27545629768666047,0.70640761110293615,0.19249429048894159,1.4636488758902317,0.81863507770304866,0.28350942176103272,-0.28350942176103272,-0.81863507770304866,2.6509473854336179,0.0
769640.0783812654,3935767.5119837918,-27500.0,-0.56599112841938248,0.17589390624397752,2.0097743153883814,0.13079167661933738,0.83986172299443018,0.25522989768622728,1.4749027090935969,0.62412706659849237,0.70903977428972276,-0.70903977428972276,-0.62412706659849237,2.7301899901828226,0.0
774640.0783812654,3935767.5119837918,-27500.0,-0.44857790481393417,-0.11880520392740761,2.1067856779491181,-0.0091557427932403169,0.91792713639394163,0.29686704306340655,1.4759451271016961,0.41493721120721166,1.0661069150243616,-1.0661069150243616,-0.41493721120721166,2.7840715747213016,0.0
779640.0783812654,3935767.5119837918,-27500.0,-0.2963284890361933,-0.37446003523378391,2.1067108441210318,-0.13478569847916227,0.94758044881771442,0.31953297221225585,1.4621171220733546,0.20993516627155095,1.3425861931212415,-1.3425861931212415,-0.20993516627155095,2.8005057917180314,0.0
784640.0783812654,3935767.5119837918,-27500.0,-0.12629220256297466,-0.58040268841541742,2.0316177552586199,-0.24015606846074355,0.93815911417281039,0.32638207366974614,1.4321735592114249,0.023116892614312379,1.536345726489184,-1.536345726489184,-0.023116892614312379,2.7764569657078741,0.0
789640.0783812654,3935767.5119837918,-27500.0,0.046243732289321771,-0.73338881423440561,1.9039249294948877,-0.32267784306500175,0.89964163465326796,0.32095610457211271,1.3872713706293009,-0.13679630461165049,1.6528390716410217,-1.6528390716410217,0.13679630461165049,2.7147972210571027,0.0
794640.0783812654,3935767.5119837918,-27500.0,0.20924574655696213,-0.83575028305487498,1.7438403499911483,-0.3824101820976693,0.84140041553843081,0.30670033093580018,1.3299686272490683,-0.26581881588535883,1.7023307112452661,-1.7023307112452661,0.26581881588535883,2.6216286808847764,0.0
674640.0783812654,3940767.5119837918,-27500.0,-1.1227702262703767,-1.1194308957526351,-1.1438265442365514,-0.76068156726446201,-0.78707137797815085,-0.4026231572466531,1.4337047974469903,-0.63669139913975137,0.16489303105992384,-0.16489303105992384,0.63669139913975137,2.8085492355910717,0.0
679640.0783812654,3940767.5119837918,-27500.0,-1.0597129586200522,-1.2069374673432329,-1.4102793341095234,-0.80476806376080545,-0.94361846540356642,-0.473780879552611,1.5873346742765877,-0.73226622858896251,0.10860398788774422,-0.10860398788774422,0.73226622858896251,3.1073972637041742,0.0
684640.0783812654,3940767.5119837918,-27500.0,-0.9559733112161436,-1.2639456429572982,-1.7093064222151113,-0.83114315303763342,-1.1164881605020993,-0.55186504142465309,1.7434121455139044,-0.81903638721668548,0.013972518106378951,-0.013972518106378951,0.81903638721668548,3.4117374510803145,0.0
689640.0783812654,3940767.5119837918,-27500.0,-0.80993444228067057,-1.275107502355376,-2.0319924236083819,-0.83209677076927402,-1.3005252865720709,-0.63470253745331962,1.8960424336341835,-0.88622620785709527,-0.12806022757422331,0.12806022757422331,0.88622620785709527,3.7104212802021097,0.0
694640.0783812654,3940767.5119837918,-27500.0,-0.62474834057598905,-1.2239896936772101,-2.3623783977283432,-0.79955230843430125,-1.4870142612747999,-0.71866286293410542,2.0376048689546686,-0.92055432627965328,-0.32470449339663043,0.32470449339663043,0.92055432627965328,3.9888504219050813,0.0
699640.0783812654,3940767.5119837918,-27500.0,-0.40999884884456689,-1.0954360158642458,-2.6762736732556434,-0.72623155627456148,-1.6631637641917376,-0.79844795452218542,2.1590908299759604,-0.90728758562595735,-0.57882897771710462,0.57882897771710462,0.90728758562595735,4.2293119999362565,0.0
704640.0783812654,3940767.5119837918,-27500.0,-0.18268587875891543,-0.8790350791097119,-2.9412377009530912,-0.60731634221378017,-1.8121755951750116,-0.8671124799906742,2.2510787492128652,-0.8322982724323863,-0.88593193222527933,0.88593193222527933,0.8322982724323863,4.4120936382785638,0.0
709640.0783812654,3940767.5119837918,-27500.0,0.033220840245431295,-0.57332934110618139,-3.1185266759969323,-0.44242602975755663,-1.9142620959873327,-0.91645866182384672,2.3056110131937007,-0.68514564514600551,-1.2311834708544116,1.2311834708544116,0.68514564514600551,4.5176092839974133,0.0
714640.0783812654,3940767.5119837918,-27500.0,0.20934468492133934,-0.18984473132299662,-3.1676124872819105,-0.23748090498065416,-1.9488806896831037,-0.93791393151014435,2.3184188940083215,-0.46280387555328617,-1.5875768165668476,1.5875768165668476,0.46280387555328617,4.5296270594083827,0.0
719640.0783812654,3940767.5119837918,-27500.0,0.31780583700047205,0.24450497403667895,-3.0532559553212777,-0.0057921863266936257,-1.8981599789787027,-0.92388701568514675,2.2891899557186086,-0.17313981968906766,-1.9164766333637284,1.9164766333637284,0.17313981968906766,4.4394276688799916,0.0
724640.0783812654,3940767.5119837918,-27500.0,0.33780496531819421,0.68823757200633151,-2.7540710981027829,0.2323411078032277,-1.7510122744785344,-0.86941258097520502,2.2206867746140442,0.16317731222520493,-2.1716225237163869,2.1716225237163869,-0.16317731222520493,4.2503643084705764,0.0
729640.0783812654,3940767.5119837918,-27500.0,0.26217366414111892,1.0903752622352854,-2.2703772226686589,0.45198931455935015,-1.5069101779384042,-0.77369161084990268,2.1207196132075619,0.51365231052469429,-2.3067291916044779,2.3067291916044779,-0.51365231052469429,3.9818867203191259,0.0
734640.0783812654,3940767.5119837918,-27500.0,0.10151092874993768,1.3994257393040355,-1.6285175056691923,0.6277514045237137,-1.1780244320360158,-0.64101819932408233,2.0039790847133014,0.83846876192991482,-2.2853539158643987,2.2853539158643987,-0.83846876192991482,3.67156216746092,0.0
739640.0783812654,3940767.5119837918,-27500.0,-0.11616395871424072,1.5741812613965958,-0.87934617662700043,0.73878779481721679,-0.78865163008181816,-0.48066097553475451,1.8904344846286563,1.097888115694023,-2.0902858051222162,2.0902858051222162,-1.097888115694023,3.3726256626982698,0.0
744640.0783812654,3940767.5119837918,-27500.0,-0.35084987606339191,1.5930194476357362,-0.090375948947670925,0.77324228727538891,-0.37166057065171759,-0.30556566743021196,1.8002081695614183,1.2605578909132031,-1.7292088719583933,1.7292088719583933,-1.2605578909132031,3.1431418192726701,0.0
749640.0783812654,3940767.5119837918,-27500.0,-0.55964703344043443,1.4585274962258443,0.66653074267204759,0.73060418491337287,0.037230169029792315,-0.13016243865847024,1.7462905851488437,1.310080722478939,-1.2343587784660532,1.2343587784660532,-1.310080722478939,3.024691313790568,0.0
754640.0783812654,3940767.5119837918,-27500.0,-0.70647570846590035,1.1959172779866896,1.3282630663564434,0.62126302128110245,0.40569872487988495,0.03210429817847061,1.7290667413109726,1.2477103418792712,-0.6560523234942639,0.6560523234942639,-1.2477103418792712,3.0207907786629695,0.0
759640.0783812654,3940767.5119837918,-27500.0,-0.76924263141412119,0.84606379867369919,1.8504927889332656,0.463548669999296,0.70980369161491774,0.17082657196348752,1.7371089362120791,1.0905368541166505,-0.05225728055819534,0.05225728055819534,-1.0905368541166505,3.0963815970643851,0.0
764640.0783812654,3940767.5119837918,-27500.0,-0.74252793470381384,0.45584709946240154,2.2122122920356277,0.27939670842002295,0.93651727757822634,0.27977437908196656,1.7536553163573068,0.86620735120241021,0.52239117432936899,-0.52239117432936899,-0.86620735120241021,3.2005820076593312,0.0
769640.0783812654,3940767.5119837918,-27500.0,-0.63577474112689814,0.068963131072216452,2.4145646759745012,0.090050445290344588,1.0835976810242811,0.35700412495534106,1.7635242191038267,0.60625286691954305,1.0250328111159956,-1.0250328111159956,-0.60625286691954305,3.2898350597229906,0.0
774640.0783812654,3940767.5119837918,-27500.0,-0.46848981615060525,-0.28048273702300403,2.4755797132095618,-0.087111451838666309,1.1574430675034033,0.40414542477577842,1.756749503252339,0.34009765177604867,1.4288401805666617,-1.4288401805666617,-0.34009765177604867,3.3373251430328961,0.0
779640.0783812654,3940767.5119837918,-27500.0,-0.26451701425689056,-0.57076468153903048,2.423197648305166,-0.24016146041716102,1.1699741610969134,0.4252523648913708,1.7289966917421566,0.091063766084058084,1.7231352607994466,-1.7231352607994466,-0.091063766084058084,3.3320499379252979,0.0
784640.0783812654,3940767.5119837918,-27500.0,-0.047084444423306858,-0.79217804788031942,2.2886778967285317,-0.3627525528040153,1.1355230969735493,0.42559912178989889,1.6803317048081201,-0.12530219192812864,1.910566976515343,-1.910566976515343,0.12530219192812864,3.2742607606111807,0.0
789640.0783812654,3940767.5119837918,-27500.0,0.16448020350941009,-0.9446897866566174,2.1016491471820489,-0.45325809454230859,1.0683620855330955,0.41068099802585428,1.6135982866023484,-0.30099636869820534,2.0029246862025154,-2.0029246862025154,0.30099636869820534,3.1708269476216668,0.0
794640.0783812654,3940767.5119837918,-27500.0,0.35625043342430213,-1.0348172525459352,1.887167026602474,-0.51345727277648501,0.98110903536761296,0.38553347158184886,1.5330214247320095,-0.43416338393614784,2.0169146897022729,-2.0169146897022729,0.43416338393614784,3.0316519245815794,0.0
799640.0783812654,3940767.5119837918,-27500.0,0.51979029304145163,-1.0726411335608521,1.6645344310006693,-0.54718975801296132,0.883954762932463,0.35436608344045717,1.443271931719381,-0.52726035324399434,1.9707076580624177,-1.9707076580624177,0.52726035324399434,2.8672683291780214,0.0
669640.0783812654,3945767.5119837918,-27500.0,-1.3571328210419502,-1.0693250644940593,-0.83406282494528194,-0.82020530438888339,-0.67337545453710035,-0.38926655420172274,1.395845715201095,-0.49991247528933946,0.22235434445863425,-0.22235434445863425,0.49991247528933946,2.7409829514087436,0.0
674640.0783812654,3945767.5119837918,-27500.0,-1.3524086928613721,-1.2078298079709811,-1.0784135316696661,-0.90017113709660812,-0.8337260629196489,-0.46920662882109554,1.5723332413968452,-0.60836269570357304,0.20863392195773933,-0.20863392195773933,0.60836269570357304,3.083164989034719,0.0
679640.0783812654,3945767.5119837918,-27500.0,-1.3054532191351595,-1.3336749611181042,-1.3699302134367861,-0.97060093711135831,-1.0206880056788852,-0.56138813026700252,1.7607346249877835,-0.72038913273147931,0.16453271729804581,-0.16453271729804581,0.72038913273147931,3.4486870657797049,0.0
684640.0783812654,3945767.5119837918,-27500.0,-1.2079973222546752,-1.431541478090969,-1.707737566954753,-1.0229553053416918,-1.2330238771496689,-0.66518821760748326,1.9566843373651599,-0.8275234259442823,0.078021656547277163,-0.078021656547277163,0.8275234259442823,3.8293517619266808,0.0
689640.0783812654,3945767.5119837918,-27500.0,-1.054693923306425,-1.481978506148427,-2.084805785496727,-1.0466887183419449,-1.4660179585297921,-0.77844333521795306,2.1534933286886684,-0.91743430813857163,-0.063898404862086811,0.063898404862086811,0.91743430813857163,4.2124924338611738,0.0
694640.0783812654,3945767.5119837918,-27500.0,-0.84570408511444739,-1.4625319166466346,-2.4852861075020565,-1.0299112451630361,-1.7101268946222805,-0.89686535664547762,2.3418927076350706,-0.9738694442533079,-0.27319952953615989,0.27319952953615989,0.9738694442533079,4.5803619846359238,0.0
699640.0783812654,3945767.5119837918,-27500.0,-0.58953099671419495,-1.350431481811402,-2.8820968910607117,-0.96082753845015789,-1.9498088159123881,-1.0135333290571187,2.5101975811778732,-0.97758224399180604,-0.5575769197297884,0.5575769197297884,0.97758224399180604,4.9101334568893256,0.0
704640.0783812654,3945767.5119837918,-27500.0,-0.30530815692281388,-1.127153165364349,-3.2357530038325244,-0.83008590468832599,-2.1630363069629288,-1.1186741008782697,2.6452511356964816,-0.90871812698169963,-0.91603588014691428,0.91603588014691428,0.90871812698169963,5.174966272182739,0.0
709640.0783812654,3945767.5119837918,-27500.0,-0.023324094186601065,-0.78463339385076081,-3.4957776986239413,-0.6339024473909437,-2.3221554260500321,-1.2000114102895485,2.7345488648235281,-0.75091168227370053,-1.3340062305717377,1.3340062305717377,0.75091168227370053,5.3466062186786161,0.0
714640.0783812654,3945767.5119837918,-27500.0,0.21757192482176962,-0.33198986887585896,-3.6059986377388964,-0.37738320527830144,-2.3967157731945221,-1.2439500313178378,2.7693416850238965,-0.4967732045246096,-1.7794805800707334,1.7794805800707334,0.4967732045246096,5.3998288407645303,0.0
719640.0783812654,3945767.5119837918,-27500.0,0.37652003733482242,0.19946925074610419,-3.5142485226758935,-0.076964550240835983,-2.358498107204579,-1.2376993224122321,2.7466900032590722,-0.15355147999141061,-2.2023494571278537,2.2023494571278537,0.15355147999141061,5.3186374883149616,0.0
724640.0783812654,3945767.5119837918,-27500.0,0.42059844304158783,0.75579994665336803,-3.1853156836624903,0.23939519878544019,-2.1881440773939058,-1.1721020813523324,2.6695090540587811,0.25313263912133444,-2.5390716470066836,2.5390716470066836,-0.25313263912133444,5.103501219852701,0.0
729640.0783812654,3945767.5119837918,-27500.0,0.3356341284147627,1.2668107864787517,-2.6138335061846534,0.53535379573233233,-1.8817494988083399,-1.0444992878687287,2.5482355583737268,0.67986600911690465,-2.7235126292639515,2.7235126292639515,-0.67986600911690465,4.7781431567464194,0.0
734640.0783812654,3945767.5119837918,-27500.0,0.13377290550750248,1.6593413484280912,-1.83228114413448,0.77268761924990848,-1.4550519952829026,-0.860644853104508,2.4031159398466602,1.0717746889667041,-2.7022206456772051,2.7022206456772051,-1.0717746889667041,4.3934115073559337,0.0
739640.0783812654,3945767.5119837918,-27500.0,-0.14614231968158811,1.8742491179599863,-0.90975251342970331,0.91966798297962038,-0.94306526925712686,-0.63475061049444348,2.2622350875661166,1.3738355226560515,-2.4496181712449294,2.4496181712449294,-1.3738355226560515,4.024008634402314,0.0
744640.0783812654,3945767.5119837918,-27500.0,-0.44685333657617299,1.8813841105181197,0.059830145053481033,0.95860441837365629,-0.39444241967359656,-0.38730718168945788,2.1537169206853624,1.5438553566115085,-1.9773336476625643,1.9773336476625643,-1.5438553566115085,3.7513255145432289,0.0
749640.0783812654,3945767.5119837918,-27500.0,-0.7072413064754518,1.686841978849094,0.97697740903397567,0.8897999260153574,0.13803359244916849,-0.14119315484460965,2.0943327922077328,1.5624885637907078,-1.3334956429339482,1.3334956429339482,-1.5624885637907078,3.6293736964588525,0.0
754640.0783812654,3945767.5119837918,-27500.0,-0.87776733562153064,1.3298043861593019,1.7569449125925565,0.7305186960088812,0.60777361291359711,0.082701958569816117,2.0817205529630813,1.4366341712694333,-0.59183124693497446,0.59183124693497446,-1.4366341712694333,3.653481598174201,0.0
759640.0783812654,3945767.5119837918,-27500.0,-0.93117036617158089,0.87070053073552733,2.3444258593341538,0.50962922879671835,0.98223273161644542,0.26896696106094597,2.0973068707486866,1.1954066965601506,0.16534499604179775,-0.16534499604179775,-1.1954066965601506,3.7665053365115728,0.0
764640.0783812654,3945767.5119837918,-27500.0,-0.8653648800893563,0.37568770646858812,2.7188414545369834,0.26018279607246114,1.2462813380069646,0.40937251470125641,2.1172611981927068,0.88092762406553049,0.86411890629353316,-0.86411890629353316,-0.88092762406553049,3.8972720164679266,0.0
769640.0783812654,3945767.5119837918,-27500.0,-0.69909312664775025,-0.097067741197981769,2.8905535460384382,0.01253533707407403,1.4010330794398562,0.50267206069456971,2.1222660894661738,0.53775545910511668,1.4508219965040063,-1.4508219965040063,-0.53775545910511668,3.9916549583307157,0.0
774640.0783812654,3945767.5119837918,-27500.0,-0.46344161087973479,-0.5058005012843384,2.8913563249642817,-0.2101986910397062,1.4595918953797808,0.55303317370898952,2.1014390057078609,0.2043535564091149,1.8965876712577767,-1.8965876712577767,-0.2043535564091149,4.0210820785567316,0.0
779640.0783812654,3945767.5119837918,-27500.0,-0.19286156905828317,-0.82755194757199968,2.7634382690613108,-0.3938570360794999,1.4417072670990638,0.56789475016142399,2.0517419290576893,-0.091679025686713045,2.1954757743459865,-2.1954757743459865,0.091679025686713045,3.9780512102232093,0.0
784640.0783812654,3945767.5119837918,-27500.0,0.081732798917652102,-1.055988901374054,2.5500189963707331,-0.53263488735797793,1.3689645365747192,0.55593892205872697,1.9755955192125032,-0.33465000563175074,2.3587148574802388,-2.3587148574802388,0.33465000563175074,3.8685218013642904,0.0
789640.0783812654,3945767.5119837918,-27500.0,0.33681091610303587,-1.1968498973563828,2.2891595973397583,-0.62716869937740416,1.2613688095247142,0.52557330702363558,1.8784073207426051,-0.51920241167582759,2.4077777381650485,-2.4077777381650485,0.51920241167582759,3.705305816277447,0.0
794640.0783812654,3945767.5119837918,-27500.0,0.55730230017195048,-1.2629727034896874,2.0107975524760731,-0.68223362527242315,1.1354765233801676,0.48403042657804363,1.7667219507943803,-0.64750413047684807,2.3682377031995081,-2.3682377031995081,0.64750413047684807,3.5034364057888223,0.0
799640.0783812654,3945767.5119837918,-27500.0,0.73579618538835745,-1.2701009039340372,1.736221755965635,-0.70467508279415203,1.0037798919322523,0.43699435780018742,1.6471852198432577,-0.72629017403192331,2.2653073616973169,-2.2653073616973169,0.72629017403192331,3.2773396060046807,0.0
804640.0783812654,3945767.5119837918,-27500.0,0.8708189340119783,-1.2339460569186889,1.47902681652193,-0.70186482713048826,0.87491686638698807,0.3885948166870925,1.5259479962236817,-0.76439358718256034,2.1211913941170559,-2.1211913941170559,0.76439358718256034,3.039391275745845,0.0
664640.0783812654,3950767.5119837918,-27500.0,-1.5228573729417676,-0.9292942286840461,-0.51996407620544549,-0.83317819559343753,-0.53173617535494944,-0.35876171422860043,1.3148061037524494,-0.32931703993175659,0.22169186089440635,-0.22169186089440635,0.32931703993175659,2.5913319011981018,0.0
669640.0783812654,3950767.5119837918,-27500.0,-1.5856274871297864,-1.0975888886412148,-0.71818332061355594,-0.94351227709912477,-0.68131712982279125,-0.44199124916214505,1.5035658027459708,-0.43344816769024858,0.24296003052440068,-0.24296003052440068,0.43344816769024858,2.9573048700227735,0.0
674640.0783812654,3950767.5119837918,-27500.0,-1.613948426678852,-1.2726073687415345,-0.9686229991481925,-1.0551608333228564,-0.86415901695976527,-0.54202036135748954,1.7132448283188824,-0.55107214737292287,0.24613303556156721,-0.24613303556156721,0.55107214737292287,3.3634396627330361,0.0
679640.0783812654,3950767.5119837918,-27500.0,-1.5948693814243375,-1.4429800178033934,-1.2779001511656127,-1.1608545438394593,-1.0834646613175358,-0.66030392936799209,1.9420159355403581,-0.67773473567895315,0.21945539381155335,-0.21945539381155335,0.67773473567895315,3.8063978264644072,0.0
684640.0783812654,3950767.5119837918,-27500.0,-1.5152633731863714,-1.5915440045924991,-1.6491955490429793,-1.2501184105537708,-1.3401167558789566,-0.79715901649069931,2.1857494849625732,-0.80503052897607674,0.14786122980444183,-0.14786122980444183,0.80503052897607674,4.2784287780517527,0.0
689640.0783812654,3950767.5119837918,-27500.0,-1.3642070429662749,-1.6946930184188032,-2.0791785069443547,-1.3090295059236128,-1.6309163059715726,-0.95093772967607204,2.4372549377528494,-0.91947508996928318,0.013657073434788058,-0.013657073434788058,0.91947508996928318,4.7658937775584818,0.0
694640.0783812654,3950767.5119837918,-27500.0,-1.1365371231237655,-1.7229317702647859,-2.5540753694589258,-1.3206576236253813,-1.9464037389214488,-1.1170094724400383,2.6856448791437182,-1.0018474694027222,-0.20143697349856304,0.20143697349856304,1.0018474694027222,5.2479358872621908,0.0
699640.0783812654,3950767.5119837918,-27500.0,-0.83731981079327866,-1.6435373985713808,-3.0454524594039345,-1.2666484213979012,-2.2686042707094209,-1.2867089878155968,2.9161363058166958,-1.0276861736417775,-0.51232503089646741,0.51232503089646741,1.0276861736417775,5.6957901765787211,0.0
704640.0783812654,3950767.5119837918,-27500.0,-0.48627936862748511,-1.426173362151933,-3.5070088388884852,-1.1303589292643672,-2.5694197957307296,-1.4465785225695962,3.1107898032794425,-0.96979016178143829,-0.92440809207180286,0.92440809207180286,0.96979016178143829,6.0734649588766656,0.0
709640.0783812654,3950767.5119837918,-27500.0,-0.12035605847082834,-1.0516838147920979,-3.874472733107051,-0.90161837279619239,-2.8107912402664006,-1.5784141586985672,3.2508101135406973,-0.80342901662939914,-1.4258868143027903,1.4258868143027903,0.80342901662939914,6.3406711791592709,0.0
714640.0783812654,3950767.5119837918,-27500.0,0.20807802378917942,-0.52288932218272544,-4.0710903672624728,-0.58245823348916737,-2.9479286042443213,-1.6607075046999225,3.3206239246736629,-0.51422328232831804,-1.9804818606850141,1.9804818606850141,0.51422328232831804,6.4587657633252391,0.0
719640.0783812654,3950767.5119837918,-27500.0,0.43947404805563683,0.12582349529168443,-4.020434826833216,-0.19213245820295158,-2.9364701160037603,-1.6718859884329171,3.3121997282099747,-0.107199465884386,-2.5240834864568713,2.5240834864568713,0.107199465884386,6.3999191040285295,0.0
724640.0783812654,3950767.5119837918,-27500.0,0.52192216916202161,0.82504774750278365,-3.6657363143505939,0.23109910467494155,-2.7430938279830737,-1.5951655788767665,3.2273573432549116,0.38625195944396351,-2.9694476516797006,2.9694476516797006,-0.38625195944396351,6.1586464934996314,0.0
729640.0783812654,3950767.5119837918,-27500.0,0.4290010350814602,1.4777725075669199,-2.9909794683368194,0.63383128945918854,-2.3570556374770213,-1.4239161375874125,3.0799410006416661,0.90778120992467426,-3.2214109070593535,3.2214109070593535,-0.90778120992467426,5.7633690654769696,0.0
734640.0783812654,3950767.5119837918,-27500.0,0.17362484827358504,1.9789832867830233,-2.0355523704736256,0.9577025025034489,-1.7983458566263775,-1.1656234222444486,2.8984164768426992,1.3809292094488801,-3.2006999584988098,3.2006999584988098,-1.3809292094488801,5.2837735949396682,0.0
739640.0783812654,3950767.5119837918,-27500.0,-0.18972087964244072,2.2427430344607857,-0.89419928093021583,1.1535816173587063,-1.1181180467021816,-0.84246161291677879,2.7230663558298369,1.7286760937428509,-2.8688915642528574,2.8688915642528574,-1.7286760937428509,4.826491793549244,0.0
744640.0783812654,3950767.5119837918,-27500.0,-0.57777017694088029,2.2267378896713304,0.30089579835220981,1.1947246572120782,-0.38959988478549307,-0.48756246903146827,2.5937252619721538,1.8940760246028314,-2.2440649032622413,2.2440649032622413,-1.8940760246028314,4.5070477034611915,0.0
749640.0783812654,3950767.5119837918,-27500.0,-0.90230548858445214,1.9437976870525677,1.4107884780319562,1.0835204195614665,0.30806992004477796,-0.13792287781782295,2.5316055022601094,1.8556989294216879,-1.3993160063059329,1.3993160063059329,-1.8556989294216879,4.394134128493433,0.0
754640.0783812654,3950767.5119837918,-27500.0,-1.095119685064226,1.455579890718377,2.3216900295130922,0.84914468292962897,0.90722958798429687,0.17353952045729085,2.5285153035778025,1.6314992742194057,-0.44398307135529436,0.44398307135529436,-1.6314992742194057,4.4651755638325321,0.0
759640.0783812654,3950767.5119837918,-27500.0,-1.1239644022801201,0.85210311784445392,2.966402112262434,0.5376556895489969,1.3641216605301267,0.42399822275687837,2.5545145881877018,1.2703200045583309,0.50450870946839999,-0.50450870946839999,-1.2703200045583309,4.6285522391568685,0.0
764640.0783812654,3950767.5119837918,-27500.0,-0.99471746710803799,0.22662780418794998,3.3294768188234918,0.19912018908775694,1.6629916772820084,0.60314324224799876,2.5761800435772435,0.83583876867577389,1.3469618237176926,-1.3469618237176926,-0.83583876867577389,4.7866487138709752,0.0
769640.0783812654,3950767.5119837918,-27500.0,-0.74193470929750038,-0.34458966184070411,3.4380352284107212,-0.12336102400840329,1.8124161280747091,0.71207064150138033,2.5698286286107761,0.39000833283096337,2.0184804449741724,-2.0184804449741724,-0.39000833283096337,4.8749377617033911,0.0
774640.0783812654,3950767.5119837918,-27500.0,-0.41410512898645463,-0.81260548847354874,3.3450576074753013,-0.3998827710952757,1.8371043819456023,0.75994027656837271,2.5248768556712138,-0.01859965647615236,2.4919782094455476,-2.4919782094455476,0.01859965647615236,4.8663968823012071,0.0
779640.0783812654,3950767.5119837918,-27500.0,-0.0599112744182222,-1.1563614191017291,3.1123690087542992,-0.61497612038497484,1.7689035139889817,0.76002881896755514,2.4412764069310917,-0.35965429348358424,2.7720256303121902,-2.7720256303121902,0.35965429348358424,4.7610655494559344,0.0
784640.0783812654,3950767.5119837918,-27500.0,0.28087517597628436,-1.3769448833826774,2.7979213403560141,-0.76535104325663927,1.63959421292616,0.7263878037311372,2.3253612912703554,-0.62024125827432153,2.88410874099127,-2.88410874099127,0.62024125827432153,4.5741286478717234,0.0
789640.0783812654,3950767.5119837918,-27500.0,0.58122321500902374,-1.4895334773546887,2.4487548310942384,-0.85609331259211219,1.4764693505479363,0.6716437869929951,2.1862809688017286,-0.80080721268128774,2.8637529135980344,-2.8637529135980344,0.80080721268128774,4.3268567562827158,0.0
794640.0783812654,3950767.5119837918,-27500.0,0.82663763372714627,-1.5159242349857383,2.0987937742252898,-0.8968480939401291,1.3004811974059216,0.6059307289052922,2.0336832863003065,-0.91019649207486142,2.7480729070173568,-2.7480729070173568,0.91019649207486142,4.0408797101305884,0.0
799640.0783812654,3950767.5119837918,-27500.0,1.0127238240951089,-1.4790361006645996,1.7697660972721851,-0.89881608286012826,1.1261906382053481,0.53666601790638779,1.8764203282675018,-0.96127534117809599,2.5705002169882656,-2.5705002169882656,0.96127534117809599,3.7351452978895945,0.0
804640.0783812654,3950767.5119837918,-27500.0,1.1420439915919158,-1.3995991438803248,1.4736047675809703,-0.87278803643618874,0.96269255619858962,0.46882213306490456,1.7206466814503887,-0.96776920026461744,2.3582930585969186,-2.3582930585969186,0.96776920026461744,3.4247065880699314,0.0
809640.0783812654,3950767.5119837918,-27500.0,1.221210040125231,-1.2946284081655282,1.2151853453777415,-0.82809555083841158,0.81489186577509909,0.40541268291461779,1.5692233778045608,-0.94234582829037761,2.1319998280171615,-2.1319998280171615,0.94234582829037761,3.1206101684266216,0.0
664640.0783812654,3955767.5119837918,-27500.0,-1.7209861217155797,-0.89221882899450278,-0.3770782019425028,-0.92830088245220499,-0.5051119968435297,-0.39507953448532668,1.3894653998935602,-0.23339833800571191,0.21033592985191757,-0.21033592985191757,0.23339833800571191,2.7424488511216962,0.0
669640.0783812654,3955767.5119837918,-27500.0,-1.8283142204337095,-1.0867138763163251,-0.56339810910347732,-1.0707838946956509,-0.66656789881126077,-0.49530054210498575,1.6059034893663007,-0.33673322397724048,0.24713298672168502,-0.24713298672168502,0.33673322397724048,3.1632738804131066,0.0
674640.0783812654,3955767.5119837918,-27500.0,-1.9025347825973999,-1.2986367878669536,-0.80848699794568424,-1.2214778674849653,-0.86976670521875232,-0.61872370535479049,1.8515800560128499,-0.45840551583034167,0.26993067321844805,-0.26993067321844805,0.45840551583034167,3.6394285539595161,0.0
679640.0783812654,3955767.5119837918,-27500.0,-1.9265653963336176,-1.5175446284713472,-1.1234451250295754,-1.3727853885055179,-1.1210569398472856,-0.76857035444122179,2.1258476211482034,-0.59531948295815906,0.26581608121877753,-0.26581608121877753,0.59531948295815906,4.1699754974150904,0.0
684640.0783812654,3955767.5119837918,-27500.0,-1.8812537347895424,-1.7255646172945562,-1.5169951624185491,-1.5125735144314825,-1.4247839420262867,-0.94696084453807161,2.4254378768791636,-0.73991316750065628,0.2169067118509343,-0.2169067118509343,0.73991316750065628,4.7488574223032085,0.0
689640.0783812654,3955767.5119837918,-27500.0,-1.7479306313594141,-1.8955986688034165,-1.9917767572353766,-1.6232631482992315,-1.7809313141925407,-1.1537054436924556,2.7432505083806862,-0.87832196776621552,0.10038791238989325,-0.10038791238989325,0.87832196776621552,5.3625969212383113,0.0
694640.0783812654,3955767.5119837918,-27500.0,-1.5129145449131971,-1.990672384285791,-2.5389934619464163,-1.6816544943115108,-2.1818458069845006,-1.3846398739364834,3.067123835805881,-0.9887979241146867,-0.10982376769471047,0.10982376769471047,0.9887979241146867,5.9878611195007609,0.0
699640.0783812654,3955767.5119837918,-27500.0,-1.1740494993847277,-1.9658536386977528,-3.131781759824062,-1.6602868505152812,-2.608325189928387,-1.6296466794109323,3.378974048518991,-1.0413051177480819,-0.43871364985910255,0.43871364985910255,1.0413051177480819,6.5895240230596741,0.0
704640.0783812654,3955767.5119837918,-27500.0,-0.74837921077992942,-1.7744612918418197,-3.7187610435361433,-1.5312600157087277,-3.0259801590811741,-1.8708125771925326,3.6549935813369894,-0.99966893592024386,-0.90218176342306411,0.90218176342306411,0.99966893592024386,7.1203263492379048,0.0
709640.0783812654,3955767.5119837918,-27500.0,-0.27847691404942654,-1.3798117510084291,-4.220756164980644,-1.2731404783578539,-3.3836331619134361,-2.0815878835359007,3.8678872307464829,-0.82777390540948614,-1.4955199244521094,1.4955199244521094,0.82777390540948614,7.5236712753306705,0.0
714640.0783812654,3955767.5119837918,-27500.0,0.16673778395227373,-0.77184542004229795,-4.5350349824374945,-0.88049575342955944,-3.6162241009323859,-2.2281610734955035,3.991956325075273,-0.50050717136017409,-2.1806346337199489,2.1806346337199489,0.50050717136017409,7.7412028829632948,0.0
719640.0783812654,3955767.5119837918,-27500.0,0.50132035848157075,0.015566647085674278,-4.5511906994378899,-0.37366601198027716,-3.6544919844222541,-2.2741760685045196,4.0102612100663313,-0.017927752888881265,-2.8773595100243523,2.8773595100243523,0.017927752888881265,7.726160937859083,0.0
724640.0783812654,3955767.5119837918,-27500.0,0.64380519998067898,0.89480605008398051,-4.1793711628269534,0.19573628992736578,-3.4417164369717836,-2.1889800728465278,3.9209449454678884,0.58220738364148983,-3.4664365989920087,3.4664365989920087,-0.58220738364148983,7.4617616850736228,0.0
729640.0783812654,3955767.5119837918,-27500.0,0.54658278281546624,1.7316489747783301,-3.3845840197495263,0.74876296501103445,-2.9539019041417989,-1.9577219622188302,3.7418408074438698,1.2210745745947902,-3.8102420513551927,3.8102420513551927,-1.2210745745947902,6.9810562836258576,0.0
734640.0783812654,3955767.5119837918,-27500.0,0.22124957032983222,2.3739636862280209,-2.213284054752898,1.1950349099699502,-2.2156277588281603,-1.589586930254183,3.5137182434902892,1.7909979991288805,-3.7900274674056926,3.7900274674056926,-1.7909979991288805,6.3809086820848053,0.0
739640.0783812654,3955767.5119837918,-27500.0,-0.25483151574287144,2.6954188153937539,-0.7965295061134765,1.4571831148884897,-1.3026919016456615,-1.119819573205066,3.2955966706509807,2.1830740640893755,-3.3475277993932253,3.3475277993932253,-2.1830740640893755,5.8163642418460917,0.0
744640.0783812654,3955767.5119837918,-27500.0,-0.75857163615998613,2.6364394342897115,0.67759310278101792,1.4943201657176985,-0.32720153997351792,-0.60320567272882575,3.1445783352446215,2.3205584360523193,-2.5116732166322397,2.5116732166322397,-2.3205584360523193,5.453088676152932,0.0
749640.0783812654,3955767.5119837918,-27500.0,-1.1610579588753818,2.2226885570309198,2.013709522560958,1.3137399795180575,0.59054956139968839,-0.10076973179199175,3.0862413295624815,2.1828571214518595,-1.3953871810463518,1.3953871810463518,-2.1828571214518595,5.3742170518887802,0.0
754640.0783812654,3955767.5119837918,-27500.0,-1.3685877629240273,1.5523392362645287,3.0598869164663691,0.96559970789616378,1.351901934371293,0.33499354086129657,3.1006322613650159,1.8088326150547112,-0.16253219555085963,0.16253219555085963,-1.8088326150547112,5.520746942035073,0.0
759640.0783812654,3955767.5119837918,-27500.0,-1.3461742865074136,0.76014453252688163,3.7384556115509415,0.52421599921530482,1.8994585303292757,0.67055624478906695,3.1400189385192818,1.2793762550916972,1.0192836757109296,-1.0192836757109296,-1.2793762550916972,5.7487415473430792,0.0
764640.0783812654,3955767.5119837918,-27500.0,-1.1164229761456348,-0.023327857521645168,4.0484546483615533,0.065514545402010987,2.2210019182652054,0.89444007689769534,3.158645878089986,0.6895343294678471,2.0192326698353469,-2.0192326698353469,-0.6895343294678471,5.9284675171766414,0.0
769640.0783812654,3955767.5119837918,-27500.0,-0.74009601393118485,-0.7008247150771707,4.0458301315339122,-0.35024687988772135,2.3402142409157758,1.0137142054802299,3.1293044512833808,0.12313582922866906,2.7636721258457504,-2.7636721258457504,-0.12313582922866906,5.9882072214353599,0.0
774640.0783812654,3955767.5119837918,-27500.0,-0.29101822421207918,-1.2193257033738583,3.8149147979293416,-0.68626376532404076,2.3012643738734182,1.0470398073229821,3.0442752961858455,-0.36193777708925623,3.235297158360523,-3.235297158360523,0.36193777708925623,5.9089509352961471,0.0
779640.0783812654,3955767.5119837918,-27500.0,0.1641434275142942,-1.5657660749694926,3.4431865519958955,-0.9284290483118659,2.1540762475024864,1.0175348487385254,2.9092694753793475,-0.73679284776976162,3.4586171770660012,-3.4586171770660012,0.73679284776976162,5.7046506111907851,0.0
784640.0783812654,3955767.5119837918,-27500.0,0.57678052535278335,-1.7549286137322662,3.0052099814714435,-1.0796533140128814,1.9440793631865232,0.947464396242095,2.7367438015329997,-0.99655153421954346,3.4812724351340147,-3.4812724351340147,0.99655153421954346,5.4045450677069455,0.0
789640.0783812654,3955767.5119837918,-27500.0,0.91871407796190929,-1.8162342606495661,2.5559917288688481,-1.1528993545043447,1.707117435898978,0.85529892323409129,2.5410305502291424,-1.152149516085724,3.3579450938900424,-3.3579450938900424,1.152149516085724,5.04132215365627,0.0
794640.0783812654,3955767.5119837918,-27500.0,1.1792218104123582,-1.7832958593627191,2.1310140163716604,-1.1652386535791119,1.4683500910671323,0.75474005569880587,2.3354404339111632,-1.2224459892459536,3.1396721882037713,-3.1396721882037713,1.2224459892459536,4.6445713778963142,0.0
799640.0783812654,3955767.5119837918,-27500.0,1.3599364310094444,-1.6873689722343865,1.7497180543330961,-1.1338038489027413,1.2434785849114491,0.65498558796070083,2.1299834988707649,-1.2283465575369203,2.8684668710714356,-2.8684668710714356,1.2283465575369203,4.237989489262687,0.0
804640.0783812654,3955767.5119837918,-27500.0,1.4697803447917241,-1.5542081707018132,1.4199980120041586,-1.0735690014077988,1.0409044187462095,0.56157338443340854,1.9303441815430573,-1.189232685285686,2.5758219263777264,-2.5758219263777264,1.189232685285686,3.8388659582273408,0.0
809640.0783812654,3955767.5119837918,-27500.0,1.5209661956572433,-1.4032575005838719,1.1423255779001755,-0.99648509480557956,0.86394863490741614,0.47735904652144867,1.7403520632577738,-1.1212695027522206,2.2834808071628663,-2.2834808071628663,1.1212695027522206,3.4587420756854979,0.0
814640.0783812654,3955767.5119837918,-27500.0,1.5263001531574645,-1.2481464170082879,0.91295390831685785,-0.91144799020836309,0.71271495857738654,0.40339204129439088,1.5629605756792833,-1.0369645764858659,2.0052130458682798,-2.0052130458682798,1.0369645764858659,3.1045278800506955,0.0
659640.0783812654,3960767.5119837918,-27500.0,-1.7371486667602614,-0.6252383417534545,-0.093935551430899114,-0.85788498702104765,-0.32640883531102649,-0.33424765691566538,1.2492127951831609,-0.037491037240310318,0.12429850057222087,-0.12429850057222087,0.037491037240310318,2.4623794051890964,0.0
664640.0783812654,3960767.5119837918,-27500.0,-1.9109279339460601,-0.80782613422816996,-0.20833571984197949,-1.0156690260135297,-0.45405612874407919,-0.4272139894610209,1.4559712955737427,-0.11180656567564254,0.17552543982528288,-0.17552543982528288,0.11180656567564254,2.8714226981646904,0.0
669640.0783812654,3960767.5119837918,-27500.0,-2.0728369244105647,-1.0226420743900484,-0.37073586859147378,-1.1943783025642221,-0.62207255499658221,-0.54560559870436076,1.6990070845827856,-0.20719285945733676,0.22682511184243495,-0.22682511184243495,0.20719285945733676,3.3478371064556178,0.0
674640.0783812654,3960767.5119837918,-27500.0,-2.207052108873226,-1.2675423208374135,-0.59553211913705384,-1.3911692635817536,-0.8404369533019167,-0.69515504298438424,1.9815039160996208,-0.32516205328786246,0.27022312378488628,-0.27022312378488628,0.32516205328786246,3.8976180230534307,0.0
679640.0783812654,3960767.5119837918,-27500.0,-2.2924802789579499,-1.534641506305245,-0.89869322276100871,-1.5990995523876042,-1.1196593826793408,-0.88179863791588076,2.3047966721617072,-0.46461001966643201,0.29259476450422606,-0.29259476450422606,0.46461001966643201,4.5237283773813211,0.0
684640.0783812654,3960767.5119837918,-27500.0,-2.3031709922035404,-1.8072681662600218,-1.2957237279463769,-1.8052388921011839,-1.4691820397979236,-1.1107501515916429,2.6673667266238428,-0.61977636481893106,0.27407062371528912,-0.27407062371528912,0.61977636481893106,5.2236310151901257,0.0
689640.0783812654,3960767.5119837918,-27500.0,-2.2105382725965224,-2.0565872652408976,-1.7976673951265516,-1.9886766983552306,-1.8944890517936013,-1.3848637171782097,3.0631873521911026,-0.77759544751444176,0.1869753358367241,-0.1869753358367241,0.77759544751444176,5.9859609694034601,0.0
694640.0783812654,3960767.5119837918,-27500.0,-1.9884472086606353,-2.2389052987003839,-2.4044609512486121,-2.1190930444293907,-2.3925519828851933,-1.7020900906123895,3.479667350791761,-0.91485627781344214,-0.0035664582971752234,0.0035664582971752234,0.91485627781344214,6.7865210604839028,0.0
699640.0783812654,3960767.5119837918,-27500.0,-1.6219907307999335,-2.2956385486110324,-3.0954563322142445,-2.157124791702866,-2.9456061078596427,-2.0520322935623572,3.8956976444467792,-0.99626703504854786,-0.33559920410671906,0.33559920410671906,0.99626703504854786,7.5842997264658463,0.0
704640.0783812654,3960767.5119837918,-27500.0,-1.1196318317362763,-2.1589191109251979,-3.8183308012633135,-2.0583039236663736,-3.5141664131039332,-2.4120966647294475,4.2807292069931737,-0.97543426260462052,-0.84082150674117695,0.84082150674117695,0.97543426260462052,8.3190266862031592,0.0
709640.0783812654,3960767.5119837918,-27500.0,-0.52587968699154308,-1.7659984867663605,-4.4801475905969328,-1.7823717745705454,-4.0317633388364325,-2.7445712276872669,4.5963848741989795,-0.80148208341786265,-1.5283764725048277,1.5283764725048277,0.80148208341786265,8.9127814016816096,0.0
714640.0783812654,3960767.5119837918,-27500.0,0.071909748023654019,-1.0835383303952402,-4.9474611626586515,-1.3084539487031357,-4.40572139532118,-2.9969404089789848,4.8023458228483165,-0.43354313421835777,-2.3637941349983125,2.3637941349983125,0.43354313421835777,9.2788842327807366,0.0
719640.0783812654,3960767.5119837918,-27500.0,0.55165664582408946,-0.13726960111066305,-5.0639104358373199,-0.6532316787684721,-4.5290869517099548,-3.1081723345454209,4.8670041051760258,0.13767994235958025,-3.2505028044993018,3.2505028044993018,-0.13767994235958025,9.3408498662902009,0.0
724640.0783812654,3960767.5119837918,-27500.0,0.78641234817207306,0.96571511408404742,-4.6900033060085544,0.11552399894672467,-4.3063673352408891,-3.0224662886194711,4.7801263344661171,0.86803131440228087,-4.0271590602671132,4.0271590602671132,-0.86803131440228087,9.0615636399884352,0.0
729640.0783812654,3960767.5119837918,-27500.0,0.69228523352112736,2.0402232778546021,-3.7582070946473962,0.88076681168516413,-3.6886730909053012,-2.7082853911092846,4.5634497742725868,1.6506351806922617,-4.4943418438471019,4.4943418438471019,-1.6506351806922617,8.4776329346567803,0.0
734640.0783812654,3960767.5119837918,-27500.0,0.27487038417761023,2.8642028410560756,-2.3207846842996442,1.5006687926522206,-2.7044731299934499,-2.175564262927959,4.2762863722808815,2.332353674675506,-4.4727211801042994,4.4727211801042994,-2.332353674675506,7.7260009730096995,0.0
739640.0783812654,3960767.5119837918,-27500.0,-0.35458876082943225,3.2500305689102817,-0.56045287115211506,1.8514077984690831,-1.4677349298902633,-1.4814573297366649,4.0070385864791165,2.7578913477799087,-3.8733173896439261,3.8733173896439261,-2.7578913477799087,7.0366325104151572,0.0
744640.0783812654,3960767.5119837918,-27500.0,-1.0110642968361536,3.1140240723973283,1.2525661479209023,1.8699956246245906,-0.15302383500082062,-0.71869304612858176,3.8382420109188917,2.8247391310184282,-2.7438255689155122,2.7438255689155122,-2.8247391310184282,6.6483096224069245,0.0
749640.0783812654,3960767.5119837918,-27500.0,-1.5041404321214922,2.506251045841426,2.8425787216238363,1.5748470733091755,1.054615339832996,0.010134866030939093,3.7973703985889173,2.5205485206581382,-1.2615545701460129,1.2615545701460129,-2.5205485206581382,6.6502496953059511,0.0
754640.0783812654,3960767.5119837918,-27500.0,-1.7064759221065535,1.5845920769426005,4.0097054101907101,1.0536287570226939,2.0116281331697752,0.62065601893891464,3.8415345160259591,1.9227470363708901,0.32602423403208058,-0.32602423403208058,-1.9227470363708901,6.9131110216620026,0.0
759640.0783812654,3960767.5119837918,-27500.0,-1.5874114899553264,0.55084707608423311,4.6727426575846316,0.42723403864247583,2.6464796843760823,1.0648101189073602,3.8960101358932087,1.16340601039762,1.7810898055996793,-1.7810898055996793,-1.16340601039762,7.2173361944019883,0.0
764640.0783812654,3960767.5119837918,-27500.0,-1.2022727243730251,-0.41509896007449404,4.8625012718464706,-0.18987165300821976,2.9602572522064601,1.3335919356728845,3.9007703256621502,0.38136837599942064,2.936753810463359,-2.936753810463359,-0.38136837599942064,7.3991277406629061,0.0
769640.0783812654,3960767.5119837918,-27500.0,-0.65390465511083817,-1.1951192321685711,4.6819693188212179,-0.71598962344060668,3.0053681830292152,1.4476570360231746,3.8282792323210195,-0.31501345374668954,3.7194270295910394,-3.7194270295910394,0.31501345374668954,7.3887760408343235,0.0
774640.0783812654,3960767.5119837918,-27500.0,-0.051241245470066213,-1.7402802813096026,4.2594055571392984,-1.1099535435326178,2.8573858215098507,1.4431818439917179,3.6784899311561161,-0.86366015808833452,4.1364621369376522,-4.1364621369376522,0.86366015808833452,7.1867046894019726,0.0
779640.0783812654,3960767.5119837918,-27500.0,0.5185793579759117,-2.0560391399819924,3.7130692468556639,-1.3649528154847121,2.5919354663724836,1.3593518695328501,3.4671127649352664,-1.2457289019543138,4.2465014638423195,-4.2465014638423195,1.2457289019543138,6.830182469433689,0.0
784640.0783812654,3960767.5119837918,-27500.0,1.0008673920084703,-2.1796965558046524,3.1334240789857821,-1.4963934185433923,2.2713432341341728,1.2304365180219443,3.2155728401180008,-1.4727675249129697,4.1291822054873766,-4.1291822054873766,1.4727675249129697,6.3685745743508297,0.0
789640.0783812654,3960767.5119837918,-27500.0,1.371386380225611,-2.1604140800461287,2.5796197940375731,-1.53006140035156,1.9401375822496816,1.0824425308041739,2.9446070726553293,-1.5723676807464242,3.8632072270259643,-3.8632072270259643,1.5723676807464242,5.8489537796473954,0.0
794640.0783812654,3960767.5119837918,-27500.0,1.6283558404499481,-2.045960999998488,2.0840704593553587,-1.4935675664816954,1.6261747977893055,0.93292759031317485,2.6704347807553264,-1.576928496986723,3.5145268230328734,-3.5145268230328734,1.576928496986723,5.3095807717123398,0.0
799640.0783812654,3960767.5119837918,-27500.0,1.7835037463088985,-1.8760668935252902,1.6598606574128421,-1.4114910517290424,1.3442562689471453,0.79241034949314637,2.4034162078372336,-1.5167558821983922,3.1324325914283726,-3.1324325914283726,1.5167558821983922,4.7782725508039228,0.0
804640.0783812654,3960767.5119837918,-27500.0,1.8547670312488329,-1.680463078913998,1.3078521656078808,-1.3033950957816316,1.1001628245296051,0.66625009630499377,2.1502146324736611,-1.4168395022959603,2.7503827859644647,-2.7503827859644647,1.4168395022959603,4.2733043798041814,0.0
809640.0783812654,3960767.5119837918,-27500.0,1.8613713608089442,-1.4795516188416746,1.0222017710703017,-1.1836193295927544,0.89408857559057653,0.5563828432240564,1.9153198629844839,-1.2960632427337737,2.3889375101869064,-2.3889375101869064,1.2960632427337737,3.8053068504481731,0.0
814640.0783812654,3960767.5119837918,-27500.0,1.8210344332875466,-1.286177065261237,0.7941058516608549,-1.0619524944090228,0.72316813668172319,0.46267825621213277,1.7011641241987299,-1.1677229185404814,2.0591539654744802,-2.0591539654744802,1.1677229185404814,3.379301573666464,0.0
819640.0783812654,3960767.5119837918,-27500.0,1.7487037526748881,-1.1075985966170414,0.61407552813543143,-0.94460491015607884,0.58315534117978529,0.38389384893198947,1.5084514888104195,-1.0405724659164322,1.7656189222710137,-1.7656189222710137,1.0405724659164322,2.9964821310588792,0.0
654640.0783812654,3965767.5119837918,-27500.0,-1.634665857192787,-0.3381527171626309,0.10910587449695255,-0.74414776836576957,-0.16416966253045412,-0.26668421804055115,1.1021571460622286,0.12905739156659116,0.0081271454679289479,-0.0081271454679289479,-0.12905739156659116,2.1475172696917655,0.0
659640.0783812654,3965767.5119837918,-27500.0,-1.8500201610258267,-0.48402009915528343,0.059874628114872944,-0.90040975246229538,-0.25257857960637436,-0.34663418481585778,1.2892840306808326,0.090173438300052089,0.055284074474547397,-0.055284074474547397,-0.090173438300052089,2.5224959484200173,0.0
664640.0783812654,3965767.5119837918,-27500.0,-2.0752687596461716,-0.66684903267662421,-0.020946612033505518,-1.0860057563745384,-0.37454883665628308,-0.45126629531501328,1.5129327759581594,0.033415437616346022,0.11123295331875574,-0.11123295331875574,-0.033415437616346022,2.9689304739207714,0.0
669640.0783812654,3965767.5119837918,-27500.0,-2.3000152276239332,-0.89120142628104138,-0.14641095749024569,-1.3030665809293789,-0.54101730953480909,-0.58776771784135029,1.779986277009062,-0.045213316515485186,0.17332508686390549,-0.17332508686390549,0.045213316515485186,3.4981517999896812,0.0
674640.0783812654,3965767.5119837918,-27500.0,-2.5077653965921543,-1.1590172732110751,-0.33331592085158135,-1.5512875932603867,-0.76539903038143975,-0.76479146695969191,2.0972488004456653,-0.14909017951008768,0.23530510645934338,-0.23530510645934338,0.14909017951008768,4.1210592851050256,0.0
679640.0783812654,3965767.5119837918,-27500.0,-2.6743842399640294,-1.4668795610275422,-0.60210154430533291,-1.8259171732478177,-1.0632086658766069,-0.99216204730082647,2.469864592183324,-0.27956806904103737,0.28522191009296549,-0.28522191009296549,0.27956806904103737,4.8462926704911657,0.0
684640.0783812654,3965767.5119837918,-27500.0,-2.767259692906991,-1.8019876515769864,-0.97550895600768972,-2.1149239837956095,-1.4506746376993109,-1.2799497696612485,2.8996798258637315,-0.43364884895324307,0.30282710288523695,-0.30282710288523695,0.43364884895324307,5.6772469062383424,0.0
689640.0783812654,3965767.5119837918,-27500.0,-2.7463579288816327,-2.1369012671551002,-1.4749362735404492,-2.3954595863596699,-1.9416112428051338,-1.636476030033547,3.3833160241585385,-0.60055472035792579,0.25695549504094695,-0.25695549504094695,0.60055472035792579,6.6076097489872181,0.0
694640.0783812654,3965767.5119837918,-27500.0,-2.5689683408216788,-2.4239026832551942,-2.1131168693416522,-2.6302792365866128,-2.5416598194606546,-2.0647295306253306,3.9093204684771798,-0.7573929378947899,0.10416913384195786,-0.10416913384195786,0.7573929378947899,7.6153346934108441,0.0
699640.0783812654,3965767.5119837918,-27500.0,-2.200228950532034,-2.5913121146648259,-2.8819107282770635,-2.7657651259253702,-3.2392237690818533,-2.5568115328176226,4.4546759250293384,-0.86499164609724655,-0.20886252780030146,0.20886252780030146,0.86499164609724655,8.6556075948618005,0.0
704640.0783812654,3965767.5119837918,-27500.0,-1.6306264275169062,-2.54620468271272,-3.7354108976593867,-2.7345239992253996,-3.9935042002535543,-3.086676940700364,4.9818874406736757,-0.86650431590757349,-0.73554895178174873,0.73554895178174873,0.86650431590757349,9.6546411125921789,0.0
709640.0783812654,3965767.5119837918,-27500.0,-0.89831578762683661,-2.1897381679183803,-4.5721645681913934,-2.466534537937652,-4.7225568845382755,-3.602913005173864,5.4388860100480372,-0.69317503312041784,-1.5083979999185575,1.5083979999185575,0.69317503312041784,10.508072990693798,0.0
714640.0783812654,3965767.5119837918,-27500.0,-0.10762200820230323,-1.4501699720665575,-5.2262360543116682,-1.9118815963552549,-5.2982107621977503,-4.0255750780799247,5.7649589078956742,-0.28224537058461463,-2.506564970311826,2.506564970311826,0.28224537058461463,11.08981698660619,0.0
719640.0783812654,3965767.5119837918,-27500.0,0.57233854144022089,-0.33097271690003627,-5.4824338716420726,-1.0730190671400777,-5.5581335617195293,-4.2530961863542469,5.9054086271992086,0.39144185898472084,-3.6206713748580448,3.6206713748580448,-0.39144185898472084,11.27783068052195,0.0
724640.0783812654,3965767.5119837918,-27500.0,0.94595955399966025,1.0439375672740479,-5.1292154681902833,-0.034697449977687762,-5.3436986752307361,-4.1843930595687846,5.8336977270967445,1.278381709645763,-4.6365321683981051,4.6365321683981051,-1.278381709645763,10.99994794096783,0.0
729640.0783812654,3965767.5119837918,-27500.0,0.86797620788388918,2.4211809521825591,-4.0452725769539786,1.0298193962015869,-4.5604673814310503,-3.7545943564688473,5.5740381163503203,2.2334066799171719,-5.2659197144267038,5.2659197144267038,-2.2334066799171719,10.293583283934778,0.0
734640.0783812654,3965767.5119837918,-27500.0,0.32836345563245717,3.4750628872723466,-2.2846169908274327,1.8953574925608301,-3.2376966670634895,-2.9711652812625009,5.2139069383106769,3.036927504939622,-5.2366102303455078,5.2366102303455078,-3.036927504939622,9.3566189425557305,0.0
739640.0783812654,3965767.5119837918,-27500.0,-0.51076910608306658,3.924726496165869,-0.10354901252541893,2.3608210201244124,-1.5493425524899853,-1.9288861415302203,4.8886421140813727,3.4662725628963025,-4.4122376394019849,4.4122376394019849,-3.4662725628963025,8.537366033727535,0.0
744640.0783812654,3965767.5119837918,-27500.0,-1.3666245171391089,3.6539745217614508,2.1069535271420734,2.3290708220444056,0.22833953648310945,-0.78849202242638916,4.7174936139960257,3.3875076071918317,-2.8737627909536863,2.8737627909536863,-3.3875076071918317,8.1778060750998893,0.0
749640.0783812654,3965767.5119837918,-27500.0,-1.9557763899268465,2.7592399694320711,3.9586119699091298,1.8433567467568537,1.8082689662359346,0.27458570600449478,4.7207793043412227,2.8132799256757597,-0.9035833133385327,0.9035833133385327,-2.8132799256757597,8.3430746735521488,0.0
754640.0783812654,3965767.5119837918,-27500.0,-2.1096759878092106,1.49609339511442,5.1963853789853385,1.0591748553572615,2.9842034869693865,1.1247212383114653,4.8123422336201926,1.8904724324402109,1.1234867851999606,-1.1234867851999606,-1.8904724324402109,8.7753065650936755,0.0
759640.0783812654,3965767.5119837918,-27500.0,-1.8194232342234571,0.16467291151499217,5.7539462415875064,0.17371184951260896,3.6763347734228606,1.6968225894263773,4.8788709886887878,0.83044081247494694,2.8755323066851757,-2.8755323066851757,-0.83044081247494694,9.1546858024391415,0.0
764640.0783812654,3965767.5119837918,-27500.0,-1.2010282102237573,-0.99478717141793083,5.7235605526653224,-0.64345376444635749,3.9197920401857158,1.9947136869682085,4.8474715696476682,-0.17131155101724982,4.152527745564349,-4.152527745564349,0.17131155101724982,9.2918625196088644,0.0
769640.0783812654,3965767.5119837918,-27500.0,-0.42197201310437266,-1.8511102959190711,5.2803345116748357,-1.2878319489341734,3.8186562190296112,2.0678651507339096,4.698053258489483,-0.98558272453652762,4.9018290333739056,-4.9018290333739056,0.98558272453652762,9.1389026379777736,0.0
774640.0783812654,3965767.5119837918,-27500.0,0.36399481940230805,-2.3762250182037983,4.609091041261137,-1.7223870818952631,3.4965527853955818,1.9835171019494895,4.4464327932624474,-1.5595347976283676,5.1803450841949417,-5.1803450841949417,1.5595347976283676,8.7341569923991216,0.0
779640.0783812654,3965767.5119837918,-27500.0,1.051011648205596,-2.6103068427472569,3.8597979190217511,-1.959046492075541,3.0628775586635641,1.805844332683574,4.1241643338372533,-1.8994832172914908,5.0999141810226982,-5.0999141810226982,1.8994832172914908,8.150904290204311,0.0
784640.0783812654,3965767.5119837918,-27500.0,1.5861618028110072,-2.6239416656074348,3.1328662158918248,-2.0354592397178295,2.5981542957765691,1.58541562471935,3.7643766747573366,-2.0450647608024308,4.782229353272573,-4.782229353272573,2.0450647608024308,7.4651965139807039,0.0
789640.0783812654,3965767.5119837918,-27500.0,1.9581466210677518,-2.4908361105472947,2.4835504827861135,-1.9965552469366208,2.1531417144242599,1.3567961934789228,3.3940021440484509,-2.0472310142478651,4.3324816507925306,-4.3324816507925306,2.0472310142478651,6.7404134346330782,0.0
794640.0783812654,3965767.5119837918,-27500.0,2.1814280318811923,-2.2733983812721483,1.9340335481182083,-1.8835756025050165,1.7546602569416068,1.1406430974819499,3.0314954883462102,-1.9544088848058427,3.8294190111283903,-3.8294190111283903,1.9544088848058427,6.0226275380065495,0.0
799640.0783812654,3965767.5119837918,-27500.0,2.2825607442343507,-2.0180099235680986,1.4858981256641797,-1.7293710857705151,1.4130505204430597,0.9473576208562019,2.6887435508336153,-1.8060867740293785,3.3256095179396641,-3.3256095179396641,1.8060867740293785,5.3416413978889281,0.0
804640.0783812654,3965767.5119837918,-27500.0,2.2909204223385551,-1.7557843682850653,1.1298568375598457,-1.5576470708675316,1.1286787750580967,0.78062877722064428,2.3729964911693755,-1.6313200367256431,2.852316138155921,-2.852316138155921,1.6313200367256431,4.7142742429094335,0.0
809640.0783812654,3965767.5119837918,-27500.0,2.2335347295870109,-1.5055970223981257,0.8521986116127267,-1.3841435226501537,0.89667338377183736,0.64020657524134694,2.0877686787586383,-1.4497826185248084,2.4254259459840632,-2.4254259459840632,1.4497826185248084,4.1480066149667367,0.0
814640.0783812654,3965767.5119837918,-27500.0,2.1328532681129273,-1.2775080416960218,0.63853330871986114,-1.2184496802289544,0.70997819084755887,0.52381360786760423,1.8337631346629908,-1.2737540273784456,2.0507031892528884,-2.0507031892528884,1.2737540273784456,3.6441359803806597,0.0
819640.0783812654,3965767.5119837918,-27500.0,2.0062900096831977,-1.0757266759656716,0.47567632420405076,-1.065777575865676,0.56112632051098621,0.42834381900529755,1.6098389723911593,-1.1101661789689019,1.7278030811516594,-1.7278030811516594,1.1101661789689019,3.2001974643710778,0.0
654640.0783812654,3970767.5119837918,-27500.0,-1.6610021715825503,-0.1655144335699909,0.22803277570555056,-0.74434768077320468,-0.082022378699635315,-0.26307299282738511,1.1211054112119314,0.24501088797700871,-0.08246824697267098,0.08246824697267098,-0.24501088797700871,2.1555626766551135,0.0
659640.0783812654,3970767.5119837918,-27500.0,-1.9146543659677495,-0.29402395200666509,0.21251340394700674,-0.91696589247770566,-0.15645282266169624,-0.34829710401889136,1.3185648285643163,0.22844633407876813,-0.041022937786862598,0.041022937786862598,-0.22844633407876813,2.5498382622735312,0.0
664640.0783812654,3970767.5119837918,-27500.0,-2.1913622493018905,-0.46304082609159108,0.17295317859368281,-1.1276196772970277,-0.26424539782624118,-0.46239883219987371,1.5570928657777809,0.19648317453752856,0.012821225789345567,-0.012821225789345567,-0.19648317453752856,3.0263447886060368,0.0
669640.0783812654,3970767.5119837918,-27500.0,-2.4829693587059212,-0.68064372658801153,0.096599538726125367,-1.3817251697219448,-0.41817113900430009,-0.61499695637589824,1.8454323009553213,0.14427507409007068,0.078646157782885306,-0.078646157782885306,-0.14427507409007068,3.6009520085946924,0.0
674640.0783812654,3970767.5119837918,-27500.0,-2.7742496768123139,-0.95367248337197097,-0.034203932293906128,-1.6829300137549068,-0.63488995046642849,-0.81834602352968744,2.1935787282317349,0.066850068408982236,0.15292494450167088,-0.15292494450167088,-0.066850068408982236,4.2905284009007962,0.0
679640.0783812654,3970767.5119837918,-27500.0,-3.040116297233344,-1.2849538072751885,-0.24283730276215562,-2.030729776807441,-0.93522021420867629,-1.0874195955842025,2.6117263672891204,-0.039663178019394091,0.22654756018292552,-0.22654756018292552,0.039663178019394091,5.1112010723868639,0.0
684640.0783812654,3970767.5119837918,-27500.0,-3.2429424173811969,-1.6686262218585604,-0.55827887557039024,-2.4166771744859492,-1.3434296014296994,-1.4392831437400997,3.1077649502514735,-0.17568138551310855,0.28126393963399032,-0.28126393963399032,0.17568138551310855,6.0750903037062116,0.0
689640.0783812654,3970767.5119837918,-27500.0,-3.3313379592905679,-2.0830857612668581,-1.0127192980538677,-2.818934546368161,-1.88448097699213,-1.8910394279794207,3.6838669278611675,-0.33420469832506561,0.28522659052150157,-0.28522659052150157,0.33420469832506561,7.1848221799512686,0.0
694640.0783812654,3970767.5119837918,-27500.0,-3.2429233434854323,-2.4817873578546266,-1.6348084943626611,-3.1955134394655089,-2.5776368413697313,-2.4552954185851728,4.3324942130613717,-0.49501616969705708,0.18874243949908209,-0.18874243949908209,0.49501616969705708,8.425209428057606,0.0
699640.0783812654,3970767.5119837918,-27500.0,-2.9149417653822036,-2.7840044078435273,-2.4358540982385146,-3.477960489231231,-3.4245524187424405,-3.1319504687769184,5.0311799748576016,-0.61775430592374092,-0.07684820406832249,0.07684820406832249,0.61775430592374092,9.7521244297024197,0.0
704640.0783812654,3970767.5119837918,-27500.0,-2.3067861787724553,-2.871163263546328,-3.3870306666644958,-3.5697680218605083,-4.3908120523252201,-3.8956871057777924,5.7366575751601916,-0.63670250066843825,-0.59159564882050952,0.59159564882050952,0.63670250066843825,11.080310957969383,0.0
709640.0783812654,3970767.5119837918,-27500.0,-1.4351932380567878,-2.5989632260069397,-4.3897224102040688,-3.3568890212068396,-5.3832000214192659,-4.6807508611213082,6.3812970230105019,-0.46353036034224626,-1.4229204110423277,1.4229204110423277,0.46353036034224626,12.275188833610821,0.0
714640.0783812654,3970767.5119837918,-27500.0,-0.41289646934680735,-1.837683436883778,-5.2505072397799886,-2.7388804196752119,-6.2320774236406846,-5.3691835965952741,6.8772704010328018,-0.0072138512310762071,-2.5795486955584455,2.5795486955584455,0.0072138512310762071,13.158369131886783,0.0
719640.0783812654,3970767.5119837918,-27500.0,0.5347087969961225,-0.54518042210241779,-5.6853703511115539,-1.6831161605842129,-6.6974887332289139,-5.7945730073688901,7.1350717277692413,0.78196063522615011,-3.9503201071460929,3.9503201071460929,-0.78196063522615011,13.540307607182973,0.0
724640.0783812654,3970767.5119837918,-27500.0,1.1115581012146729,1.1485492153632546,-5.3834099785770801,-0.28633741463222528,-6.5207929968905258,-5.7753902939753834,7.0992760681264153,1.8518931596387747,-5.2597968274799074,5.2597968274799074,-1.8518931596387747,13.290968577642159,0.0
729640.0783812654,3970767.5119837918,-27500.0,1.0703411090044912,2.9025020438989571,-4.1381598991455792,1.1969538811737781,-5.526503194175584,-5.1812661982243329,6.7930552006122484,3.0056051572166114,-6.0952173766885549,6.0952173766885549,-3.0056051572166114,12.44379108248849,0.0
734640.0783812654,3970767.5119837918,-27500.0,0.36682714880649336,4.2385404089369416,-1.9962872903506201,2.4059634799368048,-3.73666561540663,-4.0089913976340954,6.3475346207057797,3.9265819572982794,-6.0430204791840678,6.0430204791840678,-3.9265819572982794,11.293414132702765,0.0
739640.0783812654,3970767.5119837918,-27500.0,-0.75932907107361902,4.7344751467863491,0.68170840364786089,3.0101487090407457,-1.4208772803597944,-2.4198642802735608,5.9742423141097669,4.2954214195756775,-4.8945039724949337,4.8945039724949337,-4.2954214195756775,10.378453010196449,0.0
744640.0783812654,3970767.5119837918,-27500.0,-1.8690413750257078,4.2332661246692549,3.3287576396223648,2.8612732371558107,0.97743376698659079,-0.69919346857416675,5.8420728865045533,3.9451486614563755,-2.7906563821091535,2.7906563821091535,-3.9451486614563755,10.173172297361795,0.0
749640.0783812654,3970767.5119837918,-27500.0,-2.5395042723479202,2.919074783505315,5.4039356692784839,2.0577211566183218,3.011776068009115,0.84920805400508392,5.9385519024423266,2.9486949879936422,-0.18587771354843263,0.18587771354843263,-2.9486949879936422,10.636804200272719,0.0
754640.0783812654,3970767.5119837918,-27500.0,-2.5599577013957076,1.2058376892980269,6.6005305552081728,0.87827872651056105,4.3950559658078747,2.0103047090675039,6.0995621077611784,1.5742514056442445,2.3550076098749804,-2.3550076098749804,-1.5742514056442445,11.294326604543196,0.0
759640.0783812654,3970767.5119837918,-27500.0,-1.9815468526346167,-0.468282120846016,6.9067921273525297,-0.35755070728546018,5.0614224458677013,2.7071216601324677,6.1627467037377501,0.14942259202400887,4.3843053095029587,-4.3843053095029587,-0.14942259202400887,11.713543043206855,0.0
764640.0783812654,3970767.5119837918,-27500.0,-1.0269893178500702,-1.8002709996551773,6.5227470212693799,-1.4077708494655758,5.1205561328788418,2.9819132672953783,6.0523885073492174,-1.0675481745365829,5.6901916326710573,-5.6901916326710573,1.0675481745365829,11.710351396975538,0.0
769640.0783812654,3970767.5119837918,-27500.0,0.043628220747756442,-2.669448307088282,5.7246658679793567,-2.1534553572321595,4.7636999045818955,2.9417011758198766,5.771426847144042,-1.9451760509608533,6.2820457973818371,-6.2820457973818371,1.9451760509608533,11.295018242666128,0.0
774640.0783812654,3970767.5119837918,-27500.0,1.0274835071958364,-3.0978296224744386,4.760278033880315,-2.5817277056166716,4.1821968112195975,2.7058690441291438,5.3638810932362091,-2.466829098945456,6.3030109926688604,-6.3030109926688604,2.466829098945456,10.570883316635092,0.0
779640.0783812654,3970767.5119837918,-27500.0,1.8111489124718747,-3.1816773931838562,3.8023219472741365,-2.7427082077156149,3.5240836567456046,2.3745229545232061,4.8835615517293753,-2.6864707988856242,5.9391347159661318,-5.9391347159661318,2.6864707988856242,9.6620101461791386,0.0
784640.0783812654,3970767.5119837918,-27500.0,2.3592522188432721,-3.0349201141663436,2.9468796457891715,-2.7094842552900777,2.8841581136304453,2.017658940452828,4.3767699644968285,-2.6849394401473257,5.3600780256333556,-5.3600780256333556,2.6849394401473257,8.676056748336368,0.0
789640.0783812654,3970767.5119837918,-27500.0,2.6868689614713857,-2.757150848210995,2.2323484548341752,-2.5526316392491619,2.3123444244784599,1.6771659071400846,3.8768208161653686,-2.5412001499923007,4.6940118595319458,-4.6940118595319458,2.5412001499923007,7.6916445493653169,0.0
794640.0783812654,3970767.5119837918,-27500.0,2.8333767564111292,-2.4221317326548535,1.6616339829398172,-2.3287295455323851,1.8276158527462183,1.3738931325449379,3.4051912250362513,-2.3190001390424007,4.0251858607299207,-4.0251858607299207,2.3190001390424007,6.7588892269059997,0.0
799640.0783812654,3970767.5119837918,-27500.0,2.8444107923102169,-2.0781744489506631,1.2196968239197385,-2.0779814227923108,1.4306469569316991,1.1150799934823161,2.9740737863893312,-2.063856699878178,3.4019624886021376,-3.4019624886021376,2.063856699878178,5.9051936660360402,0.0
804640.0783812654,3970767.5119837918,-27500.0,2.7619719095416753,-1.7533891615606252,0.88488229002412966,-1.826279162881695,1.1129437311603207,0.90021438879932869,2.5887238704077271,-1.8052039861930247,2.8473680240561654,-2.8473680240561654,1.8052039861930247,5.1419703843610973,0.0
809640.0783812654,3970767.5119837918,-27500.0,2.6203559755620764,-1.4617546792285734,0.63516652059500267,-1.5886821631637871,0.86253890338117445,0.72499092536862986,2.2496564911313861,-1.5602438071802289,2.3683820009435363,-2.3683820009435363,1.5602438071802289,4.4704094317626319,0.0
814640.0783812654,3970767.5119837918,-27500.0,2.4454661811669687,-1.2082588991363827,0.45103431688322926,-1.3727857028901327,0.66713046347441385,0.58370247508008566,1.9545080952623723,-1.3377278670423345,1.9628190887002273,-1.9628190887002273,1.3377278670423345,3.885774224717415,0.0
819640.0783812654,3970767.5119837918,-27500.0,2.2557383684504866,-0.99265991889381777,0.31641999059936282,-1.1814124941532058,0.5155766789413746,0.47054259605074267,1.6994108991586767,-1.1409980817241629,1.6239101172710633,-1.6239101172710633,1.1409980817241629,3.3803257639392492,0.0
824640.0783812654,3970767.5119837918,-27500.0,2.0636179553704577,-0.81199306756977108,0.21867192699602811,-1.0145476531746509,0.39844175047597302,0.38022754107083978,1.4799028606969786,-0.97017824380038631,1.3431073173156376,-1.3431073173156376,0.97017824380038631,2.9451742237264171,0.0
649640.0783812654,3975767.5119837918,-27500.0,-1.3792189049718044,0.10778283771847957,0.30410152563569215,-0.56994655403903982,0.046867305224918693,-0.18463114717039592,0.96302319724307139,0.34191763553801269,-0.20909052687623239,0.20909052687623239,-0.34191763553801269,1.8071225417577259,0.0
654640.0783812654,3975767.5119837918,-27500.0,-1.6260877208113338,0.040397239524629133,0.3305811535012802,-0.71513147536219079,0.013881957667872495,-0.24839915477947686,1.1311991017438623,0.35843719500492222,-0.19233821689536643,0.19233821689536643,-0.35843719500492222,2.1378988636786853,0.0
659640.0783812654,3975767.5119837918,-27500.0,-1.910398614356533,-0.05762722221348246,0.35027472518905067,-0.89791914704779674,-0.039746639139464794,-0.33558525285824775,1.335817792250241,0.36812417717418322,-0.16395191796232089,0.16395191796232089,-0.36812417717418322,2.5424438933200233,0.0
664640.0783812654,3975767.5119837918,-27500.0,-2.23226707737351,-0.19582518898048518,0.35625505602323426,-1.126980326637977,-0.12371834261299076,-0.45508979382973891,1.5855279046521691,0.36707891254242331,-0.12126000792958953,0.12126000792958953,-0.36707891254242331,3.0380517387805406,0.0
669640.0783812654,3975767.5119837918,-27500.0,-2.587484261798378,-0.38529957652548613,0.3377180941338993,-1.4117153816079211,-0.25174236119770405,-0.61905562414815996,1.8908978962077698,0.35032584697274349,-0.062278348378689619,0.062278348378689619,-0.35032584697274349,3.6452405863832626,0.0
674640.0783812654,3975767.5119837918,-27500.0,-2.9645705093284267,-0.63777499913928315,0.27839534041996961,-1.7610698123033033,-0.44278576864648012,-0.84375397245402384,2.2646168960423871,0.31203884184349884,0.012891968350738803,-0.012891968350738803,-0.31203884184349884,4.3874256567827796,0.0
679640.0783812654,3975767.5119837918,-27500.0,-3.340726386364016,-0.96328469961011187,0.15476835569092579,-2.1810854837175615,-0.72225929505511954,-1.1503496807958262,2.7213039710993567,0.24639380298850966,0.099546300303880356,-0.099546300303880356,-0.24639380298850966,5.2896042114543933,0.0
684640.0783812654,3975767.5119837918,-27500.0,-3.6769170529178812,-1.3655304999266711,-0.065376216913422158,-2.6704234293031242,-1.1225276813065059,-1.5650482194869517,3.2760076637978401,0.14960689559647455,0.18422690190679342,-0.18422690190679342,-0.14960689559647455,6.3752510811280994,0.0
689640.0783812654,3975767.5119837918,-27500.0,-3.9132402964051356,-1.833724783781669,-0.42274739629872565,-3.2129892157399942,-1.6814495597165402,-2.1176165373050813,3.9401321716611419,0.023948717544601789,0.23858456732740682,-0.23858456732740682,-0.023948717544601789,7.6602578352493778,0.0
694640.0783812654,3975767.5119837918,-27500.0,-3.9675149006268877,-2.330017891254319,-0.96211587820959643,-3.7671737571219714,-2.4365968472936572,-2.8365052246242115,4.7148546566542819,-0.11544708854752826,0.21170500732131781,-0.21170500732131781,0.11544708854752826,9.1424957126060935,0.0
699640.0783812654,3975767.5119837918,-27500.0,-3.742769771789396,-2.7733702900662465,-1.7193980121741901,-4.2528292913221479,-3.4115994129089509,-3.73796844828387,5.5829412012631234,-0.23088377721543063,0.023539306315089714,-0.023539306315089714,0.23088377721543063,10.785907118608861,0.0
704640.0783812654,3975767.5119837918,-27500.0,-3.1519924061663347,-3.0253885881637483,-2.6950854285723529,-4.5409855489730955,-4.5907516384559459,-4.8064671166800554,6.4989326782958283,-0.25187408036490122,-0.43362461242937866,0.43362461242937866,0.25187408036490122,12.499902839921182,0.0
709640.0783812654,3975767.5119837918,-27500.0,-2.1674128314076393,-2.8921303147216952,-3.8117383562299523,-4.4579581050484673,-5.8811910870749227,-5.9661173150853877,7.379859767423401,-0.071978038516473664,-1.2728557635421489,1.2728557635421489,0.071978038516473664,14.11971337957306,0.0
714640.0783812654,3975767.5119837918,-27500.0,-0.88948154481705666,-2.1651728255126992,-4.8652091356034299,-3.822180404220556,-7.0726104708171738,-7.0507872346645337,8.1042799192870447,0.43260862063646011,-2.5541014366027928,2.5541014366027928,-0.43260862063646011,15.402239788078491,0.0
719640.0783812654,3975767.5119837918,-27500.0,0.39873024481729252,-0.72277958289129673,-5.5032755680832146,-2.5288933196747467,-7.8241300227873962,-7.7945218356395944,8.532826023443155,1.3459914294770283,-4.1871610126049053,4.1871610126049053,-1.3459914294770283,16.062708300522559,0.0
724640.0783812654,3975767.5119837918,-27500.0,1.2613000727384298,1.3238745383666195,-5.2889795734878096,-0.66878017269470813,-7.7253919940004057,-7.8761203949419825,8.5625233106346101,2.6183502408244879,-5.8357309425461592,5.8357309425461592,-2.6183502408244879,15.880514269366854,0.0
729640.0783812654,3975767.5119837918,-27500.0,1.2855865180126957,3.5287755266352971,-3.8884761683497517,1.3904090383134911,-6.4616429792545791,-7.039229505635463,8.2097074275237372,3.9838056219776572,-6.9198969008730185,6.9198969008730185,-3.9838056219776572,14.880031537562996,0.0
734640.0783812654,3975767.5119837918,-27500.0,0.3591155624111122,5.193642915983065,-1.3235314496237593,3.0673833850020542,-4.0305967094473232,-5.2518845792669149,7.6763570518949429,4.9861937547595092,-6.8148953103180636,6.8148953103180636,-4.9861937547595092,13.518828467907452,0.0
739640.0783812654,3975767.5119837918,-27500.0,-1.1582599345745257,5.684665444468699,1.9010402582778654,3.8145681388069002,-0.85602956922097295,-2.7971562802714192,7.2994649155374312,5.1710741079253593,-5.2036078269360084,5.2036078269360084,-5.1710741079253593,12.643440535785132,0.0
744640.0783812654,3975767.5119837918,-27500.0,-2.5755030233769105,4.8007541964909235,4.9675807978577238,3.41274729285756,2.3431283566227212,-0.19298885375327032,7.3027356508031254,4.3500849779297708,-2.3356868523036933,2.3356868523036933,-4.3500849779297708,12.851303028207012,0.0
749640.0783812654,3975767.5119837918,-27500.0,-3.2663331768660182,2.8898931848586527,7.1413961440825071,2.0820957306227501,4.8777218108562952,2.0318921669031389,7.576528368596124,2.726175520106628,1.0555330639949356,-1.0555330639949356,-2.726175520106628,13.808904811699232,0.0
754640.0783812654,3975767.5119837918,-27500.0,-2.9987187752228182,0.61616717914315677,8.094724964656951,0.3241772456074356,6.3742229100536383,3.5500223358422391,7.8265794190666318,0.76952080418355662,4.1338604561289074,-4.1338604561289074,-0.76952080418355662,14.718995374203359,0.0
759640.0783812654,3975767.5119837918,-27500.0,-1.9608047086199674,-1.4044641726863392,7.943924733661003,-1.3547310041936313,6.8392124119594744,4.3029249764859667,7.8431048294162728,-1.0386456022054746,6.3332635469186398,-6.3332635469186398,1.0386456022054746,15.06802420452852,0.0
764640.0783812654,3975767.5119837918,-27500.0,-0.55057759618248092,-2.8285596701410829,7.0583275425113126,-2.6340892785818313,6.5286145037201093,4.4285879008804754,7.575293245151614,-2.3950719847191859,7.4884167388558556,-7.4884167388558556,2.3950719847191859,14.74745669393854,0.0
769640.0783812654,3975767.5119837918,-27500.0,0.85416617112915283,-3.5958689716850345,5.8367302453979031,-3.4122010775273446,5.7679325227378762,4.1412321810644679,7.075915287011834,-3.212330347927749,7.7391665433131838,-7.7391665433131838,3.212330347927749,13.884525091719986,0.0
774640.0783812654,3975767.5119837918,-27500.0,2.0138884864215405,-3.821042905067257,4.57758285339807,-3.7393022969792238,4.8313821567815092,3.6404901963566094,6.4334175943567082,-3.5538634609151272,7.3589707737429366,-7.3589707737429366,3.5538634609151272,12.681611276775243,0.0
779640.0783812654,3975767.5119837918,-27500.0,2.8350921028917546,-3.6778964195344477,3.4506243308183748,-3.7320406928568355,3.8997091213810759,3.0714310283326394,5.7307577598488022,-3.5476052611046018,6.6220631364211666,-6.6220631364211666,3.5476052611046018,11.325970373350428,0.0
784640.0783812654,3975767.5119837918,-27500.0,3.3252907289250069,-3.3271460536599342,2.5235467274483336,-3.5130721425241425,3.0681289559492293,2.5214582729021484,5.0297366675446185,-3.324472789775927,5.7401521934487274,-5.7401521934487274,3.324472789775927,9.9558750647718259,0.0
789640.0783812654,3975767.5119837918,-27500.0,3.5423042696649878,-2.888121265852039,1.8016892096137829,-3.1822181376736349,2.3722292673101935,2.0335707021714198,4.3696790632212146,-2.9893671457911024,4.8506434225790622,-4.8506434225790622,2.9893671457911024,8.6582664923090427,0.0
794640.0783812654,3975767.5119837918,-27500.0,3.5580494704054098,-2.4370694561533388,1.2603143762835942,-2.809380335977488,1.813171321891293,1.6222989163596369,3.7715923500611779,-2.6147024177130698,4.0294811396899268,-4.0294811396899268,2.6147024177130698,7.4791324186175077,0.0
799640.0783812654,3975767.5119837918,-27500.0,3.4389439391319079,-2.0163215073924801,0.86488569396462656,-2.4380893990364738,1.3757653393652627,1.2864725037779472,3.2435121179957616,-2.2448118940416397,3.3102152490420536,-3.3102152490420536,2.2448118940416397,6.4363040720173785,0.0
804640.0783812654,3975767.5119837918,-27500.0,3.2382139028325971,-1.645256235890816,0.58156791708,-2.0923438327892869,1.0393293795390672,1.0176665553495492,2.7852855496658169,-1.9035378123915863,2.7007092468892062,-2.7007092468892062,1.9035378123915863,5.530309149200531,0.0
809640.0783812654,3975767.5119837918,-27500.0,2.9948665372998113,-1.3293592593885843,0.38154624032048806,-1.7831761578709506,0.78331526280553188,0.80509983739577151,2.392192652010535,-1.6013233207805166,2.1950967255084954,-2.1950967255084954,1.6013233207805166,4.7522044954422027,0.0
814640.0783812654,3975767.5119837918,-27500.0,2.7356160982617479,-1.0665723005389502,0.24204064801956648,-1.5137304308102644,0.58973176940386629,0.63814525586492477,2.0573855324712769,-1.3406050024564,1.7813499342821588,-1.7813499342821588,1.3406050024564,4.0886819646925838,0.0
819640.0783812654,3975767.5119837918,-27500.0,2.4776629709804143,-0.85130456617100336,0.14582642527648298,-1.2827599268513343,0.44383896971704273,0.50742007831662039,1.7733837346505439,-1.1194730031630042,1.4456285535588562,-1.4456285535588562,1.1194730031630042,3.5251370082625093,0.0
824640.0783812654,3975767.5119837918,-27500.0,2.2313386380620641,-0.67676390074735582,0.080242225267413911,-1.0868541123957569,0.33402142240772398,0.40511151534213952,1.5329110249599425,-0.9339656539292045,1.1745380650779482,-1.1745380650779482,0.9339656539292045,3.0473636666971102,0.0
649640.0783812654,3980767.5119837918,-27500.0,-1.2611578474977982,0.30039022964107609,0.35528768271037076,-0.50794506164093112,0.13047674876152424,-0.16013957114592289,0.96489519825521275,0.42071067996812495,-0.31401580617898417,0.31401580617898417,-0.42071067996812495,1.772343448244202,0.0
654640.0783812654,3980767.5119837918,-27500.0,-1.5153399671879495,0.27067042790543583,0.40533595542054118,-0.65031857292068462,0.11923138417981062,-0.22051229426164382,1.1347072501016391,0.45941716031480412,-0.31628637561630851,0.31628637561630851,-0.45941716031480412,2.0999545034003986,0.0
659640.0783812654,3980767.5119837918,-27500.0,-1.8165658070789037,0.21615895468334173,0.45757181165136057,-0.83387559203782169,0.092771380551184224,-0.3049900723062845,1.3426557049974353,0.49688931550034959,-0.30869502208455007,0.30869502208455007,-0.49688931550034959,2.5042106632785655,0.0
664640.0783812654,3980767.5119837918,-27500.0,-2.1692120824806915,0.12685807603423088,0.50803354218155961,-1.0700297831592871,0.042255493877359294,-0.42368272407790492,1.5984805635676032,0.53020568424076897,-0.28751060771717041,0.28751060771717041,-0.53020568424076897,3.0049680103976741,0.0
669640.0783812654,3980767.5119837918,-27500.0,-2.5744582064142789,-0.0099923312297723436,0.54949282920570519,-1.3723576966881332,-0.045542980324101409,-0.59093685212167113,1.9143947467320404,0.55519078796596921,-0.24871734330212103,0.24871734330212103,-0.55519078796596921,3.6267923043879011,0.0
674640.0783812654,3980767.5119837918,-27500.0,-3.0270916864641659,-0.20973676193552565,0.56961919590040044,-1.7559139721043566,-0.19006790908170984,-0.82688289075690014,2.3055310744357009,0.56632027784077654,-0.18897290870888001,0.18897290870888001,-0.56632027784077654,4.3992931918021023,0.0
679640.0783812654,3980767.5119837918,-27500.0,-3.5105430888139897,-0.48896976299231959,0.54849042295439765,-2.2352020178760452,-0.41919368944520713,-1.1591969851731021,2.7902498369784627,0.55708000076252895,-0.10770778846109158,0.10770778846109158,-0.55708000076252895,5.3566050287143057,0.0
684640.0783812654,3980767.5119837918,-27500.0,-3.9898289271194858,-0.86185531018242256,0.45564559768882901,-2.8196534301379419,-0.77138197108900997,-1.6246176098912009,3.3898123503370674,0.52136628080957115,-0.011177783122441831,0.011177783122441831,-0.52136628080957115,6.5350433992924808,0.0
689640.0783812654,3980767.5119837918,-27500.0,-4.4028633573167975,-1.3322324012372246,0.24759638959601915,-3.5049366069539016,-1.2965253217520514,-2.2690303613409286,4.1259201803254868,0.45692995976245809,0.080517573515762164,-0.080517573515762164,-0.45692995976245809,7.9673031671199679,0.0
694640.0783812654,3980767.5119837918,-27500.0,-4.6526791600654702,-1.8791525121120214,-0.13174239119677264,-4.2581852678714398,-2.0526461341572624,-3.1435954412794742,5.0135785059162252,0.37227400706972513,0.12276660208489662,-0.12276660208489662,-0.37227400706972513,9.6707738646371162,0.0
699640.0783812654,3980767.5119837918,-27500.0,-4.6073143031346797,-2.4343087858170356,-0.74252475530448292,-4.9963732179212581,-3.0931236629286518,-4.2923631284462376,6.0483992934284725,0.29825495451957795,0.033368378014526523,-0.033368378014526523,-0.29825495451957795,11.627107475995501,0.0
704640.0783812654,3980767.5119837918,-27500.0,-4.1204959700609338,-2.8544262275146655,-1.6237507930653483,-5.5617628109542672,-4.4364726117022171,-5.7248468462472486,7.1901608398041157,0.30348541995432349,-0.31633382840875607,0.31633382840875607,-0.30348541995432349,13.751475018672053,0.0
709640.0783812654,3980767.5119837918,-27500.0,-3.0910718557802377,-2.9037440423993712,-2.7418960473083565,-5.7095279446089533,-6.0113593532380341,-7.3680652414245191,8.3448829708163288,0.50605521719960866,-1.0890760002482611,1.0890760002482611,-0.50605521719960866,15.855871437821905,0.0
714640.0783812654,3980767.5119837918,-27500.0,-1.5701499691200238,-2.2819685776478185,-3.9145210269984907,-5.1400442595957179,-7.5817775671718861,-9.003305220049981,9.3537172574400191,1.0616153550845318,-2.419003210746911,2.419003210746911,-1.0616153550845318,17.625383927069095,0.0
719640.0783812654,3980767.5119837918,-27500.0,0.1184203147361195,-0.74702056236116199,-4.7447997985333883,-3.6180901768641958,-8.6914246675918445,-10.22104336148414,10.010613826632682,2.0963780302176183,-4.2743090367830145,4.2743090367830145,-2.0963780302176183,18.650489759633132,0.0
724640.0783812654,3980767.5119837918,-27500.0,1.3590748416479927,1.6541923983576245,-4.6583482755497698,-1.1856518094587543,-8.7153880960228118,-10.466291791628484,10.139956581459947,3.5693265155270515,-6.2783795130456008,6.2783795130456008,-3.5693265155270515,18.579310523790628,0.0
729640.0783812654,3980767.5119837918,-27500.0,1.4819095910040332,4.365487325057555,-3.1466156876691302,1.6408955507519039,-7.1110134979287407,-9.2474983872371954,9.7454470872227006,5.1259975311760968,-7.644139139441986,7.644139139441986,-5.1259975311760968,17.430768716574057,0.0
734640.0783812654,3980767.5119837918,-27500.0,0.24734954323618155,6.382354269522919,-0.1752648298888401,3.9250249859692925,-3.8184933000642705,-6.4683500142238888,9.1540812199212898,6.1150240447054935,-7.4418403313947712,7.4418403313947712,-6.1150240447054935,15.956332505632943,0.0
739640.0783812654,3980767.5119837918,-27500.0,-1.7957976177833626,6.7622345196345695,3.5631212478428149,4.7581894780072096,0.49026655225551635,-2.6434285006550864,8.9116773456412055,5.9037676704428721,-5.1953386593591881,5.1953386593591881,-5.9037676704428721,15.485622588372738,0.0
744640.0783812654,3980767.5119837918,-27500.0,-3.5502553440461968,5.2729041564458621,6.914082151741197,3.8384222165685435,4.6475701899777064,1.268948322015758,9.2575235734863153,4.3265303770658825,-1.3460175879606147,1.3460175879606147,-4.3265303770658825,16.57431885953568,0.0
749640.0783812654,3980767.5119837918,-27500.0,-4.1090508815517843,2.5586106493556229,8.9274530187982126,1.6515784516003784,7.615046528273024,4.3564310101528942,9.838220299823714,1.8430288026823236,2.9341018243461621,-2.9341018243461621,-1.8430288026823236,18.249491233914423,0.0
754640.0783812654,3980767.5119837918,-27500.0,-3.2956098061868637,-0.34261149598707991,9.3375324711346757,-0.90815381483198288,8.9730973653801076,6.1660726500552219,10.169536204787947,-0.76670676982222563,6.4527361676817589,-6.4527361676817589,0.76670676982222563,19.338168088026542,0.0
759640.0783812654,3980767.5119837918,-27500.0,-1.5750433896943654,-2.6230690168445485,8.5014548494596891,-3.07699603403587,8.9274257608522269,6.7557784592891927,10.032692766141228,-2.858896620724015,8.5767554693630785,-8.5767554693630785,2.858896620724015,19.368398924009657,0.0
764640.0783812654,3980767.5119837918,-27500.0,0.39496705031716328,-3.9721215348370347,7.0147990064367836,-4.4914967414100664,7.9889755063217072,6.4743813424028893,9.4626328123300301,-4.1569840338359132,9.3038393002921431,-9.3038393002921431,4.1569840338359132,18.435341563841551,0.0
769640.0783812654,3980767.5119837918,-27500.0,2.1192584898520743,-4.4727625263467417,5.3862101167906653,-5.1436683261456695,6.661593979508627,5.7167799873623624,8.6066670736486692,-4.7026819812803753,8.995293384415767,-8.995293384415767,4.7026819812803753,16.863614487751491,0.0
774640.0783812654,3980767.5119837918,-27500.0,3.3677057471314997,-4.378673350096042,3.918169188367123,-5.2094738964211649,5.2950916625127915,4.7886841933226849,7.6199833647968758,-4.6934877113458908,8.087779155729196,-8.087779155729196,4.6934877113458908,14.98626624464902,0.0
779640.0783812654,3980767.5119837918,-27500.0,4.1155452654331643,-3.9498323891721361,2.7319316432975569,-4.9040233265929736,4.0749340555923723,3.876759918054586,6.6203882706267274,-4.348542469189379,6.9337592591310582,-6.9337592591310582,4.348542469189379,13.054047003949613,0.0
784640.0783812654,3980767.5119837918,-27500.0,4.4450181695764561,-3.3818004502669727,1.8375294254910302,-4.4073238824594112,3.0690989255658492,3.0716107169546856,5.6808893700488126,-3.8430072669914699,5.7603592212486427,-5.7603592212486427,3.8430072669914699,11.222541602658119,0.0
789640.0783812654,3980767.5119837918,-27500.0,4.4706327047155465,-2.7964971755946557,1.1940266992543977,-3.8437522620975821,2.2793612424785503,2.4026890952616471,4.8382240537215502,-3.2933005235041559,4.6882432602261472,-4.6882432602261472,3.2933005235041559,9.5711884306402215,0.0
794640.0783812654,3980767.5119837918,-27500.0,4.2990161703605896,-2.2581568707159647,0.74631058214119905,-3.2879266546555828,1.6779514862570202,1.8669174504913939,4.1047253979466891,-2.7661583946649033,3.7663771125565413,-3.7663771125565413,2.7661583946649033,8.128471963089968,0.0
799640.0783812654,3980767.5119837918,-27500.0,4.0138939750010945,-1.7934257741773749,0.44274930426239512,-2.7785017504143243,1.2286283036481334,1.4471797874897832,3.4783768842071394,-2.2937884034512193,3.0024526798221212,-3.0024526798221212,2.2937884034512193,6.8929612480319546,0.0
804640.0783812654,3980767.5119837918,-27500.0,3.6745680871209445,-1.4074941072172067,0.24141786292990133,-2.3312655164719778,0.89680283179685383,1.1225417289539594,2.9498526306300459,-1.8872677047491626,2.3837915762498065,-2.3837915762498065,1.8872677047491626,5.8479185013766859,0.0
809640.0783812654,3980767.5119837918,-27500.0,3.3199010645182461,-1.0948441013090842,0.11075205735258073,-1.9488848699606511,0.65335595095948829,0.87312262958503661,2.506911917954866,-1.5460996176054342,1.8898109663624458,-1.8898109663624458,1.5460996176054342,4.970353608968618,0.0
814640.0783812654,3980767.5119837918,-27500.0,2.973563610651984,-0.84561939035138334,0.028034677061872019,-1.6272911311184641,0.47532179299071659,0.68196258942481558,2.1369023546138743,-1.2642527538392563,1.4986496811522891,-1.4986496811522891,1.2642527538392563,4.236134674886709,0.0
819640.0783812654,3980767.5119837918,-27500.0,2.6487430273346915,-0.64904491924264618,-0.022623426226039703,-1.359513187977496,0.34525360564630381,0.53538806461921939,1.8280444661619399,-1.0336505835218679,1.190252869901955,-1.190252869901955,1.0336505835218679,3.6225859242884981,0.0
824640.0783812654,3980767.5119837918,-27500.0,2.3517826055726694,-0.49506448871359182,-0.052126980308002627,-1.1378083850206264,0.25018918874794049,0.4227258257338124,1.5699783096571789,-0.84602127508994962,0.94750517277421786,-0.94750517277421786,0.84602127508994962,3.1096040696032445,0.0
829640.0783812654,3980767.5119837918,-27500.0,2.0847742376680829,-0.37498517251500713,-0.067861932303723407,-0.95474663153108819,0.18062330353848391,0.33580045945181991,1.3538910431477587,-0.69377308886679656,0.75638331625344257,-0.75638331625344257,0.69377308886679656,2.6799602432237788,0.0
644640.0783812654,3985767.5119837918,-27500.0,-0.87262560082555385,0.47234965057183864,0.31782908181011749,-0.31683197806280305,0.19731590000981278,-0.088146549619635972,0.82864721382603235,0.42525474526814977,-0.39111631643627176,0.39111631643627176,-0.42525474526814977,1.4785106528524194,0.0
649640.0783812654,3985767.5119837918,-27500.0,-1.0726903043839058,0.49614188118661912,0.37493200516457464,-0.41534801299320834,0.2141844018479809,-0.12508759105398637,0.96730697188145787,0.47837707874416635,-0.41971995658894146,0.41971995658894146,-0.47837707874416635,1.7364986361892083,0.0
654640.0783812654,3985767.5119837918,-27500.0,-1.3175366301879101,0.51092754924653183,0.44185540449733735,-0.54536830691169547,0.227409165181988,-0.17787877850886591,1.136492838930883,0.53691828017646004,-0.4454187453179439,0.4454187453179439,-0.53691828017646004,2.0542007792841654,0.0
659640.0783812654,3985767.5119837918,-27500.0,-1.6157130840532383,0.51057011763167837,0.51913908395200214,-0.71721225352381157,0.23285489983694829,-0.25372809472073271,1.3442459329890657,0.60029273521594029,-0.46535815491284699,0.46535815491284699,-0.60029273521594029,2.4480298775015519,0.0
664640.0783812654,3985767.5119837918,-27500.0,-1.9758522792425857,0.48626573153854163,0.60627614839644661,-0.94432683683964957,0.22372016503825484,-0.3632645234316294,1.6009093852624208,0.66713807596370356,-0.47561061399475602,0.47561061399475602,-0.66713807596370356,2.9391652806091129,0.0
669640.0783812654,3985767.5119837918,-27500.0,-2.4051399928670802,0.42576714771581298,0.70070331833136801,-1.2438137088446282,0.18904416683220418,-0.5221440174320201,1.9197408567391916,0.73497620374912709,-0.47111919132656721,0.47111919132656721,-0.73497620374912709,3.5547024871420261,0.0
674640.0783812654,3985767.5119837918,-27500.0,-2.9063812488837062,0.31274829537694038,0.79612756039205723,-1.6365253038032728,0.11151080244638278,-0.75329515377125267,2.3176044959076112,0.79988146332644916,-0.44603289840294347,0.44603289840294347,-0.79988146332644916,4.3287312988199727,0.0
679640.0783812654,3985767.5119837918,-27500.0,-3.4728295956228288,0.1268480987729359,0.87990089953310868,-2.1460045004256587,-0.03560643178944746,-1.0898676292061018,2.8156610102466582,0.85636633865933942,-0.39495129731905815,0.39495129731905815,-0.85636633865933942,5.3028728062073176,0.0
684640.0783812654,3985767.5119837918,-27500.0,-4.0797809410086749,-0.15445007170598699,0.92921856251682322,-2.7948609499275472,-0.29227512281682161,-1.578635416694699,3.4398067297842063,0.8979816696456413,-0.31602766250600417,0.31602766250600417,-0.8979816696456413,6.5252701227668153,0.0
689640.0783812654,3985767.5119837918,-27500.0,-4.6722577520362716,-0.54990339936643773,0.90634523538780287,-3.596122290312747,-0.71547988702551035,-2.2827676085421627,4.2200061413658947,0.91964571731098443,-0.21746948435279312,0.21746948435279312,-0.91964571731098443,8.0460959363536482,0.0
694640.0783812654,3985767.5119837918,-27500.0,-5.1498609153571353,-1.0609494383927369,0.75440103232268629,-4.5358522334346691,-1.3802928514294361,-3.2809850102622162,5.1858103203638226,0.92347045699703778,-0.12942694295571155,0.12942694295571155,-0.92347045699703778,9.9062104790045069,0.0
699640.0783812654,3985767.5119837918,-27500.0,-5.354809896222565,-1.6459612635709153,0.39835268305499261,-5.5429739905479432,-2.3718921813903986,-4.6565007484335474,6.3529160901944675,0.93046388917690082,-0.12247477307676063,0.12247477307676063,-0.93046388917690082,12.113954525887985,0.0
704640.0783812654,3985767.5119837918,-27500.0,-5.0794230967735841,-2.1802866223560455,-0.23844501035808066,-6.4460336492558543,-3.7562946242553554,-6.4637687335124578,7.6981465177543802,0.99943647952266068,-0.32908272226041579,0.32908272226041579,-0.99943647952266068,14.604701817158418,0.0
709640.0783812654,3985767.5119837918,-27500.0,-4.1237368042833005,-2.4127229016997833,-1.1851268016529866,-6.931280922409143,-5.5123571190509981,-8.6571720144127866,9.1274297258395514,1.2479680583672759,-0.95083884888521941,0.95083884888521941,-1.2479680583672759,17.183112806119823,0.0
714640.0783812654,3985767.5119837918,-27500.0,-2.4382626004371271,-1.9605842509829274,-2.3268888674108119,-6.5491936302181619,-7.4151401602588134,-10.975236286849023,10.447508863947544,1.8529773849474389,-2.2093107668137502,2.2093107668137502,-1.8529773849474389,19.468012550895558,0.0
719640.0783812654,3985767.5119837918,-27500.0,-0.34004302840754519,-0.42929114108361272,-3.2829169963663341,-4.857194908852339,-8.9069343307635602,-12.82020382684335,11.371717002411224,2.9824116435270955,-4.1799726585398638,4.1799726585398638,-2.9824116435270955,20.904968733132137,0.0
724640.0783812654,3985767.5119837918,-27500.0,1.3546786748528759,2.2653997364151937,-3.3745018262834767,-1.7679363993623323,-9.0945486173342953,-13.26785340121168,11.623506770451804,4.6102954360409081,-6.5028353354454138,6.5028353354454138,-4.6102954360409081,20.974659659920395,0.0
729640.0783812654,3985767.5119837918,-27500.0,1.6011943461107545,5.4844812309655486,-1.887986286811004,2.0272739280687424,-7.0896574851150147,-11.406416676485399,11.19840228878684,6.2761931557098194,-8.1730326419333572,8.1730326419333572,-6.2761931557098194,19.731808664417034,0.0
734640.0783812654,3985767.5119837918,-27500.0,-0.061796613006963985,7.8294150905762816,1.3191606967892362,5.0337275248682998,-2.7134002044198504,-7.0116040820014476,10.671938678217995,7.0726297842556471,-7.8478444203015227,7.8478444203015227,-7.0726297842556471,18.488005212760878,0.0
739640.0783812654,3985767.5119837918,-27500.0,-2.7889884544753749,7.9290411337740148,5.3496614607781163,5.7551822029028017,2.9787113005444668,-1.0500910557846097,10.932805334416646,6.1551224870511643,-4.8197384972365658,4.8197384972365658,-6.1551224870511643,19.227655055798728,0.0
744640.0783812654,3985767.5119837918,-27500.0,-4.8387333531551242,5.5644689084285286,8.6530265487934184,3.8357695992092657,8.1174861073156848,4.6856816956175287,12.02190270871985,3.4868625314672261,0.15920445896372981,-0.15920445896372981,-3.4868625314672261,21.884949538192089,0.0
749640.0783812654,3985767.5119837918,-27500.0,-4.9591296093586772,1.8797044281274071,10.10363115825947,0.32252499973877519,11.215055080224618,8.6687643133795298,13.046694118321309,-0.015769418620226627,5.2741518511476038,-5.2741518511476038,0.015769418620226627,24.404443519211195,0.0
754640.0783812654,3985767.5119837918,-27500.0,-3.2223221742968842,-1.5858082642559024,9.650551385637824,-3.2372710467252293,11.954923313039513,10.409610091101635,13.331891048431359,-3.163739118041005,8.9353585218266076,-8.9353585218266076,3.163739118041005,25.373273731491963,0.0
759640.0783812654,3985767.5119837918,-27500.0,-0.58949456243234433,-3.8970407681393544,8.0102404682149668,-5.7979468037730664,10.965248122072584,10.331242873296237,12.79323257995765,-5.2320474708261253,10.593566058239379,-10.593566058239379,5.2320474708261253,24.625633824341378,0.0
764640.0783812654,3985767.5119837918,-27500.0,1.9594433020733086,-4.9227219555919941,5.9999827343827379,-7.0886626389059888,9.1327195066014184,9.1903907876685693,11.67479949325161,-6.1274536609673849,10.58197041038086,-10.58197041038086,6.1274536609673849,22.650878948390034,0.0
769640.0783812654,3985767.5119837918,-27500.0,3.8787752101368969,-4.9875685430825261,4.1544017023197481,-7.3359998381085845,7.138582963421312,7.6399989777715769,10.276945731066276,-6.1320419383943268,9.5580954661839321,-9.5580954661839321,6.1320419383943268,20.053488031935959,0.0
774640.0783812654,3985767.5119837918,-27500.0,5.0421882488670375,-4.5052141208965768,2.6935510297003771,-6.9174047815451081,5.3513926852085696,6.0871294631422437,8.8301836280202455,-5.6113356039038909,8.1056151988694243,-8.1056151988694243,5.6113356039038909,17.30366225198447,0.0
779640.0783812654,3985767.5119837918,-27500.0,5.557353234369784,-3.7978404634395853,1.6379178298260084,-6.1642246445203845,3.9036420664852516,4.7254632050855978,7.4725973062954454,-4.8599268524795916,6.6028864968298686,-6.6028864968298686,4.8599268524795916,14.689197145828102,0.0
784640.0783812654,3985767.5119837918,-27500.0,5.6072457052770766,-3.0619692489438464,0.9210059884880486,-5.3025278271429475,2.7979124938585915,3.6141640621508864,6.2692872178728658,-4.0655542369718862,5.2433911666139306,-5.2433911666139306,4.0655542369718862,12.3513348611288,0.0
789640.0783812654,3985767.5119837918,-27500.0,5.3649833991483344,-2.3954308334876231,0.45653028832784642,-4.4622985181891242,1.98297076237968,2.7440947883245417,5.2389267451908026,-3.3276020653535152,4.0988702998158235,-4.0988702998158235,3.3276020653535152,10.33656471755889,0.0
794640.0783812654,3985767.5119837918,-27500.0,4.9635518786184596,-1.8344453227350277,0.16782141710568041,-3.7061269514752766,1.3951849791647524,2.0791246533377161,4.3748654942900824,-2.687523940492746,3.1749751727064575,-3.1749751727064575,2.687523940492746,8.6387116409251146,0.0
799640.0783812654,3985767.5119837918,-27500.0,4.493617443974089,-1.3824134553858654,-0.0038619253456451111,-3.0558932373432151,0.97661004771044613,1.5775995776375755,3.6588969806593634,-2.154094748943753,2.4477156544774461,-2.4477156544774461,2.154094748943753,7.2267353317190759,0.0
804640.0783812654,3985767.5119837918,-27500.0,4.011714414625593,-1.0279724918332678,-0.10013951578109311,-2.5116901892959724,0.68063448993716091,1.2016783611916668,3.0692375072578058,-1.7201108694140939,1.8836924054646953,-1.8836924054646953,1.7201108694140939,6.0609341404847248,0.0
809640.0783812654,3985767.5119837918,-27500.0,3.5501357884337064,-0.75490606746740319,-0.149145774185619,-2.0635074341247184,0.4720736278016649,0.92032056809964125,2.5846561500191507,-1.3720718946651413,1.4498686038302495,-1.4498686038302495,1.3720718946651413,5.1014296083859874,0.0
814640.0783812654,3985767.5119837918,-27500.0,3.1252744995838113,-0.54696762758438144,-0.16932119678971086,-1.6977741688747858,0.32529808325292237,0.70938481149568955,2.1862748828637608,-1.0952276546104174,1.1174949795917657,-1.1174949795917657,1.0952276546104174,4.3120520276963852,0.0
819640.0783812654,3985767.5119837918,-27500.0,2.7437149560448471,-0.38987446310060364,-0.17248636013142932,-1.4006965454437197,0.22201552024822535,0.55064458333845656,1.8580929751487771,-0.87590642687653819,0.86310844934454756,-0.86310844934454756,0.87590642687653819,3.6617051315798701,0.0
824640.0783812654,3985767.5119837918,-27500.0,2.406338995379119,-0.27186818463826889,-0.16608155131529057,-1.1597590941050537,0.14931646648152366,0.43056406965026761,1.586900831243387,-0.7023799152775424,0.66823461659179351,-0.66823461659179351,0.7023799152775424,3.1244610145794951,0.0
829640.0783812654,3985767.5119837918,-27500.0,2.1109479362369745,-0.183622881014705,-0.15470819455373652,-0.96424630624962504,0.098140525285696445,0.33917546276510852,1.3619517819674916,-0.56500487119872311,0.51862650490722861,-0.51862650490722861,0.56500487119872311,2.6790871256099549,0.0
644640.0783812654,3990767.5119837918,-27500.0,-0.64000600218246662,0.61884121706958684,0.29795812197160687,-0.21300680074584025,0.25611290253934088,-0.052036946474923913,0.83830914232849674,0.44355655433622526,-0.46727833057286267,0.46727833057286267,-0.44355655433622526,1.4682577880498808,0.0
649640.0783812654,3990767.5119837918,-27500.0,-0.81185005962174617,0.67983325964279684,0.35862848232634409,-0.29171175185650416,0.29154850808822425,-0.079406191164417994,0.97611397527310362,0.50717163261455789,-0.51618726242249258,0.51618726242249258,-0.50717163261455789,1.71638947368001,0.0
654640.0783812654,3990767.5119837918,-27500.0,-1.0275952433420839,0.74182989458789517,0.43278418767739196,-0.39856400274335402,0.32976239394201218,-0.11999863889429047,1.1438798157743162,0.58026213702532881,-0.56731471074161666,0.56731471074161666,-0.58026213702532881,2.0210711382550666,0.0
659640.0783812654,3990767.5119837918,-27500.0,-1.2977014748673135,0.80124110804992099,0.52307704896871099,-0.54392136421951554,0.36893532813533891,-0.18043466281248277,1.3495393015134365,0.66365344239082769,-0.61879095098737891,0.61879095098737891,-0.66365344239082769,2.3981403765182145,0.0
664640.0783812654,3990767.5119837918,-27500.0,-1.6340827453786535,0.85218023513554308,0.63217478260036863,-0.74188026881230118,0.40536091613848124,-0.27080931616714249,1.6033854251572208,0.75779343724399117,-0.6675586837710159,0.6675586837710159,-0.75779343724399117,2.8683887167703177,0.0
669640.0783812654,3990767.5119837918,-27500.0,-2.049223602855899,0.88544625943715205,0.76220677241171564,-1.0113499866182505,0.43210401331856374,-0.40654911649327824,1.9187712032975939,0.86243360169957251,-0.70898085909837139,0.70898085909837139,-0.86243360169957251,3.4590357806500172,0.0
674640.0783812654,3990767.5119837918,-27500.0,-2.5540211916404996,0.88730113682352119,0.91364830395374863,-1.3770415262159788,0.4368386166118769,-0.61119563225344686,2.3129540486607274,0.97621097563446912,-0.7365514808515633,0.7365514808515633,-0.97621097563446912,4.2053953328099771,0.0
679640.0783812654,3990767.5119837918,-27500.0,-3.1533189544510662,0.83832313863094776,1.0832474683410716,-1.8697628962654615,0.39848722324927899,-0.92042459620450934,2.8080413540000517,1.0962233469963236,-0.74207867965121577,0.74207867965121577,-1.0962233469963236,5.1524052758254202,0.0
684640.0783812654,3990767.5119837918,-27500.0,-3.8375718683492801,0.71316028580217106,1.2604456533769637,-2.524617498437332,0.28230591958577722,-1.3874376515529436,3.431893862750087,1.2179123962206844,-0.71717133913774678,0.71717133913774678,-1.2179123962206844,6.3551613969291916,0.0
689640.0783812654,3990767.5119837918,-27500.0,-4.5687187507541758,0.48313820307873029,1.421737774201657,-3.3742160997794501,0.033483437698437132,-2.0891202538255724,4.2185656363674751,1.3360579176197951,-0.65769265629454532,0.65769265629454532,-1.3360579176197951,7.8765274673434069,0.0
694640.0783812654,3990767.5119837918,-27500.0,-5.2590631607022615,0.12570695717861322,1.5230315453247705,-4.4316218817103561,-0.4291444495682209,-3.1302107150983791,5.2067818870940856,1.4485940735620237,-0.5740627107114078,0.5740627107114078,-1.4485940735620237,9.7779579430384036,0.0
699640.0783812654,3990767.5119837918,-27500.0,-5.7461481455393164,-0.3524813065057178,1.4924182075711558,-5.6550103973002761,-1.2136018460938112,-4.637648601353705,6.4312762135438613,1.5662301355952675,-0.51125406080692926,0.51125406080692926,-1.5662301355952675,12.096706655219016,0.0
704640.0783812654,3990767.5119837918,-27500.0,-5.7787705199803625,-0.8706816596142487,1.2318809799394086,-6.8863229420814971,-2.4352240809695083,-6.7274579618171835,7.896260911833286,1.7313813836727929,-0.58027855718389276,0.58027855718389276,-1.7313813836727929,14.79965198818458,0.0
709640.0783812654,3990767.5119837918,-27500.0,-5.0539927439628451,-1.2072084060839394,0.64801991800029968,-7.7698209299148999,-4.1494552618912941,-9.4131475861288099,9.52587564029443,2.0455121342335154,-0.99057174384966795,0.99057174384966795,-2.0455121342335154,17.706142454186836,0.0
714640.0783812654,3990767.5119837918,-27500.0,-3.3737060148082794,-0.94570705874968664,-0.25662816858582238,-7.7033121748315727,-6.2025921513379521,-12.422659029815584,11.107567899851681,2.6852186171689385,-2.0381062304188116,2.0381062304188116,-2.6852186171689385,20.394327766341235,0.0
719640.0783812654,3990767.5119837918,-27500.0,-0.96574517330711873,0.45255719042337944,-1.2185960162423464,-5.9657265973121145,-8.0076808289071639,-14.947959239511327,12.27243998986277,3.8460806100447553,-3.9497176085131493,3.9497176085131493,-3.8460806100447553,22.176198759832054,0.0
724640.0783812654,3990767.5119837918,-27500.0,1.1862935882498575,3.2736550591560833,-1.5735491780178676,-2.2186448503220277,-8.4137727264435966,-15.536786172294489,12.623698206879071,5.5221516874773808,-6.4905519013260484,6.4905519013260484,-5.5221516874773808,22.37001072410396,0.0
729640.0783812654,3990767.5119837918,-27500.0,1.5522390297280022,6.8884209908343621,-0.44329048051296721,2.6856193632991685,-6.0760038632138835,-12.578261129173281,12.1991875357506,7.1480314197822219,-8.5157664301100695,8.5157664301100695,-7.1480314197822219,21.217857970993546,0.0
734640.0783812654,3990767.5119837918,-27500.0,-0.68615625706784888,9.4770274102644905,2.498966572368257,6.4284864870340197,-0.58353095272334699,-5.6117848298813087,12.13908964512467,7.5215360203660211,-8.1948131613858681,8.1948131613858681,-7.5215360203660211,21.084011538545305,0.0
739640.0783812654,3990767.5119837918,-27500.0,-4.2418069646463694,9.1308463946968583,6.2481554258280756,6.5994998411278827,6.4968445231640048,3.5289895770657225,13.757255441452855,5.5871670309770307,-4.4724026496410962,4.4724026496410962,-5.5871670309770307,24.419530191302805,0.0
744640.0783812654,3990767.5119837918,-27500.0,-6.4024185524485366,5.7171643050106526,8.9380591187528289,2.920449712991116,12.31318370277606,11.517676369216979,16.104996803870264,1.6180940333225662,1.5006114073768098,-1.5006114073768098,-1.6180940333225662,29.326535808295436,0.0
749640.0783812654,3990767.5119837918,-27500.0,-5.5863989462298731,1.1063720433168522,9.4231352797873456,-2.4596190213078866,14.915914898083548,15.959530509140391,17.478348982134129,-2.7810148918579327,7.1028852740928112,-7.1028852740928112,2.7810148918579327,32.486824012379103,0.0
754640.0783812654,3990767.5119837918,-27500.0,-2.4926366863388307,-2.6239868643916293,8.0317666778139269,-7.0261060233175296,14.405282985870837,16.706836066407384,17.317065290060523,-6.0246198466597143,10.425462295156262,-10.425462295156262,6.0246198466597143,32.689612677135358,0.0
759640.0783812654,3990767.5119837918,-27500.0,1.1636952224554455,-4.6104598598556725,5.8375490604552018,-9.5973726253934331,12.104134073634286,15.054196778603213,15.961358648591732,-7.5464093014995814,11.248079424480251,-11.248079424480251,7.5464093014995814,30.487647637656536,0.0
764640.0783812654,3990767.5119837918,-27500.0,4.127728570445087,-5.0878206995434399,3.7237945497035962,-10.294535830761486,9.3075770688629937,12.415953048711122,13.995985375059149,-7.651608276052154,10.379944643731868,-10.379944643731868,7.651608276052154,26.975708675336627,0.0
769640.0783812654,3990767.5119837918,-27500.0,5.9757432171087128,-4.6670517973233245,2.086574309448165,-9.7647113058543642,6.7628965594699615,9.7110792856866155,11.888060326266897,-6.9277824878072911,8.7449870667756517,-8.7449870667756517,6.9277824878072911,23.069653464109891,0.0
774640.0783812654,3990767.5119837918,-27500.0,6.8136890417981562,-3.8712700290287283,0.9737265445940686,-8.6314799255036636,4.738883900553164,7.3632350827437154,9.9087965023500022,-5.8677958632234022,6.9706806833610466,-6.9706806833610466,5.8677958632234022,19.324986028050077,0.0
779640.0783812654,3990767.5119837918,-27500.0,6.9306095694561867,-3.0169237223847984,0.2851384190847977,-7.3156807031820579,3.2433323620552152,5.4893067346877418,8.1770935681550849,-4.773036168830652,5.3706007324593141,-5.3706007324593141,4.773036168830652,16.002567212468978,0.0
784640.0783812654,3990767.5119837918,-27500.0,6.6090136763718936,-2.2531860615993553,-0.10629623834291774,-6.0474626835193543,2.1845087158289562,4.0611155551138065,6.7211572670190689,-3.7888450561165676,4.0529588052622323,-4.0529588052622323,3.7888450561165676,13.181025702518072,0.0
789640.0783812654,3990767.5119837918,-27500.0,6.0611184186630025,-1.6293255401120139,-0.30684913488914167,-4.9285300178177822,1.4535741635059998,3.0000665252246312,5.5241454381414892,-2.965023534169986,3.0211019590462973,-3.0211019590462973,2.965023534169986,10.844460955864697,0.0
794640.0783812654,3990767.5119837918,-27500.0,5.4257221180970978,-1.145421093287444,-0.3922178127481345,-3.98779450337129,0.95643932521730934,2.2220345436560747,4.5514648386519658,-2.3026325914811467,2.2361068408224654,-2.2361068408224654,2.3026325914811467,8.9364975937401088,0.0
799640.0783812654,3990767.5119837918,-27500.0,4.7848286117485683,-0.78200020836818707,-0.41189962489212162,-3.2183562033238684,0.62124705866407126,1.6544970231645777,3.7650683333435655,-1.7822616793651496,1.648731552711499,-1.648731552711499,1.7822616793651496,7.3894075756668274,0.0
804640.0783812654,3990767.5119837918,-27500.0,4.1820865290789646,-0.51488626910997393,-0.39654318921425907,-2.5987280180639116,0.39642032444812592,1.2405429499049239,3.1298876702407745,-1.3787667834816604,1.2131608855783254,-1.2131608855783254,1.3787667834816604,6.1380145522008034,0.0
809640.0783812654,3990767.5119837918,-27500.0,3.6373443229596392,-0.32159859868226109,-0.36435939907195558,-2.1037730863174389,0.24616664311505274,0.93762404266358734,2.6160314637763626,-1.0679846698035187,0.89152479618426173,-0.89152479618426173,1.0679846698035187,5.1252605979959709,0.0
814640.0783812654,3990767.5119837918,-27500.0,3.1566531723679065,-0.1834927182263596,-0.32575986341136093,-1.7097203607375886,0.14610260978953127,0.71474879307618244,2.1990014584349105,-0.8292297619277369,0.65431195730303982,-0.65431195730303982,0.8292297619277369,4.3035863757159252,0.0
819640.0783812654,3990767.5119837918,-27500.0,2.7386235630058096,-0.085983553181567418,-0.2864313532758514,-1.3960577461426424,0.079775540548325891,0.54964558720502643,1.8591319837321991,-0.64579006601032329,0.47925389375719263,-0.47925389375719263,0.64579006601032329,3.6344197410713912,0.0
824640.0783812654,3990767.5119837918,-27500.0,2.3782480834686353,-0.018034061036763083,-0.2492760687150066,-1.1459102453924692,0.036129769275755029,0.42640156289530079,1.5808096751806209,-0.50458825939874841,0.34984631104573227,-0.34984631104573227,0.50458825939874841,3.0869542870381212,0.0
829640.0783812654,3990767.5119837918,-27500.0,2.069093685718653,0.028544464813746045,-0.21559861058290877,-0.94576157761201052,0.0077420196250605278,0.33365730303189495,1.351705212999412,-0.39557435503439609,0.25397368147601929,-0.25397368147601929,0.39557435503439609,2.6367857808260289,0.0
644640.0783812654,3995767.5119837918,-27500.0,-0.35536186983790807,0.73953168273700209,0.25027646356328903,-0.088271890247185889,0.30364679464054228,-0.0092237094983003559,0.85900730980824325,0.43361560960910833,-0.52469424283927857,0.52469424283927857,-0.43361560960910833,1.4891863937059584,0.0
649640.0783812654,3995767.5119837918,-27500.0,-0.48326770944488284,0.83447305752967782,0.30596180901780051,-0.13937312670781826,0.35548707902173682,-0.023970852169505043,0.9975420310151194,0.50129812817815078,-0.59196066830657501,0.59196066830657501,-0.50129812817815078,1.7314068975965629,0.0
654640.0783812654,3995767.5119837918,-27500.0,-0.64914175123850471,0.94079930550730073,0.37598240002412886,-0.21208052528453034,0.4163760916533672,-0.047777409935352455,1.1653753552135775,0.58101535624784684,-0.66704260212710786,0.66704260212710786,-0.58101535624784684,2.0264247044882886,0.0
659640.0783812654,3995767.5119837918,-27500.0,-0.8637747959622365,1.0581878702424339,0.46419365009697838,-0.31541775043329506,0.48708441125308066,-0.085836506379062955,1.3700271290592005,0.67473240216235908,-0.74963843710947686,0.74963843710947686,-0.67473240216235908,2.388538072480304,0.0
664640.0783812654,3995767.5119837918,-27500.0,-1.1404249381615597,1.1849280756908782,0.57531197059587491,-0.46217875811427361,0.56759190177233732,-0.14638795981759539,1.6211937796542792,0.78446844857708542,-0.83852098306491007,0.83852098306491007,-0.78446844857708542,2.8365171724993128,0.0
669640.0783812654,3995767.5119837918,-27500.0,-1.4946707151679635,1.3169762621804899,0.71486143635180299,-0.67035626589304809,0.65616503704552021,-0.24255209960901714,1.9313835585172527,0.9120816322807167,-0.93098942951301977,0.93098942951301977,-0.9120816322807167,3.3950414842921512,0.0
674640.0783812654,3995767.5119837918,-27500.0,-1.94335130228908,1.4465855083599402,0.8887997657075617,-0.96484626057554879,0.74768691346688654,-0.39524437904968879,2.3166845954791637,1.0589101273194683,-1.0221658124330442,1.0221658124330442,-1.0589101273194683,4.0964573746165787,0.0
679640.0783812654,3995767.5119837918,-27500.0,-2.5015893773418605,1.5605025866509339,1.1024674749498207,-1.3790692142952607,0.83073945128605831,-0.63770387683412411,2.7976268497028545,1.2252587111963607,-1.1042772278443986,1.1042772278443986,-1.2252587111963607,4.9826830536985165,0.0
684640.0783812654,3995767.5119837918,-27500.0,-3.1761316140921458,1.638043547549703,1.3582285226630226,-1.9554189638495389,0.88272917205153822,-1.0222150668453851,3.4000195784721448,1.4098431216636587,-1.1664139849533646,1.1664139849533646,-1.4098431216636587,6.1066625377281136,0.0
689640.0783812654,3995767.5119837918,-27500.0,-3.9522438279110248,1.6502165080407198,1.6508000996818513,-2.7418437681595829,0.86229383753597622,-1.6291867166405962,4.1555010849367671,1.6096515805797149,-1.196045449841574,1.196045449841574,-1.6096515805797149,7.5317940664876648,0.0
694640.0783812654,3995767.5119837918,-27500.0,-4.7707653618843189,1.563019683288619,1.9590120468617926,-3.7787198824992441,0.69892452590668164,-2.5768909974655827,5.1011910547687878,1.821493978367934,-1.1851429137509437,1.1851429137509437,-1.821493978367934,9.3257413905705491,0.0
699640.0783812654,3995767.5119837918,-27500.0,-5.4938834226411855,1.351779904899866,2.2333989588425252,-5.065072490390814,0.28277583655375199,-4.0245848990718063,6.2761689848977049,2.0480366260454739,-1.1462303785195611,1.1462303785195611,-2.0480366260454739,11.54134904653978,0.0
704640.0783812654,3995767.5119837918,-27500.0,-5.8686079296924705,1.038540613653786,2.3828331489437584,-6.4881354907684496,-0.53359533938716019,-6.1482890030840229,7.7051159431898686,2.3130030947302878,-1.1456436929690212,1.1456436929690212,-2.3130030947302878,14.172150559879707,0.0
709640.0783812654,3995767.5119837918,-27500.0,-5.5266012875581092,0.7652923077423569,2.274673034766491,-7.7061759266130583,-1.89067143671404,-9.0433409323769425,9.3464389733949549,2.6892031048091214,-1.3558523067647517,1.3558523067647517,-2.6892031048091214,17.067476793610926,0.0
714640.0783812654,3995767.5119837918,-27500.0,-4.1139015145566429,0.89125743593957762,1.7847616579056003,-8.0233300507740744,-3.7768867639124881,-12.481593660393639,10.999701689585192,3.3280796609282461,-2.0970526420715014,2.0970526420715014,-3.3280796609282461,19.810850870504844,0.0
719640.0783812654,3995767.5119837918,-27500.0,-1.6760105324071539,2.0110467141845203,0.94887950932031551,-6.4370765621120789,-5.7329239345767826,-15.491182901028438,12.239973183873174,4.4305562570610197,-3.7551293627980731,3.7551293627980731,-4.4305562570610197,21.657617247964389,0.0
724640.0783812654,3995767.5119837918,-27500.0,0.7683819613181524,4.6339460957464045,0.19578293461913726,-2.2343689880157473,-6.5284446004731178,-16.003024785900028,12.57484250936611,6.0264360109332706,-6.3734501858667016,6.3734501858667016,-6.0264360109332706,21.892099328963202,0.0
729640.0783812654,3995767.5119837918,-27500.0,1.2005629979587413,8.3284330437189364,0.37050411360183649,3.6878908507002439,-4.384214601535068,-11.395253515925056,12.320402652256877,7.5086884662991737,-8.9269858385990624,8.9269858385990624,-7.5086884662991737,21.341095161400528,0.0
734640.0783812654,3995767.5119837918,-27500.0,-1.6995077237393248,11.040059272776972,2.0470693155855648,7.9798418418769375,1.5321336115984596,-0.78164672559057913,13.812178011549516,7.4293537326783845,-9.1936489232544911,9.1936489232544911,-7.4293537326783845,23.982600469868324,0.0
739640.0783812654,3995767.5119837918,-27500.0,-6.0982757895058874,10.3377674971602,4.4742111213044025,6.9499413881417142,9.2635059999115192,12.544975260444605,17.868445397160372,4.5582857315887821,-5.5690846024095286,5.5690846024095286,-4.5582857315887821,31.387796324259757,0.0
744640.0783812654,3995767.5119837918,-27500.0,-8.0046540009695768,6.180733667424759,5.9015290775244544,0.6633525982637436,14.945413164781225,22.709472623753381,21.542681001962901,-0.3907354608281981,0.60709168412918224,-0.60709168412918224,0.3907354608281981,38.673555230964944,0.0
749640.0783812654,3995767.5119837918,-27500.0,-5.6926929563172459,1.1727757309355946,5.4295241293878451,-6.880381855879441,16.35423834356499,26.356129512180619,22.767121081728789,-5.0662211049652202,6.0361483810842911,-6.0361483810842911,5.0662211049652202,41.748117098508061,0.0
754640.0783812654,3995767.5119837918,-27500.0,-1.002175332992151,-2.2887654830324431,3.701398030832554,-12.024988700486819,14.335755132576599,24.56076463786858,21.5802402907137,-7.7321814880899105,8.6962577733283659,-8.6962577733283659,7.7321814880899105,40.266715367754763,0.0
759640.0783812654,3995767.5119837918,-27500.0,3.4760380004729416,-3.6840517806323421,1.8116564791613843,-13.90915651759782,10.952038181048188,20.214521351159849,18.999763419346312,-8.2955541119938818,8.8160653268519535,-8.8160653268519535,8.2955541119938818,35.941038545526553,0.0
764640.0783812654,3995767.5119837918,-27500.0,6.4644044554414331,-3.6671296036010106,0.38112642106352351,-13.460350576043597,7.6799893468851748,15.512744966639698,15.994131307639918,-7.5466309988531286,7.5648913455284159,-7.5648913455284159,7.5466309988531286,30.5737738807806,0.0
769640.0783812654,3995767.5119837918,-27500.0,7.902122829146073,-3.0128350304299376,-0.48238444107671552,-11.859823780170876,5.0999643042491796,11.460585231026405,13.134220015919402,-6.2713325463330936,5.9153122840125238,-5.9153122840125238,6.2713325463330936,25.298720589688308,0.0
774640.0783812654,3995767.5119837918,-27500.0,8.2140774838697226,-2.2136774830462889,-0.90380283628622426,-9.9177073461606504,3.2626606662496727,8.3070302185529989,10.657100620981684,-4.9472686953847687,4.3761004719583694,-4.3761004719583694,4.9472686953847687,20.632756445328116,0.0
779640.0783812654,3995767.5119837918,-27500.0,7.8561493647048239,-1.495868108387534,-1.0445506106383875,-8.0545375983595804,2.0257946202331762,5.9757260586204595,8.6116739588077031,-3.7866455915499309,3.1257875305535023,-3.1257875305535023,3.7866455915499309,16.723411484513981,0.0
784640.0783812654,3995767.5119837918,-27500.0,7.166079001904829,-0.92981427385828508,-1.0303405359074598,-6.4398741048885011,1.2202630930205567,4.296895307178584,6.9632902015663891,-2.8488284504487571,2.1792327623716488,-2.1792327623716488,2.8488284504487571,13.541536112328757,0.0
789640.0783812654,3995767.5119837918,-27500.0,6.3559920688534142,-0.51469660180193311,-0.94209047698373538,-5.1118554582973132,0.7066167794391579,3.1025235888504867,5.6498937533437523,-2.1233933957998068,1.4902738358528524,-1.4902738358528524,2.1233933957998068,10.990397751816404,0.0
794640.0783812654,3995767.5119837918,-27500.0,5.5448643100112962,-0.22463612250078888,-0.82641437988225663,-4.0501121197663394,0.38413600242872697,2.2558977669256155,4.6075826531786097,-1.5755739412546423,1.0002564069849929,-1.0002564069849929,1.5755739412546423,8.9587867891702242,0.0
799640.0783812654,3995767.5119837918,-27500.0,4.7919842048545327,-0.02963612495932123,-0.70784512107254582,-3.2139059019473892,0.1845444527505368,1.6547341491159535,3.7801798680244665,-1.1671668095095211,0.65663529313626245,-0.65663529313626245,1.1671668095095211,7.3436025880891318,0.0
804640.0783812654,3995767.5119837918,-27500.0,4.121620724992316,0.096554661678147607,-0.59797441641136873,-2.5599301668322658,0.063080404578851279,1.2256620327945793,3.1215241660059658,-0.8645504866620688,0.41791034941771832,-0.41791034941771832,0.8645504866620688,6.0574776656500475,0.0
809640.0783812654,3995767.5119837918,-27500.0,3.5389501013547013,0.17447789773474723,-0.50130080499984375,-2.04948958846269,-0.0090765072730145356,0.91717166825988683,2.5949042178659929,-0.6407603391890172,0.25323080799311304,-0.25323080799311304,0.6407603391890172,5.0296624466225603,0.0
814640.0783812654,3995767.5119837918,-27500.0,3.0395959898428,0.21930787544429714,-0.41867941193414482,-1.6505918730721205,-0.050306170684001672,0.69345724879655801,2.1716049788438956,-0.47516238799515048,0.14039011307925681,-0.14039011307925681,0.47516238799515048,4.2042457598164882,0.0
819640.0783812654,3995767.5119837918,-27500.0,2.61503536194463,0.24188509015864584,-0.34925039576768807,-1.3378318927104036,-0.072274054108260086,0.52969879045174018,1.8293472478208235,-0.35236039915726369,0.06368284023793111,-0.06368284023793111,0.35236039915726369,3.5376070298357063,0.0
824640.0783812654,3995767.5119837918,-27500.0,2.2555068111835013,0.24979240404634617,-0.29146933350209697,-1.091473729102201,-0.082366601025666411,0.40866260701160867,1.5509007127738779,-0.26101951476970076,0.012104559212801624,-0.012104559212801624,0.26101951476970076,2.9959204053706556,0.0
829640.0783812654,3995767.5119837918,-27500.0,1.9514713548026763,0.24825778711275817,-0.24363002604337392,-0.89636216936955504,-0.085253744479182977,0.31832739270486732,1.3229397155829452,-0.19284807295933373,-0.022021545874650966,0.022021545874650966,0.19284807295933373,2.5529999044785914,0.0
834640.0783812654,3995767.5119837918,-27500.0,1.6942698955547186,0.24084570498983576,-0.20411063488489165,-0.7409215062307003,-0.083882205989369574,0.25025351302666399,1.1351371065482156,-0.14179300775698839,-0.04404323775702617,0.04404323775702617,0.14179300775698839,2.1885524975657038,0.0
644640.0783812654,4000767.5119837918,-27500.0,-0.028941156387389467,0.82224446905039561,0.17879697040689652,0.053034315176752438,0.33514027149917164,0.038849347745998498,0.89374351520325945,0.39395503737052684,-0.55488382645562595,0.55488382645562595,-0.39395503737052684,1.5515543273066095,0.0
649640.0783812654,4000767.5119837918,-27500.0,-0.099027731863225638,0.94341682260948556,0.22137965298135595,0.036235895492254505,0.39915006619505911,0.039298847794883428,1.0362233663883971,0.4582038232136495,-0.63558158328820558,0.63558158328820558,-0.4582038232136495,1.7970758546051344,0.0
654640.0783812654,4000767.5119837918,-27500.0,-0.19613611478898246,1.0849493490943776,0.2760795607796786,0.0073704262312588179,0.47733855731030705,0.036253961788202359,1.2080235420757133,0.53494314135140952,-0.72907303244331201,0.72907303244331201,-0.53494314135140952,2.093398932280385,0.0
659640.0783812654,4000767.5119837918,-27500.0,-0.32951011435567279,1.2497853248329858,0.34672003125693612,-0.039798798963900123,0.57283683578063915,0.026786997024981194,1.4162950139092974,0.62668347202249486,-0.83682701402743687,0.83682701402743687,-0.62668347202249486,2.4532354193768819,0.0
664640.0783812654,4000767.5119837918,-27500.0,-0.51122409033641714,1.4406589234789648,0.43833837460698671,-0.11457831409876237,0.68914056648607291,0.0058919196701999205,1.6700693762815191,0.73629041135188655,-0.95993657179943537,0.95993657179943537,-0.73629041135188655,2.8928648468646205,0.0
669640.0783812654,4000767.5119837918,-27500.0,-0.75665128687104022,1.6594867640233393,0.55747756810803073,-0.23077480918396825,0.82975442690777113,-0.034962784279122382,1.9806950907646259,0.8668887986067545,-1.098633808116493,1.098633808116493,-0.8668887986067545,3.4331202252740982,0.0
674640.0783812654,4000767.5119837918,-27500.0,-1.0845034417005823,1.9062973309814137,0.71241086886647553,-0.40864155423224724,0.99732708632350997,-0.11027526727757117,2.3622770505565684,1.0216306330389333,-1.2515122312909357,1.2515122312909357,-1.0216306330389333,4.1005210986144425,0.0
679640.0783812654,4000767.5119837918,-27500.0,-1.5156975503635133,2.1774806220093077,0.91308537109429277,-0.67727416077658853,1.1917954948835912,-0.24456972569305355,2.8319962064338307,1.2032582328828922,-1.4143900088943238,1.4143900088943238,-1.2032582328828922,4.9283825768487821,0.0
684640.0783812654,4000767.5119837918,-27500.0,-2.0695476989760455,2.4631861962881447,1.1703099492055102,-1.0768943478634472,1.4066986193553463,-0.47894609157310536,3.4100537608474744,1.4134284259270888,-1.5789002204133538,1.5789002204133538,-1.4134284259270888,5.9574100337497216,0.0
689640.0783812654,4000767.5119837918,-27500.0,-2.7545196329205921,2.7440557135557406,1.493225831857838,-1.6591548915522267,1.6223299718630582,-0.88101753595938459,4.1187872471174796,1.6519473891668557,-1.7313979360550908,1.7313979360550908,-1.6519473891668557,7.2345673925839025,0.0
694640.0783812654,4000767.5119837918,-27500.0,-3.5491494587297892,2.9886813699934165,1.8833065684508399,-2.4805760176492244,1.7940332351160162,-1.5580847841565344,4.9803341522689033,1.916639187533266,-1.8540962734327768,1.8540962734327768,-1.916639187533266,8.8074759501143056,0.0
699640.0783812654,4000767.5119837918,-27500.0,-4.3680827786370662,3.1562859316146876,2.322213237760367,-3.5781660978406391,1.8347968070976222,-2.6688646680554342,6.0123169540740626,2.2059689734038019,-1.9332523836637534,1.9332523836637534,-2.2059689734038019,10.70863246664479,0.0
704640.0783812654,4000767.5119837918,-27500.0,-5.0136716935190702,3.2154571999016137,2.7509772093275608,-4.906887409116881,1.596661425344309,-4.4154421164088129,7.2203673774564328,2.5291324610244135,-1.984197095712815,1.984197095712815,-2.5291324610244135,12.919006109366217,0.0
709640.0783812654,4000767.5119837918,-27500.0,-5.1384255103802046,3.1982389796598905,3.0431865674027443,-6.2131587777430974,0.87275498683913311,-6.9648765467463782,8.5740908925538974,2.9306754542258333,-2.1069822317985802,2.1069822317985802,-2.9306754542258333,15.29703699886757,0.0
714640.0783812654,4000767.5119837918,-27500.0,-4.30834960718839,3.3055050884203934,2.9937065174055095,-6.8503748677441623,-0.51968446597401385,-10.196755723069293,9.9193041267681394,3.5298096404210004,-2.5728491518412162,2.5728491518412162,-3.5298096404210004,17.474639829247788,0.0
719640.0783812654,4000767.5119837918,-27500.0,-2.3482651035807565,4.0160263928593487,2.3826746185494527,-5.6954835668010757,-2.4714336305499196,-13.159212345754389,10.845735455865364,4.5323028874827731,-3.8659368822888798,3.8659368822888798,-4.5323028874827731,18.826291891488236,0.0
724640.0783812654,4000767.5119837918,-27500.0,-0.0652491748393913,5.9583119463317962,1.1900462540121259,-1.6640534041204327,-4.1092295667727665,-13.394689697628719,10.934893526092708,6.0704493296181052,-6.4300524185658379,6.4300524185658379,-6.0704493296181052,19.011867474388016,0.0
729640.0783812654,4000767.5119837918,-27500.0,0.33543193044024122,9.1398239696331753,-0.13551131971313823,4.5945375285226593,-3.6156331572297624,-7.2596405313169576,11.65452517789592,7.7011420645563398,-9.8312446012756496,9.8312446012756496,-7.7011420645563398,20.186305912859527,0.0
734640.0783812654,4000767.5119837918,-27500.0,-2.9777087787451495,11.874146942795063,-0.86750523803619084,8.9816955743789251,0.46126167720838307,6.8588371546342142,15.656827343087732,7.9680047736258945,-11.965149017063174,11.965149017063174,-7.9680047736258945,27.31465597184128,0.0
739640.0783812654,4000767.5119837918,-27500.0,-7.8417571880040642,11.584654845066968,-0.90480183169965578,6.4604326673399664,6.6747853191417308,24.070375291786767,22.371359379728897,5.4234293076652573,-10.44740185231605,10.44740185231605,-5.4234293076652573,38.815139343326997,0.0
744640.0783812654,4000767.5119837918,-27500.0,-9.1126688527725204,8.0081060450908392,-1.0178249022926407,-2.4331678185000007,11.064750153464939,35.33018178327719,26.89168974671658,0.82372146830404169,-5.8109538071871345,5.8109538071871345,-0.82372146830404169,47.522329727093108,0.0
749640.0783812654,4000767.5119837918,-27500.0,-5.2258203186967611,3.7570215102583009,-1.6531359331737712,-11.53794331108088,11.474698984551843,36.596505038537551,27.395597158196942,-3.2391990549746192,-1.2052103011464079,1.2052103011464079,3.2391990549746192,49.489162379533923,0.0
754640.0783812654,4000767.5119837918,-27500.0,0.64582883827131943,1.0131637360591916,-2.4264604331513135,-16.376418260732962,9.1444712873265956,31.138040854920057,24.842893528662266,-5.1846435588153703,1.3122659420764751,-1.3122659420764751,5.1846435588153703,45.731823095849485,0.0
759640.0783812654,4000767.5119837918,-27500.0,5.3345626103450696,-0.037696796097194674,-2.8805816622335492,-16.976375504698282,6.1796746486717797,23.781645757848068,20.994724792280458,-5.291368371581247,1.9200357662350171,-1.9200357662350171,5.291368371581247,39.223593624250427,0.0
764640.0783812654,4000767.5119837918,-27500.0,7.9039079609462446,-0.12054181051769343,-2.9247167998884813,-15.229937435345432,3.7267953824144029,17.204990632434523,17.092370299309422,-4.4869642325936461,1.5789858123276159,-1.5789858123276159,4.4869642325936461,32.280811211877634,0.0
769640.0783812654,4000767.5119837918,-27500.0,8.7606806414392029,0.1409170363824081,-2.6892457888656329,-12.697550330545232,2.0331158749533764,12.14972237436654,13.682236171599971,-3.4568528358782968,0.9883079898192495,-0.9883079898192495,3.4568528358782968,26.029489125696379,0.0
774640.0783812654,4000767.5119837918,-27500.0,8.577609484903137,0.43362346366000637,-2.3273903323429859,-10.192689752438062,0.97166682242451574,8.510218363217481,10.893283799240882,-2.5215178125898028,0.45782539706512737,-0.45782539706512737,2.5215178125898028,20.81484885225527,0.0
779640.0783812654,4000767.5119837918,-27500.0,7.8761104498809029,0.64977092796059699,-1.942360889704404,-8.0285824491677431,0.34762526410980193,5.9646182609198242,8.6795357197405512,-1.7775593550591933,0.07147654163624273,-0.07147654163624273,1.7775593550591933,16.622027425679008,0.0
784640.0783812654,4000767.5119837918,-27500.0,6.9779802468645826,0.77473244152046861,-1.5871008331071619,-6.2726623381593711,0.00088674613939181211,4.2042482364509954,6.9441517133983295,-1.2230850829664652,-0.17808915140200243,0.17808915140200243,1.2230850829664652,13.309262769261693,0.0
789640.0783812654,4000767.5119837918,-27500.0,6.0582608237519695,0.82564917034998209,-1.2819449495943829,-4.8923891894027047,-0.17867167671023126,2.9892934266299842,5.588785795218036,-0.82420482392684269,-0.32338763995511521,0.32338763995511521,0.82420482392684269,10.710630503220894,0.0
794640.0783812654,4000767.5119837918,-27500.0,5.201591771255794,0.82527554336225484,-1.0299224010783234,-3.8243702848930821,-0.26100366110425416,2.1477943877084695,4.5291626805352063,-0.54307920894085981,-0.39694383891549961,0.39694383891549961,0.54307920894085981,8.6748312832823498,0.0
799640.0783812654,4000767.5119837918,-27500.0,4.4417654965250657,0.7930239931592441,-0.82630938154245526,-3.0034791768257776,-0.28867759708020918,1.5608968644764682,3.6976926421162024,-0.34744176717828262,-0.42422479296769472,0.42422479296769472,0.34744176717828262,7.0763487938176564,0.0
804640.0783812654,4000767.5119837918,-27500.0,3.7859620641694147,0.7430811846380162,-0.66374909544502514,-2.3732926239811758,-0.28690198608158379,1.1478518764036234,3.0417912210760552,-0.21248723964159608,-0.42322403625877636,0.42322403625877636,0.21248723964159608,5.8156450416844647,0.0
809640.0783812654,4000767.5119837918,-27500.0,3.2285958305231981,0.68497420381377605,-0.53469338526720178,-1.8884322792130699,-0.27029317300881589,0.85415878929098232,2.5211451625605741,-0.12008126749138076,-0.40595542135225055,0.40595542135225055,0.12008126749138076,4.8155869082527767,0.0
814640.0783812654,4000767.5119837918,-27500.0,2.7588311350013908,0.62471940562728612,-0.43240691745611576,-1.5137516415262209,-0.24714843885497831,0.64303881188034528,2.1050511200516842,-0.05731252254000066,-0.38014169201458003,0.38014169201458003,0.05731252254000066,4.0170863378631347,0.0
819640.0783812654,4000767.5119837918,-27500.0,2.3644523521316607,0.56589685114878097,-0.35126386966903178,-1.2225600156874015,-0.22205165002727437,0.4895749135963206,1.7701668526531826,-0.015116578022013077,-0.35059323047569346,0.35059323047569346,0.015116578022013077,3.3750914733225046,0.0
824640.0783812654,4000767.5119837918,-27500.0,2.0337163937609022,0.51047963951859321,-0.28672847777846283,-0.99478315821595809,-0.19743147440909931,0.37677525580128485,1.4987246278521476,0.012825785482562135,-0.32020899356023919,0.32020899356023919,-0.012825785482562135,2.8552695694902011,0.0
829640.0783812654,4000767.5119837918,-27500.0,1.7561292158328479,0.45942072009026969,-0.23521503515536318,-0.81537783615074921,-0.17448230608673626,0.29295693375285597,1.2771564345913291,0.030907270562332889,-0.29066221596945835,0.29066221596945835,-0.030907270562332889,2.4313993517067769,0.0
834640.0783812654,4000767.5119837918,-27500.0,1.5226729966543555,0.4130483224333456,-0.19391910630414191,-0.67306910815398835,-0.15370418221701113,0.23001288276205425,1.0950544552442467,0.042179909935796456,-0.26285515083438582,0.26285515083438582,-0.042179909935796456,2.0833761601334015,0.0
644640.0783812654,4005767.5119837918,-27500.0,0.32399063721075588,0.85718415147617533,0.090941149397476786,0.20461455688974056,0.34679319889325161,0.090116973818135895,0.94277893023325965,0.32617501553830081,-0.55092247535679473,0.55092247535679473,-0.32617501553830081,1.6568635261925591,0.0
649640.0783812654,4005767.5119837918,-27500.0,0.32162145670113185,0.99291759364352361,0.11424044107022896,0.22674076036982566,0.41694467527832135,0.10749552375585027,1.0932435464303496,0.37951147668706625,-0.63739523319512603,0.63739523319512603,-0.37951147668706625,1.9177773318676274,0.0
654640.0783812654,4005767.5119837918,-27500.0,0.30715720510086653,1.1548183823622926,0.1448406131992068,0.24860843079261466,0.5043213397124503,0.12797202006089725,1.2743466913048485,0.44350916005508245,-0.73986091522568587,0.73986091522568587,-0.44350916005508245,2.2312830979879243,0.0
659640.0783812654,4005767.5119837918,-27500.0,0.274597880046974,1.3482474678678036,0.18533625060210518,0.26798055276058047,0.61364175367818452,0.15155255346099233,1.4933114483024243,0.52047320630728033,-0.86124967085257986,0.86124967085257986,-0.52047320630728033,2.6097025891699435,0.0
664640.0783812654,4005767.5119837918,-27500.0,0.21547301197701554,1.5793889929223202,0.23930543407842436,0.28094081901210033,0.75086796570439629,0.17760603265186622,1.7590823504116975,0.61312946613706454,-1.0047395590141612,1.0047395590141612,-0.61312946613706454,3.0683064488930536,0.0
669640.0783812654,4005767.5119837918,-27500.0,0.11801672230128235,1.8550523628820756,0.31166558134152267,0.28086043783307268,0.92335397466735969,0.20416050953581047,2.0825777145622144,0.72460370025227139,-1.1734927149569556,1.1734927149569556,-0.72460370025227139,3.6257816037235102,0.0
674640.0783812654,4005767.5119837918,-27500.0,-0.033706344415932656,2.182108480225438,0.40910677124551953,0.25681806951520125,1.1397624920778402,0.22656971847774185,2.4767757206496803,0.85830304581783823,-1.3701127143086751,1.3701127143086751,-0.85830304581783823,4.3044637140904687,0.0
679640.0783812654,4005767.5119837918,-27500.0,-0.26038974174549856,2.566255822574639,0.54053738824361097,0.19130340191059519,1.4093814533152573,0.23504074119248916,2.9563580131552509,1.017630114323653,-1.5956529980792953,1.5956529980792953,-1.017630114323653,5.1299120825271078,0.0
684640.0783812654,4005767.5119837918,-27500.0,-0.5869431413832823,3.0096537208119956,0.71732795422416118,0.057200679041873641,1.740072828834526,0.21017980935574451,3.5363611391201735,1.205461588637788,-1.8479921850455985,1.8479921850455985,-1.205461588637788,6.128971065743686,0.0
689640.0783812654,4005767.5119837918,-27500.0,-1.03895689996231,3.5068474634410935,0.95279518131108143,-0.18529520891550105,2.1333500745822782,0.11533012394646745,4.2288156763513758,1.4234242593428814,-2.1195549274450753,2.1195549274450753,-1.4234242593428814,7.3246767345457178,0.0
694640.0783812654,4005767.5119837918,-27500.0,-1.6325599293789403,4.0386539109951594,1.2596439965420694,-0.58926867274231864,2.5738770627225676,-0.11552001998750468,5.0356870322110847,1.6714195109781389,-2.3950920530826467,2.3950920530826467,-1.6714195109781389,8.7250835640996875,0.0
699640.0783812654,4005767.5119837918,-27500.0,-2.3518645760066583,4.5651451994502885,1.6427349118088348,-1.2119638262042927,3.0092279472798635,-0.59346594235811301,5.9360143404813055,1.9490734979300122,-2.6524591649490725,2.6524591649490725,-1.9490734979300122,10.301420876843677,0.0
704640.0783812654,4005767.5119837918,-27500.0,-3.1082095090774136,5.0234864056139745,2.0825699463471428,-2.0794030167758106,3.315786540690564,-1.4845108502041962,6.8671586823620316,2.2636567700316528,-2.8747076015003534,2.8747076015003534,-2.2636567700316528,11.950466347401393,0.0
709640.0783812654,4005767.5119837918,-27500.0,-3.6872177403675273,5.3468248717775717,2.5037822887473915,-3.0955255031437834,3.2545132667978192,-2.9777611274564912,7.7102064957783814,2.6537951407051503,-3.0915104622596932,3.0915104622596932,-2.6537951407051503,13.44349571340816,0.0
714640.0783812654,4005767.5119837918,-27500.0,-3.735587081209673,5.5347140278738571,2.7289573500140158,-3.8705490228767068,2.4515018885563142,-5.118531510567184,8.2956354993183599,3.2399131458559922,-3.475228381934897,3.475228381934897,-3.2399131458559922,14.405387449240756,0.0
719640.0783812654,4005767.5119837918,-27500.0,-2.9397705890315127,5.7958187677858461,2.4464801917867747,-3.5384205916237517,0.51130482753469353,-7.3446319427947104,8.3274268737598351,4.2870828682440338,-4.4843761219928124,4.4843761219928124,-4.2870828682440338,14.534795947056264,0.0
724640.0783812654,4005767.5119837918,-27500.0,-1.6042265582468871,6.6614538934436238,1.283689306891493,-0.95796611293626843,-2.5625276968197994,-7.6892595053701331,7.8524920966937746,6.1628885000758356,-6.8841026353063803,6.8841026353063803,-6.1628885000758356,14.782367636292722,0.0
729640.0783812654,4005767.5119837918,-27500.0,-1.3411054512523126,8.6758513212105388,-0.8960231086660172,3.8977338096977312,-5.7127827335376384,-2.5163804581849201,10.839052146846356,8.9190295401921933,-11.178001578921267,11.178001578921267,-8.9190295401921933,19.271696823728906,0.0
734640.0783812654,4005767.5119837918,-27500.0,-4.0664915942226845,11.365539511459614,-3.6070544156021684,7.6810341131575379,-6.9696867103549085,10.710299590945555,16.603196227788565,11.512108756271424,-16.272971135205964,16.272971135205964,-11.512108756271424,30.364890117100671,0.0
739640.0783812654,4005767.5119837918,-27500.0,-8.2767869897373814,12.851677041622986,-5.8783348429543985,5.0974587805939704,-5.5325526969733643,27.629400662272083,24.968249870117873,12.006661617717533,-19.229813904472607,19.229813904472607,-12.006661617717533,43.291616925051834,0.0
744640.0783812654,4005767.5119837918,-27500.0,-9.0213339576233853,11.957423930739999,-7.0358801513505274,-3.750291254671299,-3.1898518230226438,38.126400575982117,29.425619729191329,9.8049893445816387,-18.238644916059087,18.238644916059087,-9.8049893445816387,51.331284107283999,0.0
749640.0783812654,4005767.5119837918,-27500.0,-4.8502665953014334,9.7213876310655891,-7.0819454568218019,-12.332735861871067,-1.8817971044192938,37.721945763089415,29.066232724020328,6.5820599850149639,-14.757379746339058,14.757379746339058,-6.5820599850149639,51.602421425745227,0.0
754640.0783812654,4005767.5119837918,-27500.0,0.80258706265493529,7.5986002890186208,-6.3911588902191374,-16.226296442727097,-1.6708502130693452,30.724371641997617,25.581664690287724,4.045461696658057,-11.121202827143472,11.121202827143472,-4.045461696658057,46.192882342084218,0.0
759640.0783812654,4005767.5119837918,-27500.0,4.9479829297857325,6.0583044220264268,-5.3768618165812869,-16.028477988343113,-1.8237871755703781,22.615365989606261,21.105659910880672,2.5651694512903647,-8.33120882786762,8.33120882786762,-2.5651694512903647,38.626103953800687,0.0
764640.0783812654,4005767.5119837918,-27500.0,7.0136398813018523,4.978091222425312,-4.3315694415372006,-13.899822688045189,-1.9116435860493945,15.914173697101962,16.888329745883858,1.8040840633428941,-6.3701174095737558,6.3701174095737558,-1.8040840633428941,31.206317125614131,0.0
769640.0783812654,4005767.5119837918,-27500.0,7.5769155115268312,4.1717886663171777,-3.4028036394423529,-11.321459753113523,-1.8509384057506753,11.021991274868363,13.360323137791271,1.4076563573062106,-4.9811717120494414,4.9811717120494414,-1.4076563573062106,24.844807863688889,0.0
774640.0783812654,4005767.5119837918,-27500.0,7.3011471301891619,3.5281180303725974,-2.6379612975346935,-8.9473240322703393,-1.6864830620227376,7.6188665194016352,10.551952220761073,1.1733335421229647,-3.9620971478969595,3.9620971478969595,-1.1733335421229647,19.699848153902668,0.0
779640.0783812654,4005767.5119837918,-27500.0,6.6390856612507987,2.9936571165090897,-2.033631517186997,-6.9759821986886736,-1.4762690223108992,5.2926498712763976,8.3609659095308189,1.0090912486346229,-3.1898268949055399,3.1898268949055399,-1.0090912486346229,15.645085431852529,0.0
784640.0783812654,4005767.5119837918,-27500.0,5.8491008796319006,2.542924127566089,-1.5667725638017396,-5.4149546906256791,-1.2603238544490369,3.7087840197309485,6.6632087618649285,0.87786491233589647,-2.5913595368389468,2.5913595368389468,-0.87786491233589647,12.483335177045758,0.0
789640.0783812654,4005767.5119837918,-27500.0,5.0638047512623059,2.1616701011711852,-1.2102190351487225,-4.2069035014121781,-1.06012490603252,2.6272095975111265,5.348016803130843,0.76581086435728174,-2.1208671854120111,2.1208671854120111,-0.76581086435728174,10.024832816655458,0.0
794640.0783812654,4005767.5119837918,-27500.0,4.3437013447439963,1.8397825122690477,-0.93914255504792132,-3.2816488898051328,-0.88460110083751153,1.8835460892744786,4.3258995537189389,0.66789883833422714,-1.7474003654439185,1.7474003654439185,-0.66789883833422714,8.1101049361105311,0.0
799640.0783812654,4005767.5119837918,-27500.0,3.7106120871193369,1.5687733143172924,-0.73307350255240633,-2.5752216827419927,-0.73557637809743381,1.3674526397601603,3.5273727967705062,0.58208206564688147,-1.448797129240706,1.448797129240706,-0.58208206564688147,6.6125744646130222,0.0
804640.0783812654,4005767.5119837918,-27500.0,3.1668802791974895,1.3410801579970724,-0.57598910422242211,-2.0352119699554114,-0.61138314336159394,1.0054225676301796,2.8994956203589881,0.50715505370393021,-1.2085777909642599,1.2085777909642599,-0.50715505370393021,5.4345226166134983,0.0
809640.0783812654,4005767.5119837918,-27500.0,2.7059137207618535,1.1499567815318563,-0.45569363202042013,-1.6207906904471241,-0.50895019915648576,0.7485188343706789,2.4022736088118348,0.44206884161934329,-1.0142183952509789,1.0142183952509789,-0.44206884161934329,4.5015354969035055,0.0
814640.0783812654,4005767.5119837918,-27500.0,2.3177396521660443,0.98948739223699211,-0.36304158247994528,-1.3009625539538603,-0.42489487981469187,0.56403901786013999,2.0055748860633349,0.38577339588742798,-0.85608415236853463,0.85608415236853463,-0.38577339588742798,3.7572782391509865,0.0
819640.0783812654,4005767.5119837918,-27500.0,1.9917848220078667,0.85458241558776238,-0.29122292481207368,-1.0525007697672073,-0.35603558108534789,0.42998390427971173,1.6866789745344863,0.3372239769727402,-0.72670861438380141,0.72670861438380141,-0.3372239769727402,3.1591508060974198,0.0
824640.0783812654,4005767.5119837918,-27500.0,1.7181568426298575,0.74093202216606879,-0.23517725171840029,-0.85809477051184735,-0.2995920728215431,0.33142785588062196,1.4283999304335957,0.29542076891203817,-0.62027616967449462,0.62027616967449462,-0.29542076891203817,2.6748781799627359,0.0
829640.0783812654,4005767.5119837918,-27500.0,1.4881429682157585,0.64492948343326817,-0.19114006562894267,-0.70485376961027346,-0.25322930014375361,0.25814586533321082,1.2176775821115813,0.25944147551961966,-0.53223771507019069,0.53223771507019069,-0.25944147551961966,2.2799133700799152,0.0
834640.0783812654,4005767.5119837918,-27500.0,1.2943190115249232,0.5635809639812065,-0.15630191118187645,-0.58315787422292986,-0.21503003987318187,0.2030604369847718,1.0445313021861122,0.22845914799379349,-0.45902029032464442,0.45902029032464442,-0.22845914799379349,1.955491600448632,0.0
644640.0783812654,4010767.5119837918,-27500.0,0.68440182509297498,0.83855555915061153,-0.00321503573967117,0.35871429445781927,0.33639684844080325,0.14205362781179029,1.0033097718709048,0.23506840372377899,-0.50865869563818034,0.50865869563818034,-0.23506840372377899,1.7969622647450816,0.0
649640.0783812654,4010767.5119837918,-27500.0,0.7538995035315873,0.974572525864286,-0.0021566461111877781,0.42151553457925617,0.40550840986279091,0.17695913304473451,1.165378749843085,0.2712789989567036,-0.59136296327695403,0.59136296327695403,-0.2712789989567036,2.084225000094313,0.0
654640.0783812654,4010767.5119837918,-27500.0,0.82826488542695165,1.1381069692156598,-4.8778961287406134e-05,0.49692765278888612,0.49214238547903727,0.22200191973078479,1.3607748234796697,0.31439985184355534,-0.69056566410834308,0.69056566410834308,-0.31439985184355534,2.4299729403213286,0.0
659640.0783812654,4010767.5119837918,-27500.0,0.90575159450654674,1.335395354675156,0.003725766712065255,0.58736874787141102,0.60140862458845912,0.2804600120142367,1.597399618233744,0.36588475248664731,-0.80987777479318446,0.80987777479318446,-0.36588475248664731,2.8479003491719479,0.0
664640.0783812654,4010767.5119837918,-27500.0,0.98300811617384698,1.573985657690369,0.010119683909041206,0.6953912588876493,0.73997070399680487,0.3566850283827801,1.8850227061687796,0.42746417076684839,-0.95360617715885787,0.95360617715885787,-0.42746417076684839,3.35486505152444,0.0
669640.0783812654,4010767.5119837918,-27500.0,1.0541316960900486,1.8627941052444263,0.020600143052580431,0.8233268365194063,0.9164208151812907,0.45636965788821637,2.2355215587973194,0.50115914770309411,-1.1267452981577986,1.1267452981577986,-0.50115914770309411,3.9712452963826852,0.0
674640.0783812654,4010767.5119837918,-27500.0,1.1092641030497334,2.2119053726239497,0.037417364409020666,0.97253283401341006,1.1415804793881532,0.58674911648295791,2.662888814469436,0.58926908240355846,-1.3348126053549354,1.3348126053549354,-0.58926908240355846,4.7208554100787623,0.0
679640.0783812654,4010767.5119837918,-27500.0,1.1326032096896081,2.6318206592638287,0.063995478918775994,1.1419245031159433,1.4284541050185606,0.75651721753371071,3.1826444057441581,0.69433139605941396,-1.5833843977706261,1.5833843977706261,-0.69433139605941396,5.6297720031608076,0.0
684640.0783812654,4010767.5119837918,-27500.0,1.0998140686216458,3.1316228556827386,0.10546828046051877,1.3252969174136819,1.7911880624060137,0.97495022750801785,3.8099160778055987,0.81910022517851511,-1.8771194296164659,1.8771194296164659,-0.81910022517851511,6.7227703816273578,0.0
689640.0783812654,4010767.5119837918,-27500.0,0.97521389117252544,3.715191601423887,0.1693251775012759,1.506772623780422,2.2416042323154377,1.2491657630466957,4.5547717159655052,0.96676305672602214,-2.2180446959116971,2.2180446959116971,-0.96676305672602214,8.0149040354053014,0.0
694640.0783812654,4010767.5119837918,-27500.0,0.71012732020764957,4.3742773877460772,0.26594955240707557,1.6538204744801723,2.7803397967119587,1.5774528263810814,5.4122631403502552,1.1421178384385617,-2.6031497683829041,2.6031497683829041,-1.1421178384385617,9.4938894435403149,0.0
699640.0783812654,4010767.5119837918,-27500.0,0.24602601679566469,5.0774753909310935,0.40835411050910192,1.7084816133598866,3.376945641196468,1.935261657753949,6.3431789640269542,1.3557382561435678,-3.0225466571648094,3.0225466571648094,-1.3557382561435678,11.086746139248852,0.0
704640.0783812654,4010767.5119837918,-27500.0,-0.47008694910835136,5.7565947096441468,0.60935690669968767,1.5816363744835851,3.9297532005486189,2.249910240414791,7.2410471367710576,1.636082184782903,-3.4630982643230102,3.4630982643230102,-1.636082184782903,12.604612209943374,0.0
709640.0783812654,4010767.5119837918,-27500.0,-1.4464970736009619,6.3004118716864355,0.87252943893468227,1.1657548787055014,4.1955984536247577,2.3650804310433471,7.8876160491046239,2.0595607075053239,-3.9308402686579846,3.9308402686579846,-2.0595607075053239,13.676202670127907,0.0
714640.0783812654,4010767.5119837918,-27500.0,-2.576165079040071,6.5853912317174128,1.1711007205898776,0.40097060519575994,3.695918462171822,2.0197829312474185,7.9396953672551955,2.8120536510504031,-4.5184078250889801,4.5184078250889801,-2.8120536510504031,13.766132551687008,0.0
719640.0783812654,4010767.5119837918,-27500.0,-3.5646034385964511,6.5976326037117392,1.4107489163747733,-0.55523493876292096,1.6740401990015341,0.93368037346190025,7.2688357017217058,4.27758808438728,-5.5430477542052072,5.5430477542052072,-4.27758808438728,12.748588100188167,0.0
724640.0783812654,4010767.5119837918,-27500.0,-4.0068944841647474,6.6709081413941957,1.3901503252682998,-1.0722120261763008,-2.6685170176824426,-0.78670253887727715,7.7359752440997678,7.0628418883033506,-7.7008892798928299,7.7008892798928299,-7.0628418883033506,13.432539596695866,0.0
729640.0783812654,4010767.5119837918,-27500.0,-3.9143164375853656,7.6294722280898251,0.82598219899164216,-0.11798609723871521,-9.3354331060968629,-1.7446951951319187,12.217647100228611,11.685164064585784,-11.924382925514323,11.924382925514323,-11.685164064585784,21.284084906624084,0.0
734640.0783812654,4010767.5119837918,-27500.0,-4.3825392829474401,10.212470649697737,-0.43460456163763722,2.2936973889104113,-16.405595209842399,1.085403488032159,19.659800516666223,17.637659716482275,-18.361484212463949,18.361484212463949,-17.637659716482275,34.058699059225006,0.0
739640.0783812654,4010767.5119837918,-27500.0,-6.2095126985925582,13.71680295986563,-2.0695215624615169,3.244692077266802,-20.549172852844457,8.9939454427322971,26.117981250257884,22.552233480841927,-24.838109605204771,24.838109605204771,-22.552233480841927,45.25686831051221,0.0
744640.0783812654,4010767.5119837918,-27500.0,-7.3158398089869925,16.032183793501531,-3.3556883563443223,0.065480306586042772,-20.150582562663043,17.289173362874244,28.931563668010291,23.701039162869591,-27.779199561894742,27.779199561894742,-23.701039162869591,50.128768601294077,0.0
749640.0783812654,4010767.5119837918,-27500.0,-5.5455584632231485,15.963277642584494,-3.8412301310264803,-4.9910550827076756,-16.784343182586206,20.41678407771397,27.662336953724221,20.997807751440515,-26.057505728250636,26.057505728250636,-20.997807751440515,48.135773903877677,0.0
754640.0783812654,4010767.5119837918,-27500.0,-2.0599894684588538,14.154463974289047,-3.6514894532226085,-8.3569731836573489,-12.826979809467273,18.526805376187863,23.945499351899755,16.641407596614702,-21.689349665861631,21.689349665861631,-16.641407596614702,41.99131653725032,0.0
759640.0783812654,4010767.5119837918,-27500.0,1.0769844248798361,11.763249043501739,-3.1350569768292735,-9.2650038659298311,-9.4984692188054716,14.659569843014873,19.608091372751737,12.499889870866463,-16.9610038221753,16.9610038221753,-12.499889870866463,34.680600602084219,0.0
764640.0783812654,4010767.5119837918,-27500.0,3.0592428518328805,9.4960513926161934,-2.5485782402937569,-8.641548962102144,-7.0111567863655511,10.862664480162914,15.648727085552139,9.241597659571628,-12.945937009681764,12.945937009681764,-9.241597659571628,27.894879080303337,0.0
769640.0783812654,4010767.5119837918,-27500.0,4.0053935037199357,7.5947566582053989,-2.0130253538844762,-7.4121035472648602,-5.213936035883509,7.8178682214103494,12.37663933833214,6.8541531266077911,-9.8403721610651722,9.8403721610651722,-6.8541531266077911,22.206206537604153,0.0
774640.0783812654,4010767.5119837918,-27500.0,4.2655740642749702,6.074875204190441,-1.5672270468497806,-6.0908993035233516,-3.9167896819879302,5.5651653405328121,9.7835305674297963,5.1389845311694451,-7.5168486412161819,7.5168486412161819,-5.1389845311694451,17.64437522789223,0.0
779640.0783812654,4010767.5119837918,-27500.0,4.1372531568089395,4.879916607011527,-1.2128308332437543,-4.896617988436188,-2.9726958211616386,3.9564873579414082,7.7628622408969932,3.9046458594811986,-5.7921020311437585,5.7921020311437585,-3.9046458594811986,14.055998205457874,0.0
784640.0783812654,4010767.5119837918,-27500.0,3.8179374805137285,3.9436921133419092,-0.93779263622476572,-3.8963013649646494,-2.2788397471273596,2.825036440715452,6.1966754498766896,3.0075117059929219,-4.5083876231642979,4.5083876231642979,-3.0075117059929219,11.254412434855077,0.0
789640.0783812654,4010767.5119837918,-27500.0,3.4250388499823496,3.2087173972195964,-0.72689038698181041,-3.0900673448474074,-1.7641415328055938,2.0328225857613922,4.9822689607586881,2.3472230806352026,-3.5461343147813786,3.5461343147813786,-2.3472230806352026,9.0700681221018495,0.0
794640.0783812654,4010767.5119837918,-27500.0,3.0230146107635414,2.6292031261793185,-0.5659361893469409,-2.4530371823943016,-1.3789386895139382,1.4771189379781462,4.0372663682950689,1.8548445696706106,-2.8183766780626631,2.8183766780626631,-1.8548445696706106,7.3632149896696131,0.0
799640.0783812654,4010767.5119837918,-27500.0,2.6441940189688622,2.1697442699369978,-0.44312473027110544,-1.9544190675200166,-1.0881155008266044,1.085056728298704,3.2979003637516238,1.4829291182002247,-2.2626340659826343,2.2626340659826343,-1.4829291182002247,6.0235795549730948,0.0
804640.0783812654,4010767.5119837918,-27500.0,2.3024970070651323,1.8032418990603516,-0.34916224099364779,-1.5653593403781363,-0.86661105459880217,0.80616065813397086,2.7156307066734446,1.1985260461684382,-1.8340535822924147,1.8340535822924147,-1.1985260461684382,4.9660530516764094,0.0
809640.0783812654,4010767.5119837918,-27500.0,2.0018420008854565,1.5090085338312749,-0.27694435933103467,-1.2615457239904864,-0.69640978465659364,0.60583580199978804,2.2537843384748681,0.97849150967407983,-1.5003020336963848,1.5003020336963848,-0.97849150967407983,4.1256846182442031,0.0
814640.0783812654,4010767.5119837918,-27500.0,1.7410640416293455,1.2712397411252099,-0.22112399600188004,-1.0235263468307945,-0.56447650329655163,0.46043528736093847,1.8847146796222232,0.80637435389456125,-1.2379179768706963,1.2379179768706963,-0.80637435389456125,3.4531476414353377,0.0
819640.0783812654,4010767.5119837918,-27500.0,1.5166817097905476,1.0778306228730326,-0.17770579810376511,-0.83615658492486566,-0.46131792460525506,0.35375838805379595,1.587555138542379,0.67034018415178875,-1.0297439914387438,1.0297439914387438,-0.67034018415178875,2.9110083598630179,0.0
824640.0783812654,4010767.5119837918,-27500.0,1.3243941660160301,0.91947595236428403,-0.14371091641089126,-0.68781221406681414,-0.37997307290168053,0.27464501471585434,1.3465040102099253,0.56177620347214052,-0.86312695626411284,0.86312695626411284,-0.56177620347214052,2.4708029796372273,0.0
829640.0783812654,4010767.5119837918,-27500.0,1.15984957187431,0.78899069968760371,-0.11691587220006928,-0.56962980198163315,-0.3153009808000537,0.21534971640475822,1.1495378359109005,0.47434343010144886,-0.72865403027340081,0.72865403027340081,-0.47434343010144886,2.1108061566012206,0.0
834640.0783812654,4010767.5119837918,-27500.0,1.0190079846730309,0.68079910889104389,-0.095655618456886568,-0.47486382059579646,-0.26347639675578427,0.17045004854369519,0.98745587841887361,0.40332595136665333,-0.61926132879142115,0.61926132879142115,-0.40332595136665333,1.814353199306987,0.0
644640.0783812654,4015767.5119837918,-27500.0,1.0315020895003542,0.7656785803898174,-0.092281193772848782,0.50690964199679023,0.30375335122285152,0.19192436317242531,1.0701862509639564,0.12817695661952919,-0.4276059176518493,0.4276059176518493,-0.12817695661952919,1.9572270508152609,0.0
649640.0783812654,4015767.5119837918,-27500.0,1.170325673564709,0.88706194446651832,-0.11248106966080529,0.60885149172810726,0.36439503985204375,0.2436702457527653,1.2459600151258929,0.14341275456651378,-0.4964367387134041,0.4964367387134041,-0.14341275456651378,2.2774222100922796,0.0
654640.0783812654,4015767.5119837918,-27500.0,1.3305280742834771,1.0324280192691013,-0.13772517539984674,0.7358488316277928,0.43990658062014343,0.31234260448384504,1.4586101119399251,0.16075247368646772,-0.57919501668953777,0.57919501668953777,-0.16075247368646772,2.6646222779714064,0.0
659640.0783812654,4015767.5119837918,-27500.0,1.5146017879186262,1.2070672674426872,-0.16939208763272637,0.8948706863396636,0.5344367563707636,0.40439979597504555,1.7171422463360355,0.18051263482663304,-0.67914447231649322,0.67914447231649322,-0.18051263482663304,3.1351384691329178,0.0
664640.0783812654,4015767.5119837918,-27500.0,1.7243654690856642,1.4173389811120396,-0.20922359003626836,1.0948311599008673,0.65330386618525504,0.52905879776283071,2.0328255760155329,0.20309759222928364,-0.8003549187262784,0.8003549187262784,-0.20309759222928364,3.7093430387369417,0.0
669640.0783812654,4015767.5119837918,-27500.0,1.9599608959882542,1.670698943615746,-0.25937187071952761,1.3469419067416024,0.80321330587716155,0.69953971047796948,2.4195897253451548,0.22908744335717734,-0.94787671239486404,0.94787671239486404,-0.22908744335717734,4.412337553115254,0.0
674640.0783812654,4015767.5119837918,-27500.0,2.2180261689906744,1.9755109157076558,-0.32238457799958731,1.6648525744647846,0.99234708828513574,0.93483248588584,2.8942566578277185,0.25944333752058635,-1.1279261330221027,1.1279261330221027,-0.25944333752058635,5.2742605565125968,0.0
679640.0783812654,4015767.5119837918,-27500.0,2.4884718522209468,2.3404076807726715,-0.40102309615791559,2.0641480819090234,1.230053628424528,1.2620915623618112,3.4762766952086572,0.29597927283330006,-1.3480664788719952,1.3480664788719952,-0.29597927283330006,6.329558598743585,0.0
684640.0783812654,4015767.5119837918,-27500.0,2.7489763651897103,2.7727960154482263,-0.4976872124936273,2.5602602336238709,1.5255304738040489,1.7195643490751396,4.1862864918655074,0.34242844933054128,-1.6173767983245093,1.6173767983245093,-0.34242844933054128,7.6138084614354646,0.0
689640.0783812654,4015767.5119837918,-27500.0,2.9559996447972163,3.2758767988452506,-0.61297254751095653,3.1628434904017553,1.8842122009966045,2.3592787987199384,5.0421694139653352,0.40681256467992633,-1.9466621499633705,1.9466621499633705,-0.40681256467992633,9.1553027401890592,0.0
694640.0783812654,4015767.5119837918,-27500.0,3.0311737193352344,3.8434108275931651,-0.74241510067078798,3.8628307442067089,2.2992909902452361,3.2467968600189723,6.0502507781292518,0.5065897312661386,-2.3489884929198159,2.3489884929198159,-0.5065897312661386,10.956284069514949,0.0
699640.0783812654,4015767.5119837918,-27500.0,2.843630276308184,4.4519147415688849,-0.86965920807050967,4.6055285136548028,2.7336764149795596,4.4504767634698092,7.1877793313152969,0.67944685141828387,-2.8414641173768667,2.8414641173768667,-0.67944685141828387,12.955594702142889,0.0
704640.0783812654,4015767.5119837918,-27500.0,2.1956421016731116,5.0524558327525293,-0.95317070429978856,5.2404067290814336,3.0852536735177729,6.0015542142543872,8.3711881398031576,1.0045102685228988,-3.4505713218356169,3.4505713218356169,-1.0045102685228988,14.963555141358318,0.0
709640.0783812654,4015767.5119837918,-27500.0,0.83871862602288116,5.5716117010248833,-0.90319971398261123,5.4427288015770436,3.1292528074562722,7.7845900246863069,9.4032770923459168,1.6389931431838254,-4.225105074702558,4.225105074702558,-1.6389931431838254,16.575695473467455,0.0
714640.0783812654,4015767.5119837918,-27500.0,-1.4089947737479778,5.9457476359183863,-0.55025225779848796,4.6398356468131672,2.448647964985879,9.2899868941094681,9.8963142489390936,2.8647604913675249,-5.2586161509152891,5.2586161509152891,-2.8647604913675249,17.165243281409843,0.0
719640.0783812654,4015767.5119837918,-27500.0,-4.3228476081054072,6.2227064040731186,0.37216988267336254,2.1123037712758257,0.42262401760164764,9.1910777966611423,9.2674528874316859,5.0972082597318806,-6.7040842256103641,6.7040842256103641,-5.0972082597318806,16.47145387514205,0.0
724640.0783812654,4015767.5119837918,-27500.0,-6.7255022115351766,6.7133334141072707,2.1520262057806416,-2.2771390518686911,-3.5519688526496815,5.0765191043551097,9.9920828468827327,8.7355455607981867,-8.7263401639634068,8.7263401639634068,-8.7355455607981867,17.376349153073551,0.0
729640.0783812654,4015767.5119837918,-27500.0,-6.6192962198474437,7.9891723268322066,4.7960031227326541,-6.4218383317371464,-9.4430970811683945,-5.1763119189585947,13.80412990274657,13.787607084015516,-11.39690805756733,11.39690805756733,-13.787607084015516,26.431724472033878,0.0
734640.0783812654,4015767.5119837918,-27500.0,-3.7901303282206915,10.417845000901362,7.5579698009055036,-5.7046776003208093,-15.902809071440517,-18.735905163331275,23.509926473615195,19.585567734110931,-14.768450655599295,14.768450655599295,-19.585567734110931,41.275710088937338,0.0
739640.0783812654,4015767.5119837918,-27500.0,-2.1624842592418836,13.488730799503854,9.035164038342355,1.1436164811605836,-20.546189988512864,-25.82301022465693,30.366215358325992,24.81867395142427,-18.825085409942435,18.825085409942435,-24.81867395142427,52.596092872927784,0.0
744640.0783812654,4015767.5119837918,-27500.0,-4.2764069058784422,15.867025751081112,8.4386098262532148,7.5037378028664659,-21.596525157495332,-20.825097268333838,31.352595445887268,27.576704593193746,-22.386779676069189,22.386779676069189,-27.576704593193746,54.492046541657793,0.0
749640.0783812654,4015767.5119837918,-27500.0,-6.8111914679617218,16.44909342529947,6.4523772130014869,8.0558562519851211,-19.365193662797164,-10.271343267141949,27.938676576120688,26.602099163551383,-23.426677251031865,23.426677251031865,-26.602099163551383,48.633625464862632,0.0
754640.0783812654,4015767.5119837918,-27500.0,-6.8556586691433976,15.274474266447271,4.2856698844398435,4.8433686731687589,-15.637098464930189,-2.0804789706640512,23.016897117760841,22.817692371003769,-21.586447372089513,21.586447372089513,-22.817692371003769,39.969858581636778,0.0
759640.0783812654,4015767.5119837918,-27500.0,-5.0397613805098329,13.165684674172097,2.6038690593686695,1.4439561303614175,-11.943429719893658,1.9455336197261563,18.325970721597251,18.16365336572364,-18.213092218151125,18.213092218151125,-18.16365336572364,31.749389698180913,0.0
764640.0783812654,4015767.5119837918,-27500.0,-2.8587283736633067,10.883537921289102,1.4963674299632115,-0.75462091969682366,-8.9174457799514144,3.2094556194768247,14.426724759009495,13.925856625558014,-14.633217646559265,14.633217646559265,-13.925856625558014,24.999745253783583,0.0
769640.0783812654,4015767.5119837918,-27500.0,-1.0899065351577157,8.8192512704023347,0.82552027289513341,-1.8207131608094267,-6.623708589876256,3.1870981923228814,11.347333851352527,10.527773592378903,-11.492325452086003,11.492325452086003,-10.527773592378903,19.714777563716737,0.0
774640.0783812654,4015767.5119837918,-27500.0,0.10790227881077157,7.0934990581858948,0.43641792078500224,-2.1676813981587681,-4.9351008021305001,2.7146378109963978,8.959041687677658,7.9488457161856472,-8.9548768564573358,8.9548768564573358,-7.9488457161856472,15.62568442161041,0.0
779640.0783812654,4015767.5119837918,-27500.0,0.82639422708632271,5.7016087732077345,0.21630600771794842,-2.1367698423493549,-3.7025393833943423,2.1646599622798011,7.1156586636719714,6.0334191364814966,-6.9790757276620941,6.9790757276620941,-6.0334191364814966,12.463081501589754,0.0
784640.0783812654,4015767.5119837918,-27500.0,1.206716934925975,4.5966170012768099,0.094196155653738664,-1.9381824427315006,-2.802481074125764,1.6742029675375012,5.6917241735136432,4.6187606641842018,-5.4639721016469034,5.4639721016469034,-4.6187606641842018,10.009712844333624,0.0
789640.0783812654,4015767.5119837918,-27500.0,1.3693446231679312,3.7244829316192676,0.028018767652610455,-1.6850461668705901,-2.1421376823260201,1.2780178491849172,4.5878774215022222,3.5715377141385756,-4.3072568754133842,4.3072568754133842,-3.5715377141385756,8.0984393122641016,0.0
794640.0783812654,4015767.5119837918,-27500.0,1.4006063350325768,3.0364562321512953,-0.0065222822570956155,-1.4323115425486397,-1.6542533555472536,0.97204083356224125,3.7277257931730485,2.7913472512002198,-3.4228750880778227,3.4228750880778227,-2.7913472512002198,6.6018969592252512,0.0
799640.0783812654,4015767.5119837918,-27500.0,1.3574308857115553,2.4922576438939821,-0.023316669529087161,-1.2033914887808719,-1.2907523343840903,0.74060911797440832,3.0532865952757793,2.2051281109940533,-2.7435060028808245,2.7435060028808245,-2.2051281109940533,5.423272097105559,0.0
804640.0783812654,4015767.5119837918,-27500.0,1.2755384577884987,2.0599105997186702,-0.030278436321137435,-1.0057707977798029,-1.0174291396029251,0.56702251693421013,2.520808206052239,1.7604192734305806,-2.21818379826991,2.21818379826991,-1.7604192734305806,4.4890830250634224,0.0
809640.0783812654,4015767.5119837918,-27500.0,1.1765228212787806,1.7145218710843362,-0.03191108968031163,-0.83947374028444122,-0.80993826478244324,0.43700288075608146,2.0973375081926489,1.419667111949908,-1.8088883981794583,1.8088883981794583,-1.419667111949908,3.7435872482240797,0.0
814640.0783812654,4015767.5119837918,-27500.0,1.0729795980802901,1.4369009552925518,-0.03077153323538771,-0.70142893009696328,-0.65089567935975157,0.33935354704325599,1.7580434977580297,1.1559314553915581,-1.4874167566259828,1.4874167566259828,-1.1559314553915581,3.1444855561707525,0.0
819640.0783812654,4015767.5119837918,-27500.0,0.97192778885433895,1.2123024930078181,-0.028302749205731073,-0.58760289885933603,-0.52781771101782415,0.26564059949607993,1.484158957261142,0.94977668905030266,-1.2328445340308409,1.2328445340308409,-0.94977668905030266,2.6596035080022107,0.0
824640.0783812654,4015767.5119837918,-27500.0,0.87700910662134768,1.0293996278488644,-0.02530871812737278,-0.49398138908828071,-0.43167895715808946,0.20963427567462448,1.2614437391982281,0.78708120171452067,-1.0296014617367799,1.0296014617367799,-0.78708120171452067,2.2643909119210686,0.0
829640.0783812654,4015767.5119837918,-27500.0,0.78986247329011372,0.87947174902108582,-0.022226428513516482,-0.416967356519445,-0.35590326041894899,0.16677142974296702,1.0790365716866885,0.65749916245484774,-0.86604223101094047,0.86604223101094047,-0.65749916245484774,1.9400319340724776,0.0
834640.0783812654,4015767.5119837918,-27500.0,0.71097032735609234,0.75577977315694755,-0.019282571219527488,-0.35349920830465514,-0.29565917433282646,0.13371665658553838,0.92860479874492885,0.55338412842245277,-0.73340263919796134,0.73340263919796134,-0.55338412842245277,1.6720308727591191,0.0
644640.0783812654,4020767.5119837918,-27500.0,1.3451749717369739,0.64330724793899918,-0.16523117843723711,0.64105529759056334,0.25079297862559685,0.23708584796086668,1.1371785160735881,0.014831142589184498,-0.31127315748271261,0.31127315748271261,-0.014831142589184498,2.1209911129152377,0.0
649640.0783812654,4020767.5119837918,-27500.0,1.5442495718562577,0.73668875113330534,-0.20184357060582209,0.77740230029534763,0.29628336190567534,0.30373498853070319,1.3266901546310343,0.0082854660905034017,-0.35710446567201104,0.35710446567201104,-0.0082854660905034017,2.4751180044204859,0.0
654640.0783812654,4020767.5119837918,-27500.0,1.778293285964053,0.84622528665995245,-0.24784287443637809,0.94935821074788707,0.35138087210638436,0.39316318967906017,1.5566614755528887,-0.00086104783834065057,-0.41151247685756831,0.41151247685756831,0.00086104783834065057,2.9051490917529335,0.0
659640.0783812654,4020767.5119837918,-27500.0,2.0529785434449805,0.97469709948292838,-0.30586912543684736,1.1675743559833502,0.41809737980748435,0.51448734332131996,1.8372383229574687,-0.013219727758912558,-0.47647019390459699,0.47647019390459699,0.013219727758912558,3.4301982903787107,0.0
664640.0783812654,4020767.5119837918,-27500.0,2.3738331407877298,1.1251025971289417,-0.3792796948105075,1.4460138559747551,0.49863847720317428,0.68093964726736922,2.181262261040751,-0.029319558934510825,-0.55453927957675275,0.55453927957675275,0.029319558934510825,4.0744507150881084,0.0
669640.0783812654,4020767.5119837918,-27500.0,2.7450454468866314,1.3004347996889534,-0.47225059202227959,1.802770008755419,0.59514580520079152,0.91186084512828514,2.6048619489183635,-0.049301935932581586,-0.64913523225304448,0.64913523225304448,0.049301935932581586,4.8682223382618242,0.0
674640.0783812654,4020767.5119837918,-27500.0,3.1670732117589182,1.5032415904931016,-0.58976090072158771,2.2607311681706403,0.70908982206962179,1.2356341366054175,3.1279859973616562,-0.072246919917223096,-0.76498191003219063,0.76498191003219063,0.072246919917223096,5.8488041902323902,0.0
679640.0783812654,4020767.5119837918,-27500.0,3.6321027086834139,1.7348591480902309,-0.73725906650322603,2.8474980682816677,0.83997897926769149,1.6938631680718719,3.7746183544499519,-0.094757934618801554,-0.90893133749707633,0.90893133749707633,0.094757934618801554,7.0604435890334933,0.0
684640.0783812654,4020767.5119837918,-27500.0,4.1157911118121113,1.9942319107899267,-0.91957981623981044,3.5931424018636946,0.98278343523163347,2.3469015258288928,4.5721188111331967,-0.10809161548696367,-1.0914983370502829,1.0914983370502829,0.10809161548696367,8.5520409902095675,0.0
689640.0783812654,4020767.5119837918,-27500.0,4.5629680180742413,2.2764327043322332,-1.1382310516598459,4.522688986618685,1.1230645540924178,3.2799488882632684,5.5485559133375357,-0.092532595712779608,-1.3297804810261367,1.3297804810261367,0.092532595712779608,10.369641652918904,0.0
694640.0783812654,4020767.5119837918,-27500.0,4.8646240186480973,2.5717046037030635,-1.3853614539485983,5.6368996667749043,1.2283556486854779,4.6060892791916812,6.7257759477018784,-0.0068543280861693701,-1.652952791831495,1.652952791831495,0.0068543280861693701,12.538133845128931,0.0
699640.0783812654,4020767.5119837918,-27500.0,4.825682726703171,2.867771874682171,-1.6314809374439527,6.8693895993559755,1.2344772625235789,6.4548767875713047,8.1036519680592818,0.22998853748231818,-2.1120526602120924,2.1120526602120924,-0.22998853748231818,15.022612884554054,0.0
704640.0783812654,4020767.5119837918,-27500.0,4.1339361696601111,3.1623987487802188,-1.8028493332418967,8.0018256172041848,1.0284178125438153,8.9162412907973945,9.6266280320096804,0.76611626329134119,-2.7949999539765482,2.7949999539765482,-0.76611626329134119,17.657017042737227,0.0
709640.0783812654,4020767.5119837918,-27500.0,2.3744799119477684,3.4995240918866237,-1.7460835368412062,8.5237717741595223,0.44110035583443974,11.87099892896801,11.120235888433658,1.8427013084229587,-3.8406324584899525,3.8406324584899525,-1.8427013084229587,20.03950340410405,0.0
714640.0783812654,4020767.5119837918,-27500.0,-0.7894290034684468,4.0411942960713647,-1.1902741122708782,7.4847733901730882,-0.70629004466787559,14.587299783516512,12.206652339072479,3.7702813525016841,-5.4180320597574934,5.4180320597574934,-3.7702813525016841,21.47845293584961,0.0
719640.0783812654,4020767.5119837918,-27500.0,-5.0620716904278016,5.1387840494493116,0.24419271768564121,3.6141723086528672,-2.4165415543609625,15.00297012621875,12.385714357306625,6.7298108609827185,-7.5722457194010957,7.5722457194010957,-6.7298108609827185,21.45271488730484,0.0
724640.0783812654,4020767.5119837918,-27500.0,-8.6067816306447895,7.2021103761536729,2.8804559081592682,-3.562691520915334,-4.1676174291154693,9.175530647105667,12.735494030762478,10.265995302903935,-9.8049245960200722,9.8049245960200722,-10.265995302903935,22.129035460894826,0.0
729640.0783812654,4020767.5119837918,-27500.0,-8.1436111656487267,10.041203644640335,6.5912496901215594,-11.088728364600092,-4.8522315152425142,-6.9207375167022311,17.627262040280339,12.877266520197351,-10.682865394343859,10.682865394343859,-12.877266520197351,30.701500378685036,0.0
734640.0783812654,4020767.5119837918,-27500.0,-2.8153021737168404,12.188768817684799,10.460827504563275,-11.622874274606881,-4.00516322783667,-30.661745012223559,27.205813365950021,13.234934208328372,-8.9360080197494405,8.9360080197494405,-13.234934208328372,47.121851159767253,0.0
739640.0783812654,4020767.5119837918,-27500.0,1.5236857284863434,12.218632471269022,13.111207839723773,-1.2561692747151252,-3.3107394066200229,-48.279411449476306,34.739423975187819,12.732246078371029,-6.2347553547208445,6.2347553547208445,-12.732246078371029,60.640048279610255,0.0
744640.0783812654,4020767.5119837918,-27500.0,-0.85674832431817716,10.995109974058495,13.61499719432717,11.897103735810232,-4.5420760244298535,-47.965023983017389,35.574867708821991,13.866315848306925,-6.0693814236396229,6.0693814236396229,-13.866315848306925,62.924970852668878,0.0
749640.0783812654,4020767.5119837918,-27500.0,-6.6549765181230773,10.143681326298864,12.119894001307838,17.688940236438089,-6.669896147884363,-34.598847470252608,30.836820241738401,15.892829572499975,-8.5024357577762988,8.5024357577762988,-15.892829572499975,55.12566935859028,0.0
754640.0783812654,4020767.5119837918,-27500.0,-10.102508827786384,9.7466613624249518,9.6090978598080206,15.820371318311851,-7.8438143974855619,-20.022745429894528,24.313879973696583,16.552487813509781,-10.798313082404011,10.798313082404011,-16.552487813509781,43.622508829646847,0.0
759640.0783812654,4020767.5119837918,-27500.0,-10.077292468712132,9.2173564553350307,7.0670409829185896,11.107571915956509,-7.6820275295070806,-9.9457240966269325,18.528365435104661,15.361598419312093,-11.475902305634031,11.475902305634031,-15.361598419312093,33.071799320045933,0.0
764640.0783812654,4020767.5119837918,-27500.0,-8.2017038634225035,8.3623489451069482,4.9876352303974825,6.7731719496664775,-6.7348854224224572,-4.3170545610580344,14.106575831225202,13.146923526793818,-10.782210768776023,10.782210768776023,-13.146923526793818,24.925959728816636,0.0
769640.0783812654,4020767.5119837918,-27500.0,-5.9486233278892522,7.3086470228774179,3.457242481235733,3.7212630962299018,-5.5520980314994457,-1.5215811347796124,10.851678475412976,10.731386978598215,-9.4218289773358297,9.4218289773358297,-10.731386978598215,18.992066450557409,0.0
774640.0783812654,4020767.5119837918,-27500.0,-3.997025084108941,6.2256297998466623,2.3870672351847504,1.8191123675518768,-4.4309429531140516,-0.24658729882446176,8.4511684679181176,8.5463059213210819,-7.907742758373959,7.907742758373959,-8.5463059213210819,14.696324447165042,0.0
779640.0783812654,4020767.5119837918,-27500.0,-2.5174924561775684,5.2218166734852405,1.6550179339460724,0.71387245234771768,-3.481578840232193,0.27822030108204471,6.6593721820653764,6.732816262064615,-6.4977366375975993,6.4977366375975993,-6.732816262064615,11.54364914837214,0.0
784640.0783812654,4020767.5119837918,-27500.0,-1.4703222325881669,4.3448031262086442,1.1574174691670793,0.10569681967869968,-2.7202314132541434,0.45279728266888603,5.3045266470280561,5.2903850964540249,-5.2866614917688315,5.2866614917688315,-5.2903850964540249,9.1877299700880251,0.0
789640.0783812654,4020767.5119837918,-27500.0,-0.75911832659372569,3.6042229482615058,0.81842050404561717,-0.20874062933488255,-2.1259667910249478,0.47322514475454502,4.2679672557406381,4.1664828291109037,-4.2880516196120562,4.2880516196120562,-4.1664828291109037,7.3975956254559874,0.0
794640.0783812654,4020767.5119837918,-27500.0,-0.29018265003725308,2.9908076900133449,0.58586279217893278,-0.35546656522909958,-1.6678845721009257,0.43223971450636445,3.4665209483928372,3.2982661122472394,-3.4816241416565972,3.4816241416565972,-3.2982661122472394,6.0179608722789251,0.0
799640.0783812654,4020767.5119837918,-27500.0,0.01080159857030613,2.4879117280885752,0.42479756215069425,-0.40926015026123264,-1.3162459625207836,0.37215152820256248,2.8408343106780327,2.6286882453125364,-2.8367616702658691,2.8367616702658691,-2.6286882453125364,4.9418089027007763,0.0
804640.0783812654,4020767.5119837918,-27500.0,0.1979958638848251,2.0774997433367988,0.31202799564659667,-0.41341197426696835,-1.046099922951137,0.3112300563190048,2.3478962258533231,2.1110451040179332,-2.3228284234380996,2.3228284234380996,-2.1110451040179332,4.0934865398031075,0.0
809640.0783812654,4020767.5119837918,-27500.0,0.3092474545170133,1.742863576486966,0.23216058966687439,-0.39255042105033455,-0.83776877505940595,0.25653500004384155,1.956153136650673,1.7089038128913712,-1.9130182890629317,1.9130182890629317,-1.7089038128913712,3.4183672928847084,0.0
814640.0783812654,4020767.5119837918,-27500.0,0.37041513207115201,1.469609270939128,0.17493186500028221,-0.36044926036707753,-0.67620522112527814,0.21006697710864822,1.642222469640565,1.3945165401243693,-1.5852738401042104,1.5852738401042104,-1.3945165401243693,2.8763458756073148,0.0
819640.0783812654,4020767.5119837918,-27500.0,0.39894665368666798,1.2458056323659534,0.13344674957340089,-0.32463849219710972,-0.55007601864845779,0.17167632815035663,1.3886223747963065,1.1469852277103736,-1.3220057036729203,1.3220057036729203,-1.1469852277103736,2.437584480986148,0.0
824640.0783812654,4020767.5119837918,-27500.0,0.40652856230035889,1.0617734162360397,0.10303055977501339,-0.2890874635863333,-0.45089987548582544,0.14041216220175598,1.1821755987359459,0.95063289649308147,-1.1094144723199093,1.1094144723199093,-0.95063289649308147,2.0796389879720807,0.0
829640.0783812654,4020767.5119837918,-27500.0,0.4009503355881438,0.9097525136840573,0.080482178390650236,-0.25575473812992927,-0.37233719938719373,0.11512640520125854,1.0128715716979706,0.79369441730444457,-0.93675841121985781,0.93675841121985781,-0.79369441730444457,1.7854643730802753,0.0
834640.0783812654,4020767.5119837918,-27500.0,0.3873817253948354,0.78355813482131087,0.063586710373597338,-0.2254795767236113,-0.30963950352571529,0.094726059880187452,0.87304720362988675,0.66731297095494591,-0.79569877079258111,0.79569877079258111,-0.66731297095494591,1.5420029642067312,0.0
644640.0783812654,4025767.5119837918,-27500.0,1.6083698404830271,0.4810428976264593,-0.21306040526640546,0.75421639664692752,0.18134885867983871,0.27528245702420828,1.198194982782868,-0.095143150847903146,-0.16682354521118969,0.16682354521118969,0.095143150847903146,2.2728837595060383,0.0
649640.0783812654,4025767.5119837918,-27500.0,1.8533415491364689,0.53652223046794922,-0.2582526492020934,0.91761228367705927,0.20663341174051703,0.35386472421890147,1.3994487077534099,-0.12115357304078989,-0.1829131582378456,0.1829131582378456,0.12115357304078989,2.6568160576617741,0.0
654640.0783812654,4025767.5119837918,-27500.0,2.1420769189564099,0.59750561024466575,-0.31427302524686773,1.1241343303749121,0.23446046700937703,0.45959597139313707,1.6439651714014047,-0.15323553221282185,-0.20036697279856167,0.20036697279856167,0.15323553221282185,3.1238795076643724,0.0
659640.0783812654,4025767.5119837918,-27500.0,2.4816427785569219,0.66340830876874968,-0.38379198548803739,1.386685571541822,0.26398951466181519,0.60340271224427522,1.9426814253432918,-0.19227502774089511,-0.21931592889502793,0.21931592889502793,0.19227502774089511,3.695216031494823,0.0
664640.0783812654,4025767.5119837918,-27500.0,2.878805992809307,0.7327820498531763,-0.46997728930777316,1.7221042871002781,0.29330067711740465,0.80113728872140066,2.3094883948935023,-0.23872804254401325,-0.24010864982735225,0.24010864982735225,0.23872804254401325,4.3976480621812888,0.0
669640.0783812654,4025767.5119837918,-27500.0,3.3384268649974449,0.80282844786082752,-0.57637350411472676,2.1520441904588559,0.31854955626163939,1.0759346016930593,2.7619224109288791,-0.29191063024294295,-0.26364501566612542,0.26364501566612542,0.29191063024294295,5.2649057186758839,0.0
674640.0783812654,4025767.5119837918,-27500.0,3.8602933888084023,0.86876578936573434,-0.70649312524230423,2.7035540372333018,0.33253484252216531,1.4616406745502324,3.3218491528908252,-0.34858725227765341,-0.29209734651718477,0.29209734651718477,0.34858725227765341,6.3386554246685574,0.0
679640.0783812654,4025767.5119837918,-27500.0,4.4332080505935654,0.92315956173177716,-0.86281029957991651,3.4085410219337775,0.32232582094848067,2.0076025897695464,4.0159110368690136,-0.40025814749765032,-0.33041550319960256,0.33041550319960256,0.40025814749765032,7.6686458657683092,0.0
684640.0783812654,4025767.5119837918,-27500.0,5.0244587601665369,0.95563683320210091,-1.04458733087857,4.3002636307660476,0.26548381188722486,2.7847935931708179,4.8752056056334778,-0.42811908344795041,-0.38936944524497358,0.38936944524497358,0.42811908344795041,9.3104651604947382,0.0
689640.0783812654,4025767.5119837918,-27500.0,5.5621198120895103,0.95416812638376247,-1.2435562951201067,5.4029247959816198,0.12447651413342095,3.8920359925668579,5.9329773505948875,-0.39409596755760229,-0.49147580285998188,0.49147580285998188,0.39409596755760229,11.317815177583707,0.0
694640.0783812654,4025767.5119837918,-27500.0,5.9078648642198806,0.91078533766982539,-1.4359917381580301,6.7066778638358864,-0.16032023035713358,5.4575189881448694,7.2175545507622161,-0.22598798797352471,-0.68192596681101536,0.68192596681101536,0.22598798797352471,13.723412370818981,0.0
699640.0783812654,4025767.5119837918,-27500.0,5.8221180125742844,0.83781556354548881,-1.5696359284568129,8.1147719992164031,-0.67559441917294727,7.6216730179502115,8.7347597948118842,0.20394568440800226,-1.0468617078571083,1.0468617078571083,-0.20394568440800226,16.498544007160806,0.0
704640.0783812654,4025767.5119837918,-27500.0,4.9390909746097247,0.80517559001467842,-1.5460247965474241,9.3455660533009386,-1.5258497829987852,10.467027173740941,10.430603486239363,1.1000878549201225,-1.7380080420774218,1.7380080420774218,-1.1000878549201225,19.478513851339997,0.0
709640.0783812654,4025767.5119837918,-27500.0,2.8111483674087885,1.0094680809551897,-1.2074493560588786,9.7863084174039123,-2.7777763148199099,13.824018061910882,12.127754575043204,2.7327432898020358,-2.9866355551984407,2.9866355551984407,-2.7327432898020358,22.253301286795441,0.0
714640.0783812654,4025767.5119837918,-27500.0,-0.84068796206663965,1.8585583838040216,-0.35979360155716528,8.3783679824863295,-4.2959758893137447,16.848318570652584,13.459923824120693,5.3072618533327338,-5.0421078457777186,5.0421078457777186,-5.3072618533327338,24.102816484563149,0.0
719640.0783812654,4025767.5119837918,-27500.0,-5.4944852943011409,3.9468968919875032,1.1084063681620706,3.8550390084302135,-5.4175152058557421,17.362392849902477,13.974749730070638,8.5590331407745133,-7.8834691130230921,7.8834691130230921,-8.5590331407745133,24.381959359153882,0.0
724640.0783812654,4025767.5119837918,-27500.0,-9.0001235128279902,7.5933145049696789,2.9884341970257591,-4.0074143903088046,-4.6539199493678041,11.548943889116826,14.188791551607492,11.068967463002279,-10.566825297033185,10.566825297033185,-11.068967463002279,24.61232018942458,0.0
729640.0783812654,4025767.5119837918,-27500.0,-8.0493184522367596,11.732589202269997,4.6426922763884422,-11.999221180512739,-0.28965063397488527,-4.1124532862960432,17.908165104994552,10.185048067301835,-10.724252271033833,10.724252271033833,-10.185048067301835,31.173319941908893,0.0
734640.0783812654,4025767.5119837918,-27500.0,-2.0568350693688409,13.446032375504785,5.556081436990528,-13.133159954264146,7.1839199375483034,-27.214012605024518,26.121717169959744,4.4869554105674254,-6.1231488411296819,6.1231488411296819,-4.4869554105674254,45.793151447541227,0.0
739640.0783812654,4025767.5119837918,-27500.0,3.2470610544258598,10.721625121106465,6.1340789540640142,-3.5217021913070683,13.302179273383587,-46.225794065298416,33.318009076545785,-2.5091733011699282,1.4139240658474308,-1.4139240658474308,2.5091733011699282,59.259076091987893,0.0
744640.0783812654,4025767.5119837918,-27500.0,1.7834326431742635,5.8423313386657361,7.0126509513963899,10.390976210687016,13.639254783193525,-50.248255932929062,35.003753193477721,-4.8919401831523839,6.2220229310784294,-6.2220229310784294,4.8919401831523839,63.175389813388385,0.0
749640.0783812654,4025767.5119837918,-27500.0,-4.5088085690342847,2.6691609354208823,7.8065806128034509,18.865626952567734,9.0992885444949838,-40.940286418729215,31.264261149484323,-1.7578195628890092,5.5441060571503531,-5.5441060571503531,1.7578195628890092,57.140959691689169,0.0
754640.0783812654,4025767.5119837918,-27500.0,-9.8261554626959047,2.1187460652047392,7.7980014613954847,19.549330430758424,3.6967176965222683,-27.603301927098222,25.077009957276623,3.0227440468240583,1.7873399477851906,-1.7873399477851906,-3.0227440468240583,46.270276024416901,0.0
759640.0783812654,4025767.5119837918,-27500.0,-11.696759709855469,2.8364492790701878,6.9569516306488728,15.912468387203605,-0.10419900063663216,-16.590154721518392,19.070590686915004,6.3655672997464441,-1.8619357024499612,1.8619357024499612,-6.3655672997464441,35.312534543591298,0.0
764640.0783812654,4025767.5119837918,-27500.0,-10.938666762404322,3.5964966656685489,5.7154809117942422,11.417256739962397,-2.0447313173319874,-9.3344890331961885,14.317101350657257,7.6946677236694949,-4.103449815970766,4.103449815970766,-7.6946677236694949,26.374726649206966,0.0
769640.0783812654,4025767.5119837918,-27500.0,-9.0366441326589921,3.9615976998660472,4.460834921140739,7.6428833477676035,-2.7247705776117512,-5.047727398495935,10.831028167243257,7.6286491528030549,-5.0187482050337859,5.0187482050337859,-7.6286491528030549,19.719279098498742,0.0
774640.0783812654,4025767.5119837918,-27500.0,-6.9636695482967532,3.9469184813588738,3.3834769294879523,4.9129506681041075,-2.7389828182076381,-2.6468156441608022,8.3083469419109832,6.8720063114829149,-5.0828015637404231,5.0828015637404231,-6.8720063114829149,14.92257947291805,0.0
779640.0783812654,4025767.5119837918,-27500.0,-5.1477036530461788,3.6915074403389645,2.5312915266663056,3.073387227136795,-2.4662139976808986,-1.3381206736934728,6.466735904225974,5.8857063412013382,-4.7097088349482448,4.7097088349482448,-5.8857063412013382,11.475694456046895,0.0
784640.0783812654,4025767.5119837918,-27500.0,-3.7041009382456749,3.3211939254551099,1.8854532719425443,1.8778791199952141,-2.1062151141312815,-0.63645652351447257,5.1029350644231251,4.9072355452788905,-4.1628924162949552,4.1628924162949552,-4.9072355452788905,8.9713709838859135,0.0
789640.0783812654,4025767.5119837918,-27500.0,-2.6127515069920833,2.9187352753086722,1.4063942962402056,1.1159998236717907,-1.7511182657410993,-0.26602209601186477,4.0777746909896528,4.0362548840051877,-3.5853575123793311,3.5853575123793311,-4.0362548840051877,7.1219016727046061,0.0
794640.0783812654,4025767.5119837918,-27500.0,-1.810308894898436,2.5300646137703269,1.0543016429696255,0.63616546220185044,-1.4368624616853019,-0.074773638898187778,3.2962053151556709,3.300974197051644,-3.0450735073533095,3.0450735073533095,-3.300974197051644,5.7321867652894589,0.0
799640.0783812654,4025767.5119837918,-27500.0,-1.2296235688592632,2.1768306030194924,0.79601375331034818,0.33671576129968733,-1.1726792372350807,0.020104755286550816,2.6925674300443099,2.6971362465087569,-2.568544912508802,2.568544912508802,-2.6971362465087569,4.6706496147701762,0.0
804640.0783812654,4025767.5119837918,-27500.0,-0.81339963973960006,1.8665764120801374,0.60605457512115579,0.15172000918951212,-0.95633075657337263,0.063555285194394601,2.2207964649203955,2.2081734969890521,-2.1612787073335875,2.1612787073335875,-2.2081734969890521,3.8476210548705763,0.0
809640.0783812654,4025767.5119837918,-27500.0,-0.51691768438815533,1.5994036588089646,0.46561094016861987,0.039083090033250792,-0.78146455300084572,0.079952004733401388,1.848058628290274,1.8147142168005712,-1.8191492243009955,1.8191492243009955,-1.8147142168005712,3.2009519782680034,0.0
814640.0783812654,4025767.5119837918,-27500.0,-0.30677815817314946,1.3719100086786238,0.36105818054404881,-0.027900669842144642,-0.64093028855694956,0.082503456776160541,1.5506001989575764,1.4986074525581841,-1.5343225454586324,1.5343225454586324,-1.4986074525581841,2.686762104249429,0.0
819640.0783812654,4025767.5119837918,-27500.0,-0.15860607744549982,1.1793608845029275,0.28261288141084867,-0.066148651419512372,-0.52813085523875125,0.078341515412906376,1.3110020844743038,1.2443105627825621,-1.2981615243059637,1.2981615243059637,-1.2443105627825621,2.2735088259994196,0.0
824640.0783812654,4025767.5119837918,-27500.0,-0.054824597292088779,1.0168115661227097,0.22326450455213187,-0.086387857932298889,-0.43746134593644204,0.071280819593802378,1.1163325714940096,1.039095641717755,-1.1025336525258425,1.1025336525258425,-1.039095641717755,1.9381410524458011,0.0
829640.0783812654,4025767.5119837918,-27500.0,0.017169970769399967,0.87963790365033767,0.17798019110650823,-0.095432566426615503,-0.36435123254802126,0.063321920667590972,0.95688286471252837,0.87278367158321901,-0.94030850634780727,0.94030850634780727,-0.87278367158321901,1.6635607398016277,0.0
834640.0783812654,4025767.5119837918,-27500.0,0.06639864155535502,0.76374878767097465,0.14313134081009463,-0.097618491144264186,-0.30515354123010985,0.055474513703796434,0.82528820455602458,0.73733499720648432,-0.80546476259754651,0.80546476259754651,-0.73733499720648432,1.4369155417572799,0.0
644640.0783812654,4030767.5119837918,-27500.0,1.808982882687429,0.29195786409568564,-0.23005593727826248,0.84140641109760572,0.10063207165653007,0.30488172049389489,1.2481477952742264,-0.1927757319177614,-0.0041182685856431533,0.0041182685856431533,0.1927757319177614,2.400639878707123,0.0
649640.0783812654,4030767.5119837918,-27500.0,2.0822884965850657,0.30433259393787204,-0.27446018346388484,1.022828300865724,0.10286207510054861,0.39175136722450837,1.4575632383482975,-0.23333417451748129,0.012942598165281774,-0.012942598165281774,0.23333417451748129,2.8064459696030659,0.0
654640.0783812654,4030767.5119837918,-27500.0,2.4024725641444356,0.31068927434048438,-0.32782045247972341,1.2512483117871047,0.099849271294537092,0.50834566624982935,1.7116829036712511,-0.28139667360000642,0.036420713059009707,-0.036420713059009707,0.28139667360000642,3.2995538091972234,0.0
659640.0783812654,4030767.5119837918,-27500.0,2.7760121647280416,0.3071298631534688,-0.3915340504228082,1.5401671646981698,0.087785064150409417,0.66639832560910139,2.0216428913852242,-0.33724531302968008,0.068027678459508939,-0.068027678459508939,0.33724531302968008,3.9017905941268105,0.0
664640.0783812654,4030767.5119837918,-27500.0,3.2082639718631998,0.28803008206329517,-0.46674032556461614,1.9068375136350015,0.060578014872648855,0.88275851471597266,2.4015046646338463,-0.40001455332802338,0.10954006896606347,-0.10954006896606347,0.40001455332802338,4.6406217957318603,0.0
669640.0783812654,4030767.5119837918,-27500.0,3.7013148425935714,0.24549826968776745,-0.55377950117557717,2.3728148472327706,0.0085479431326226634,1.181697954845923,2.8688961650386262,-0.46645618862181182,0.1623263516259893,-0.1623263516259893,0.46645618862181182,5.550213317421087,0.0
674640.0783812654,4030767.5119837918,-27500.0,4.2500223199299745,0.16891063683231303,-0.65116300177037922,2.9639100043065367,-0.083565810677034932,1.5981400496206111,3.445607714801286,-0.52868878973514311,0.22625701045329438,-0.22625701045329438,0.52868878973514311,6.6721481068578843,0.0
679640.0783812654,4030767.5119837918,-27500.0,4.8350550356033279,0.044933709191179172,-0.75371134799779049,3.7085287374279634,-0.23952546750884204,2.181914708146218,4.1578758721955715,-0.57021703454595585,0.29739792329578507,-0.29739792329578507,0.57021703454595585,8.0550240512979556,0.0
684640.0783812654,4030767.5119837918,-27500.0,5.4112699348902833,-0.14097425382396767,-0.84936295933743389,4.632292940340796,-0.49555690191447421,3.002654101310549,5.0357046208046405,-0.55916062620716434,0.36341153390278452,-0.36341153390278452,0.55916062620716434,9.751320923752461,0.0
689640.0783812654,4030767.5119837918,-27500.0,5.8896477279950172,-0.39941919141666848,-0.91409829948011412,5.7448734614739525,-0.90483635905995341,4.1534810525550299,6.1097099190200579,-0.43742800548691363,0.39490240176418878,-0.39490240176418878,0.43742800548691363,11.808399741570492,0.0
694640.0783812654,4030767.5119837918,-27500.0,6.1125420318423718,-0.72403023603929439,-0.90486100191608287,7.0119055898377178,-1.5400348758200959,5.7479000145083079,7.4023899057154878,-0.10530133803072803,0.33031789778754395,-0.33031789778754395,0.10530133803072803,14.248028310859304,0.0
699640.0783812654,4030767.5119837918,-27500.0,5.8285034577756996,-1.0633690598276295,-0.75237393170103717,8.3016220729545154,-2.4864404537468361,7.8958647568796101,8.9088640302857236,0.5951339505025437,0.052777618439167062,-0.052777618439167062,-0.5951339505025437,17.025780098846873,0.0
704640.0783812654,4030767.5119837918,-27500.0,4.6911561321699251,-1.269413572776303,-0.3616629436370648,9.297714646505268,-3.8073565668779574,10.628848690293518,10.561802914693894,1.8816970193649509,-0.63640614205451096,0.63640614205451096,-1.8816970193649509,19.961309506978925,0.0
709640.0783812654,4030767.5119837918,-27500.0,2.3446492811117818,-1.024828877909348,0.3590553048739567,9.394121515131177,-5.4459349708773654,13.721822810527261,12.181421293086167,3.9729737476712454,-2.0206353539637085,2.0206353539637085,-3.9729737476712454,22.646127949712319,0.0
714640.0783812654,4030767.5119837918,-27500.0,-1.2947318441175566,0.20027704540340743,1.4038384944779287,7.6716042908803583,-7.0183948445526996,16.3609491170685,13.441771465475798,6.8746618627684342,-4.3685648141128599,4.3685648141128599,-6.8746618627684342,24.409316327591267,0.0
719640.0783812654,4030767.5119837918,-27500.0,-5.4936937963082491,2.9934896648419218,2.4855213314262765,3.2311452559046447,-7.5214811844673068,16.734114543915378,13.98994911393728,9.915181105783736,-7.5887822368597657,7.5887822368597657,-9.915181105783736,24.663834876989128,0.0
724640.0783812654,4030767.5119837918,-27500.0,-8.2283818563592508,7.3705853562589354,2.8828812826383676,-3.7337139495848839,-5.2666363988959644,12.063682204458326,14.115262622553727,11.211220239560499,-10.588079060472397,10.588079060472397,-11.211220239560499,24.449302462594485,0.0
729640.0783812654,4030767.5119837918,-27500.0,-6.9707533782416418,11.764570675659996,1.7478897061480019,-10.414792324758821,1.1867739382053832,0.20197245792691823,16.113841025075409,8.0547566781766911,-10.932577028897686,10.932577028897686,-8.0547566781766911,28.456469577912422,0.0
734640.0783812654,4030767.5119837918,-27500.0,-1.6543854735270851,13.071961048416037,-0.80039470148289282,-11.732498118010184,10.803803571511233,-16.967845179378855,21.749207626496791,-0.47104870835680357,-6.3461889590977592,6.3461889590977592,0.47104870835680357,39.039191202367434,0.0
739640.0783812654,4030767.5119837918,-27500.0,3.2978671905160386,9.4695564746736522,-2.9668475895558011,-4.9472143451225064,19.045005644166832,-32.166088664450285,27.55755048342624,-10.520810738567175,1.9991457117382012,-1.9991457117382012,10.520810738567175,50.053434013303487,0.0
744640.0783812654,4030767.5119837918,-27500.0,3.0863536166060141,3.2316583625951982,-2.8853297964167912,6.0482110150338704,21.394007300124901,-38.15201497839643,29.842720738521198,-15.858412669148002,9.1548993830232988,-9.1548993830232988,15.858412669148002,54.81045180694899,0.0
749640.0783812654,4030767.5119837918,-27500.0,-1.7771105051331646,-1.5284172467419319,-0.79278698517455704,14.441393113869601,17.83304609514591,-34.465560200964333,27.942413866899155,-14.303157530571907,11.34594459373646,-11.34594459373646,14.303157530571907,51.849801622750597,0.0
754640.0783812654,4030767.5119837918,-27500.0,-7.1463285247250665,-3.0912991776290872,1.6214236690957817,17.232533940487059,11.8269507456111,-26.075675868296642,23.515180821465762,-8.8416926290206472,9.1763283161836018,-9.1763283161836018,8.8416926290206472,44.04930030941815,0.0
759640.0783812654,4030767.5119837918,-27500.0,-10.236841347460794,-2.4065912827560814,3.174450551790613,15.804292349667788,6.4120378983766484,-17.657994751760096,18.538628539055082,-3.241218739071841,5.3803356572242071,-5.3803356572242071,3.241218739071841,34.992973975498593,0.0
764640.0783812654,4030767.5119837918,-27500.0,-10.842164829283167,-0.97349875559227639,3.7131938007698602,12.635476692785222,2.6896385864409336,-11.207391143060708,14.181025040214074,0.70687914570365307,1.9643647114980181,-1.9643647114980181,-0.70687914570365307,26.848076942456974,0.0
769640.0783812654,4030767.5119837918,-27500.0,-9.8979737124478593,0.3211768012076307,3.5756426283391094,9.3589231734255822,0.52391832222030965,-6.8642524585474467,10.789752665834195,2.8793128637148691,-0.38192112126550226,0.38192112126550226,-2.8793128637148691,20.341284851782763,0.0
774640.0783812654,4030767.5119837918,-27500.0,-8.3172689984111727,1.1974354281234239,3.1217306746573099,6.6394593249163982,-0.57486378484605327,-4.1261629427370021,8.2685905009451339,3.7751261124474924,-1.7209877565014169,1.7209877565014169,-3.7751261124474924,15.427710231863095,0.0
779640.0783812654,4030767.5119837918,-27500.0,-6.6570225698341288,1.675800934582826,2.5834436050456415,4.5970605393846053,-1.0425028461266399,-2.4557283795375677,6.4086223622624772,3.9176802930179995,-2.3417890080521997,2.3417890080521997,-3.9176802930179995,11.802517986610155,0.0
784640.0783812654,4030767.5119837918,-27500.0,-5.1740931790916855,1.8655648388034314,2.0758952344566697,3.1395548194307952,-1.1716504205669149,-1.4520820173391189,5.0286929964711513,3.6785763252742156,-2.5195911035679228,2.5195911035679228,-3.6785763252742156,9.1411632359896426,0.0
789640.0783812654,4030767.5119837918,-27500.0,-3.9495971906174634,1.8738734893151348,1.6425061176273559,2.1269461618709751,-1.1352630042915008,-0.85264259528150543,3.9948837168621978,3.2808905149928731,-2.4523691320104706,2.4523691320104706,-3.2808905149928731,7.1775085435476207,0.0
794640.0783812654,4030767.5119837918,-27500.0,-2.9807145638059569,1.7803992153166939,1.290670527392813,1.4329380995338568,-1.0280468091374502,-0.49511382889875954,3.2115408459935066,2.8448153858547682,-2.2653390068394055,2.2653390068394055,-2.8448153858547682,5.7136698629910434,0.0
799640.0783812654,4030767.5119837918,-27500.0,-2.2323648051369469,1.6374011093771401,1.0126244494701868,0.960217785500595,-0.89880789794524141,-0.28182333881413774,2.6108829702080936,2.4287537476893912,-2.031568721035264,2.031568721035264,-2.4287537476893912,4.6084650213978007,0.0
804640.0783812654,4030767.5119837918,-27500.0,-1.6621852680620361,1.4765376182992882,0.79592131841279112,0.63888426408253551,-0.77102847580344713,-0.15462499994157455,2.144830306925197,2.0569962359287759,-1.7908785025016538,1.7908785025016538,-2.0569962359287759,3.7626780599523415,0.0
809640.0783812654,4030767.5119837918,-27500.0,-1.2309668795743922,1.3157170805429665,0.62806571965136149,0.42044431305481683,-0.65481886727853233,-0.07898346158300934,1.7790733466625193,1.7362441043000552,-1.5632618432185914,1.5632618432185914,-1.7362441043000552,3.1066881221917715,0.0
814640.0783812654,4030767.5119837918,-27500.0,-0.90603261999020823,1.1642657928230027,0.49822897501457558,0.27183197268890213,-0.55352221684001002,-0.034337835288878855,1.4889105257174462,1.4648225896486375,-1.357447213903616,1.357447213903616,-1.4648225896486375,2.5913505789272162,0.0
819640.0783812654,4030767.5119837918,-27500.0,-0.66153301845818624,1.0264036542517647,0.39763844877223392,0.17067107747423982,-0.46724464880268451,-0.0083875915200424239,1.2563716684322648,1.2375672597446259,-1.176050342116292,1.176050342116292,-1.2375672597446259,2.1816283059924193,0.0
824640.0783812654,4030767.5119837918,-27500.0,-0.4775894078198954,0.90344356869927633,0.3194315018378156,0.1018489465217821,-0.39468886730170688,0.0062694777735296274,1.0682392080889072,1.048290119022607,-1.0185588918624462,1.0185588918624462,-1.048290119022607,1.8522430935404872,0.0
829640.0783812654,4030767.5119837918,-27500.0,-0.33915074271617701,0.79512957702626308,0.25833902887996313,0.055144268412445005,-0.33407517357332694,0.014114442279396774,0.91468311327283336,0.89094253145893831,-0.88300800177616678,0.88300800177616678,-0.89094253145893831,1.584724724358259,0.0
834640.0783812654,4030767.5119837918,-27500.0,-0.23491403269628741,0.70042680834324289,0.21035375201581996,0.02362065088746583,-0.28358176136115471,0.017874290866819464,0.7883133545021257,0.76010081087724646,-0.76689072929805713,0.76689072929805713,-0.76010081087724646,1.3654045674857964,0.0
644640.0783812654,4035767.5119837918,-27500.0,1.9408883768524181,0.090738933096486868,-0.21442128073387476,0.90000172980099324,0.014521508613834298,0.32500838561529671,1.2834266995914414,-0.27107775849222709,0.16564299151588685,-0.16564299151588685,0.27107775849222709,2.4958062306720592,0.0
649640.0783812654,4035767.5119837918,-27500.0,2.2241655715516964,0.059826334625027781,-0.24878788529149459,1.0898827499933166,-0.006764611383150136,0.41626753202794264,1.4964765311705095,-0.31963770598922531,0.21562306346202081,-0.21562306346202081,0.31963770598922531,2.9133407784896539,0.0
654640.0783812654,4035767.5119837918,-27500.0,2.5519622200540324,0.0124357262013208,-0.28730256418074318,1.3269823398217551,-0.040697265914621181,0.53798916606126079,1.7540486955398247,-0.37480593010168833,0.27904519284365031,-0.27904519284365031,0.37480593010168833,3.4186822524795981,0.0
659640.0783812654,4035767.5119837918,-27500.0,2.9285151390798072,-0.05779464299607337,-0.32912682131945908,1.6238788616150093,-0.09360757331186928,0.70174715261992904,2.066824183826824,-0.43544557580696086,0.35895365498743637,-0.35895365498743637,0.43544557580696086,4.0328611984709308,0.0
664640.0783812654,4035767.5119837918,-27500.0,3.3557386636933608,-0.15927311953256362,-0.37214053398972546,1.9960758820706577,-0.17494097559971311,0.92387036740450623,2.4480943499927932,-0.49833328300477897,0.45846601129338849,-0.45846601129338849,0.49833328300477897,4.7818646034129433,0.0
669640.0783812654,4035767.5119837918,-27500.0,3.83060439688796,-0.3027441976716716,-0.41198002497776354,2.4619913885480749,-0.29873778839288961,1.2273782673836149,2.9142170159937972,-0.5564315628898705,0.58004756083250542,-0.58004756083250542,0.5564315628898705,5.6972626736469509,0.0
674640.0783812654,4035767.5119837918,-27500.0,4.3406901482965567,-0.50114973888584591,-0.44049628732627927,3.0420408589730785,-0.48569379079054398,1.6445145484432677,3.4849145457884694,-0.59597903650272377,0.72393722893415191,-0.72393722893415191,0.59597903650272377,6.8162581165864573,0.0
679640.0783812654,4035767.5119837918,-27500.0,4.8569620976812846,-0.76836829042686483,-0.44339834510809567,3.7557261967931139,-0.76581796590846385,2.2197403224770773,4.1830525403652326,-0.59175868788835084,0.8849987419484141,-0.8849987419484141,0.59175868788835084,8.1803161488234526,0.0
684640.0783812654,4035767.5119837918,-27500.0,5.3227761439087171,-1.1154335050519995,-0.39692808273397973,4.6147095188647986,-1.1813203350259207,3.0124470824541629,5.0330898842390974,-0.49981197867981797,1.046807670321753,-1.046807670321753,0.49981197867981797,9.8307679587943628,0.0
689640.0783812654,4035767.5119837918,-27500.0,5.6387369482624319,-1.5416491194480817,-0.26387132137952313,5.6084223208471737,-1.7883084157063682,4.0971714330232505,6.0566476714448498,-0.24726576965409303,1.171272047001759,-1.171272047001759,0.24726576965409303,11.798531308711638,0.0
694640.0783812654,4035767.5119837918,-27500.0,5.6457992875060281,-2.0164188537448458,0.0093614957146077524,6.6771272560799781,-2.6533789677254709,5.5558609191713266,7.2628254402816097,0.27911478333747686,1.1820594390234453,-1.1820594390234453,-0.27911478333747686,14.083386236079537,0.0
699640.0783812654,4035767.5119837918,-27500.0,5.1165510437824704,-2.4466524514206784,0.48933667181750362,7.6672232714681874,-3.8360919766381967,7.4505709370822704,8.6304667807602158,1.2381939804026669,0.94230690734741218,-0.94230690734741218,-1.2381939804026669,16.616944358052404,0.0
704640.0783812654,4035767.5119837918,-27500.0,3.7807041055446908,-2.6283397505524113,1.2336969403649076,8.2704660262158551,-5.3399311369152453,9.7556922050069446,10.080681975055969,2.8124262015900809,0.23581462900302586,-0.23581462900302586,-2.8124262015900809,19.206170722862783,0.0
709640.0783812654,4035767.5119837918,-27500.0,1.4349463492139443,-2.1997001891491386,2.2293695281521324,7.9752796881233312,-7.0067673032497106,12.222492592401679,11.445254232161668,5.1134696555384451,-1.216364091290584,1.216364091290584,-5.1134696555384451,21.472029493277201,0.0
714640.0783812654,4035767.5119837918,-27500.0,-1.8044306472428731,-0.66354419236963291,3.2708966844882794,6.1212762895092663,-8.3436382939940206,14.170757876583428,12.462104684479671,7.9511094323058735,-3.6320801747866316,3.6320801747866316,-7.9511094323058735,22.85751797150542,0.0
719640.0783812654,4035767.5119837918,-27500.0,-5.1384063381027847,2.3769465490578359,3.8116525174235192,2.2321141514340486,-8.3582069205116944,14.311057077866517,12.891288896961637,10.457822116024662,-6.8435993297155164,6.8435993297155164,-10.457822116024662,22.930042141910278,0.0
724640.0783812654,4035767.5119837918,-27500.0,-6.9547179412275835,6.6419008637923911,2.9779220606359611,-3.247917475449861,-5.689032679502569,10.939502931987086,12.926767554725611,10.839989056922711,-9.8171445137614768,9.8171445137614768,-10.839989056922711,22.410050145843464,0.0
729640.0783812654,4035767.5119837918,-27500.0,-5.6382901846078752,10.544205334671377,0.093832298070121972,-8.2155021290592973,0.53154648048704223,2.9899067080806208,13.806977519716467,7.0005784826860982,-10.53827122725362,10.53827122725362,-7.0005784826860982,24.386819749231243,0.0
734640.0783812654,4035767.5119837918,-27500.0,-1.4428145252258837,11.574311377266548,-4.3010276181219602,-9.4712522439012261,9.2313135953843322,-8.2780183944565486,16.930688873842957,-1.4469305180363845,-7.184884298761312,7.184884298761312,1.4469305180363845,31.016322891217449,0.0
739640.0783812654,4035767.5119837918,-27500.0,2.6303420560089208,8.4024583624013385,-8.1121774389733261,-5.340184874612425,17.036753411133759,-18.869803148257621,20.979871458642268,-11.41143450805459,-0.30457751188998383,0.30457751188998383,11.41143450805459,38.920454562594109,0.0
744640.0783812654,4035767.5119837918,-27500.0,3.2899376262460698,2.6621653915286663,-9.2338376187055928,2.1637586348330613,20.54279134405429,-24.641713425588911,23.275945142403433,-18.003810616006717,6.7683336425169696,-6.7683336425169696,18.003810616006717,43.457313693957175,0.0
749640.0783812654,4035767.5119837918,-27500.0,0.25625252369113144,-2.4235286583541953,-7.4787501783324926,8.992081729243921,19.112633905926771,-24.526042299059277,22.817383229074398,-18.742710998537625,10.716690933607971,-10.716690933607971,18.742710998537625,42.876248500556315,0.0
754640.0783812654,4035767.5119837918,-27500.0,-4.0809129255849284,-4.9359801248290367,-4.3691076243916758,12.587471138077683,14.760443174346863,-20.544760550739007,20.251505794844864,-15.016336584308512,10.840542554980964,-10.840542554980964,15.016336584308512,38.320145845814409,0.0
759640.0783812654,4035767.5119837918,-27500.0,-7.4278362590995917,-5.0611275063047909,-1.4794041180003585,12.975211506171162,9.9032249564518615,-15.386210252019035,16.777648813124454,-9.7526907389301591,8.5712807278354397,-8.5712807278354397,9.7526907389301591,31.971774717834112,0.0
764640.0783812654,4035767.5119837918,-27500.0,-8.9872671832703244,-3.9158400599256593,0.48245060957775937,11.448666359837306,5.9150158386890759,-10.739396567803375,13.335994782392012,-5.0531027814839264,5.6264484272036528,-5.6264484272036528,5.0531027814839264,25.563982764068808,0.0
769640.0783812654,4035767.5119837918,-27500.0,-9.0534697941212023,-2.4585612611685361,1.5185591696036598,9.2389891529125467,3.1360828366781939,-7.1857436435851252,10.398376438029008,-1.6886756697476741,3.03280209651078,-3.03280209651078,1.6886756697476741,19.980638659128129,0.0
774640.0783812654,4035767.5119837918,-27500.0,-8.2381460760780705,-1.1862321357045453,1.9025999944831504,7.0714847070775706,1.3919263052193158,-4.6943425524926434,8.0802914035528559,0.38737343095352356,1.1336823423262774,-1.1336823423262774,-0.38737343095352356,15.476044942712406,0.0
779640.0783812654,4035767.5119837918,-27500.0,-7.0534898995955526,-0.25197362179920413,1.9114157221369517,5.2455315029229199,0.38006870137476284,-3.0290837727184621,6.3102775885937081,1.5053915871309891,-0.098595907893064827,0.098595907893064827,-1.5053915871309891,11.985724316271172,0.0
784640.0783812654,4035767.5119837918,-27500.0,-5.8162932620481174,0.35992336990353502,1.7400901491455483,3.8213005269701901,-0.16391894342628616,-1.9441502979732666,4.9684474316000546,2.0022687709847915,-0.81873083023530135,0.81873083023530135,-2.0022687709847915,9.3332352611840772,0.0
789640.0783812654,4035767.5119837918,-27500.0,-4.6848162663074744,0.72118500697084764,1.5037874831587792,2.7563682405381416,-0.42784910298802531,-1.246096220893397,3.9491546099569597,2.1327937944535051,-1.1885145125333276,1.1885145125333276,-2.1327937944535051,7.3310928102288839,0.0
794640.0783812654,4035767.5119837918,-27500.0,-3.718718464315947,0.90711460815522349,1.2622755040595401,1.978565175715127,-0.53236117841445763,-0.79904680582963261,3.1706310875727479,2.0653630434359296,-1.3362183237778347,1.3362183237778347,-2.0653630434359296,5.8184940542460142,0.0
799640.0783812654,4035767.5119837918,-27500.0,-2.9254891712970852,0.97866526448265201,1.0424599321614456,1.41752723151231,-0.55056355850404182,-0.51273823706184185,2.5715439001158229,1.9026806438633688,-1.3518225193283062,1.3518225193283062,-1.9026806438633688,4.6693877975311056,0.0
804640.0783812654,4035767.5119837918,-27500.0,-2.2890777205990807,0.97983799278929795,0.85363354901162991,1.0151891548937249,-0.52505581258607759,-0.3288867506972788,2.1064892568730413,1.7037258128589492,-1.2941790069625136,1.2941790069625136,-1.7037258128589492,3.7891679649886272,0.0
809640.0783812654,4035767.5119837918,-27500.0,-1.7853950087124797,0.94039603787668202,0.69648774515651357,0.7271479476516397,-0.47987254868558915,-0.21036629819681527,1.7420681713460748,1.5004235962769785,-1.1999743601502586,1.1999743601502586,-1.5004235962769785,3.1082986304173059,0.0
814640.0783812654,4035767.5119837918,-27500.0,-1.3898300400312795,0.87960374955336029,0.56801231985659928,0.52076667593518633,-0.42811902315836237,-0.13364433816419158,1.4537428134734929,1.3087511299459456,-1.0911723741179387,1.0911723741179387,-1.3087511299459456,2.5761008131854481,0.0
819640.0783812654,4035767.5119837918,-27500.0,-1.0804031802509244,0.80948828656440097,0.46398401552319213,0.3725605925164539,-0.37661742670633386,-0.083799887741378434,1.223438175714336,1.1356501350172339,-0.98036761512229675,0.98036761512229675,-1.1356501350172339,2.1556782391475036,0.0
824640.0783812654,4035767.5119837918,-27500.0,-0.83872668228883396,0.73728766034616333,0.38013609314654262,0.26581339435304052,-0.32865343904755728,-0.051338946464543692,1.0377693219789064,0.98315271908230195,-0.87437215314713423,0.87437215314713423,-0.98315271908230195,1.8200761313692164,0.0
829640.0783812654,4035767.5119837918,-27500.0,-0.6499607579080422,0.66715916208667225,0.31264361201077623,0.18868147309258229,-0.28556933163071135,-0.030187927536623842,0.88675471456283905,0.85076997914316921,-0.77652180878600341,0.77652180878600341,-0.85076997914316921,1.5494789983793547,0.0
644640.0783812654,4040767.5119837918,-27500.0,2.0040008535501608,-0.10824607441478641,-0.16817773816758613,0.92978501579364381,-0.071181633536162137,0.33556148063439972,1.3020553228715805,-0.32573411513668221,0.33138777411304016,-0.33138777411304016,0.32573411513668221,2.5537725285362161,0.0
649640.0783812654,4040767.5119837918,-27500.0,2.2803288397002177,-0.17816286745873114,-0.18483710815200641,1.1190810565251068,-0.11426735239809212,0.42746826033373486,1.5139302174624261,-0.37527555399260387,0.41075769559699388,-0.41075769559699388,0.37527555399260387,2.972196327526845,0.0
654640.0783812654,4040767.5119837918,-27500.0,2.5944437420121025,-0.27247482313657395,-0.19888184701531886,1.3526783583557553,-0.17612448839366285,0.54893264099412065,1.7685662051839031,-0.4284405255981098,0.50879347246865203,-0.50879347246865203,0.4284405255981098,3.4753429078362585,0.0
659640.0783812654,4040767.5119837918,-27500.0,2.947379578140974,-0.39869292993576844,-0.20686536752127035,1.6411138642971146,-0.26477881022448785,0.71058774440956141,2.0756241592063418,-0.48216388840932656,0.62905169392001647,-0.62905169392001647,0.48216388840932656,4.0821642920852748,0.0
664640.0783812654,4040767.5119837918,-27500.0,3.3366598392767077,-0.56606829412272919,-0.20311826547018899,1.9966770324887118,-0.39168219108215557,0.92708130287324786,2.4468474191848633,-0.5303766912921466,0.77484468910398041,-0.77484468910398041,0.5303766912921466,4.8154362920282026,0.0
669640.0783812654,4040767.5119837918,-27500.0,3.7534711968476051,-0.78538908370065186,-0.17856056713801075,2.4328159135502916,-0.57305531893957995,1.2184722191649797,2.8962424177102482,-0.56197855138102926,0.94818948619060428,-0.94818948619060428,0.56197855138102926,5.701829719456601,0.0
674640.0783812654,4040767.5119837918,-27500.0,4.1782586320740398,-1.0679881407036904,-0.11903178233122512,2.9624515980797073,-0.83154638406157133,1.6118648800758737,3.4399420995960273,-0.55768414438141312,1.1477381145750367,-1.1477381145750367,0.55768414438141312,6.7711967266848143,0.0
679640.0783812654,4040767.5119837918,-27500.0,4.5742344016044685,-1.4231182761245433,-0.0031397266222366708,3.5942114860698275,-1.197968537042764,2.1429555214953306,4.0953207848863293,-0.48535556981916228,1.3649628033670358,-1.3649628033670358,0.48535556981916228,8.054244173654622,0.0
684640.0783812654,4040767.5119837918,-27500.0,4.8786221180387699,-1.8522349786299226,0.20003358661252957,4.3249664646868196,-1.7123417545052815,2.8565711846865476,4.878615683199004,-0.29366140555432407,1.5775552421499248,-1.5775552421499248,0.29366140555432407,9.5771711470332619,0.0
689640.0783812654,4040767.5119837918,-27500.0,4.9926885149654572,-2.3379287141742013,0.53215956884698945,5.1263464947702584,-2.4222903636154305,3.8040459743754056,5.7999799371066914,0.095142447592990842,1.7388631415792406,-1.7388631415792406,-0.095142447592990842,11.351022160914608,0.0
694640.0783812654,4040767.5119837918,-27500.0,4.7748076796059893,-2.8247381990166072,1.0427112594690822,5.9227129848719464,-3.3745835586528465,5.0329983402503657,6.8546285733329162,0.78985953346064686,1.7629362456614197,-1.7629362456614197,-0.78985953346064686,13.35272504443193,0.0
699640.0783812654,4040767.5119837918,-27500.0,4.0474161978174381,-3.1904381328927705,1.7752325837725853,6.5601781414974489,-4.5919531685335357,6.561577544124912,8.0088549246694001,1.9230186702175172,1.5080878343840942,-1.5080878343840942,-1.9230186702175172,15.495130259386418,0.0
704640.0783812654,4040767.5119837918,-27500.0,2.6391720870152482,-3.2135456713918908,2.7315702969828433,6.7747223302069601,-6.0234185562052156,8.3258974774206109,9.1816257129667616,3.6115440894241466,0.77095432451733448,-0.77095432451733448,-3.6115440894241466,17.588003538171314,0.0
709640.0783812654,4040767.5119837918,-27500.0,0.49200526216699075,-2.5623309668153493,3.8015036524734387,6.1884262237520344,-7.4581752372824983,10.092291861291272,10.229547067063523,5.8535031823412211,-0.67902610987305989,0.67902610987305989,-5.8535031823412211,19.308178585135725,0.0
714640.0783812654,4040767.5119837918,-27500.0,-2.1543726793583904,-0.86562292963824627,4.6618603664394564,4.3973588315639782,-8.4168710411361349,11.350692659636088,10.960383676021808,8.3356444301108894,-2.9736619623265597,2.9736619623265597,-8.3356444301108894,20.238169574215927,0.0
719640.0783812654,4040767.5119837918,-27500.0,-4.5769990915107774,2.0494527231926845,4.7092257072859596,1.2334901979161739,-8.1036979457137956,11.272957591269064,11.229999590374806,10.202095736244015,-5.8900755852970894,5.8900755852970894,-10.202095736244015,20.11078968706277,0.0
724640.0783812654,4040767.5119837918,-27500.0,-5.6362140807339012,5.747894591225843,3.1925710176035347,-2.8091296015589475,-5.6060280515691341,8.9148962585515914,11.187128137760258,10.028064704274392,-8.5559075634169695,8.5559075634169695,-10.028064704274392,19.449544670415115,0.0
729640.0783812654,4040767.5119837918,-27500.0,-4.4174216931445693,8.9013910128145231,-0.2791098761056105,-6.2990508529567766,-0.50998432423123852,3.8154468654155544,11.533541490199315,6.4204303789425428,-9.4822611723116079,9.4822611723116079,-6.4204303789425428,20.207776597634165,0.0
734640.0783812654,4040767.5119837918,-27500.0,-1.2735734982180305,9.7387245916863687,-5.0449586513395506,-7.3521770943942268,6.3203571814933355,-3.250878418351518,13.076778911747544,-0.68806607385047158,-7.3755189965579007,7.3755189965579007,0.68806607385047158,24.025162665557605,0.0
739640.0783812654,4040767.5119837918,-27500.0,1.8757545748094204,7.3802686302582998,-9.323158337015645,-4.9985753393152423,12.694651608843669,-10.201128851754509,15.521274268817933,-9.1410188567833597,-2.4214927085626261,2.4214927085626261,9.1410188567833597,29.288968875800503,0.0
744640.0783812654,4040767.5119837918,-27500.0,2.9126532053724246,2.8353086833527512,-11.323143478551074,-0.20858706276831676,16.361866185620581,-14.797632555738462,17.417168750022388,-15.58714035313815,3.3898691424959146,-3.3898691424959146,15.58714035313815,33.038939882557763,0.0
749640.0783812654,4040767.5119837918,-27500.0,1.3089759360802684,-1.7166884871004155,-10.580652117915616,4.7867659247051488,16.546371036296122,-16.098739831069278,17.725439954137368,-17.882523187333014,7.6714679481382539,-7.6714679481382539,17.882523187333014,33.709763916445148,0.0
754640.0783812654,4040767.5119837918,-27500.0,-1.7475019695127698,-4.6216958698756976,-8.0424382093159004,8.1878027795261836,14.14811133553119,-14.736211834402592,16.502319707367487,-16.297890386823898,9.3065434957803319,-9.3065434957803319,16.297890386823898,31.500435395063615,0.0
759640.0783812654,4040767.5119837918,-27500.0,-4.684517184772198,-5.5577243948031523,-5.0578257734140832,9.5053099960372869,10.695846822552038,-12.034271533804365,14.357344212265597,-12.589479528486297,8.6956861616012056,-8.6956861616012056,12.589479528486297,27.537893807136523,0.0
764640.0783812654,4040767.5119837918,-27500.0,-6.5992473193642622,-5.1012156653522664,-2.531937657223311,9.213892237912912,7.3646647386036479,-9.1104676460722569,11.923394100933024,-8.493388673446578,6.8951882365061596,-6.8951882365061596,8.493388673446578,22.989837767166129,0.0
769640.0783812654,4040767.5119837918,-27500.0,-7.3613273991745034,-3.9993429687567672,-0.77219946574167586,8.0505134589522811,4.6998028841430646,-6.5660797611280906,9.6238892958951237,-5.0082231014893326,4.823594476777763,-4.823594476777763,5.0082231014893326,18.641083985542835,0.0
774640.0783812654,4040767.5119837918,-27500.0,-7.2490234926066064,-2.7850040406809535,0.28351699147384007,6.5991633665108571,2.7919396289558835,-4.5892017799877811,7.6606957524623249,-2.4489392102118233,2.9952559664455309,-2.9952559664455309,2.4489392102118233,14.868725485569344,0.0
779640.0783812654,4040767.5119837918,-27500.0,-6.6221420904168866,-1.7264023724846065,0.82578073122256468,5.1979777969467742,1.5224804851799585,-3.1501199492781149,6.0797822699431219,-0.7511061451661506,1.5905289142272481,-1.5905289142272481,0.7511061451661506,11.773669548382463,0.0
784640.0783812654,4040767.5119837918,-27500.0,-5.7687544110506659,-0.90957648787894596,1.0417548409674877,3.994392097613626,0.72197062050823935,-2.1418000574372611,4.840536487353079,0.28321383431363334,0.60466439030543517,-0.60466439030543517,-0.28321383431363334,9.3138416109605782,0.0
789640.0783812654,4040767.5119837918,-27500.0,-4.8734352553805262,-0.32734562358973768,1.0713012275245974,3.0243348516214748,0.23985084642139323,-1.450557755997141,3.8763653430847498,0.85741263428376935,-0.039821118983485115,0.039821118983485115,-0.85741263428376935,7.3920046077842017,0.0
794640.0783812654,4040767.5119837918,-27500.0,-4.0359377137737997,0.062705266714023822,1.0055503318984249,2.2708903236334579,-0.036684877198448672,-0.98208200226358389,3.1263800882326538,1.1341576844368915,-0.43285281295518202,0.43285281295518202,-1.1341576844368915,5.9019760365978575,0.0
799640.0783812654,4040767.5119837918,-27500.0,-3.2999071796942991,0.30873187273594127,0.89878387248640434,1.6982561720840077,-0.18513453492503143,-0.6660922848330193,2.5414585844424185,1.229125076496314,-0.65211944164806035,0.65211944164806035,-1.229125076496314,4.7485160833422739,0.0
804640.0783812654,4040767.5119837918,-27500.0,-2.6765542394799917,0.45268027281324202,0.78100311475456397,1.2683706529141694,-0.25611021515495974,-0.45305325286904152,2.0831704921722629,1.2191068908001597,-0.75680620152840761,0.75680620152840761,-1.2191068908001597,3.8533888022754166,0.0
809640.0783812654,4040767.5119837918,-27500.0,-2.1605170066542021,0.52713953380758205,0.66746513758821135,0.94768757580680685,-0.28161249277637213,-0.30909940295605409,1.7219214852779272,1.1527548583844396,-0.78898113792445757,0.78898113792445757,-1.1527548583844396,3.1552075214208037,0.0
814640.0783812654,4040767.5119837918,-27500.0,-1.7392926113020293,0.55588554915771182,0.56498675904500406,0.70905075814012752,-0.2814151254166472,-0.21144974027356511,1.4351536338052091,1.0597575105463928,-0.77725674388145971,0.77725674388145971,-1.0597575105463928,2.6069712366846187,0.0
819640.0783812654,4040767.5119837918,-27500.0,-1.3983724600389673,0.55559491731612409,0.47581103279479692,0.53145339455658069,-0.26750819850620433,-0.14489611583863651,1.2057725991589823,0.95757932048060312,-0.74048853240983337,0.74048853240983337,-0.95757932048060312,2.1731519077888448,0.0
824640.0783812654,4040767.5119837918,-27500.0,-1.1237725292796716,0.53764736321202833,0.39985890094107257,0.39905601615734965,-0.24702554587428172,-0.099307599860535903,1.0208463344360907,0.85604360648272437,-0.69077969869833455,0.69077969869833455,-0.85604360648272437,1.8270386409949078,0.0
829640.0783812654,4040767.5119837918,-27500.0,-0.90310714393308356,0.50964082476408468,0.33598837812362137,0.30008637436616048,-0.22411420102044416,-0.067926356096800811,0.87057876569860959,0.76031580511404284,-0.63569913620950502,0.63569913620950502,-0.76031580511404284,1.5485652130835534,0.0
649640.0783812654,4045767.5119837918,-27500.0,2.2590540559956094,-0.39394343623927108,-0.090292507164815003,1.1136765810285547,-0.21288708011842958,0.42642065474105711,1.5098247396673927,-0.39938239473481979,0.58621825920687742,-0.58621825920687742,0.39938239473481979,2.9824230208613205,0.0
654640.0783812654,4045767.5119837918,-27500.0,2.5429200314097833,-0.52428662663237058,-0.074063381290634139,1.3337916272340569,-0.29744449031121528,0.543084779946026,1.7557108964761292,-0.44266664346162965,0.71050078193787203,-0.71050078193787203,0.44266664346162965,3.4700802474607384,0.0
659640.0783812654,4045767.5119837918,-27500.0,2.8527302025661254,-0.69089776090875865,-0.04195085968195638,1.6008974974623997,-0.41381520204552497,0.69629734867479154,2.049530100199505,-0.48005282506671537,0.85949825295305637,-0.85949825295305637,0.48005282506671537,4.0523526951479738,0.0
664640.0783812654,4045767.5119837918,-27500.0,3.1817900795290703,-0.90200827357773061,0.014657340772280385,1.9234359039451907,-0.57398621686224949,0.89833400606838809,2.4009448197919281,-0.50279046587660292,1.035606046502128,-1.035606046502128,0.50279046587660292,4.747730750007535,0.0
669640.0783812654,4045767.5119837918,-27500.0,3.5163753221955925,-1.1660302019682673,0.10830232287855165,2.3093642653899047,-0.79416133691491531,1.1654090736914158,2.8208998556726708,-0.49641584854830095,1.2390603893211976,-1.2390603893211976,0.49641584854830095,5.5767540012165124,0.0
674640.0783812654,4045767.5119837918,-27500.0,3.8319292133295968,-1.4897609631996511,0.25680212823218257,2.7640284724571327,-1.0957411368823919,1.5184637405682768,3.3210526921986157,-0.43784259196559983,1.4655145280040061,-1.4655145280040061,0.43784259196559983,6.5606701170993142,0.0
679640.0783812654,4045767.5119837918,-27500.0,4.0880898256227267,-1.8747580232252423,0.48455142458850425,3.2861830057649057,-1.5058826590490546,1.983495779144663,3.9124332404384305,-0.2915330241891525,1.701951159068064,-1.701951159068064,0.2915330241891525,7.7184853806091978,0.0
684640.0783812654,4045767.5119837918,-27500.0,4.2230835667053626,-2.3107087157209674,0.82300805755470419,3.8611145431812002,-2.0566713624422492,2.5905420051791097,4.6028482842856278,-0.0051755375049735708,1.9202416561448914,-1.9202416561448914,0.0051755375049735708,9.0613118790666025,0.0
689640.0783812654,4045767.5119837918,-27500.0,4.1494252053653478,-2.7643914888761074,1.3086155657010607,4.4497400705094767,-2.7809451948459296,3.3695708246759204,5.3923865565826716,0.49348235681775821,2.067935547983732,-2.067935547983732,-0.49348235681775821,10.582535799538222,0.0
694640.0783812654,4045767.5119837918,-27500.0,3.7556315917250442,-3.1633818153681315,1.9747203204090436,4.9732846402090445,-3.7012655848870732,4.34025377394524,6.2663535474675829,1.2943951061598811,2.0571798471309513,-2.0571798471309513,-1.2943951061598811,12.242316894389431,0.0
699640.0783812654,4045767.5119837918,-27500.0,2.9230301120899673,-3.3764719608903513,2.8318135028714146,5.2960208664553026,-4.8067844418129413,5.4912088697962842,7.1855459193099769,2.4887674470398871,1.7562803910522673,-1.7562803910522673,-2.4887674470398871,13.9462845565214,0.0
704640.0783812654,4045767.5119837918,-27500.0,1.5711187588745519,-3.2003458735801633,3.8292679904450004,5.215642405373675,-6.0126138378354099,6.7444074361475552,8.0759360071889592,4.1238393915565634,0.99584966115734685,-0.99584966115734685,-4.1238393915565634,15.523211316018916,0.0
709640.0783812654,4045767.5119837918,-27500.0,-0.25742713374878184,-2.3764045295314227,4.7967271460794283,4.483441729469936,-7.1026880878875946,7.9060892587888087,8.8251667735645061,6.1130210029851142,-0.38769781825936889,0.38769781825936889,-6.1130210029851142,16.718791313124122,0.0
714640.0783812654,4045767.5119837918,-27500.0,-2.2851845136993285,-0.67773403209509897,5.384230316698261,2.8892317172439044,-7.6784909856958885,8.623459888291805,9.3031211527288349,8.1042352573520802,-2.4432020907904448,2.4432020907904448,-8.1042352573520802,17.246859100382707,0.0
719640.0783812654,4045767.5119837918,-27500.0,-3.9363763661400579,1.9015474531616907,5.0641108389723755,0.43597413639733118,-7.1765253590013751,8.3993738942761471,9.4348525170133541,9.3717654605753715,-4.9286783121946582,4.9286783121946582,-9.3717654605753715,16.972835921267887,0.0
724640.0783812654,4045767.5119837918,-27500.0,-4.4693061007144221,4.9037990367248172,3.2992413356665726,-2.4449832752736222,-5.0499948653122129,6.7426430758374432,9.3418955816009124,8.898190567885127,-7.1591029858245534,7.1591029858245534,-8.898190567885127,16.295412962623558,0.0
729640.0783812654,4045767.5119837918,-27500.0,-3.4118344365478617,7.3279649019756405,-0.073974261131711808,-4.8295090007433163,-1.1481575530210688,3.4808433500499607,9.449876100513972,5.8362705575113232,-8.0984347635876475,8.0984347635876475,-5.8362705575113232,16.451990779624467,0.0
734640.0783812654,4045767.5119837918,-27500.0,-1.0985500606052183,8.0036048288145345,-4.4485327372839105,-5.635536747239609,3.9056200223734936,-0.92232069094621116,10.224427699611805,0.26147377083683576,-6.8818655103208775,6.8818655103208775,-0.26147377083683576,18.575691195583694,0.0
739640.0783812654,4045767.5119837918,-27500.0,1.2659814864807575,6.3726084828391798,-8.4948064369187097,-4.3120094614711206,8.7620633005075064,-5.3827811646404262,11.589508998226421,-6.4089849520694084,-3.5348403586922874,3.5348403586922874,6.4089849520694084,21.966197138929726,0.0
744640.0783812654,4045767.5119837918,-27500.0,2.3507449987020652,3.020216433513446,-10.867064954768065,-1.3195597058092188,12.013230333379068,-8.7081563531449344,12.91881266583445,-12.007094767663794,0.81455016289172288,-0.81455016289172288,12.007094767663794,24.826946795949087,0.0
749640.0783812654,4045767.5119837918,-27500.0,1.6461570536131216,-0.677758546711832,-11.031785352437264,2.1428558235490298,12.994228141681479,-10.244952719374846,13.486557505167363,-14.914602629489636,4.6085720386459004,-4.6085720386459004,14.914602629489636,25.94373466980214,0.0
754640.0783812654,4045767.5119837918,-27500.0,-0.32742641290433883,-3.4797370804704961,-9.444527488775476,4.9256947865390686,12.007555248949691,-10.104084957456505,13.05192476858193,-14.888023883926202,6.8165288989646555,-6.8165288989646555,14.888023883926202,25.124232668824149,0.0
759640.0783812654,4045767.5119837918,-27500.0,-2.6062572569181071,-4.8836152452928623,-7.0384388425268591,6.4854192671497062,9.8962525520308127,-8.8745600623956253,11.851119037617472,-12.796787745277971,7.3152607186407259,-7.3152607186407259,12.796787745277971,22.86246102077725,0.0
764640.0783812654,4045767.5119837918,-27500.0,-4.4372526317837098,-5.0630569460644654,-4.6299267496053549,6.8829435720237617,7.4864418604742857,-7.1997088149221655,10.258572402043272,-9.8195305510370972,6.5955304186418076,-6.5955304186418076,9.8195305510370972,19.857110626331831,0.0
769640.0783812654,4045767.5119837918,-27500.0,-5.5155851044501958,-4.4801128154620695,-2.6629271668571661,6.4791882079881642,5.302015406004462,-5.5324025007614299,8.5900147986835265,-6.8561664729687211,5.2864695725474471,-5.2864695725474471,6.8561664729687211,16.693528342766101,0.0
774640.0783812654,4045767.5119837918,-27500.0,-5.881036382952975,-3.5726646729582265,-1.2551464021073035,5.6607900277613323,3.5589088690275692,-4.0996323215337345,7.0435705881535258,-4.3723960847833157,3.8677104364960764,-3.8677104364960764,4.3723960847833157,13.738799298734921,0.0
779640.0783812654,4045767.5119837918,-27500.0,-5.7264851303941011,-2.6318713733313532,-0.34430757180189747,4.712937704091539,2.2757621214874111,-2.9676381568831407,5.713253433559256,-2.500004768767357,2.6046962845293278,-2.6046962845293278,2.500004768767357,11.166169151193266,0.0
784640.0783812654,4045767.5119837918,-27500.0,-5.2616076317496328,-1.8055038926953071,0.19254719368223078,3.802404753959423,1.3816703499637368,-2.117913615966827,4.6210773802296936,-1.1903459371386167,1.5973219276201256,-1.5973219276201256,1.1903459371386167,9.020301578390125,0.0
789640.0783812654,4045767.5119837918,-27500.0,-4.6523142873472798,-1.1442881681121573,0.4753557017508897,3.0063158306639539,0.78315794407343953,-1.499871558725024,3.7454601302455788,-0.32805662242737332,0.8500791917269046,-0.8500791917269046,0.32805662242737332,7.2765519756734234,0.0
794640.0783812654,4045767.5119837918,-27500.0,-4.0088875995177364,-0.64661866770479948,0.59806319158402055,2.3470718504931858,0.39526121574159195,-1.0587690378345083,3.0487309927631498,0.20759512374376199,0.32527357241727073,-0.32527357241727073,-0.20759512374376199,5.8809373642680951,0.0
799640.0783812654,4045767.5119837918,-27500.0,-3.3951254894010976,-0.28864987408459636,0.62634588318416162,1.8188800588021765,0.15134000912889137,-0.74725624497348464,2.4950079852117066,0.51789452283901938,-0.026100635167170566,0.026100635167170566,-0.51789452283901938,4.7727093794547146,0.0
804640.0783812654,4045767.5119837918,-27500.0,-2.8423870596337442,-0.040894435928211029,0.60292304292421894,1.4041918025308675,0.0030495896531490254,-0.52834093415942796,2.0544631380433147,0.67920124828174666,-0.24981572182536785,0.24981572182536785,-0.67920124828174666,3.8952116116168019,0.0
809640.0783812654,4045767.5119837918,-27500.0,-2.3618757178645722,0.1240958003946081,0.55413604644757253,1.0825681232752249,-0.083090324635409857,-0.37467019438207311,1.703017661594491,0.74558867791311445,-0.38326288607504549,0.38326288607504549,-0.74558867791311445,3.2000262891655837,0.0
814640.0783812654,4045767.5119837918,-27500.0,-1.9534451548668061,0.22899994867868004,0.49547451414608829,0.83483069528854936,-0.12959162543048788,-0.26664463348809697,1.4215095759401897,0.7538033652853815,-0.45485848245063559,0.45485848245063559,-0.7538033652853815,2.6476775363917966,0.0
819640.0783812654,4045767.5119837918,-27500.0,-1.6112785095456124,0.29138461914591546,0.43558458654957727,0.64462914267741489,-0.15129331268985474,-0.19047167409980734,1.1948684569366501,0.72807864535100575,-0.48525848904076757,0.48525848904076757,-0.72807864535100575,2.2068456454037735,0.0
824640.0783812654,4045767.5119837918,-27500.0,-1.3272618308401529,0.32432980982285392,0.3789560423814281,0.49872219203235635,-0.15783671210674255,-0.13653817864032197,1.0113370017452448,0.68400290822966514,-0.48903340529408801,0.48903340529408801,-0.68400290822966514,1.8530640851086917,0.0
829640.0783812654,4045767.5119837918,-27500.0,-1.0928475480129907,0.33732368806078422,0.32763932349022423,0.38670201746870686,-0.15541264563631285,-0.098172225834330176,0.86178366983992238,0.63136424551539838,-0.47623531620390291,0.47623531620390291,-0.63136424551539838,1.5673784309783396,0.0
649640.0783812654,4050767.5119837918,-27500.0,2.1734000684458787,-0.57634166828950195,0.024774154566671255,1.0790181598339341,-0.29767190494390933,0.41492160968743186,1.4859000000325351,-0.39444476276227891,0.73325321132788113,-0.73325321132788113,0.39444476276227891,2.9471516477401005,0.0
654640.0783812654,4050767.5119837918,-27500.0,2.4161797308144215,-0.72995076330094533,0.072936300409952567,1.2784888301505541,-0.39850351887165808,0.52336365292838949,1.7183181805081911,-0.42216740690185695,0.87396421262356949,-0.87396421262356949,0.42216740690185695,3.4083301219243043,0.0
659640.0783812654,4050767.5119837918,-27500.0,2.6714373431222342,-0.91967936636380954,0.14559434220476464,1.5156742908825358,-0.53325615294017159,0.66362405834910687,1.9929657296451198,-0.4372017993672721,1.0387430432308349,-1.0387430432308349,0.4372017993672721,3.9524800280482641,0.0
664640.0783812654,4050767.5119837918,-27500.0,2.9292604782719165,-1.1514080037611782,0.25311875724153821,1.7952640541336893,-0.71319176633155457,0.84536902769849154,2.3171044257842879,-0.42881162210922241,1.2282899586095706,-1.2282899586095706,0.42881162210922241,4.5934319378971162,0.0
669640.0783812654,4050767.5119837918,-27500.0,3.1728433021821019,-1.4297221769923132,0.40959231065700807,2.1202442049260579,-0.95278392451557037,1.0808197021414903,2.6983251778112773,-0.38052876065353436,1.440314049204366,-1.440314049204366,0.38052876065353436,5.3454042966224327,0.0
674640.0783812654,4050767.5119837918,-27500.0,3.3756646212584274,-1.7556101526459134,0.63352065694451665,2.4897098112136171,-1.2699801051947552,1.3848988305172436,3.1437737254704037,-0.26787502326093815,1.667007744588449,-1.667007744588449,0.26787502326093815,6.2212980812943472,0.0
679640.0783812654,4050767.5119837918,-27500.0,3.4983797240359387,-2.122479507657828,0.94797168058239911,2.8952597737714032,-1.6857129726181588,1.774762197167945,3.6587424207837804,-0.055839186972427401,1.89116151134249,-1.89116151134249,0.055839186972427401,7.2295740189153346,0.0
684640.0783812654,4050767.5119837918,-27500.0,3.4863706266481351,-2.5097991894185712,1.3791748100197996,3.3154810398279553,-2.2217334183972488,2.2680010586856514,4.2443158320062695,0.30306661725212747,2.0806525740203696,-2.0806525740203696,-0.30306661725212747,8.3690007165908966,0.0
689640.0783812654,4050767.5119837918,-27500.0,3.2700977873318933,-2.8739312816791327,1.9518000426211533,3.708320038335299,-2.8951828205229537,2.8783201122184496,4.8937398092989417,0.86818569698647297,2.1815930862443449,-2.1815930862443449,-0.86818569698647297,9.6205262492885115,0.0
694640.0783812654,4050767.5119837918,-27500.0,2.772245824529608,-3.1368912129600384,2.6780934741969262,4.0021964387432556,-3.7075750082197705,3.606963445622426,5.5873708448055428,1.7035720181282792,2.1119096241428799,-2.1119096241428799,-1.7035720181282792,10.935974331140267,0.0
699640.0783812654,4050767.5119837918,-27500.0,1.9276670478389699,-3.1768091844241262,3.5373710770117928,4.0892370989615792,-4.6256017081424554,4.4280156563988582,6.2867694814993955,2.8577716177257058,1.7601968111572148,-1.7601968111572148,-2.8577716177257058,12.224916049639518,0.0
704640.0783812654,4050767.5119837918,-27500.0,0.72223096952112942,-2.8296724599505567,4.4438632743578701,3.8285789880477714,-5.5529533937776465,5.2670707734536917,6.9302796392962822,4.3224387608338528,0.99953731451028993,-0.99953731451028993,-4.3224387608338528,13.345147331392095,0.0
709640.0783812654,4050767.5119837918,-27500.0,-0.74994879986193785,-1.9196021214848045,5.2081484414294712,3.073347035872974,-6.2989785955642184,5.9776337085058966,7.4358696967459048,5.9660812017757587,-0.26949268706270946,0.26949268706270946,-5.9660812017757587,14.110212447911527,0.0
714640.0783812654,4050767.5119837918,-27500.0,-2.2314186083647201,-0.33767804435176973,5.5143515582062443,1.7361592496196798,-6.5641371079681425,6.3297993581802032,7.7217742841011967,7.4582321236340992,-2.0358236698314922,2.0358236698314922,-7.4582321236340992,14.339689534676198,0.0
719640.0783812654,4050767.5119837918,-27500.0,-3.3017805433684639,1.8292591943647944,4.9586934993585414,-0.10759243010417369,-5.9801776346464415,6.0385171232351302,7.7576337905641903,8.2386782841430524,-4.0694772522915317,4.0694772522915317,-8.2386782841430524,13.988644505609996,0.0
724640.0783812654,4050767.5119837918,-27500.0,-3.5053652665761641,4.1754829468862278,3.2000146663122089,-2.1237829736030669,-4.2441268439502648,4.8595698293627771,7.6438730583529928,7.6263707702786343,-5.8571311462564895,5.8571311462564895,-7.6263707702786343,13.368521427224483,0.0
729640.0783812654,4050767.5119837918,-27500.0,-2.6204549794643399,5.98886562855132,0.21193762931319979,-3.7312583006826081,-1.333001736896567,2.745043637778354,7.6514132094482887,5.1339717146516559,-6.6998164969251732,6.6998164969251732,-5.1339717146516559,13.278211688231332,0.0
734640.0783812654,4050767.5119837918,-27500.0,-0.92263682702851091,6.5183023505161986,-3.5117265700097566,-4.3110134946729861,2.3242603809964564,-0.026846349519067836,8.0615291899019788,0.88271167853270338,-6.0354493942182819,6.0354493942182819,-0.88271167853270338,14.4655098707923,0.0
739640.0783812654,4050767.5119837918,-27500.0,0.83097806892011539,5.4158174110104405,-7.0334898145981004,-3.5515641062747507,5.9070751544708564,-2.8804878213150733,8.852288234103483,-4.2123400015816514,-3.8340811964095072,3.8340811964095072,4.2123400015816514,16.641838780122541,0.0
744640.0783812654,4050767.5119837918,-27500.0,1.8065960619045798,3.0156737760281214,-9.3980785299097196,-1.676222842702128,8.5512600351773607,-5.1756548648989433,9.6996639570160692,-8.7757960575983471,-0.72624240905207138,0.72624240905207138,8.7757960575983471,18.738913782639468,0.0
749640.0783812654,4050767.5119837918,-27500.0,1.5976652964586964,0.16350185156998934,-10.12365297020091,0.66892678821302642,9.7631784701947719,-6.5009842887298497,10.237708216467594,-11.66732250254789,2.3164346212102869,-2.3164346212102869,11.66732250254789,19.885475275357354,0.0
754640.0783812654,4050767.5119837918,-27500.0,0.39753698812320537,-2.2750025510190119,-9.3683906546638909,2.7823793722553796,9.5864301259272882,-6.8126711899433232,10.195874093126726,-12.497219697795828,4.5036166025711841,-4.5036166025711841,12.497219697795828,19.783751306350517,0.0
759640.0783812654,4050767.5119837918,-27500.0,-1.2426637322624408,-3.8116122809918198,-7.7007924403785459,4.2256401436592563,8.4454227606250711,-6.3524076392826281,9.5877410306654252,-11.614153821235064,5.5363531793284899,-5.5363531793284899,11.614153821235064,18.599631464597994,0.0
764640.0783812654,4050767.5119837918,-27500.0,-2.7806474400158305,-4.4021678967666613,-5.738691306966067,4.9024693817254077,6.85901721569976,-5.4616522627161732,8.6049093271513009,-9.7229344803153168,5.5601645180223391,-5.5601645180223391,9.7229344803153168,16.714828646777182,0.0
769640.0783812654,4050767.5119837918,-27500.0,-3.8959109273483881,-4.2763162030522857,-3.9180986910195736,4.9502938378931081,5.2347944198245235,-4.4341645724361483,7.4571852962279115,-7.498660793099809,4.9302620508844228,-4.9302620508844228,7.498660793099809,14.521169117602842,0.0
774640.0783812654,4050767.5119837918,-27500.0,-4.5041114912790512,-3.7349931954251514,-2.4473944485716128,4.5899092762834854,3.8055923840190919,-3.4581350136142719,6.3046742765958825,-5.396371783908644,4.0017820708511023,-4.0017820708511023,5.396371783908644,12.31555107661754,0.0
779640.0783812654,4050767.5119837918,-27500.0,-4.6711621717635037,-3.0282441457727489,-1.3670851928655081,4.024038581856944,2.6588255659878279,-2.6236144553040224,5.2450199455885684,-3.6380990163027431,3.0294633921451912,-3.0294633921451912,3.6380990163027431,10.278211350989297,0.0
784640.0783812654,4050767.5119837918,-27500.0,-4.5214100162946895,-2.3179657023741234,-0.62939488856606718,3.3975439629548059,1.7933783483811676,-1.9545323712283511,4.3250062160788474,-2.2807180240392269,2.1555846288312352,-2.1555846288312352,2.2807180240392269,8.4937473242197683,0.0
789640.0783812654,4050767.5119837918,-27500.0,-4.1788658206104463,-1.6881584398109433,-0.15675741673586482,2.7966272719344381,1.1676432660359126,-1.4396392595860605,3.5566323264000648,-1.291688411266166,1.4376994127624692,-1.4376994127624692,1.291688411266166,6.9832967452472996,0.0
794640.0783812654,4050767.5119837918,-27500.0,-3.741668139997234,-1.1698567665264292,0.12664839124586028,2.2633566201318476,0.72924487143352434,-1.0536684145910198,2.928953294537624,-0.603424539455507,0.8825112513869281,-0.8825112513869281,0.603424539455507,5.732418330485836,0.0
799640.0783812654,4050767.5119837918,-27500.0,-3.277277356576366,-0.76405395659798125,0.28253415268174881,1.8118144380789811,0.42959647753519287,-0.76904627039947593,2.4200714902901175,-0.14385565570242503,0.47197333886775955,-0.47197333886775955,0.14385565570242503,4.7103779779402579,0.0
804640.0783812654,4050767.5119837918,-27500.0,-2.8270166361230649,-0.45766203071992545,0.35643596397959881,1.4406483586078269,0.22913210595299519,-0.56117307527843974,2.0080216164315883,0.14993684843273561,0.17944841269001319,-0.17944841269001319,-0.14993684843273561,3.8816856097095833,0.0
809640.0783812654,4050767.5119837918,-27500.0,-2.4131372201142081,-0.23293834214227685,0.37993858896721516,1.1412864530607407,0.097849658757283714,-0.41009864245874073,1.6742269872001527,0.32769652022002804,-0.021824496613571193,0.021824496613571193,-0.32769652022002804,3.2121497797646619,0.0
814640.0783812654,4050767.5119837918,-27500.0,-2.0453072421659249,-0.072321944395444468,0.37401342403075877,0.90271336962770143,0.013965130748415636,-0.30048192997737211,1.403399918294332,0.42650954358212279,-0.1550844427371183,0.1550844427371183,-0.42650954358212279,2.6715513597771379,0.0
819640.0783812654,4050767.5119837918,-27500.0,-1.7255551456980467,0.039495929379659102,0.35211101412490731,0.71395591435629058,-0.037903306092069523,-0.22089330214765859,1.1830720297035233,0.47298767746828507,-0.23902083423845222,0.23902083423845222,-0.47298767746828507,2.2344368084312092,0.0
824640.0783812654,4050767.5119837918,-27500.0,-1.4516662679935877,0.11498471547706005,0.32258985793594341,0.5652007701752495,-0.068416404344575424,-0.16297770979325013,1.0031746886061124,0.48571991853396057,-0.28797979730548762,0.28797979730548762,-0.48571991853396057,1.8799739442298442,0.0
654640.0783812654,4055767.5119837918,-27500.0,2.2353522013598082,-0.88333535157913812,0.22773543891833645,1.1961603609435791,-0.47613338281471762,0.49316685461026244,1.6605128019992121,-0.37437227033673875,0.99424941883408535,-0.99424941883408535,0.37437227033673875,3.298703714168433,0.0
659640.0783812654,4055767.5119837918,-27500.0,2.4321262794235676,-1.0799465041815945,0.33659747305688231,1.3990117893561484,-0.62005955299194238,0.61781319802613399,1.9115585747844002,-0.36466725854199744,1.1625195138145665,-1.1625195138145665,0.36466725854199744,3.7953925322067188,0.0
664640.0783812654,4055767.5119837918,-27500.0,2.6174323514344762,-1.3118540739114657,0.48701472173210203,1.6316678540996017,-0.807134911437284,0.77628569943056425,2.2032012321652665,-0.32446112601913368,1.3503908661218873,-1.3503908661218873,0.32446112601913368,4.3715435000281317,0.0
669640.0783812654,4055767.5119837918,-27500.0,2.7734717422914179,-1.579450105416025,0.69267729412895862,1.8932633329531439,-1.049091092017141,0.97718088172491546,2.5399825651698178,-0.23685415344832284,1.5529683957566141,-1.5529683957566141,0.23685415344832284,5.0356485927402135,0.0
674640.0783812654,4055767.5119837918,-27500.0,2.8746605982309292,-1.8781905031480797,0.97017342166002263,2.1785962483496406,-1.3593995309386322,1.2302714686788903,2.9252977603854422,-0.078330866194291859,1.7594202488359907,-1.7594202488359907,0.078330866194291859,5.7935234354451612,0.0
679640.0783812654,4055767.5119837918,-27500.0,2.8862785424519615,-2.1948878969702275,1.3380442648320887,2.4752568569890263,-1.7520848307109234,1.5456531858629745,3.3601153703602318,0.18237695517755115,1.9496900585899504,-1.9496900585899504,-0.18237695517755115,6.6454040901696692,0.0
684640.0783812654,4055767.5119837918,-27500.0,2.7645149519711461,-2.5025089534869727,1.8139840787523935,2.7597460159687435,-2.2389362563544126,1.9317968985787899,3.841071174056788,0.58414055503877549,2.090375622209999,-2.090375622209999,-0.58414055503877549,7.5815669992304286,0.0
689640.0783812654,4055767.5119837918,-27500.0,2.4597411217045142,-2.753788477055811,2.4087697224349403,2.9929161632586103,-2.8240665325128127,2.391810062578887,4.3578345640240039,1.1701567460686599,2.1305135497848857,-2.1305135497848857,-1.1701567460686599,8.5762754107687531,0.0
694640.0783812654,4055767.5119837918,-27500.0,1.9257391185208812,-2.875246737514908,3.1151559276540253,3.1160229109786268,-3.494615465206877,2.9171214745776997,4.8898706899956643,1.9785404123570502,1.9993141237423495,-1.9993141237423495,-1.9785404123570502,9.5804657497518342,0.0
699640.0783812654,4055767.5119837918,-27500.0,1.1379274181358328,-2.7656030066020039,3.8904332925412364,3.0503909106438849,-4.2069249895397247,3.4781597031916349,5.403372136272119,3.022878496571765,1.6100141115075721,-1.6100141115075721,-3.022878496571765,10.515058740729911,0.0
704640.0783812654,4055767.5119837918,-27500.0,0.12173678607898145,-2.3059871722223755,4.633934174204664,2.7060072553550039,-4.8696656109770506,4.0130004547813307,5.8504593688884894,4.2597654917400174,0.87645340837591901,-0.87645340837591901,-4.2597654917400174,11.269640377936012,0.0
709640.0783812654,4055767.5119837918,-27500.0,-1.014276832305165,-1.3919068636789675,5.1672000084502319,2.005874038483987,-5.3302827945431792,4.4181050053026834,6.1746812770968456,5.5461473541649555,-0.25048201144831328,0.25048201144831328,-5.5461473541649555,11.715794295681576,0.0
714640.0783812654,4055767.5119837918,-27500.0,-2.0586375968222042,0.0065084558291082732,5.2349803430812853,0.93011298403520715,-5.3785961059450917,4.5500425882878579,6.3285658978844079,6.6032562667365013,-1.7256034370146893,1.7256034370146893,-6.6032562667365013,11.749624413870109,0.0
719640.0783812654,4055767.5119837918,-27500.0,-2.7221461664036717,1.7665680782363293,4.5539040946243325,-0.42842086474997998,-4.7869142488140124,4.2506477604089206,6.3076994280653915,7.024065827942132,-3.3488543078659463,3.3488543078659463,-7.024065827942132,11.379056603655989,0.0
724640.0783812654,4055767.5119837918,-27500.0,-2.73654842174246,3.5603954426353046,2.9266462622322749,-1.8275035601199285,-3.3983277438609245,3.4033876300367583,6.1939206209256623,6.370705883031996,-4.7468512457236303,4.7468512457236303,-6.370705883031996,10.848658203428174,0.0
729640.0783812654,4055767.5119837918,-27500.0,-2.0117397076433465,4.8968234803956312,0.39502223276966314,-2.9055932580635337,-1.2422213699766653,2.0085347792687496,6.16513998330647,4.3744038134684944,-5.4544820126781142,5.4544820126781142,-4.3744038134684944,10.685160986025352,0.0
734640.0783812654,4055767.5119837918,-27500.0,-0.76023654016664954,5.2987783015546803,-2.6617188648377765,-3.3063665270036267,1.3914544945340059,0.23497335546148881,6.3956500600805155,1.1580917738407852,-5.1101062123782066,5.1101062123782066,-1.1580917738407852,11.372520473672246,0.0
739640.0783812654,4055767.5119837918,-27500.0,0.53676405032754793,4.5506835385743907,-5.5969318994471928,-2.8534174814867459,4.000890934816586,-1.6031902289305584,6.8831978760162817,-2.6858692899814076,-3.6727366671820296,3.6727366671820296,2.6858692899814076,12.79254948080407,0.0
744640.0783812654,4055767.5119837918,-27500.0,1.3531091745525397,2.8457073143595077,-7.7492041246177967,-1.659625604294263,6.0559908774792266,-3.1562141152379977,7.4352895607935841,-6.2850923452913978,-1.4968550043295257,1.4968550043295257,6.2850923452913978,14.308149038146105,0.0
749640.0783812654,4055767.5119837918,-27500.0,1.3896210417340698,0.70166336960027276,-8.7296649273616627,-0.079223872351945723,7.2141896734922089,-4.1753914514144395,7.8434055027018017,-8.8620204329233285,0.82123544058373987,-0.82123544058373987,8.8620204329233285,15.319424969215039,0.0
754640.0783812654,4055767.5119837918,-27500.0,0.69398706218774364,-1.2996563666579946,-8.5486985740354609,1.4667515792690382,7.4282994466760162,-4.5905586709286261,7.9538497223223246,-10.043333705666965,2.7241770160411143,-2.7241770160411143,10.043333705666965,15.542540495122287,0.0
759640.0783812654,4055767.5119837918,-27500.0,-0.43274414870188593,-2.7574230473554127,-7.5237055130157691,2.6651021406642417,6.896561276834924,-4.492092657099966,7.6869678181341037,-9.9167293964695986,3.9044298690735735,-3.9044298690735735,9.9167293964695986,14.992714434940947,0.0
764640.0783812654,4055767.5119837918,-27500.0,-1.6305916945826628,-3.5408012536442741,-6.0770898177862547,3.3858132103921776,5.9234851505261039,-4.0525897393676553,7.1109570713972907,-8.8652290337308219,4.3391892300035853,-4.3391892300035853,8.8652290337308219,13.861242843049503,0.0
769640.0783812654,4055767.5119837918,-27500.0,-2.6314410944348836,-3.7306530995459388,-4.5679404328879096,3.6549774261851273,4.7922996473875576,-3.4477750236754394,6.3519281034873876,-7.3423847609066124,4.1929602914820689,-4.1929602914820689,7.3423847609066124,12.392090461024068,0.0
774640.0783812654,4055767.5119837918,-27500.0,-3.3088342305839977,-3.5060825412671455,-3.2206827723068825,3.5822962545160046,3.7006162789787158,-2.8111495265299387,5.5260462319495778,-5.7180663865512971,3.6912808870221943,-3.6912808870221943,5.7180663865512971,10.801465426896531,0.0
779640.0783812654,4055767.5119837918,-27500.0,-3.6529959210322116,-3.0519540811418397,-2.1324037820670654,3.2956213256230886,2.7538313506282561,-2.2233366875943572,4.7171298446657994,-4.2248235002414098,3.0338985385746384,-3.0338985385746384,4.2248235002414098,9.2444356027872985,0.0
784640.0783812654,4055767.5119837918,-27500.0,-3.7203002406636592,-2.5121188498270488,-1.3138675788685825,2.9033675520394278,1.9878179817539166,-1.7213468560492455,3.9755428957025978,-2.9718477291564476,2.3600729097890296,-2.3600729097890296,2.9718477291564476,7.8135459194210686,0.0
789640.0783812654,4055767.5119837918,-27500.0,-3.5896095785358093,-1.9790417965614626,-0.73127633470267484,2.4819722184523445,1.3970700584428914,-1.3136448805434147,3.3256370229179275,-1.9841735452290217,1.7489942958064497,-1.7489942958064497,1.9841735452290217,6.5521302263431282,0.0
794640.0783812654,4055767.5119837918,-27500.0,-3.3358478624593566,-1.5019971299101267,-0.33557048423834207,2.0778305283325174,0.95686919306907148,-0.99333969738966621,2.7743721116546749,-1.2406524422745511,1.2349352228690229,-1.2349352228690229,1.2406524422745511,5.4706266368531153,0.0
799640.0783812654,4055767.5119837918,-27500.0,-3.0186208149487599,-1.1005204449740094,-0.078574728174138006,1.7147022844708031,0.63710622860264488,-0.74716812099494467,2.3167702264588894,-0.70096240872008109,0.82416442982373039,-0.82416442982373039,0.70096240872008109,4.5603676706132621,0.0
804640.0783812654,4055767.5119837918,-27500.0,-2.6801429650931134,-0.77649512164664369,0.080163122714928439,1.401507646383457,0.40938941243557142,-0.56064418631615931,1.9400848464373179,-0.32140238249079345,0.50821112846389793,-0.50821112846389793,0.32140238249079345,3.8033411013143996,0.0
809640.0783812654,4055767.5119837918,-27500.0,-2.3475493806745931,-0.52283383440659548,0.17179807464346536,1.1385068095516431,0.24988246369188571,-0.42054421381651497,1.6302539649742878,-0.062542321918430691,0.27253264061420607,-0.27253264061420607,0.062542321918430691,3.178308922772632,0.0
814640.0783812654,4055767.5119837918,-27500.0,-2.036550584550914,-0.32890769156848187,0.21904322757808081,0.92153096009905289,0.13984356906663356,-0.31581801003084425,1.375252536324495,0.10803618276765097,0.10144939019896819,-0.10144939019896819,-0.10803618276765097,2.6642480557040229,0.0
819640.0783812654,4055767.5119837918,-27500.0,-1.7549370137884541,-0.18356877069959135,0.23783836454428028,0.74459710122059564,0.065125252752512047,-0.23768865419338811,1.1651526270545658,0.21554370749377719,-0.019427949617646739,0.019427949617646739,-0.21554370749377719,2.2420419320724956,0.0
824640.0783812654,4055767.5119837918,-27500.0,-1.5053871925715756,-0.076621788224566112,0.23905410378913189,0.60138356264226145,0.015329207172204005,-0.17939843635508987,0.99173771069274119,0.27888442757572818,-0.10225819419350224,0.10225819419350224,-0.27888442757572818,1.895129623673756,0.0
654640.0783812654,4060767.5119837918,-27500.0,2.0210107252338787,-0.98430988514433027,0.37774344269103866,1.0961376934789258,-0.52981806543772969,0.45590860955807333,1.5862033129384214,-0.30783785184546864,1.0711090538891717,-1.0711090538891717,0.30783785184546864,3.1513907755794031,0.0
659640.0783812654,4060767.5119837918,-27500.0,2.1613044780314907,-1.1744143654987049,0.51528729687224983,1.2637637619558322,-0.6748616224427173,0.56389712317537311,1.8107220140032108,-0.27415721383949609,1.2326351363295274,-1.2326351363295274,0.27415721383949609,3.5954250567522648,0.0
664640.0783812654,4060767.5119837918,-27500.0,2.2798822569144459,-1.3908227666669175,0.69708704034605684,1.4501768894264431,-0.85865758503441014,0.69846947109834312,2.067124000846686,-0.20533401002334462,1.4070886145835111,-1.4070886145835111,0.20533401002334462,4.1020892220492593,0.0
669640.0783812654,4060767.5119837918,-27500.0,2.3597599586974667,-1.6302221211174308,0.93494813791756148,1.6519616239439816,-1.0898572099998258,0.86523999790422113,2.3575252255767079,-0.085436650509542744,1.5874209021941241,-1.5874209021941241,0.085436650509542744,4.6751940344088849,0.0
674640.0783812654,4060767.5119837918,-27500.0,2.3784093910379993,-1.8838245556969437,1.2418503753654211,1.86156906800517,-1.3774228163587454,1.069996228754569,2.682564165270604,0.10630252549455155,1.7607812852528835,-1.7607812852528835,-0.10630252549455155,5.3151864053298725,0.0
679640.0783812654,4060767.5119837918,-27500.0,2.3077598763125224,-2.1343660401708329,1.6302484511530593,2.0652866986165948,-1.7291321360210228,1.3177669808720522,3.0403822530432483,0.39545791823167153,1.9060442038309309,-1.9060442038309309,-0.39545791823167153,6.0167144373794184,0.0
684640.0783812654,4060767.5119837918,-27500.0,2.1158128372551332,-2.3524516858116886,2.1085949985303616,2.2408631630318459,-2.1487813295122713,1.6111013567498556,3.4252464095804744,0.81081141314726257,1.991173603127433,-1.991173603127433,-0.81081141314726257,6.7653097788938288,0.0
689640.0783812654,4060767.5119837918,-27500.0,1.7711509971829424,-2.4929591431192537,2.6751927862670382,2.3553180301653383,-2.6315256113027887,1.9472259512977592,3.8257928693983496,1.3797652560547289,1.9713313807892607,-1.9713313807892607,-1.3797652560547289,7.5333260181426525,0.0
694640.0783812654,4060767.5119837918,-27500.0,1.2518303405490514,-2.4932479821262885,3.3086319688677075,2.3641420936573723,-3.1569668175483616,2.3138497320161568,4.2231159168452832,2.1188821426369504,1.7895809074961309,-1.7895809074961309,-2.1188821426369504,8.2758463852269291,0.0
699640.0783812654,4060767.5119837918,-27500.0,0.55958144906305107,-2.2764317090242163,3.9550414455676592,2.2140355029117207,-3.6803421850870008,2.6838222101725528,4.5895508487703367,3.017808037297641,1.3832245422786347,-1.3832245422786347,-3.017808037297641,8.9283711992578265,0.0
704640.0783812654,4060767.5119837918,-27500.0,-0.26200001388531913,-1.764413694658264,4.5148799872743659,1.8521645279915675,-4.1239136440988009,3.0098642036911043,4.8898492150737471,4.0166578096209227,0.69957673146487576,-0.69957673146487576,-4.0166578096209227,9.4098551456535109,0.0
709640.0783812654,4060767.5119837918,-27500.0,-1.1113494368582637,-0.90513590247925924,4.8364060914172731,1.2445958695437227,-4.3735753599352654,3.2222784986761983,5.0872095954641603,4.981861163647304,-0.2763089497893807,0.2763089497893807,-4.981861163647304,9.6369145127025941,0.0
714640.0783812654,4060767.5119837918,-27500.0,-1.8275107785321416,0.2863432377427898,4.7280400308650767,0.40332550315180504,-4.2888490668619186,3.2343793223812822,5.1568416368530281,5.693876381398324,-1.4851739306745619,1.4851739306745619,-5.693876381398324,9.5567343140342231,0.0
719640.0783812654,4060767.5119837918,-27500.0,-2.2196312488973957,1.6851494107634417,4.0028348063228716,-0.58620212747770117,-3.7346939012969527,2.9605936203376046,5.1077419839164842,5.86849940873772,-2.7629246311930222,2.7629246311930222,-5.86849940873772,9.2040176074748938,0.0
724640.0783812654,4060767.5119837918,-27500.0,-2.1353308689600108,3.0402247276689263,2.5572676991867982,-1.5548994087433721,-2.6359470330109653,2.347985950594826,5.0052274584309373,5.2314198582081364,-3.8427440090998615,3.8427440090998615,-5.2314198582081364,8.7697714291150977,0.0
729640.0783812654,4060767.5119837918,-27500.0,-1.5492855574573856,4.0179297856052392,0.45952748292139678,-2.278213938325711,-1.0375273131424829,1.4120383755490782,4.9684673479124504,3.6404062120842648,-4.4161900458224537,4.4161900458224537,-3.6404062120842648,8.6074077074947173,0.0
734640.0783812654,4060767.5119837918,-27500.0,-0.62000124924313182,4.3152865648638912,-2.0071317048962221,-2.5486947295011113,0.86536183185287674,0.25664730167416255,5.107053720580164,1.2032620618764949,-4.2504956977772776,4.2504956977772776,-1.2032620618764949,9.0281698959443162,0.0
739640.0783812654,4060767.5119837918,-27500.0,0.3420379879836396,3.7987768844106622,-4.3988760014700148,-2.2657763464037193,2.7617030395474935,-0.94185859105041336,5.4238843705435889,-1.6921031110214149,-3.3090233989684643,3.3090233989684643,1.6921031110214149,9.9805895854304225,0.0
744640.0783812654,4060767.5119837918,-27500.0,1.0005392162458167,2.5829137273965954,-6.2614195669298915,-1.4895186895258365,4.3234686828199864,-1.9882313608539408,5.8023103897606507,-4.4870469285072687,-1.7943170899616827,1.7943170899616827,4.4870469285072687,11.077542069008382,0.0
749640.0783812654,4060767.5119837918,-27500.0,1.1432098995506508,0.9875193613718326,-7.2984465567502479,-0.41891844951631202,5.3201264499541416,-2.733929245764422,6.1016056811461103,-6.6579801008961361,-0.072331751480918083,0.072331751480918083,6.6579801008961361,11.91333676096283,0.0
754640.0783812654,4060767.5119837918,-27500.0,0.75949083725844846,-0.60229762841316536,-7.4595914436504067,0.69332939902219248,5.6845360615285001,-3.1189917939764804,6.2390401150093302,-7.8994424605771147,1.478885649981168,-1.478885649981168,7.8994424605771147,12.25522860499227,0.0
759640.0783812654,4060767.5119837918,-27500.0,0.0081058975753348222,-1.8828676786188889,-6.9090954470515191,1.6354337518898885,5.5014827848625982,-3.1718323896831411,6.1520300759376179,-8.1858487272625027,2.6022723947065165,-2.6022723947065165,8.1858487272625027,12.05909821706701,0.0
764640.0783812654,4060767.5119837918,-27500.0,-0.88301855847328525,-2.7073020255168836,-5.9180938912210905,2.2906194607752401,4.9421653240047423,-2.9769275022834147,5.8332427750134421,-7.7068880757672709,3.2114203232299086,-3.2114203232299086,7.7068880757672709,11.410421051966049,0.0
769640.0783812654,4060767.5119837918,-27500.0,-1.7128776646169985,-3.0762819079852783,-4.7545663227629742,2.6386619092046666,4.1909153099513077,-2.6347005020879588,5.3473249392602495,-6.745646613767037,3.3594707127979566,-3.3594707127979566,6.745646613767037,10.453094456582212,0.0
774640.0783812654,4060767.5119837918,-27500.0,-2.3570199134372811,-3.0814526850326787,-3.6179815914107398,2.7246932418985628,3.3967078915601712,-2.2324253069466828,4.7722242710983487,-5.5727717124377785,3.1720814770000532,-3.1720814770000532,5.5727717124377785,9.3345295774742105,0.0
779640.0783812654,4060767.5119837918,-27500.0,-2.7704535382726516,-2.8450505136556208,-2.6233788359427455,2.6217733683217159,2.6561063806137781,-1.8316020371402215,4.172994425192357,-4.3900603543346746,2.7868810891599578,-2.7868810891599578,4.3900603543346746,8.1751892442850522,0.0
784640.0783812654,4060767.5119837918,-27500.0,-2.9651495007601758,-2.4793031505609715,-1.8159917630377342,2.4032657803008672,2.0179070570192619,-1.4678394539328974,3.5950041972697795,-3.3191062822958277,2.3179454355196918,-2.3179454355196918,3.3191062822958277,7.0587246509663952,0.0
789640.0783812654,4060767.5119837918,-27500.0,-2.9827480488938618,-2.0685704745576423,-1.1957861847322993,2.1286846198639986,1.4967763449517149,-1.1567767837461054,3.0652698086803092,-2.4153530359068522,1.8439071941721057,-1.8439071941721057,2.4153530359068522,6.0345941940474939,0.0
794640.0783812654,4060767.5119837918,-27500.0,-2.8734329190147943,-1.6672105638340282,-0.73945911841829026,1.8398468015386895,1.0872412899625072,-0.90117757991431358,2.5968702398993178,-1.6898746069582662,1.4104709365763697,-1.4104709365763697,1.6898746069582662,5.1259201029853578,0.0
799640.0783812654,4060767.5119837918,-27500.0,-2.6835326474605505,-1.3050100346539835,-0.41556967903412562,1.5626633987542342,0.77431243189524335,-0.69679367079387344,2.1937650189795059,-1.128938472890304,1.0386775594319477,-1.0386775594319477,1.128938472890304,4.3380319099995646,0.0
804640.0783812654,4060767.5119837918,-27500.0,-2.4501903093641064,-0.99457149269441325,-0.1930969280875402,1.3109924874387773,0.54019355311810469,-0.53636616459062836,1.8540895270375024,-0.70793952834477847,0.73364833537225027,-0.73364833537225027,0.70793952834477847,3.6655916400930315,0.0
809640.0783812654,4060767.5119837918,-27500.0,-2.2004167303759528,-0.73787745969553475,-0.045321887511453794,1.0905529528322389,0.36788675944776372,-0.41199044101168142,1.5710083262358983,-0.39985190890209915,0.49156471327808754,-0.49156471327808754,0.39985190890209915,3.0977415595692723,0.0
814640.0783812654,4060767.5119837918,-27500.0,-1.9522988376150427,-0.531138925444401,0.049059505801075487,0.90208188408843937,0.24276172567450269,-0.31632363305029088,1.3352490505049865,-0.17961413443341634,0.30444067756427773,-0.30444067756427773,0.17961413443341634,2.6214610584481637,0.0
819640.0783812654,4060767.5119837918,-27500.0,-1.7169435681463092,-0.36797624228363041,0.10621174006553817,0.74357906235998339,0.15296425983918688,-0.24307795443111246,1.1385731221889506,-0.025936772402883931,0.16302740964944057,-0.16302740964944057,0.025936772402883931,2.223562999529761,0.0
659640.0783812654,4065767.5119837918,-27500.0,1.8809873325917177,-1.2110870431731424,0.67053305285241549,1.1208873010613165,-0.70089346213585113,0.50622639249660972,1.6959076438870055,-0.17630191756735814,1.2551535572340613,-1.2551535572340613,0.17630191756735814,3.366629973943577,0.0
664640.0783812654,4065767.5119837918,-27500.0,1.942808709316677,-1.4017083780561055,0.87116501212931152,1.2649112442162851,-0.87376809239514797,0.61797192345931329,1.9168336406725281,-0.084502635616094168,1.4083829759033368,-1.4083829759033368,0.084502635616094168,3.8037655379836752,0.0
669640.0783812654,4065767.5119837918,-27500.0,1.9617148857769742,-1.6030214449445985,1.1242685741339142,1.4140684826142875,-1.0854341865342663,0.75326829052524247,2.1621223170331203,0.058456292767904872,1.559094987621086,-1.559094987621086,-0.058456292767904872,4.2885842365245468,0.0
674640.0783812654,4065767.5119837918,-27500.0,1.9193683220570403,-1.8036742935970513,1.4385362046478631,1.560040760862452,-1.3409449336804948,0.91507255680108035,2.4306214277736395,0.26957912938103634,1.6936066966024801,-1.6936066966024801,-0.26957912938103634,4.8179057892642181,0.0
679640.0783812654,4065767.5119837918,-27500.0,1.7948696837215528,-1.9848829919454665,1.8202451632406513,1.6897041197569198,-1.6431761684354189,1.1051161459238905,2.718963192436906,0.56807974114377524,1.7913886685135307,-1.7913886685135307,-0.56807974114377524,5.3831748957555545,0.0
684640.0783812654,4065767.5119837918,-27500.0,1.5670797403311476,-2.118288200641361,2.2697614520384932,1.7839228791231805,-1.9904034548956999,1.3225634493592304,3.0206304909237298,0.97303507477230244,1.8237318454912814,-1.8237318454912814,-0.97303507477230244,5.9681707322334523,0.0
689640.0783812654,4065767.5119837918,-27500.0,1.2191470054826601,-2.164597771456704,2.7761864832970571,1.8169180133245648,-2.372744966948324,1.5620506153129967,3.3247905449351096,1.4985964180981362,1.7535647448765639,-1.7535647448765639,-1.4985964180981362,6.5465884349077541,0.0
694640.0783812654,4065767.5119837918,-27500.0,0.74580377043946711,-2.0745023933333524,3.3101262783569401,1.757117805964109,-2.7675389757465627,1.8111387203059006,3.6152672421616865,2.1458159312334057,1.5378453932006979,-1.5378453932006979,-2.1458159312334057,7.0802338611362439,0.0
699640.0783812654,4065767.5119837918,-27500.0,0.163182721457413,-1.7940853070043834,3.8155723885488695,1.5707987137594002,-3.1343789591682958,2.0475616122203673,3.8705249626866136,2.8907405635485954,1.1344441675051413,-1.1344441675051413,-2.8907405635485954,7.5192948165119819,0.0
704640.0783812654,4065767.5119837918,-27500.0,-0.48091911825183525,-1.2771892842955113,4.2037476916320191,1.2299044619995927,-3.4116746637981517,2.2372524826535449,4.0657612794493279,3.6702018872734157,0.51529249582055181,-0.51529249582055181,-3.6702018872734157,7.8071144531619137,0.0
709640.0783812654,4065767.5119837918,-27500.0,-1.1012373163156579,-0.50590754972280849,4.3542585968040335,0.72459463865419194,-3.5180665571299294,2.3349055047205161,4.1783418371220593,4.370093203146677,-0.31414073296125444,0.31414073296125444,-4.370093203146677,7.8928427354440931,0.0
714640.0783812654,4065767.5119837918,-27500.0,-1.5812888193193748,0.48370760076767988,4.1306444545271406,0.07864655463521994,-3.362943307274818,2.2893327259430349,4.1975968943666304,4.8252350310101191,-1.2931658420217058,1.2931658420217058,-4.8252350310101191,7.7555012031006525,0.0
719640.0783812654,4065767.5119837918,-27500.0,-1.7988338023964561,1.5805649116974496,3.4155340961103504,-0.63816638706139051,-2.8690009267544707,2.0552416345971904,4.1382313809825559,4.8422958980995396,-2.2922941155509413,2.2922941155509413,-4.8422958980995396,7.4402141840191183,0.0
724640.0783812654,4065767.5119837918,-27500.0,-1.6703903411807406,2.5984619197389427,2.1619380580401142,-1.3102523312573195,-2.0044626743043152,1.6103610392782954,4.0513675425131179,4.2524187314563227,-3.1226126533963647,3.1226126533963647,-4.2524187314563227,7.0948616823357371,0.0
729640.0783812654,4065767.5119837918,-27500.0,-1.2000166477251093,3.3120583433480313,0.44238378721721633,-1.7975728694703144,-0.81377914524129047,0.97230478006316157,4.0178844852593212,2.9842820490898125,-3.5789689861660641,3.5789689861660641,-2.9842820490898125,6.9597660507069401,0.0
734640.0783812654,4065767.5119837918,-27500.0,-0.50399274153191298,3.5278742687430542,-1.5342448660056918,-1.9776410786381216,0.57129108987542487,0.20583909289677044,4.107438917391919,1.1262981942803116,-3.5105458920856454,3.5105458920856454,-1.1262981942803116,7.2350943485646697,0.0
739640.0783812654,4065767.5119837918,-27500.0,0.21401486282184373,3.1629074665681727,-3.4622148233059229,-1.7925575345928768,1.9547589695459462,-0.58732501476407173,4.3228745045135888,-1.0636564935311277,-2.8886513637218023,2.8886513637218023,1.0636564935311277,7.8946746111333361,0.0
744640.0783812654,4065767.5119837918,-27500.0,0.73569977952616006,2.2871992261982119,-5.0291063483438743,-1.2760130080483569,3.1308513869913415,-1.2955898351111954,4.5919048161901959,-3.2227088558670189,-1.8315003901810873,1.8315003901810873,3.2227088558670189,8.6967980363975954,0.0
749640.0783812654,4065767.5119837918,-27500.0,0.91258481690177695,1.1012758483367833,-6.0155954506906992,-0.54286571575366682,3.9461249271305499,-1.8299975923187644,4.8187769808089618,-4.9985471750565136,-0.56571093142026774,0.56571093142026774,4.9985471750565136,9.3679547192431976,0.0
754640.0783812654,4065767.5119837918,-27500.0,0.71508865965128521,-0.14054883060057119,-6.3540319837965216,0.25379586615090055,4.3388766892205464,-2.1467225608583358,4.9423679835974541,-6.1578280038144175,0.65631884122239592,-0.65631884122239592,6.1578280038144175,9.7294395047227322,0.0
759640.0783812654,4065767.5119837918,-27500.0,0.22391692007745759,-1.2173404297642796,-6.1218583146026058,0.97409477667911604,4.3400441380022068,-2.2505281388801257,4.9375560244257333,-6.6355077077002989,1.6378047368110873,-1.6378047368110873,6.6355077077002989,9.7205840324163422,0.0
764640.0783812654,4065767.5119837918,-27500.0,-0.42062669075136783,-1.9966687752719294,-5.4859097391957077,1.5265384694538662,4.0429973467861355,-2.1816660903924694,4.7745933206502471,-6.514093034412813,2.2803375518325399,-2.2803375518325399,6.514093034412813,9.3715894830207827,0.0
769640.0783812654,4065767.5119837918,-27500.0,-1.0767133877708237,-2.4431832963276507,-4.6345861653174607,1.8769433783536045,3.5630796284386008,-1.9960537817753801,4.4733212049813504,-5.9607157204879329,2.5806047430752295,-2.5806047430752295,5.9607157204879329,8.7633065569401492,0.0
774640.0783812654,4065767.5119837918,-27500.0,-1.6397106917395756,-2.5936889537076611,-3.7279075658759062,2.0369047189291871,3.0052859546086563,-1.7481816655062086,4.0819305155283443,-5.160604080458798,2.5984997425273946,-2.5984997425273946,5.160604080458798,7.991849852418162,0.0
779640.0783812654,4065767.5119837918,-27500.0,-2.0544978299490646,-2.5213941954614625,-2.8754862071838136,2.0441189322539359,2.4475945133954613,-1.4812392460236135,3.6476664510400942,-4.2716762834518605,2.4197415607255341,-2.4197415607255341,4.2716762834518605,7.1451378821181244,0.0
784640.0783812654,4065767.5119837918,-27500.0,-2.3086992172748815,-2.306061195178239,-2.1367872956441114,1.944510889853786,1.9380339687892536,-1.2241856188803428,3.2076724870666444,-3.4054292827782713,2.1278493375773899,-2.1278493375773899,3.4054292827782713,6.2916080726401242,0.0
789640.0783812654,4065767.5119837918,-27500.0,-2.4179767251466124,-2.0162869790255913,-1.5327779503073169,1.7805629018234472,1.4996971991857657,-0.99323320889975619,2.7873145861596007,-2.6271996948857206,1.7894911064721661,-1.7894911064721661,2.6271996948857206,5.4778661080911446,0.0
794640.0783812654,4065767.5119837918,-27500.0,-2.4115719814343044,-1.7027227195094961,-1.0600402893917125,1.5858885857933498,1.1383908306328383,-0.7951432043389085,2.4016172243346272,-1.9660317666257223,1.4505478722117366,-1.4505478722117366,1.9660317666257223,4.7313368125616106,0.0
799640.0783812654,4065767.5119837918,-27500.0,-2.3217996372681338,-1.3982572128764548,-0.70257904034640073,1.3841651206831587,0.84972853371420531,-0.63062044618127511,2.057809525422523,-1.4267524682253385,1.1383213383066484,-1.1383213383066484,1.4267524682253385,4.0648240928264459,0.0
804640.0783812654,4065767.5119837918,-27500.0,-2.177987143376614,-1.1214188045811604,-0.43989586266712599,1.190371902990403,0.6244187014828857,-0.49702853967640487,1.7579847126977401,-1.0003655658651684,0.8661068988363364,-0.8661068988363364,1.0003655658651684,3.4811371687257013,0.0
809640.0783812654,4065767.5119837918,-27500.0,-2.0038560079934471,-0.88052303736507942,-0.25167832195174178,1.0128410095341858,0.45165349516659908,-0.39025132132960105,1.5013517977378272,-0.67150158838027341,0.63786880596253737,-0.63786880596253737,0.67150158838027341,2.976911223245406,0.0
814640.0783812654,4065767.5119837918,-27500.0,-1.8170665525939023,-0.67734512603482766,-0.1200608836636754,0.85529584735739861,0.32100463867599205,-0.30582578878278571,1.2849695561747236,-0.42309358278094455,0.45203897022677042,-0.45203897022677042,0.42309358278094455,2.5454286272147124,0.0
819640.0783812654,4065767.5119837918,-27500.0,-1.6298654560128625,-0.50989976872963283,-0.030386270657062665,0.71852101273263014,0.22330989862985925,-0.23954877580600872,1.1031760345212769,-0.23894771615846472,0.30421533142506835,-0.30421533142506835,0.23894771615846472,2.1785187942151949,0.0
659640.0783812654,4070767.5119837918,-27500.0,1.6077330211786964,-1.2007606606747956,0.79596008859288037,0.97889779598940274,-0.70286716718089859,0.448241235620643,1.5727328868268506,-0.079649996794996181,1.2385098292151731,-1.2385098292151731,0.079649996794996181,3.1216054186168218,0.0
664640.0783812654,4070767.5119837918,-27500.0,1.6244655196468358,-1.3602773042499938,1.003687234062282,1.086139990321968,-0.85993878381039734,0.53929349279212868,1.7598443702078266,0.028431730691333534,1.3664193961812039,-1.3664193961812039,-0.028431730691333534,3.4925578280298657,0.0
669640.0783812654,4070767.5119837918,-27500.0,1.5982259731072928,-1.5199790788456342,1.2573549197193477,1.1914394791119101,-1.0472379173406621,0.64696750419922611,1.9634491140576826,0.18490960619970398,1.4847961287417841,-1.4847961287417841,-0.18490960619970398,3.8957084512908429,0.0
674640.0783812654,4070767.5119837918,-27500.0,1.5151380876667626,-1.6675436676118356,1.5615042123514276,1.2867882071433296,-1.2667919427562486,0.77236730505552675,2.1814442434893526,0.40272558862343288,1.5801947023983396,-1.5801947023983396,-0.40272558862343288,4.3257554779183653,0.0
679640.0783812654,4070767.5119837918,-27500.0,1.3609230350739425,-1.7847066127390787,1.9171142559244239,1.3607196105399595,-1.5180725562800812,0.91529232897979396,2.4099552310310046,0.69504599844722859,1.6339182876725376,-1.6339182876725376,-0.69504599844722859,4.7728011483211983,0.0
684640.0783812654,4070767.5119837918,-27500.0,1.1233039318112308,-1.8463386229618455,2.3185294641275052,1.3978918333065171,-1.7961055599426712,1.0732829956314218,2.6426417700959859,1.0727376068927506,1.6216651771497104,-1.6216651771497104,-1.0727376068927506,5.220923450827212,0.0
689640.0783812654,4070767.5119837918,-27500.0,0.79587744931671278,-1.8205931559100041,2.7493003282065178,1.3793278505652311,-2.0889989851077999,1.2403734971932048,2.8698850448400783,1.5400760497398678,1.5143975986315135,-1.5143975986315135,-1.5400760497398678,5.6469649800815942,0.0
694640.0783812654,4070767.5119837918,-27500.0,0.38346098344469604,-1.6711956827903205,3.177307002614246,1.2839016567934036,-2.3751501232737713,1.405676752765745,3.0784593352590415,2.0883867432590373,1.2813941592674831,-1.2813941592674831,-2.0883867432590373,6.0201741625780238,0.0
699640.0783812654,4070767.5119837918,-27500.0,-0.091803864184653347,-1.3631655908526727,3.5503423548579218,1.0917545175859475,-2.6208556420971081,1.5521511372727841,3.2522739500220905,2.6879858950600628,0.89652042939240251,-0.89652042939240251,-2.6879858950600628,6.3037600358252508,0.0
704640.0783812654,4070767.5119837918,-27500.0,-0.58552602410370402,-0.87294915415883201,3.7944961948561895,0.79012035390279922,-2.7796913222299371,1.656210141251524,3.374640626083969,3.2801401501069249,0.34826295797008999,-0.34826295797008999,-3.2801401501069249,6.4598888689494975,0.0
709640.0783812654,4070767.5119837918,-27500.0,-1.0306774558269125,-0.20256087533359207,3.8188190152933039,0.38125955453025817,-2.7956191255931309,1.6891277443449926,3.4326382638551656,3.7727460986371901,-0.34742016974915257,0.34742016974915257,-3.7727460986371901,6.4599457261247464,0.0
714640.0783812654,4070767.5119837918,-27500.0,-1.3458137989165864,0.60546106193533877,3.5298543345576423,-0.10931359518087065,-2.6117676464569088,1.6212025928275107,3.4238487967780573,4.0452748707294122,-1.1350364656466467,1.1350364656466467,-4.0452748707294122,6.3014861056740203,0.0
719640.0783812654,4070767.5119837918,-27500.0,-1.4544158393304205,1.4590824919950669,2.8572534617917689,-0.62802661009048044,-2.1854411727641376,1.4290052192284031,3.3643402105229798,3.9684278711162362,-1.9149160774579368,1.9149160774579368,-3.9684278711162362,6.0308148608546723,0.0
724640.0783812654,4070767.5119837918,-27500.0,-1.3127999842778955,2.2227109480831935,1.7859256070312979,-1.0966613033162114,-1.5067017239373939,1.1045245201881875,3.2935130984810179,3.439613849687968,-2.5537344265508817,2.5537344265508817,-3.439613849687968,5.7614853049493133,0.0
729640.0783812654,4070767.5119837918,-27500.0,-0.93655294384563226,2.7441095844674064,0.3826204613147931,-1.4272054563229575,-0.61374352823321732,0.66305285678043635,3.2667921440077512,2.4261645843833679,-2.9140912781225352,2.9140912781225352,-2.4261645843833679,5.6586218810827997,0.0
734640.0783812654,4070767.5119837918,-27500.0,-0.41038776291192763,2.8986312018217895,-1.1992913681030777,-1.5462060119109684,0.40394936023967093,0.14549649346835025,3.3288659955852236,0.99808930575742383,-2.8972528491741549,2.8972528491741549,-0.99808930575742383,5.8513150814111805,0.0
739640.0783812654,4070767.5119837918,-27500.0,0.12983989472707871,2.6343486671264262,-2.7475193951997765,-1.4199248750469315,1.4206793621259197,-0.38795775227032731,3.4812963302034521,-0.6703998273528472,-2.4819723222160528,2.4819723222160528,0.6703998273528472,6.3230015988365187,0.0
744640.0783812654,4070767.5119837918,-27500.0,0.54002516330239847,1.9955095807568808,-4.0458018577336219,-1.0682208945408176,2.305272431068099,-0.8719732492487654,3.6778884013339783,-2.339702536355694,-1.7388698140613632,1.7388698140613632,2.339702536355694,6.9181409752606324,0.0
749640.0783812654,4070767.5119837918,-27500.0,0.71659733948899396,1.1101360557884292,-4.9339143857332406,-0.55924017974720985,2.9555868489114152,-1.2527000631330083,3.853902608717787,-3.7713132478058347,-0.81023356163421845,0.81023356163421845,3.7713132478058347,7.4512289416090463,0.0
754640.0783812654,4070767.5119837918,-27500.0,0.62728019259169099,0.14703916322309962,-5.3459946384532566,0.012917451544036561,3.3220040455504831,-1.4999550393534551,3.9609364074985427,-4.7926032300623156,0.13593600936833283,-0.13593600936833283,4.7926032300623156,7.7891640137258831,0.0
759640.0783812654,4070767.5119837918,-27500.0,0.31107681488880656,-0.73612836556203165,-5.3128929205710209,0.55652849306041874,3.4113383827692711,-1.6105289514729106,3.9859775530126154,-5.3322845313584981,0.9552271419750924,-0.9552271419750924,5.3322845313584981,7.8728055431950859,0.0
764640.0783812654,4070767.5119837918,-27500.0,-0.14714806617457432,-1.4307251385850088,-4.9340257402886252,1.0041825964634314,3.2731703826717613,-1.6029986307448674,3.9129050341103127,-5.4172117244742424,1.5585395522467764,-1.5585395522467764,5.4172117244742424,7.7053049620738259,0.0
769640.0783812654,4070767.5119837918,-27500.0,-0.65079039131171268,-1.8898719980591334,-4.3369353682504963,1.3217545466324889,2.9779535070224217,-1.5080336073878895,3.7331569835393013,-5.1411834197565849,1.9184603457553151,-1.9184603457553151,5.1411834197565849,7.3296100148167547,0.0
774640.0783812654,4070767.5119837918,-27500.0,-1.1187077610232912,-2.1195295222065176,-3.6423716260372578,1.5053973414427657,2.5967624308959802,-1.3587781380279971,3.4723355739683179,-4.6252382159750924,2.0560502579694848,-2.0560502579694848,4.6252382159750924,6.8063250858967628,0.0
779640.0783812654,4070767.5119837918,-27500.0,-1.4984969184233419,-2.1588894581938849,-2.9439187115903453,1.5719217303731994,2.1882794892913418,-1.1841676843833593,3.1630186718378481,-3.9852472750987711,2.0196529418447153,-2.0196529418447153,3.9852472750987711,6.1970405501146395,0.0
784640.0783812654,4070767.5119837918,-27500.0,-1.7671858607841568,-2.0604853762992525,-2.3020960320104416,1.5481158952689342,1.7937209385196395,-1.0058266588113198,2.8338235941753291,-3.3134124294554548,1.8654921039532093,-1.8654921039532093,3.3134124294554548,5.5544710239621917,0.0
789640.0783812654,4070767.5119837918,-27500.0,-1.9246113502683486,-1.8757598948327923,-1.7480321032464716,1.4623921348485818,1.4374963852640843,-0.8377514196011645,2.5064456189671853,-2.6725928881500112,1.6447397873591969,-1.6447397873591969,2.6725928881500112,4.918425888587274,0.0
794640.0783812654,4070767.5119837918,-27500.0,-1.9846454358781294,-1.6472810713318253,-1.2912531717306954,1.3397838257642314,1.1307477219275344,-0.68754680204534036,2.1955191581969671,-2.0989165790964917,1.3973874701423785,-1.3973874701423785,2.0989165790964917,4.3157036105958619,0.0
799640.0783812654,4070767.5119837918,-27500.0,-1.967486355718759,-1.4062254239945891,-0.92775729754577541,1.1998320884959321,0.87556882379885381,-0.55818564000447024,1.909690435214908,-1.6080560594463593,1.1510704946154124,-1.1510704946154124,1.6080560594463593,3.7620389900339015,0.0
804640.0783812654,4070767.5119837918,-27500.0,-1.8942766759430623,-1.1730553996778181,-0.64651524958615325,1.0563889524281349,0.66870143963507489,-0.44967669056406762,1.6530974186728804,-1.2020190535244335,0.92263357616457875,-0.92263357616457875,1.2020190535244335,3.2647811827557622,0.0
809640.0783812654,4070767.5119837918,-27500.0,-1.7840095983534863,-0.95960856002843065,-0.43391433305755883,0.91839568609097366,0.50425906563948042,-0.36036804075313339,1.4268097898482579,-0.87483478285525995,0.72070588728868989,-0.72070588728868989,0.87483478285525995,2.8254539588314533,0.0
814640.0783812654,4070767.5119837918,-27500.0,-1.6521926845452599,-0.77148979044600308,-0.27641498603584019,0.79100743226064774,0.375508175541996,-0.2878524215861395,1.2301330203527479,-0.6166825746011475,0.54828866609584037,-0.54828866609584037,0.6166825746011475,2.4418940713200974,0.0
664640.0783812654,4075767.5119837918,-27500.0,1.3359322084584231,-1.2820536070183621,1.094337706260476,0.92052611951330354,-0.82480083610066501,0.465452066416988,1.6024901343920945,0.12739400569423798,1.2934365176828908,-1.2934365176828908,-0.12739400569423798,3.1811600063833887,0.0
669640.0783812654,4075767.5119837918,-27500.0,1.2789799104179023,-1.4012365176168891,1.3372613922138681,0.99087443351208349,-0.98603168118136608,0.54977940753760157,1.7690475597164848,0.28880684262576484,1.3802219257659785,-1.3802219257659785,-0.28880684262576484,3.5114515777821138,0.0
674640.0783812654,4075767.5119837918,-27500.0,1.1721331170691287,-1.500483114823554,1.6191186948137763,1.0477840284970259,-1.1696381004924779,0.64541016140871432,1.9436055770966418,0.50303474716941454,1.4398561558210341,-1.4398561558210341,-0.50303474716941454,3.8554809617584294,0.0
679640.0783812654,4075767.5119837918,-27500.0,1.0066071240599352,-1.5633781612632582,1.9369138588324124,1.0818690389678394,-1.3730181564076904,0.75116031719618692,2.1223934936600859,0.77808814019022432,1.456192887627084,-1.456192887627084,-0.77808814019022432,4.2032939259529716,0.0
684640.0783812654,4075767.5119837918,-27500.0,0.77670242493338093,-1.5690624053642812,2.2811830261590784,1.0814868652964007,-1.5897007096259821,0.86403731907336889,2.2996287527943728,1.1185472274039985,1.4096368622849791,-1.4096368622849791,-1.1185472274039985,4.5404683307914127,0.0
689640.0783812654,4075767.5119837918,-27500.0,0.48277763811678653,-1.4932167717399418,2.6330647640682159,1.0333670492055029,-1.8077703536359266,0.97850535066177002,2.467077483825872,1.5220853917916537,1.2785206513649403,-1.2785206513649403,-1.5220853917916537,4.847706270245447,0.0
694640.0783812654,4075767.5119837918,-27500.0,0.13481898232477413,-1.3107782536250883,2.9613847707551826,0.92415719445608902,-2.0083658710254171,1.0857769523436489,2.6143306389153427,1.974910571208595,1.0421460698351317,-1.0421460698351317,-1.974910571208595,5.1012810958817258,0.0
699640.0783812654,4075767.5119837918,-27500.0,-0.24417440111933081,-1.0010078791965036,3.2208038183195264,0.74317934417704468,-2.1648291750866759,1.1733887041095945,2.7298414561589786,2.4467455984203554,0.68593627432550042,-0.68593627432550042,-2.4467455984203554,5.2750532643365506,0.0
704640.0783812654,4075767.5119837918,-27500.0,-0.61646646036911146,-0.55506415948983667,3.3526978368860796,0.48643677554121567,-2.2433897238377956,1.2254580874128538,2.8029205138411366,2.886854332708519,0.20861632558719578,-0.20861632558719578,-2.886854332708519,5.3449596198047509,0.0
709640.0783812654,4075767.5119837918,-27500.0,-0.93157654876295781,0.014858430539724554,3.2907947603554377,0.16134918986474628,-2.2064256400596243,1.2240932451704352,2.8270033619421451,3.2236438016914519,-0.36974472750141008,0.36974472750141008,-3.2236438016914519,5.2968857605320716,0.0
714640.0783812654,4075767.5119837918,-27500.0,-1.1339221698609063,0.66745150823329535,2.9730911550054548,-0.20914716113430193,-2.0190463100503799,1.1523060457949241,2.8041247580217568,3.3709446252800914,-1.0015238596269755,1.0015238596269755,-3.3709446252800914,5.1383046151674607,0.0
719640.0783812654,4075767.5119837918,-27500.0,-1.1765353756217083,1.3295611946377244,2.359594654425297,-0.58530484792610005,-1.6586957900356303,0.99832826899536808,2.7495050764620941,3.2432248612419254,-1.6111688566181073,1.6111688566181073,-3.2432248612419254,4.9120674053408528,0.0
724640.0783812654,4075767.5119837918,-27500.0,-1.0381563820148416,1.903388294774319,1.4519664571008644,-0.91436408715135886,-1.1256911091502542,0.76044921407344479,2.6931807779396006,2.7788766445905337,-2.104492818286269,2.104492818286269,-2.7788766445905337,4.7048201287735623,0.0
729640.0783812654,4075767.5119837918,-27500.0,-0.73736576363732342,2.285657475107965,0.30750969405180173,-1.1404478097232136,-0.45077271273714425,0.45066714704172178,2.6734390256763501,1.9656768443378978,-2.3886077856554677,2.3886077856554677,-1.9656768443378978,4.6309807280904831,0.0
734640.0783812654,4075767.5119837918,-27500.0,-0.33581439049785761,2.3952026243774966,-0.96110163381783886,-1.2187861376966547,0.30478237010355475,0.095163536384286318,2.7191967434969309,0.85802644874333611,-2.3980692688594289,2.3980692688594289,-0.85802644874333611,4.7741170673881861,0.0
739640.0783812654,4075767.5119837918,-27500.0,0.074368383606735686,2.1992770270982844,-2.2049475751218788,-1.129458780533676,1.0589200225450033,-0.26958443059936454,2.8308248323175538,-0.4244795197971224,-2.1175274368114785,2.1175274368114785,0.4244795197971224,5.121623982549524,0.0
744640.0783812654,4075767.5119837918,-27500.0,0.39642558470820938,1.726709471533064,-3.2729060524737323,-0.88469679045823824,1.7265779714291962,-0.60440732021992172,2.9778471660210926,-1.7209132558590157,-1.59017689657006,1.59017689657006,1.7209132558590157,5.5703796845714812,0.0
749640.0783812654,4075767.5119837918,-27500.0,0.55782449250291677,1.0608180491054824,-4.0483634643338569,-0.52602963005914927,2.2393282101541776,-0.87621570115258152,3.1161870142865107,-2.8682044502785908,-0.90681806427699518,0.90681806427699518,2.8682044502785908,5.9931526690459931,0.0
754640.0783812654,4075767.5119837918,-27500.0,0.52961024778811705,0.31472997480788006,-4.4741861453730012,-0.1122965472058329,2.5594693681545349,-1.0646986977978381,3.2091159967207177,-3.7403921770447912,-0.17975074919820977,0.17975074919820977,3.7403921770447912,6.2920464684325879,0.0
759640.0783812654,4075767.5119837918,-27500.0,0.32897193665126584,-0.39988035707547642,-4.557506681194349,0.29623118177850394,2.6839169615527725,-1.1647535194002081,3.2430248315036558,-4.2730056478358058,0.48714507872568058,-0.48714507872568058,4.2730056478358058,6.4158424175957949,0.0
764640.0783812654,4075767.5119837918,-27500.0,0.0066159748815806706,-0.99804084020701778,-4.3558332806143047,0.65132473854246919,2.6381826913234727,-1.1845222955862353,3.2179012328893855,-4.466013910366085,1.0204981957327743,-1.0204981957327743,4.466013910366085,6.3556624882561703,0.0
769640.0783812654,4075767.5119837918,-27500.0,-0.37301292473589548,-1.4333168189903349,-3.9533802507857314,0.92387899350731162,2.4646358744933736,-1.1406627376020551,3.1163841591823562,-4.3690316649044814,1.3858197346938685,-1.3858197346938685,4.3690316649044814,6.1324535540888983,0.0
774640.0783812654,4075767.5119837918,-27500.0,-0.74984074279581436,-1.6962451093070954,-3.4378223340667904,1.1041946892597172,2.2102231440973674,-1.0530456984314154,2.9464886706628559,-4.0584018770867578,1.5833839625752555,-1.5833839625752555,4.0584018770867578,5.7833301936710111,0.0
779640.0783812654,4075767.5119837918,-27500.0,-1.0793504784272798,-1.8043641559694492,-2.8840633996903215,1.19765224349621,1.9172681451900808,-0.94053009617234606,2.7294804524078145,-3.615547451711012,1.6370798961796147,-1.6370798961796147,3.615547451711012,5.350219144770775,0.0
784640.0783812654,4075767.5119837918,-27500.0,-1.3360786242884291,-1.7898304113355819,-2.3467253532409313,1.2186862586680483,1.6185877710619792,-0.81849041471400819,2.4865102355987223,-3.1120151543935655,1.5820384629549697,-1.5820384629549697,3.1120151543935655,4.8721606715606001,0.0
789640.0783812654,4075767.5119837918,-27500.0,-1.511548499853212,-1.6888541605511123,-1.8596214231193207,1.1852808261301013,1.3363342295819696,-0.69796563307020387,2.2350818785879389,-2.6022732258923562,1.4547817050831058,-1.4547817050831058,2.6022732258923562,4.3812078887515646,0.0
794640.0783812654,4075767.5119837918,-27500.0,-1.6095414210514993,-1.5347252623616434,-1.4392563270326928,1.1150556960529083,1.0831959836065383,-0.58591042845678765,1.9881781317258627,-2.1225995805749402,1.2871887650178542,-1.2871887650178542,2.1225995805749402,3.901107720613215,0.0
799640.0783812654,4075767.5119837918,-27500.0,-1.6410062896300028,-1.3543602362293634,-1.0897395770386327,1.0230778550419335,0.86462877059135146,-0.48599406176195142,1.7544986166060801,-1.6935467228011207,1.1038971097133103,-1.1038971097133103,1.6935467228011207,3.4477408566695784,0.0
804640.0783812654,4075767.5119837918,-27500.0,-1.619881198027892,-1.1674325445298785,-0.80745270851474782,0.92103612411093061,0.68119754394586596,-0.39953620606409862,1.5391882774536749,-1.323815233192658,0.92206330994071961,-0.92206330994071961,1.323815233192658,3.0304369415887313,0.0
809640.0783812654,4075767.5119837918,-27500.0,-1.5602381712653282,-0.98701013817245042,-0.58471927109304933,0.81728327599904416,0.53055275898970511,-0.32634719587953259,1.3447023974636161,-1.0141382453773069,0.75239187690092513,-0.75239187690092513,1.0141382453773069,2.6535488849754669,0.0
669640.0783812654,4080767.5119837918,-27500.0,1.0069002919301591,-1.2633641055862666,1.3708392888886798,0.81529613274521873,-0.91098207128234565,0.46337348683202118,1.5842567163150658,0.36873761848001785,1.2586064077205847,-1.2586064077205847,-0.36873761848001785,3.1460671522216046,0.0
674640.0783812654,4080767.5119837918,-27500.0,0.88934873643058621,-1.3215963900337779,1.6231817785560296,0.84423098145290909,-1.0611271525079742,0.53532456733642964,1.722572118250411,0.57191638215900165,1.2877625443267224,-1.2877625443267224,-0.57191638215900165,3.4175488416356248,0.0
679640.0783812654,4080767.5119837918,-27500.0,0.72529822366061347,-1.341523809723665,1.8978242643283305,0.85124109335400377,-1.2220901525220438,0.61249879582689348,1.8610993109886711,0.82285607799007898,1.2745829749717417,-1.2745829749717417,-0.82285607799007898,3.6841833436129487,0.0
684640.0783812654,4080767.5119837918,-27500.0,0.51352660119957227,-1.306731371713429,2.1834067988739592,0.82788848615638655,-1.3870885041228778,0.6919711956043838,1.9946611071124749,1.1217345774211327,1.2039268595036563,-1.2039268595036563,-1.1217345774211327,3.9336043875915339,0.0
689640.0783812654,4080767.5119837918,-27500.0,0.25827913583228979,-1.1996107485315848,2.4609390981579993,0.76532738401547085,-1.5452901247259245,0.76906024975611209,2.1164429066749229,1.4623235385464199,1.0603561296625466,-1.0603561296625466,-1.4623235385464199,4.1503821165885011,0.0
694640.0783812654,4080767.5119837918,-27500.0,-0.028555771518891562,-1.0039468136909451,2.7023219959553195,0.6556443024363664,-1.6811378636191849,0.8370256789365671,2.2185772353067978,1.8289450622665278,0.83081045930542374,-0.83081045930542374,-1.8289450622665278,4.3168434077303823,0.0
699640.0783812654,4080767.5119837918,-27500.0,-0.32585048236648051,-0.70897285343718275,2.8700668534302958,0.49389382288354039,-1.7743169804365813,0.88703044577652923,2.2931118151348993,2.193616952972631,0.50855502463263247,-0.50855502463263247,-2.193616952972631,4.4150904481524256,0.0
704640.0783812654,4080767.5119837918,-27500.0,-0.60322320473035929,-0.31467259672043946,2.9192856732554033,0.2807007390679559,-1.8008888702164727,0.90858619986545031,2.333597737645944,2.5145262463048041,0.09806793495912558,-0.09806793495912558,-2.5145262463048041,4.4307236242549228,0.0
709640.0783812654,4080767.5119837918,-27500.0,-0.82374731098853593,0.1626395167452282,2.8030053332545739,0.024944891175490379,-1.7360878027047264,0.89069412855988683,2.3374405111499499,2.7374199609170478,-0.38017086157338786,0.38017086157338786,-2.7374199609170478,4.3586710502161159,0.0
714640.0783812654,4080767.5119837918,-27500.0,-0.95015736078961377,0.68635070142540844,2.4812488780740409,-0.25438182956683136,-1.5589658777528563,0.82376980073581019,2.3087947457895091,2.8015131697747599,-0.88683218662388674,0.88683218662388674,-2.8015131697747599,4.2110316606311553,0.0
719640.0783812654,4080767.5119837918,-27500.0,-0.95418738521792801,1.1997357399806221,1.9329276400109781,-0.52834649547350387,-1.2583882088256375,0.70216468845298907,2.2610809781846943,2.6506254868115695,-1.3651356201493661,1.3651356201493661,-2.6506254868115695,4.0252983304873489,0.0
724640.0783812654,4080767.5119837918,-27500.0,-0.82688451799068674,1.6325163198295483,1.1676232150474426,-0.76130834576232342,-0.83894078667312577,0.52671077996929472,2.2170373611612741,2.2482396997367053,-1.7482821049394313,1.7482821049394313,-2.2482396997367053,3.8673104045015236,0.0
729640.0783812654,4080767.5119837918,-27500.0,-0.58605349455531652,1.9141663673077589,0.23270014036297149,-0.91737880767105429,-0.32453889748285958,0.30638505412601058,2.2033067302356288,1.5925064559648001,-1.9727951886357646,1.9727951886357646,-1.5925064559648001,3.8169285473554408,0.0
734640.0783812654,4080767.5119837918,-27500.0,-0.27668186934140676,1.9912097347590645,-0.78876761240392745,-0.96881829173350409,0.24245370202771865,0.058172512228564954,2.238749319471097,0.72529813288608902,-1.9947068156314935,1.9947068156314935,-0.72529813288608902,3.9284551777230963,0.0
739640.0783812654,4080767.5119837918,-27500.0,0.037748300097721087,1.8428118316521269,-1.7911287881877,-0.90370416261747988,0.80753859908523806,-0.19531811905249052,2.3229286080657934,-0.26999816120991749,-1.8030292596951742,1.8030292596951742,0.26999816120991749,4.1913156972511203,0.0
744640.0783812654,4080767.5119837918,-27500.0,0.29117159098263512,1.4882937528154492,-2.6676100760213521,-0.72985896698902197,1.3145920139975504,-0.43006070917825462,2.4351331765958726,-1.2834435998881049,-1.4247968902781138,1.4247968902781138,1.2834435998881049,4.5352166194479437,0.0
749640.0783812654,4080767.5119837918,-27500.0,0.43240155946649467,0.98293456749625541,-3.3331810500859054,-0.47324396814150177,1.7173155101643234,-0.62537402805522913,2.5449428199858488,-2.2022033742809835,-0.91895676287372596,0.91895676287372596,2.2022033742809835,4.8716771816466311,0.0
754640.0783812654,4080767.5119837918,-27500.0,0.43742002168557687,0.40345398708309665,-3.7408805993342709,-0.17132580340785056,1.9877890525825734,-0.76767624886900043,2.625179915681179,-2.9347180031450106,-0.36120706327081664,0.36120706327081664,2.9347180031450106,5.1288885257718029,0.0
759640.0783812654,4080767.5119837918,-27500.0,0.31229537421660719,-0.1710554255866969,-3.8866054636314535,0.13600054345028514,2.1195730106328163,-0.85212015743597047,2.6618055138427805,-3.4271608288141286,0.17431264778118605,-0.17431264778118605,3.4271608288141286,5.2648270614056294,0.0
764640.0783812654,4080767.5119837918,-27500.0,0.086996954880238134,-0.67577771555290345,-3.8024735560462797,0.41467354949901281,2.1251783310644794,-0.88192174778408861,2.6594378923322615,-3.6678835838040302,0.62996515309619161,-0.62996515309619161,3.6678835838040302,5.2662359824827147,0.0
769640.0783812654,4080767.5119837918,-27500.0,-0.19600611535782531,-1.0696742260114716,-3.5431185142955797,0.64156556224380978,2.0297979729641442,-0.86605119851078449,2.6070767624626252,-3.6808554066275829,0.97219753158178568,-0.97219753158178568,3.6808554066275829,5.1416994285363637,0.0
774640.0783812654,4080767.5119837918,-27500.0,-0.49345789561128539,-1.3368895502356704,-3.1706317580809453,0.80577685428963108,1.8639807525838941,-0.81633163145878174,2.4995763851302804,-3.512742366045055,1.1914435286908771,-1.1914435286908771,3.512742366045055,4.9132515685670244,0.0
779640.0783812654,4080767.5119837918,-27500.0,-0.76980308467445313,-1.4821652590634153,-2.7425745847065617,0.90693631208238212,1.6574577192430724,-0.74486100420875134,2.3496186025972485,-3.2190148757701804,1.296743821715119,-1.296743821715119,3.2190148757701804,4.6088170700832576,0.0
784640.0783812654,4080767.5119837918,-27500.0,-1.0012138726437658,-1.5235339177069527,-2.3049535924348312,0.95196612897270061,1.4352009894898041,-0.66225247596866776,2.1723537680985729,-2.8528938177837446,1.3083226473326242,-1.3083226473326242,2.8528938177837446,4.2565409066235729,0.0
789640.0783812654,4080767.5119837918,-27500.0,-1.1757808316619816,-1.4850988719731468,-1.8898885495298448,0.95164902607017043,1.2157536652966303,-0.57677169159367492,1.9813720302121955,-2.4586626937618346,1.2507037135957964,-1.2507037135957964,2.4586626937618346,3.8812566704245697,0.0
794640.0783812654,4080767.5119837918,-27500.0,-1.2913435588246154,-1.3914991829732193,-1.5165538097024311,0.91783039061367322,1.0112590051521619,-0.49418508512534248,1.7875475990421505,-2.0690543396427961,1.1477087403906261,-1.1477087403906261,2.0690543396427961,3.5028119678472276,0.0
799640.0783812654,4080767.5119837918,-27500.0,-1.3524240813281987,-1.2645088794481918,-1.19379223770064,0.86155941780384693,0.8284580577516244,-0.41804536475912402,1.5988426466623209,-1.7055235187768196,1.0195930101679362,-1.0195930101679362,1.7055235187768196,3.135735272551639,0.0
804640.0783812654,4080767.5119837918,-27500.0,-1.3672806047315667,-1.1214948026134055,-0.92316057490791004,0.79211187583408504,0.67004463714947438,-0.35016941134124574,1.4205785296271778,-1.3800879388661644,0.88193578475723322,-0.88193578475723322,1.3800879388661644,2.7897120322293305,0.0
674640.0783812654,4085767.5119837918,-27500.0,0.66150400641571583,-1.1442423017504728,1.5862800451361574,0.67435241677422997,-0.94979988229514112,0.44167287568791214,1.5212523033419465,0.61314182173866305,1.1348810222955601,-1.1348810222955601,-0.61314182173866305,3.0175015063272821,0.0
679640.0783812654,4085767.5119837918,-27500.0,0.50697770075620197,-1.1321387124006228,1.8170959831443287,0.66399226553401369,-1.0747590625663674,0.49731955541805878,1.6277131706119023,0.83662141071357476,1.0999080886316697,-1.0999080886316697,-0.83662141071357476,3.2190602685444487,0.0
684640.0783812654,4085767.5119837918,-27500.0,0.31844257917653895,-1.0702856946204913,2.0472700803337665,0.62799101990758688,-1.1977994956877016,0.55251970198578892,1.7273244666273535,1.0936146927044166,1.0140751275629114,-1.0140751275629114,-1.0936146927044166,3.4004089642374584,0.0
689640.0783812654,4085767.5119837918,-27500.0,0.10200413902665331,-0.94658439421426355,2.2591141989258299,0.56074046768597618,-1.3096539441542592,0.60353036262480197,1.8146899526039684,1.3759854799232896,0.86689784934827019,-0.86689784934827019,-1.3759854799232896,3.5496114046436795,0.0
694640.0783812654,4085767.5119837918,-27500.0,-0.13049374712056974,-0.75136519548709768,2.4285453931515253,0.45794328055048239,-1.3979832928281672,0.64535457978222388,1.8840965630265785,1.6681947435927829,0.65083353017902668,-0.65083353017902668,-1.6681947435927829,3.6539092338200874,0.0
699640.0783812654,4085767.5119837918,-27500.0,-0.36094619172258369,-0.48041890375264729,2.5256459748476505,0.31802924919279951,-1.447716325416142,0.67185990861079858,1.9302962289261729,1.9458690454255949,0.36415459455740384,-0.36415459455740384,-1.9458690454255949,3.7015260682705637,0.0
704640.0783812654,4085767.5119837918,-27500.0,-0.56575281232910479,-0.13852246074013272,2.5169437169337332,0.14376934327568788,-1.4422074590480314,0.67621520565193471,1.9497197495133136,2.1756165520064696,0.014138221850134913,-0.014138221850134913,-2.1756165520064696,3.6846103327379018,0.0
709640.0783812654,4085767.5119837918,-27500.0,-0.71844686234942845,0.257341795767555,2.3698837111771716,-0.056282267681101998,-1.3654155501709024,0.65172849190852555,1.9421264911275824,2.3170228979436729,-0.38023263188041012,0.38023263188041012,-2.3170228979436729,3.6034522543813017,0.0
714640.0783812654,4085767.5119837918,-27500.0,-0.79438925155716478,0.67633278534736818,2.0594414966223842,-0.2670851049132868,-1.2050624771676341,0.59307720391293717,1.9124319508292911,2.3275745668927126,-0.78724680534805969,0.78724680534805969,-2.3275745668927126,3.4716893384432512,0.0
719640.0783812654,4085767.5119837918,-27500.0,-0.77696723558892589,1.075099654819154,1.5759200248379908,-0.46778447612166568,-0.95631752540785142,0.49776503227129654,1.8719926426613465,2.1705494176798785,-1.1643961121973883,1.1643961121973883,-2.1705494176798785,3.3210440950677791,0.0
724640.0783812654,4085767.5119837918,-27500.0,-0.66375544565204869,1.403129138293062,0.93191333222992068,-0.6341926309735334,-0.62507889429077557,0.36745553780059587,1.837955612282141,1.8246823118527755,-1.4640253195271236,1.4640253195271236,-1.8246823118527755,3.2014324386724438,0.0
729640.0783812654,4085767.5119837918,-27500.0,-0.4703581976736495,1.6118632644021911,0.16573881809600802,-0.74297123387413977,-0.22962189647535941,0.20870927213352955,1.8289912820034744,1.2930325780437635,-1.6422531359354318,1.6422531359354318,-1.2930325780437635,3.1689597992834906,0.0
734640.0783812654,4085767.5119837918,-27500.0,-0.22977019458518894,1.6656369917225147,-0.66101589579226916,-0.77665082536898089,0.20046176315709613,0.032696802112374725,1.8574887511656719,0.60770910870037598,-1.6691263233265459,1.6691263233265459,-0.60770910870037598,3.2590188058503098,0.0
739640.0783812654,4085767.5119837918,-27500.0,0.013591417784433629,1.5510741795526908,-1.4725149108414908,-0.72799966341224664,0.62836688252319772,-0.14627116293945053,1.922555788076862,-0.17227589987055947,-1.5367867650277836,1.5367867650277836,0.17227589987055947,3.4624375734646029,0.0
744640.0783812654,4085767.5119837918,-27500.0,0.21387925919979145,1.2814552163302111,-2.1924275231425323,-0.6021829396772207,1.0164270855499997,-0.31313167447692708,2.0097387085308558,-0.97056924885082629,-1.2625288302857887,1.2625288302857887,0.97056924885082629,3.7300844795393373,0.0
749640.0783812654,4085767.5119837918,-27500.0,0.33462027658989868,0.89414962683444399,-2.7584295722812961,-0.41582154952190725,1.3329458116290365,-0.45472726146965631,2.0977061738710874,-1.7080820089407036,-0.8852870823572665,0.8852870823572665,1.7080820089407036,3.9995002911618771,0.0
754640.0783812654,4085767.5119837918,-27500.0,0.35661524737536265,0.44187273901321938,-3.1329611540100664,-0.19321505486794646,1.5574630929889679,-0.56195406272312154,2.166471872383628,-2.3181337791827947,-0.45663388623593981,0.45663388623593981,2.3181337791827947,4.2178572562148915,0.0
759640.0783812654,4085767.5119837918,-27500.0,0.28048438369207046,-0.019124708751219386,-3.3072569126476061,0.038956294142711415,1.6830345695850646,-0.63082509857537516,2.2035071217340323,-2.757504728636972,-0.029439457721589291,0.029439457721589291,2.757504728636972,4.351585463704513,0.0
764640.0783812654,4085767.5119837918,-27500.0,0.12371355393135137,-0.44001553521657444,-3.29835337290067,0.2567258354628309,1.7152723239889345,-0.66230010376609494,2.2109435750050714,-3.0106627083019877,0.35212004599225288,-0.35212004599225288,3.0106627083019877,4.3867540498146269,0.0
769640.0783812654,4085767.5119837918,-27500.0,-0.085910300677912707,-0.78654421497630234,-3.1411942420323378,0.44236480140392309,1.6689988646291845,-0.66115576374529661,2.1883405114217016,-3.0872008306315575,0.6586171269808625,-0.6586171269808625,3.0872008306315575,4.3252532837665179,0.0
774640.0783812654,4085767.5119837918,-27500.0,-0.31776046414285369,-1.0413406287306424,-2.8790330433328051,0.58578469889237905,1.5639119407888555,-0.63440059714947095,2.1231528809851681,-3.0147066597442049,0.8767967142519999,-0.8767967142519999,3.0147066597442049,4.1796459466957812,0.0
779640.0783812654,4085767.5119837918,-27500.0,-0.54446878517725772,-1.2021709415752218,-2.5549450001545404,0.68406310978425988,1.4205570305590305,-0.5897288932746465,2.0213205017629918,-2.8300686568542681,1.0073162892125622,-1.0073162892125622,2.8300686568542681,3.9681844061958662,0.0
784640.0783812654,4085767.5119837918,-27500.0,-0.74554009853963876,-1.277841984942701,-2.2060300910806401,0.73979619728052803,1.2574008549954483,-0.53433782476506153,1.8933994553739568,-2.5717192545034244,1.0605266047595507,-1.0605266047595507,2.5717192545034244,3.7107684665603418,0.0
789640.0783812654,4085767.5119837918,-27500.0,-0.90847564126346392,-1.2835037968111302,-1.8605983122480263,0.75904489528717878,1.0892285443543213,-0.47422258500025338,1.749667476056191,-2.2741743662848739,1.051935231626862,-1.051935231626862,2.2741743662848739,3.4261385540092055,0.0
794640.0783812654,4085767.5119837918,-27500.0,-1.0280732182510166,-1.2365679616238847,-1.5377681139939021,0.74944623678452105,0.92667822867301408,-0.41390479902879962,1.5988970625874184,-1.9651251360331305,0.99843321442169897,-0.99843321442169897,1.9651251360331305,3.1302616212459564,0.0
799640.0783812654,4085767.5119837918,-27500.0,-1.1047587206397778,-1.1538027811114477,-1.2485823965603742,0.71878639591832783,0.77654505174656396,-0.35647073657486572,1.4479696415982213,-1.6646303433465142,0.91572836941070479,-0.91572836941070479,1.6646303433465142,2.8356749742373863,0.0
679640.0783812654,4090767.5119837918,-27500.0,0.34076681325680097,-0.94237420753907908,1.7094932537772136,0.51407910424643743,-0.93680422481323411,0.40280539304106289,1.4217334598763545,0.82677644086751223,0.93856645441051745,-0.93856645441051745,-0.82677644086751223,2.8075243354484436,0.0
684640.0783812654,4090767.5119837918,-27500.0,0.17696553850672889,-0.86420721539188372,1.8901761353081097,0.47237978307703432,-1.0267202684637822,0.44062878019368079,1.4952112612306376,1.0441701903434382,0.84473424435629174,-0.84473424435629174,-1.0441701903434382,2.9368949649541856,0.0
689640.0783812654,4090767.5119837918,-27500.0,-0.0034095933237969197,-0.73459325896065986,2.0465491840677901,0.40632188678100561,-1.1036003862843586,0.47370834759329861,1.5569320800011044,1.2749876439159764,0.70027341924286191,-0.70027341924286191,-1.2749876439159764,3.0364248781914389,0.0
694640.0783812654,4090767.5119837918,-27500.0,-0.18957611465797644,-0.54845251708168818,2.1587026368781337,0.31390232535232876,-1.1579276464343231,0.4984255098119601,1.6028958654812353,1.5049456825568963,0.50144272809742829,-0.50144272809742829,-1.5049456825568963,3.0971815474104023,0.0
699640.0783812654,4090767.5119837918,-27500.0,-0.36668759849044785,-0.30561975914984829,2.2033819901406875,0.19540325837020217,-1.178739048566779,0.51058845856249968,1.6298062309608312,1.7136179390431683,0.2494991936787182,-0.2494991936787182,-1.7136179390431683,3.1117913331650024,0.0
704640.0783812654,4090767.5119837918,-27500.0,-0.51685624747345971,-0.01308538258668911,2.1561362303930824,0.054352519407562493,-1.1546307610895306,0.50579251797431024,1.6359791279900355,1.8749034756503078,-0.047300076707304517,0.047300076707304517,-1.8749034756503078,3.0766962282348098,0.0
709640.0783812654,4090767.5119837918,-27500.0,-0.62138935981998022,0.31327103146557206,1.9948454517490026,-0.10175429287901762,-1.0753649730181298,0.48000372172527489,1.6224774593194193,1.9590376621255297,-0.37227934391379391,0.37227934391379391,-1.9590376621255297,2.9951554032451302,0.0
714640.0783812654,4090767.5119837918,-27500.0,-0.66419373170621676,0.64825035040525081,1.7043955472454237,-0.26130677864320273,-0.93396798258277824,0.43032956152502083,1.5942334365660853,1.936442020429936,-0.70024640284450756,0.70024640284450756,-1.936442020429936,2.8806489024949817,0.0
719640.0783812654,4090767.5119837918,-27500.0,-0.63582490350630272,0.95898473557109531,1.2817127728090747,-0.40933194333966089,-0.72897146909608368,0.35585565705291661,1.5606183693825311,1.7832082279510351,-0.99939457775309792,0.99939457775309792,-1.7832082279510351,2.7594578332520752,0.0
724640.0783812654,4090767.5119837918,-27500.0,-0.53713990439597525,1.2090620463969091,0.73982248048365251,-0.52930482630396636,-0.46621812604960045,0.25834194482020184,1.5345441059469747,1.4872859338526405,-1.2354802682430024,1.2354802682430024,-1.4872859338526405,2.6693980261954895,0.0
729640.0783812654,4090767.5119837918,-27500.0,-0.38121632058828619,1.3647429758585525,0.10935370644565193,-0.60585323330959551,-0.15955189469571582,0.14253130767732908,1.5291841641347981,1.0537447496653254,-1.3778063227997408,1.3778063227997408,-1.0537447496653254,2.6501227620781154,0.0
734640.0783812654,4090767.5119837918,-27500.0,-0.19241241969158673,1.4019473557688418,-0.56372883207550228,-0.627799855383113,0.17013431788851111,0.015871520165130052,1.5527269770111591,0.50720585997966272,-1.405681091803048,1.405681091803048,-0.50720585997966272,2.7247387987992102,0.0
739640.0783812654,4090767.5119837918,-27500.0,-0.0022623274775056628,1.312011569400745,-1.2243486725999511,-0.5907021759804324,0.49758488780646204,-0.1123987339934184,1.6040737356161427,-0.10997460572537554,-1.3134627427984022,1.3134627427984022,0.10997460572537554,2.8852575765500386,0.0
744640.0783812654,4090767.5119837918,-27500.0,0.15692000256912758,1.1042710283291075,-1.8172821292380534,-0.49806413981757908,0.79710122105978287,-0.23263860041282919,1.6729002675111049,-0.74392676898555266,-1.1124448718238484,1.1124448718238484,0.74392676898555266,3.0965659660180349,0.0
749640.0783812654,4090767.5119837918,-27500.0,0.25886715341460054,0.80444400528494731,-2.2965197431647768,-0.36076542673503342,1.0467074783624721,-0.33632734762635041,1.7440033959525063,-1.3384794557516542,-0.82878133597852777,0.82878133597852777,1.3384794557516542,3.3139012725911425,0.0
754640.0783812654,4090767.5119837918,-27500.0,0.28850610881025907,0.44924585060180239,-2.6324281529778353,-0.19485230645836221,1.23144542617588,-0.41731948311364769,1.8026421270884243,-1.8448164253620061,-0.49802471346302002,0.49802471346302002,1.8448164253620061,3.4981592092697293,0.0
759640.0783812654,4090767.5119837918,-27500.0,0.24397694248610666,0.078953828894737579,-2.8149095617821733,-0.018380301542353341,1.3449904871227942,-0.47252802161047264,1.8384701160775072,-2.2289143476567759,-0.1580048724548444,0.1580048724548444,2.2289143476567759,3.6228678562364953,0.0
764640.0783812654,4090767.5119837918,-27500.0,0.13529088495561128,-0.26983407749047983,-2.8522028159202883,0.15175774243304055,1.3893773276422285,-0.50193449731563411,1.8502851534141345,-2.4750408269264286,0.15783626659180672,-0.15783626659180672,2.4750408269264286,3.6750644329044961,0.0
769640.0783812654,4090767.5119837918,-27500.0,-0.01945232756913811,-0.56940768988928492,-2.7663572941156467,0.30222167114263304,1.3732172027199734,-0.50803711454899958,1.8444822802105938,-2.5850614247553194,0.4250093177001546,-0.4250093177001546,2.5850614247553194,3.6532138777178216,0.0
774640.0783812654,4090767.5119837918,-27500.0,-0.19878372512251063,-0.80327724518635379,-2.5871638677707769,0.42442921815666035,1.309137009585744,-0.4949817604201982,1.8076650470602358,-2.5745907932774577,0.62977534433166427,-0.62977534433166427,2.5745907932774577,3.5640373296717032,0.0
779640.0783812654,4090767.5119837918,-27500.0,-0.3821149438603883,-0.96582645259931255,-2.3462942231417094,0.5146057673476101,1.2111926384279508,-0.46764206418400062,1.7400685261379103,-2.4676472141462984,0.76847556048799359,-0.76847556048799359,2.4676472141462984,3.4192406834036801,0.0
784640.0783812654,4090767.5119837918,-27500.0,-0.55265785930878331,-1.0601503834265127,-2.0728206087210435,0.57300421421952508,1.0927921181350237,-0.43084831162206172,1.6488218535794479,-2.291381308352527,0.84527210619973137,-0.84527210619973137,2.291381308352527,3.2326837956838035,0.0
789640.0783812654,4090767.5119837918,-27500.0,-0.69879161523119637,-1.0951188150943207,-1.7905547874687811,0.6027195525110568,0.96536395354685178,-0.38886341237600186,1.5415549618685342,-2.0719166770039625,0.86929215205275456,-0.86929215205275456,2.0719166770039625,3.0182480739620097,0.0
794640.0783812654,4090767.5119837918,-27500.0,-0.81412337686214975,-1.082511194039065,-1.5170565278315968,0.60846323988136186,0.83774935068231637,-0.34511232252608903,1.4251653952142873,-1.8317016446184557,0.85194734147466633,-0.85194734147466633,1.8317016446184557,2.7884432438748963,0.0
689640.0783812654,4095767.5119837918,-27500.0,-0.071860644601207266,-0.56061911745855886,1.8360410335004549,0.29076149341240487,-0.92664258280979317,0.37234837439853219,1.3377711273888206,1.1680574749920449,0.55971565474292329,-0.55971565474292329,-1.1680574749920449,2.6004635903334319,0.0
694640.0783812654,4095767.5119837918,-27500.0,-0.21961991497075084,-0.38843039045808464,1.9039900732648873,0.20985499087000478,-0.95718445202294333,0.3860472824216889,1.3671395337301342,1.347097766115672,0.37972655245432213,-0.37972655245432213,-1.347097766115672,2.6312942268129018,0.0
699640.0783812654,4095767.5119837918,-27500.0,-0.35489006854106586,-0.17446692501994759,1.9110906075073668,0.11085816809873322,-0.95937957806581264,0.38970626424971339,1.3811355798969067,1.50196107986558,0.16020757460385082,-0.16020757460385082,-1.50196107986558,2.6251216105124606,0.0
704640.0783812654,4095767.5119837918,-27500.0,-0.46434590392481689,0.073615667858653713,1.8397792297280762,-0.0026697437489090329,-0.92550948644669895,0.38050725252075945,1.3792638291618577,1.6125425891894487,-0.090646498516781082,0.090646498516781082,-1.6125425891894487,2.5811053264524411,0.0
709640.0783812654,4095767.5119837918,-27500.0,-0.53493120978598563,0.34180412409274813,1.675316038885617,-0.12448541422205119,-0.84914014005465199,0.35604263130441627,1.3632323891878142,1.6570820622953772,-0.35865748171719825,0.35865748171719825,-1.6570820622953772,2.5039672062584977,0.0
714640.0783812654,4095767.5119837918,-27500.0,-0.55626373465628387,0.60989092947553392,1.4090236193079884,-0.24575681483118167,-0.72649464620066728,0.31479244541693391,1.3376174410123078,1.6150645099451109,-0.62398731653539341,0.62398731653539341,-1.6150645099451109,2.4061776833304536,0.0
719640.0783812654,4095767.5119837918,-27500.0,-0.52325323237310684,0.85304368693481269,1.0415017882256714,-0.35573427290990756,-0.55780719999769346,0.25660338496627322,1.3100311915997005,1.4709897817138233,-0.86279322688706417,0.86279322688706417,-1.4709897817138233,2.3092180261080082,0.0
724640.0783812654,4095767.5119837918,-27500.0,-0.43825190079943926,1.0448917493094187,0.58495570339926761,-0.44303758781857805,-0.34830465838051733,0.18304998832847105,1.2901992902790642,1.21833620974096,-1.0502705841798066,1.0502705841798066,-1.21833620974096,2.2417494602205172,0.0
729640.0783812654,4095767.5119837918,-27500.0,-0.31195797801545599,1.1617654457123223,0.063719972075022391,-0.49741088923361371,-0.10844114184008177,0.097548897411614946,1.2874791271283503,0.86269687585893706,-1.1646885420873909,1.1646885420873909,-0.86269687585893706,2.231953219529152,0.0
734640.0783812654,4095767.5119837918,-27500.0,-0.16248873505290554,1.1872082815388241,-0.48764598411693039,-0.5115927948383685,0.14687121564388425,0.0051334472613863754,1.3073091763823912,0.42299639108419412,-1.1915566881108082,1.1915566881108082,-0.42299639108419412,2.29491035483196,0.0
739640.0783812654,4095767.5119837918,-27500.0,-0.012543519231735193,1.1155630237184961,-1.028679194343443,-0.48282216686819102,0.40003749259664001,-0.088120761898624472,1.3485405479902197,-0.069955305761249309,-1.12679747798588,1.12679747798588,0.069955305761249309,2.4237019614453885,0.0
744640.0783812654,4095767.5119837918,-27500.0,0.11476491186244339,0.95352327212506782,-1.5189506222455105,-0.41353119534770005,0.6332462559846328,-0.17592200808002861,1.4036466814026021,-0.57757945066457328,-0.97792847821594386,0.97792847821594386,0.57757945066457328,2.5927344826118066,0.0
749640.0783812654,4095767.5119837918,-27500.0,0.2003091726838189,0.71909070063592584,-1.9242138434788727,-0.31098944406962042,0.83106376482892919,-0.25265592574519269,1.4616201235076576,-1.0594574475795806,-0.7628057084041544,0.7628057084041544,1.0594574475795806,2.7694510653368272,0.0
754640.0783812654,4095767.5119837918,-27500.0,0.23235023169252705,0.43818491063926807,-2.2212277168300463,-0.18597857079334601,0.98252861492411303,-0.31413418166558632,1.5115119309824148,-1.4795950494460584,-0.50624008309461899,0.50624008309461899,1.4795950494460584,2.9246739013513565,0.0
759640.0783812654,4095767.5119837918,-27500.0,0.20807106754396437,0.13988552879584606,-2.4001515011874814,-0.050872185969001116,1.0822808404297672,-0.35803325464509955,1.5450554751335384,-1.8114594377150093,-0.23545926323223332,0.23545926323223332,1.8114594377150093,3.0376366267792188,0.0
764640.0783812654,4095767.5119837918,-27500.0,0.13302885120773761,-0.14838714361751001,-2.4642030187355708,0.082363123414033262,1.1305688493344364,-0.38395798158081068,1.559255992089392,-2.0407040241711698,0.024352259548648503,-0.024352259548648503,2.0407040241711698,3.0969532040040724,0.0
769640.0783812654,4095767.5119837918,-27500.0,0.018973183502762808,-0.40460823228660092,-2.4270769392598961,0.20377748298144269,1.1323036981948198,-0.39317387109835894,1.5618581974886512,-2.1652909873068418,0.25339653748053559,-0.25339653748053559,2.1652909873068418,3.0995045235699004,0.0
774640.0783812654,4095767.5119837918,-27500.0,-0.11913213785843188,-0.61417317241431946,-2.3091211378227019,0.30638277259075108,1.0955446328729639,-0.38812831272017423,1.5438091067411821,-2.1934766277015543,0.43895870980859009,-0.43895870980859009,2.1934766277015543,3.0484756015239713,0.0
779640.0783812654,4095767.5119837918,-27500.0,-0.26602002974459077,-0.77018125059345144,-2.1333488194580874,0.38639189848351618,1.029850347389752,-0.37190412466396072,1.5003904455544466,-2.1405678005999658,0.57548574682463438,-0.57548574682463438,2.1405678005999658,2.9512059602184011,0.0
784640.0783812654,4095767.5119837918,-27500.0,-0.40835069837161492,-0.87239201736860894,-1.9221058125835484,0.44289424424463941,0.94484300927808451,-0.34772513804766259,1.4361952756552911,-2.0254138076605464,0.66347425486882772,-0.66347425486882772,2.0254138076605464,2.8172249863234615,0.0
789640.0783812654,4095767.5119837918,-27500.0,-0.53600432249664587,-0.92545568783973187,-1.694808251469099,0.47719603112373221,0.84917797540972451,-0.31858531868978818,1.3568105925748157,-1.8673669164976885,0.70774465814236331,-0.70774465814236331,1.8673669164976885,2.6566719995986254,0.0
699640.0783812654,4100767.5119837918,-27500.0,-0.33339495066333447,-0.077765209017760017,1.6514396697173579,0.053286519818307641,-0.78153845284046608,0.29892340439835818,1.175181752813653,1.3127135890611448,0.09178237561613789,-0.09178237561613789,-1.3127135890611448,2.2233792552710501,0.0
704640.0783812654,4100767.5119837918,-27500.0,-0.41272820354552203,0.13142713969366684,1.5664948660019935,-0.037839159026708799,-0.74352058509055852,0.28804292089877004,1.1686813267829006,1.38616480810547,-0.11992189222047445,0.11992189222047445,-1.38616480810547,2.1762364343708271,0.0
709640.0783812654,4100767.5119837918,-27500.0,-0.45952138077683496,0.35155040296577889,1.4058834247509042,-0.13305638073903284,-0.67280384345285749,0.26604424781878927,1.1521172459271092,1.4038024520799501,-0.34137318953714535,0.34137318953714535,-1.4038024520799501,2.1058435492017069,0.0
714640.0783812654,4100767.5119837918,-27500.0,-0.46717313804197802,0.56658269550417073,1.1650277802533033,-0.22569958830004519,-0.56750638308773593,0.2321737545609483,1.1295521248008231,1.3514241236872468,-0.55702235112125176,0.55702235112125176,-1.3514241236872468,2.0233018863013492,0.0
719640.0783812654,4100767.5119837918,-27500.0,-0.4331993313812717,0.75777191809622368,0.84641876690405871,-0.30803150030515419,-0.42864746273025067,0.18661687679185873,1.1071087062556129,1.2190375217998206,-0.74893444972109458,0.74893444972109458,-1.2190375217998206,1.9460183886094768,0.0
724640.0783812654,4100767.5119837918,-27500.0,-0.3604883589747353,0.90590754510687099,0.46092245105324192,-0.37214598951798683,-0.26067135505621103,0.13068340821405935,1.0921241898499852,1.0034058206594032,-0.89898882137236247,0.89898882137236247,-1.0034058206594032,1.8957435596601457,0.0
729640.0783812654,4100767.5119837918,-27500.0,-0.25767767292672838,0.99422025981494333,0.027828336622589298,-0.41111346501523405,-0.07147542625230574,0.066836697433360237,1.0912883336866952,0.70992429093456799,-0.99162077335572585,0.99162077335572585,-0.70992429093456799,1.8926075354494087,0.0
734640.0783812654,4100767.5119837918,-27500.0,-0.13835048573924594,1.0113304445715858,-0.42667654441006864,-0.42014741996886662,0.1281813803174271,-0.0014762372984050592,1.108225098268977,0.3531967358353364,-1.0165473610468436,1.0165473610468436,-0.3531967358353364,1.9464227842976942,0.0
739640.0783812654,4100767.5119837918,-27500.0,-0.019061456776963179,0.95351724130888926,-0.87253130446537253,-0.39751368614246102,0.32586399692037538,-0.070190084238989273,1.1418247011167841,-0.044081391710374229,-0.97079720815593129,0.97079720815593129,0.044081391710374229,2.0512403538993929,0.0
744640.0783812654,4100767.5119837918,-27500.0,0.083426969479954205,0.82566567033896143,-1.2797953121714229,-0.34493445294063174,0.50904198963819702,-0.1351232279945784,1.1865016841300986,-0.45389061170895345,-0.85946462410511759,0.85946462410511759,0.45389061170895345,2.1880787574491034,0.0
749640.0783812654,4100767.5119837918,-27500.0,0.15503194315491109,0.64057728111123402,-1.6227526190480404,-0.2673600789935619,0.66673682397187672,-0.1925142374223999,1.2341659199033013,-0.84677584804530803,-0.69492948778335673,0.69492948778335673,0.84677584804530803,2.3329209233971699,0.0
754640.0783812654,4100767.5119837918,-27500.0,0.18663228029692516,0.41679382131815929,-1.8831995948182132,-0.17215572746877175,0.79087533952540723,-0.23947745299810649,1.2766128967382859,-1.1959783250242344,-0.49472033558969114,0.49472033558969114,1.1959783250242344,2.4638006103897121,0.0
759640.0783812654,4100767.5119837918,-27500.0,0.17521046924686398,0.1755027909541233,-2.0522339186988643,-0.06791045619024258,0.87707609292153699,-0.2742866310730811,1.3073216263744243,-1.4808779043799394,-0.27857898792294056,0.27857898792294056,1.4808779043799394,2.5644400847910069,0.0
764640.0783812654,4100767.5119837918,-27500.0,0.12368612990776166,-0.062700700200079326,-2.1302942907671341,0.036839749999472711,0.92475477791713079,-0.29644386620472735,1.3228759877898899,-1.6890501203071728,-0.065456056721822753,0.065456056721822753,1.6890501203071728,2.6251384721271345,0.0
769640.0783812654,4100767.5119837918,-27500.0,0.039658487555760617,-0.28047516024973335,-2.12570542235947,0.1346955244464022,0.93662984058801879,-0.30655277847798501,1.3290433353599849,-1.8167008033375764,0.12890185834249102,-0.12890185834249102,1.8167008033375764,2.6422043253172824,0.0
774640.0783812654,4100767.5119837918,-27500.0,-0.066474620876963139,-0.46537489054277947,-2.0522690239004642,0.22010323145213881,0.91782332326506033,-0.30605288715473361,1.3231670596606668,-1.8676603723049623,0.29338742098857729,-0.29338742098857729,1.8676603723049623,2.6167308991200731,0.0
779640.0783812654,4100767.5119837918,-27500.0,-0.1834919073954914,-0.61036799138962328,-1.9265726682752302,0.28963355057490398,0.87481303841682101,-0.29689441709636438,1.2967063293387417,-1.8514393586279483,0.42191934972824274,-0.42191934972824274,1.8514393586279483,2.5531792979357273,0.0
709640.0783812654,4105767.5119837918,-27500.0,-0.39460795656973585,0.34881312117551094,1.1801425295019874,-0.13305422311983206,-0.53518736646072684,0.20027540515579811,0.97937574314531062,1.1919526837492955,-0.32200227903538609,0.32200227903538609,-1.1919526837492955,1.7816652478644557,0.0
714640.0783812654,4105767.5119837918,-27500.0,-0.39374720034459088,0.52182231620647046,0.96425904001306573,-0.20422514176915307,-0.44533569160043496,0.17263202889712229,0.95986678042627538,1.135075740015002,-0.49815366651045273,0.49815366651045273,-1.135075740015002,1.7125451240047456,0.0
719640.0783812654,4105767.5119837918,-27500.0,-0.36086564964512602,0.67293721413548846,0.6884014730551532,-0.26633492518105323,-0.3308402156374029,0.13684366592419681,0.94171627349055742,1.0151976552220703,-0.65342632646298981,0.65342632646298981,-1.0151976552220703,1.6511051270478074,0.0
724640.0783812654,4105767.5119837918,-27500.0,-0.29889389985809511,0.78807060810686325,0.36196424598260413,-0.31384029104359856,-0.19537572422216679,0.093960263829171123,0.93047309479755602,0.83100385001066435,-0.77446662224520513,0.77446662224520513,-0.83100385001066435,1.6138819859051117,0.0
729640.0783812654,4105767.5119837918,-27500.0,-0.21475913560837598,0.85522483438570041,0.00024126164629219364,-0.34200106574807992,-0.044924050157066922,0.045764255825751311,0.93094950102344587,0.58737854296789216,-0.84999855172802841,0.84999855172802841,-0.58737854296789216,1.6153210905165856,0.0
734640.0783812654,4105767.5119837918,-27500.0,-0.11872906473021042,0.86644127508441249,-0.37676647773600125,-0.34761824915629008,0.11266961138527702,-0.0053531172236051233,0.94556340213451762,0.29564740180187343,-0.87263143499228646,0.87263143499228646,-0.29564740180187343,1.6617619453801786,0.0
739640.0783812654,4105767.5119837918,-27500.0,-0.023026723998511571,0.81925810800363985,-0.74648484608758958,-0.32959291666763241,0.26849702465007935,-0.056627149158699014,0.97328988400332705,-0.027271759913218896,-0.84018031669536453,0.84018031669536453,0.027271759913218896,1.7481218819004567,0.0
744640.0783812654,4105767.5119837918,-27500.0,0.060031341971394703,0.71729673701813723,-1.0864931161456686,-0.28916572785871358,0.41361779840129831,-0.10523080388061599,1.0099180809074266,-0.36075792709654581,-0.75615468682478593,0.75615468682478593,0.36075792709654581,1.8601038004557131,0.0
749640.0783812654,4105767.5119837918,-27500.0,0.11996356842428575,0.56979698745435869,-1.3773071058183517,-0.2297674648927249,0.54012498259132946,-0.14860379481545641,1.0494183555526917,-0.68308243116409773,-0.62926373209404329,0.62926373209404329,0.68308243116409773,1.9797524942453644,0.0
754640.0783812654,4105767.5119837918,-27500.0,0.14967552225176575,0.39019337466300957,-1.604649121242169,-0.15650892553605744,0.64203389612752315,-0.1847353585725148,1.085584837891209,-0.97417917542844701,-0.47204151064588401,0.47204151064588401,0.97417917542844701,2.0903781127445296,0.0
759640.0783812654,4105767.5119837918,-27500.0,0.14630237488449713,0.19406939167061857,-1.7607692129462804,-0.075427870897959104,0.71582812422766651,-0.21234843147791541,1.1132878760236935,-1.2180167083604618,-0.29891848716557445,0.29891848716557445,1.2180167083604618,2.1791893600672165,0.0
764640.0783812654,4105767.5119837918,-27500.0,0.11121800583689768,-0.0030380007151012477,-1.8446497272570417,0.0073369935103972106,0.76059183454735424,-0.23096042882264331,1.1293347397484246,-1.4041365777140129,-0.12418402342301149,0.12418402342301149,1.4041365777140129,2.2380656626425348,0.0
769640.0783812654,4105767.5119837918,-27500.0,0.049311448967188823,-0.18753467648698149,-1.8611867209548822,0.086279279107569884,0.77775248346270454,-0.24082425880920205,1.1366968057038516,-1.5281563250015426,0.039747784079352422,-0.039747784079352422,1.5281563250015426,2.2632753104138836,0.0
729640.0783812654,4110767.5119837918,-27500.0,-0.18052499230903649,0.73932964758729192,-0.020522447427272519,-0.2862965416514538,-0.025980359895168333,0.031235914824184488,0.79902505895303022,0.4886759267149331,-0.73324051722582306,0.73324051722582306,-0.4886759267149331,1.3871943851173067,0.0
734640.0783812654,4110767.5119837918,-27500.0,-0.1026521545758642,0.74638596063322094,-0.33516823953665736,-0.28964685113544936,0.099515803151111637,-0.0074552985962307158,0.81173230698450571,0.24828653717606897,-0.75353597576716025,0.75353597576716025,-0.24828653717606897,1.4275619280600287,0.0
739640.0783812654,4110767.5119837918,-27500.0,-0.025256928555332382,0.7074893169241484,-0.64364156099719749,-0.27513753157834114,0.22346046352536,-0.046170708573428393,0.83486112895400766,-0.016322631110101571,-0.73047833311114108,0.73047833311114108,0.016322631110101571,1.4994776758847776,0.0
744640.0783812654,4110767.5119837918,-27500.0,0.042499366104541761,0.62536238915162312,-0.92897379018421045,-0.2436760666989404,0.33938949734587687,-0.082968328085881754,0.86519226804882987,-0.28978637468066037,-0.66652241073534546,0.66652241073534546,0.28978637468066037,1.5920231974615153,0.0
749640.0783812654,4110767.5119837918,-27500.0,0.092733364637451854,0.50676728261319293,-1.1762699820963831,-0.19767901007859229,0.4415396917771417,-0.11607911327159308,0.89817286603024482,-0.55588836294925281,-0.56787959514091435,0.56787959514091435,0.55588836294925281,1.6916058994778369,0.0
709640.0783812654,3920767.5119837918,-32500.0,0.10945072256459064,-0.067983755367181972,-1.6622624078046684,-0.087689309468316712,-0.93706089790882685,-0.41236791955751834,1.1582710697879406,-0.27190866352710075,-0.82557084235017231,0.82557084235017231,0.27190866352710075,2.2711081367485475,0.0
714640.0783812654,3920767.5119837918,-32500.0,0.15146467446031764,0.10863394482873927,-1.6119719451895969,0.0012199499753868695,-0.91449486134634839,-0.40537751573037001,1.1452655679958368,-0.15340845321382435,-0.9576697099396575,0.9576697099396575,0.15340845321382435,2.2320701260887787,0.0
719640.0783812654,3920767.5119837918,-32500.0,0.16569195014772084,0.28911992137785947,-1.501330416232858,0.092247804065264283,-0.86245442195831223,-0.38690905043280804,1.1201377948780735,-0.018127856524536745,-1.0671261463249126,1.0671261463249126,0.018127856524536745,2.1612302184050698,0.0
724640.0783812654,3920767.5119837918,-32500.0,0.14967065409015085,0.46062923311644871,-1.3293863357726448,0.17944604591252092,-0.78040520697552085,-0.35666579957834699,1.0843051017073317,0.1260874842091666,-1.1419060256425291,1.1419060256425291,-0.1260874842091666,2.0628434490197334,0.0
729640.0783812654,3920767.5119837918,-32500.0,0.10439839670114177,0.60966226982682348,-1.100464593946177,0.2565516766010178,-0.67023527549643547,-0.31525510100380699,1.0407445433180826,0.26948217750488762,-1.1714171106059377,1.1714171106059377,-0.26948217750488762,1.9448252949039195,0.0
734640.0783812654,3920767.5119837918,-32500.0,0.034572050508281417,0.72378692540075718,-0.82430609956444245,0.3177457626413806,-0.53632988948510751,-0.2642270287930697,0.99388696578775171,0.40145050164351698,-1.1481425524673334,1.1481425524673334,-0.40145050164351698,1.8187246812610551,0.0
739640.0783812654,3920767.5119837918,-32500.0,-0.051832695361646024,0.79338120612977414,-0.51535540276574576,0.35842598771690709,-0.38527034253212988,-0.20597546679138426,0.94902546624816497,0.51187267930256874,-1.06898644321639,1.06898644321639,-0.51187267930256874,1.698891730146505,0.0
744640.0783812654,3920767.5119837918,-32500.0,-0.14461572398446254,0.81302883813172766,-0.19124867129080128,0.3758360013039343,-0.22517639931603023,-0.14350644166734994,0.911326275515425,0.59247435629759437,-0.93600986227642358,0.93600986227642358,-0.59247435629759437,1.6003582718698484,0.0
749640.0783812654,3920767.5119837918,-32500.0,-0.23284207918997685,0.78225646931829385,0.12924324846257618,0.36941658065052041,-0.064798974018524413,-0.080110234619053838,0.88458854832564093,0.63792561158849792,-0.75635712933056332,0.75635712933056332,-0.63792561158849792,1.5352227667390645,0.0
754640.0783812654,3920767.5119837918,-32500.0,-0.30644659543815378,0.70545506354968335,0.42842063996693658,0.34080673430481223,0.08746786998723112,-0.018997393084303166,0.8701814014272824,0.64644986564546947,-0.54136391661273253,0.54136391661273253,-0.64644986564546947,1.5085821198393936,0.0
759640.0783812654,3920767.5119837918,-32500.0,-0.35760831817524225,0.59103051703930953,0.69158438259489774,0.29350746936115163,0.2244706733221824,0.037034141163079695,0.86672457957002158,0.61983617670680191,-0.30503830512956309,0.30503830512956309,-0.61983617670680191,1.51658971900213,0.0
764640.0783812654,3920767.5119837918,-32500.0,-0.38162846052893107,0.45000915033224675,0.90835441270021144,0.23229816840447387,0.3409262584626932,0.085844702088439181,0.8707352837504041,0.56289727988569727,-0.062244691870310176,0.062244691870310176,-0.56289727988569727,1.5484375227725258,0.0
699640.0783812654,3925767.5119837918,-32500.0,-0.069071939653041495,-0.46653087911814245,-1.7660867767411501,-0.31729383647518061,-1.0577301190064308,-0.49188181800404163,1.3142124582480432,-0.48291896140358215,-0.56901068881622885,0.56901068881622885,0.48291896140358215,2.5792385014121963,0.0
704640.0783812654,3925767.5119837918,-32500.0,0.032724416572522258,-0.30982946202388129,-1.8424421136448965,-0.23367489226443547,-1.1001388667841709,-0.51169829884953033,1.3359924532085217,-0.40544670949229572,-0.7388107277176772,0.7388107277176772,0.40544670949229572,2.6219217543495703,0.0
709640.0783812654,3925767.5119837918,-32500.0,0.11714725939349355,-0.12242723414307877,-1.8648896768387675,-0.13455455395657365,-1.1145176246266406,-0.52007100293543218,1.3410184230979116,-0.29737954837401659,-0.91168875552706463,0.91168875552706463,0.29737954837401659,2.6262627575736124,0.0
714640.0783812654,3925767.5119837918,-32500.0,0.17478930675752988,0.086442744613613828,-1.8214812967115424,-0.024485359098647384,-1.0949265646813726,-0.51454047873399689,1.3295256015044106,-0.16139024516612271,-1.0744891437280719,1.0744891437280719,0.16139024516612271,2.589399790959793,0.0
719640.0783812654,3925767.5119837918,-32500.0,0.19811904937272834,0.30335446580301262,-1.7040400076098647,0.089996984527696389,-1.0372668445818627,-0.4933557509717556,1.3022254425342363,-0.0037788067488297994,-1.2117760574053467,1.2117760574053467,0.0037788067488297994,2.5118099274165693,0.0
724640.0783812654,3925767.5119837918,-32500.0,0.18307640940527331,0.51173463191849822,-1.5101072048094448,0.20086101052944558,-0.94020289487399678,-0.45584186896283513,1.2609188353971579,0.16562794982106888,-1.3075196316605584,1.3075196316605584,-0.16562794982106888,2.3983073710177911,0.0
729640.0783812654,3925767.5119837918,-32500.0,0.1303038875931315,0.69374068563368863,-1.2443200728026014,0.29944562927547425,-0.80582030440261609,-0.40266960165186705,1.2093618258227568,0.33427280262920667,-1.3473312529058026,1.3473312529058026,-0.33427280262920667,2.2587350894936256,0.0
734640.0783812654,3925767.5119837918,-32500.0,0.045624208809083654,0.83271409724538237,-0.91877572685885767,0.37759072450166242,-0.63981620869854117,-0.33594772521095223,1.1532878239660536,0.48833345108003123,-1.3208537854022253,1.3208537854022253,-0.48833345108003123,2.1080164467596734,0.0
739640.0783812654,3925767.5119837918,-32500.0,-0.060480880416971632,0.91572869879382635,-0.55212365154737941,0.42881904199774146,-0.45110128404149502,-0.25908854766292005,1.0996511406985887,0.61462846236410495,-1.2237722141184961,1.2237722141184961,-0.61462846236410495,1.9650254866327463,0.0
744640.0783812654,3925767.5119837918,-32500.0,-0.17437521017157243,0.93565035427207865,-0.16743812081891357,0.44930871915037751,-0.25083133164674087,-0.17644937469622274,1.0552259978206997,0.70257098012025221,-1.0589231490501629,1.0589231490501629,-0.70257098012025221,1.8495338916875492,0.0
749640.0783812654,3925767.5119837918,-32500.0,-0.28144971147894376,0.89220463765635227,0.21074081272605846,0.43842810396766468,-0.051038373302586884,-0.092811003210177628,1.0248235059127226,0.74572268495614058,-0.83617397634959134,0.83617397634959134,-0.74572268495614058,1.7769495180581298,0.0
754640.0783812654,3925767.5119837918,-32500.0,-0.3684674373039466,0.79180256602141086,0.5595727756161738,0.39871291078084797,0.1368590805795738,-0.012797966596471536,1.0098222907180763,0.74259094233251455,-0.57106129261808736,0.57106129261808736,-0.74259094233251455,1.7526108889371728,0.0
759640.0783812654,3925767.5119837918,-32500.0,-0.42552095617428159,0.646211672633345,0.8606211581536326,0.335313272472056,0.30336157703550964,0.059642375072400798,1.0078752142610305,0.69652004825384051,-0.28250905638424856,0.28250905638424856,-0.69652004825384051,1.7696650226766653,0.0
764640.0783812654,3925767.5119837918,-32500.0,-0.44719408103842612,0.47045355603841443,1.1015903078763558,0.25507006302386021,0.44177131049407309,0.12160714278781078,1.014022434490971,0.61477343266111117,0.009833247292885261,-0.009833247292885261,-0.61477343266111117,1.8127230865088495,0.0
769640.0783812654,3925767.5119837918,-32500.0,-0.43277632067121441,0.28045787743981393,1.2768848364567535,0.16545155885991822,0.54854092745073946,0.17140381462597432,1.0224921911678875,0.50709645182068652,0.28805421317952795,-0.28805421317952795,-0.50709645182068652,1.8643539267427653,0.0
774640.0783812654,3925767.5119837918,-32500.0,-0.3856413266988386,0.090974292860797876,1.3870876531163399,0.073576230215471036,0.62311604903298967,0.20851944105723838,1.0282229545223953,0.38412832334969055,0.53780186777828298,-0.53780186777828298,-0.38412832334969055,1.9100259748696606,0.0
689640.0783812654,3930767.5119837918,-32500.0,-0.38027452147275703,-0.79588572292158122,-1.5983755924867442,-0.5401732350402505,-1.0429936630049168,-0.5219801032039838,1.3869167373667546,-0.58681863400061007,-0.25832303999014489,0.25832303999014489,0.58681863400061007,2.7148498921380084,0.0
694640.0783812654,3930767.5119837918,-32500.0,-0.25162861920615776,-0.71280536015230378,-1.7774520275920611,-0.4911606279247539,-1.1465591786536302,-0.57036091021918944,1.4562954751338983,-0.57188981113857973,-0.41266658007080936,0.41266658007080936,0.57188981113857973,2.8522241739381538,0.0
699640.0783812654,3930767.5119837918,-32500.0,-0.11755368436683748,-0.5843086757932201,-1.9301954788993283,-0.41773526140689948,-1.2348069894585987,-0.61211172305441397,1.5100750983772113,-0.52515412813710094,-0.59371309537876427,0.59371309537876427,0.52515412813710094,2.9590208504683653,0.0
704640.0783812654,3930767.5119837918,-32500.0,0.010973513726713157,-0.40981985382553121,-2.0392338655042233,-0.31978687000314321,-1.2985100482910374,-0.64325409548801893,1.5446889933361414,-0.44215989308653675,-0.7946240762335337,0.7946240762335337,0.44215989308653675,3.026399625196496,0.0
709640.0783812654,3930767.5119837918,-32500.0,0.12114187174165097,-0.19384822546642536,-2.086362404193955,-0.19977427850957608,-1.3280803043946787,-0.65963642289301472,1.5580648328915898,-0.32132522441761274,-1.0037408234056568,1.0037408234056568,0.32132522441761274,3.0467968466994257,0.0
714640.0783812654,3930767.5119837918,-32500.0,0.19994405806801605,0.053071660077317021,-2.0549007959304983,-0.063167145062438909,-1.3147621703072736,-0.65742755263583763,1.5498191087830553,-0.16515713409957256,-1.2046602384843195,1.2046602384843195,0.16515713409957256,3.0153590485137718,0.0
719640.0783812654,3930767.5119837918,-32500.0,0.23640028207603059,0.31434797390437952,-1.9325967538606665,0.081552084145929196,-1.2520869901089149,-0.63372202304334735,1.520748372616642,0.018937766114804022,-1.377332225101177,1.377332225101177,-0.018937766114804022,2.9315405391774996,0.0
724640.0783812654,3930767.5119837918,-32500.0,0.22396698542943141,0.56854986809876651,-1.7145534755936891,0.2234851715557209,-1.1373342616467474,-0.58715493737370317,1.4731624988428145,0.21861928949335396,-1.5002973318523103,1.5002973318523103,-0.21861928949335396,2.8006383735010765,0.0
729640.0783812654,3930767.5119837918,-32500.0,0.1625200243183936,0.79194423059059393,-1.4054514065902586,0.35054503810565601,-0.97264781701311165,-0.5183835036207679,1.4118753514488827,0.41761473878604904,-1.5538596184629352,1.5538596184629352,-0.41761473878604904,2.6349251480131253,0.0
734640.0783812654,3930767.5119837918,-32500.0,0.059258969654237437,0.96201521838165782,-1.0203259138697953,0.45115662331945777,-0.76545123621572453,-0.43028841390375827,1.3443996262842137,0.59775969404161944,-1.5236175119462738,1.5236175119462738,-0.59775969404161944,2.4538634291633756,0.0
739640.0783812654,3930767.5119837918,-32500.0,-0.071916253679285155,1.0612339141903906,-0.58342877011837957,0.51609079540356595,-0.52793088323045412,-0.32779577009461408,1.2799819036414271,0.74174807130415688,-1.4035057748481703,1.4035057748481703,-0.74174807130415688,2.2825573919702138,0.0
744640.0783812654,3930767.5119837918,-32500.0,-0.21257752784405287,1.0801383678841419,-0.12520403688574264,0.53999139077573699,-0.27559145699548443,-0.21731385988667723,1.2275936510912593,0.8359747451485553,-1.1974903743712362,1.1974903743712362,-0.8359747451485553,2.1472752806282291,0.0
749640.0783812654,3930767.5119837918,-32500.0,-0.34301043732336828,1.0188967525561556,0.32202188218450239,0.52220150505556906,-0.025158596674771615,-0.10588840648547931,1.1933320219732892,0.8727531979574682,-0.91936557959663967,0.91936557959663967,-0.8727531979574682,2.0676641185258888,0.0
754640.0783812654,3930767.5119837918,-32500.0,-0.44568743023079987,0.88695101003371768,0.72863351089674844,0.46668528726966307,0.20769987144812874,-0.00026281578530290887,1.1783826603589111,0.85134558244573499,-0.59064263759332758,0.59064263759332758,-0.85134558244573499,2.0487095382087981,0.0
759640.0783812654,3930767.5119837918,-32500.0,-0.50807807369817559,0.70091069387325611,1.0715390812373906,0.38110421060884597,0.41032217848115193,0.093948343183992922,1.1788675069425734,0.77760078413016642,-0.23707763720711345,0.23707763720711345,-0.77760078413016642,2.0787728201534792,0.0
764640.0783812654,3930767.5119837918,-32500.0,-0.52416640277732396,0.48135096114123066,1.3364351669317138,0.27533566307198232,0.57428605288316725,0.17281031301727012,1.1877335321782885,0.66240812128309035,0.1152632729837757,-0.1152632729837757,-0.66240812128309035,2.1360612372229615,0.0
769640.0783812654,3930767.5119837918,-32500.0,-0.4944954348216129,0.24938327085568668,1.5182643638858335,0.15983272633004744,0.69577628398278313,0.23427193124199799,1.1973842208470145,0.51947379942348593,0.44348130081843601,-0.44348130081843601,-0.51947379942348593,2.1979535219686483,0.0
774640.0783812654,3930767.5119837918,-32500.0,-0.42499369683554683,0.023772001916712096,1.6201102380140882,0.044193524911334367,0.77517481886759376,0.27804732292909118,1.2016425155651675,0.36301751730835402,0.73021481541733357,-0.73021481541733357,-0.36301751730835402,2.2470352357060785,0.0
779640.0783812654,3930767.5119837918,-32500.0,-0.32510137839800002,-0.18093770789650182,1.6510962604989441,-0.063823754735953017,0.81612441117687851,0.30526942512078598,1.1965741716987006,0.20587708217147621,0.96466027669018106,-0.96466027669018106,-0.20587708217147621,2.2727956585109248,0.0
784640.0783812654,3930767.5119837918,-32500.0,-0.20575557816864529,-0.35517720265928776,1.6239356541365713,-0.15876841038132253,0.82436912777493998,0.31803506119437075,1.1804465513666693,0.058286696659795467,1.1423788219267617,-1.1423788219267617,-0.058286696659795467,2.2708103478295492,0.0
684640.0783812654,3935767.5119837918,-32500.0,-0.63109146548475825,-0.96222937539863085,-1.4472682563357742,-0.697167833379429,-1.0399723664058818,-0.56490611255699552,1.4646359713227075,-0.59515205726847276,-0.098548299622276014,0.098548299622276014,0.59515205726847276,2.8644295503329329,0.0
689640.0783812654,3935767.5119837918,-32500.0,-0.50124612483883468,-0.93429415587325149,-1.6743760983350078,-0.67702828614105226,-1.1813680546256975,-0.63512518475295621,1.5691968142932329,-0.61596334018574594,-0.23232372122513445,0.23232372122513445,0.61596334018574594,3.0688450678817589,0.0
694640.0783812654,3935767.5119837918,-32500.0,-0.35004767419293992,-0.85770782571087856,-1.8952414551842709,-0.62873685865424978,-1.3176982331610128,-0.70300351761695123,1.6620418580499223,-0.60821534853495729,-0.40361754434486374,0.40361754434486374,0.60821534853495729,3.2509568791624051,0.0
699640.0783812654,3935767.5119837918,-32500.0,-0.18681771072457884,-0.72513651534086609,-2.0919540685938309,-0.54853251600639474,-1.4386697344160413,-0.7638174018868692,1.7374257133943884,-0.56368031833314369,-0.61096416529359832,0.61096416529359832,0.56368031833314369,3.3989196181624033,0.0
704640.0783812654,3935767.5119837918,-32500.0,-0.025058065298475655,-0.53350650302760338,-2.2426420957206874,-0.43499102589093741,-1.5319145673895451,-0.8118945568420074,1.790007576779902,-0.47571436420657542,-0.84755589488997629,0.84755589488997629,0.47571436420657542,3.5005343060287015,0.0
709640.0783812654,3935767.5119837918,-32500.0,0.11847871308837546,-0.28621016675224936,-2.3232735757666378,-0.29014809949253878,-1.5839885102081179,-0.84105003405707301,1.8159453870724207,-0.3410584348991762,-1.1000112987572308,1.1000112987572308,0.3410584348991762,3.5447543611865511,0.0
714640.0783812654,3935767.5119837918,-32500.0,0.22586695876092192,0.0051663796735013142,-2.3107208986741581,-0.12036542131698506,-1.5820208700757556,-0.84530970268147376,1.8136541836397864,-0.16168695684372214,-1.3480555656686262,1.3480555656686262,0.16168695684372214,3.5237022241347709,0.0
719640.0783812654,3935767.5119837918,-32500.0,0.28113188188945787,0.32031138417611416,-2.186846088150356,0.063416233422366228,-1.515883167270891,-0.8198670350357421,1.7837111445402549,0.053808588670134605,-1.565666407483973,1.565666407483973,-0.053808588670134605,3.4350314610774375,0.0
724640.0783812654,3935767.5119837918,-32500.0,0.27388456939889744,0.63149411787213938,-1.9428921408370092,0.24635289156012738,-1.380507563988034,-0.76211655372954112,1.7290332504221604,0.28990424695165418,-1.7239984561417327,1.7239984561417327,-0.28990424695165418,3.2843022479035513,0.0
729640.0783812654,3935767.5119837918,-32500.0,0.20252310761761516,0.90696298589247337,-1.5830562451375478,0.41142600837132798,-1.1777820734468789,-0.67251770104945607,1.6558856090680776,0.52537252762321041,-1.7958948754399509,1.7958948754399509,-0.52537252762321041,3.0868441381243592,0.0
734640.0783812654,3935767.5119837918,-32500.0,0.075897180757718188,1.1160249109737173,-1.1260122284396055,0.54202403995219683,-0.91739543014797731,-0.55501535483377007,1.5742535961783557,0.73614238780095198,-1.7611495648138242,1.7611495648138242,-0.73614238780095198,2.8682896042318928,0.0
739640.0783812654,3935767.5119837918,-32500.0,-0.087388118712904889,1.2346860742641712,-0.60352064224476565,0.62482957996645061,-0.61618714109491002,-0.41681608828252892,1.4965936767991357,0.89931466149991546,-1.6111674139804271,1.6111674139804271,-0.89931466149991546,2.6624297129177146,0.0
744640.0783812654,3935767.5119837918,-32500.0,-0.26214611050662551,1.2503197703113764,-0.056086164849688418,0.65225693935179796,-0.29596426774789186,-0.26748932279444776,1.4349079419646116,0.99735045474046058,-1.3515879590075872,1.3515879590075872,-0.99735045474046058,2.5045140737073526,0.0
749640.0783812654,3935767.5119837918,-32500.0,-0.42150047167083871,1.1639789521448338,0.47340005917394523,0.62374727093461979,0.019763990731010834,-0.11757243378054862,1.3969002403035919,1.0212632822283105,-1.0019363666528596,1.0019363666528596,-1.0212632822283105,2.4195306720453131,0.0
754640.0783812654,3935767.5119837918,-32500.0,-0.54210017288926449,0.98969536023902938,0.94639845036429271,0.5455687955390317,0.3093233446934352,0.022980392679160397,1.3831564281465099,0.97191654597140675,-0.59229627017811182,0.59229627017811182,-0.97191654597140675,2.4108695522747889,0.0
759640.0783812654,3935767.5119837918,-32500.0,-0.60818164648197348,0.75109746894166896,1.334120606717772,0.4292481953345102,0.55580839574483232,0.14612736520309877,1.3873836997218982,0.85915771594721546,-0.15795876333278352,0.15795876333278352,-0.85915771594721546,2.4593489415648624,0.0
764640.0783812654,3935767.5119837918,-32500.0,-0.61350103267427469,0.47648751821416102,1.6204216168046854,0.2891633651112539,0.74879006188118635,0.24656454413527307,1.3995813195996747,0.69922006408951709,0.26643670780496509,-0.26643670780496509,-0.69922006408951709,2.5343303491693736,0.0
769640.0783812654,3935767.5119837918,-32500.0,-0.56096131694014717,0.19381556216799978,1.8019079129407645,0.13999565500203284,0.88460577130284501,0.32194500586554853,1.4098434219920923,0.51128474253136424,0.65179666364724942,-0.65179666364724942,-0.51128474253136424,2.6068283924884939,0.0
774640.0783812654,3935767.5119837918,-32500.0,-0.46047927382177106,-0.073262601447666817,1.885804925175532,-0.0053568048062906512,0.96545784446885863,0.37256865093449421,1.4108029684898633,0.31416812837708941,0.97756863314817943,-0.97756863314817943,-0.31416812837708941,2.6564950715684037,0.0
779640.0783812654,3935767.5119837918,-32500.0,-0.32600549126030431,-0.30763651057721342,1.8865807404267587,-0.13706924659934266,0.99779294437657329,0.40073315942422433,1.3983636723486901,0.12383779902305869,1.2326219507230696,-1.2326219507230696,-0.12383779902305869,2.6725964620690172,0.0
784640.0783812654,3935767.5119837918,-32500.0,-0.17258626733954271,-0.49929910145696277,1.8223525020430551,-0.24884136858127393,0.99047768947241932,0.40996421959704049,1.3713318935086642,-0.047946279729438213,1.4143935104849694,-1.4143935104849694,0.047946279729438213,2.6521305077673998,0.0
789640.0783812654,3935767.5119837918,-32500.0,-0.014067483298859125,-0.64462209002684123,1.7118209683731416,-0.33767927687864702,0.95316657286869644,0.40430060835191334,1.33061266223787,-0.19393668205885839,1.5269739556500321,-1.5269739556500321,0.19393668205885839,2.5972948418792403,0.0
794640.0783812654,3935767.5119837918,-32500.0,0.13831599700144739,-0.74491120925841792,1.5721051498419716,-0.40326928728514178,0.89508152126023666,0.38773796782488712,1.2783807553975932,-0.3109381025323581,1.5788229471462654,-1.5788229471462654,0.3109381025323581,2.5132475823979967,0.0
674640.0783812654,3940767.5119837918,-32500.0,-0.97847279929350639,-0.99022374026399518,-0.98143162051779853,-0.79647041356638149,-0.82262396705898344,-0.50128357859579264,1.3612559049866879,-0.48289523126934808,0.1045801251438129,-0.1045801251438129,0.48289523126934808,2.6653302468013167,0.0
679640.0783812654,3940767.5119837918,-32500.0,-0.90720048653987739,-1.0560974980492168,-1.2071459034768135,-0.83511453803909574,-0.97901696676258221,-0.58547097891569755,1.4994926510149664,-0.5473219011294701,0.042062165511552285,-0.042062165511552285,0.5473219011294701,2.93320230042867,0.0
684640.0783812654,3940767.5119837918,-32500.0,-0.79989147986081244,-1.0920801897259733,-1.4574877983233245,-0.85405221066537629,-1.1494275972405634,-0.676632249931857,1.6384906388646656,-0.60030942230332962,-0.055640994842116598,0.055640994842116598,0.60030942230332962,3.2028682354311084,0.0
689640.0783812654,3940767.5119837918,-32500.0,-0.65646874510655084,-1.0851340496372774,-1.7238766902776259,-0.84574169862374926,-1.3280892559915523,-0.7718844849320049,1.7728787344057666,-0.63283741666952564,-0.1955467337641672,0.1955467337641672,0.63283741666952564,3.4640053163623228,0.0
694640.0783812654,3940767.5119837918,-32500.0,-0.4812778032385498,-1.0218417217216211,-1.9919460562818196,-0.80257897724724225,-1.5058365802071316,-0.86669989229883382,1.895953531270729,-0.63436677866049695,-0.38255817901848821,0.38255817901848821,0.63436677866049695,3.7035031820296642,0.0
699640.0783812654,3940767.5119837918,-32500.0,-0.28431879278529876,-0.89051923104347375,-2.2408286769069581,-0.7180915925833663,-1.6697666414259429,-0.95474293554397638,2.0000733447550423,-0.5939120824695352,-0.61734778026831605,0.61734778026831605,0.5939120824695352,3.905907066872746,0.0
704640.0783812654,3940767.5119837918,-32500.0,-0.081782828056941828,-0.68413594196942162,-2.4434647409084036,-0.58854963634334012,-1.8034914342468775,-1.0279840349520168,2.0775382974838834,-0.50185721172579767,-0.89393743510087853,0.89393743510087853,0.50185721172579767,4.0545349856654935,0.0
709640.0783812654,3940767.5119837918,-32500.0,0.10469628459444877,-0.4036694327036679,-2.5685006052313231,-0.41478530226275068,-1.8882826220726869,-1.0772305663729911,2.121975862800928,-0.35243878652307314,-1.1975222775860748,1.1975222775860748,0.35243878652307314,4.1334284639856627,0.0
714640.0783812654,3940767.5119837918,-32500.0,0.25055054830345047,-0.061103633629659551,-2.5841471827271731,-0.20379618719183412,-1.905294617061345,-1.0931643274905269,2.129756258418245,-0.14651005928996508,-1.5033846498814549,1.5033846498814549,0.14651005928996508,4.1301692141428958,0.0
719640.0783812654,3940767.5119837918,-32500.0,0.33259920155519329,0.31907108592614197,-2.4638512741715637,0.03046886343967101,-1.8387708172980319,-1.0678465872455234,2.1006484251774089,0.1061597406258098,-1.777864337617423,1.777864337617423,-0.1061597406258098,4.0393743157104867,0.0
724640.0783812654,3940767.5119837918,-32500.0,0.33451943141125096,0.70102481638612391,-2.1928524510368792,0.26775102333417472,-1.67972092673413,-0.99646101592384562,2.0381671776789108,0.38602755583025516,-1.9820827736856907,1.9820827736856907,-0.38602755583025516,3.8663938509776221,0.0
729640.0783812654,3940767.5119837918,-32500.0,0.25202268270078831,1.0420693164317931,-1.7739128768419063,0.48388660836947833,-1.4291426472930184,-0.8788715983576002,1.9505638965384817,0.6652250543945436,-2.0783507266297083,2.0783507266297083,-0.6652250543945436,3.6303895214190716,0.0
734640.0783812654,3940767.5119837918,-32500.0,0.095870022858278933,1.3000212844457855,-1.2301604669779374,0.6547557643399895,-1.0996771757378796,-0.7204809899161988,1.8513199273335375,0.91158852034556226,-2.0380735311632128,2.0380735311632128,-0.91158852034556226,3.3654762706112815,0.0
739640.0783812654,3940767.5119837918,-32500.0,-0.10879631886677242,1.4417380353550979,-0.60347268119525543,0.7608945436237966,-0.71484096250982276,-0.53197941272304816,1.7574579199607712,1.0945925380575601,-1.8489786825960837,1.8489786825960837,-1.0945925380575601,3.1177155055053714,0.0
744640.0783812654,3940767.5119837918,-32500.0,-0.32714771076478238,1.4502873374910648,0.051823085991607919,0.79145228041516125,-0.30568097418306184,-0.32788634281097395,1.6851955696850092,1.1916004247967804,-1.5192313558688466,1.5192313558688466,-1.1916004247967804,2.9348615171184633,0.0
749640.0783812654,3940767.5119837918,-32500.0,-0.52217016630687529,1.3284010689010233,0.67844804120046021,0.74625016347922557,0.094394471840860861,-0.12420025855773612,1.6441752143541133,1.1924928918405757,-1.0768188037831217,1.0768188037831217,-1.1924928918405757,2.8484032857692667,0.0
754640.0783812654,3940767.5119837918,-32500.0,-0.66260256353580993,1.0971223104399139,1.2261584562378194,0.63532044355823525,0.45518646604038793,0.064209632218699284,1.6335993065440686,1.1012229531006137,-0.56422012975443447,0.56422012975443447,-1.1012229531006137,2.8576934860967453,0.0
759640.0783812654,3940767.5119837918,-32500.0,-0.72883594095031279,0.79030345888551501,1.6594052333062193,0.47619797345073844,0.7541567022678185,0.22576767074969029,1.6433836248132334,0.93397503179974817,-0.030058284670583468,0.030058284670583468,-0.93397503179974817,2.9317962936040387,0.0
764640.0783812654,3940767.5119837918,-32500.0,-0.71525717722954951,0.44697481455093702,1.9608910565049524,0.28995931959857307,0.97874297122587539,0.35341783764130774,1.6594257061762216,0.7148070370772639,0.47967147724541209,-0.47967147724541209,-0.7148070370772639,3.0280860274459811,0.0
769640.0783812654,3940767.5119837918,-32500.0,-0.62897030827083866,0.10398273286043204,2.1308300007960539,0.097247078832093131,1.1263388506189256,0.44477853885338819,1.66900086575054,0.47035265175063812,0.92843225950464092,-0.92843225950464092,-0.47035265175063812,3.1101170011652051,0.0
774640.0783812654,3940767.5119837918,-32500.0,-0.48601756873614471,-0.20930007052005239,2.1830471265174527,-0.084742289298691181,1.202460564779265,0.50142833512560947,1.6636339693311608,0.22512959191602366,1.2927376465011586,-1.2927376465011586,-0.22512959191602366,3.1550113018697732,0.0
779640.0783812654,3940767.5119837918,-32500.0,-0.30670024540838364,-0.47347219994984169,2.139655151896334,-0.24386008658481947,1.2179875972710021,0.52770790060556649,1.6394981465495251,-0.0015740674045422454,1.5624709714560643,-1.5624709714560643,0.0015740674045422454,3.1529423038935511,0.0
784640.0783812654,3940767.5119837918,-32500.0,-0.11137841450016178,-0.6790841545296914,2.0258900729046005,-0.37326678240150735,1.1863326373074004,0.52942966043355089,1.596488983522582,-0.19699415486378802,1.7387997345548358,-1.7387997345548358,0.19699415486378802,3.1036395070108571,0.0
789640.0783812654,3940767.5119837918,-32500.0,0.082463577770896065,-0.82494036320140651,1.866106780063167,-0.47074064452722347,1.1211233597477939,0.51277613843765935,1.536932427508326,-0.35468075758132744,1.8308848717937622,-1.8308848717937622,0.35468075758132744,3.0126650551164209,0.0
794640.0783812654,3940767.5119837918,-32500.0,0.26171104060760336,-0.91566234679715242,1.6812825527807296,-0.53750650318877768,1.0346424890051886,0.48352045076428124,1.4644245880906086,-0.47335562385253294,1.8524404811347726,-1.8524404811347726,0.47335562385253294,2.8884279350398634,0.0
799640.0783812654,3940767.5119837918,-32500.0,0.41791048995163038,-0.95925038386581996,1.4879014874436383,-0.57697915894549412,0.93701079053765235,0.44658087775048561,1.3829875183462956,-0.55539928930256044,1.8188254132324402,-1.8188254132324402,0.55539928930256044,2.7401080416975545,0.0
669640.0783812654,3945767.5119837918,-32500.0,-1.1950503432003021,-0.94476786446845928,-0.6996944924654247,-0.85972132128537337,-0.70243477823812595,-0.48457836496188389,1.3265881926769125,-0.36903311057626925,0.16433079973473669,-0.16433079973473669,0.36903311057626925,2.6026095474669115,0.0
674640.0783812654,3945767.5119837918,-32500.0,-1.1732508787652787,-1.0562466637004284,-0.90585648186163581,-0.93487355589507282,-0.86292895723622831,-0.57936758918710796,1.4856290049486454,-0.44534632936814056,0.14011793664196801,-0.14011793664196801,0.44534632936814056,2.9100295457381029,0.0
679640.0783812654,3945767.5119837918,-32500.0,-1.1124802816666992,-1.1526149691432372,-1.1491735687167215,-0.99791461651554059,-1.0476072657398885,-0.68723846732025318,1.6536472414551162,-0.51999484823580722,0.086773866600396488,-0.086773866600396488,0.51999484823580722,3.2347006066220358,0.0
684640.0783812654,3945767.5119837918,-32500.0,-1.006749861888955,-1.2203314504441578,-1.4275479743215318,-1.0401813244112794,-1.2542809328646642,-0.80693095504378243,1.8263860701382011,-0.58529849952036384,-0.0056948083638654889,0.0056948083638654889,0.58529849952036384,3.5685153987650668,0.0
689640.0783812654,3945767.5119837918,-32500.0,-0.8531867505906392,-1.2428554372923841,-1.7335939669399618,-1.051351659128154,-1.4772878067530915,-0.93536535832154133,1.9976585949807306,-0.63080510131700551,-0.14749905289691739,0.14749905289691739,0.63080510131700551,3.8995829508183437,0.0
694640.0783812654,3945767.5119837918,-32500.0,-0.65417419849734815,-1.2018773568113981,-2.0526885690281103,-1.0202434677496333,-1.7063575620093054,-1.0670636591186189,2.1592487488423995,-0.64356618159818835,-0.34720794952234263,0.34720794952234263,0.64356618159818835,4.2118967744162372,0.0
699640.0783812654,3945767.5119837918,-32500.0,-0.41951158656127113,-1.0798038589696319,-2.3613929959188029,-0.93633249052361156,-1.9257454174055846,-1.193706854916226,2.301199903380506,-0.60923881013729819,-0.60895464863012305,0.60895464863012305,0.60923881013729819,4.4855832709541739,0.0
704640.0783812654,3945767.5119837918,-32500.0,-0.16789592522303678,-0.86363417434689793,-2.6270225245474221,-0.79204771754609227,-2.1140929190296935,-1.3040571035494524,2.4127280517239562,-0.51428738125549178,-0.92889521455368285,0.92889521455368285,0.51428738125549178,4.6980824825329002,0.0
709640.0783812654,3945767.5119837918,-32500.0,0.073243998574755401,-0.54990258904378297,-2.8093281017378815,-0.58563991538018667,-2.2455672676669525,-1.3845201051744549,2.4839116950570159,-0.34932750144043689,-1.291587033146459,1.291587033146459,0.34932750144043689,4.8265936151698323,0.0
714640.0783812654,3945767.5119837918,-32500.0,0.27052660611722351,-0.14965915196004662,-2.8651176884688927,-0.32403040114601189,-2.292737283323222,-1.420578973722183,2.5078747445822227,-0.11318951488428164,-1.6675258174949774,1.6675258174949774,0.11318951488428164,4.8519595114021756,0.0
719640.0783812654,3945767.5119837918,-32500.0,0.39044896153581626,0.3082667342131184,-2.7559701285888636,-0.024653169397513327,-2.2312457211815864,-1.3991377201097628,2.4825743419545687,0.18334349505875935,-2.0134697781397888,2.0134697781397888,-0.18334349505875935,4.7638287923356808,0.0
724640.0783812654,3945767.5119837918,-32500.0,0.40756923615815394,0.77778555408375183,-2.4579458963461511,0.28485680587665335,-2.0456242847993367,-1.311463934546556,2.4118765464026688,0.51568433797252256,-2.2769768015254379,2.2769768015254379,-0.51568433797252256,4.5664377692389824,0.0
729640.0783812654,3945767.5119837918,-32500.0,0.31288387795220107,1.201297425890967,-1.9707382517538998,0.56993052325653559,-1.7347738704098099,-1.1560126942779438,2.3067066281566158,0.8470273607826756,-2.4054565780198791,2.4054565780198791,-0.8470273607826756,4.2837264755518403,0.0
734640.0783812654,3945767.5119837918,-32500.0,0.11923869688595123,1.5203897331834189,-1.3228310606124776,0.79514083242903755,-1.3151395408826954,-0.94015890478963404,2.1855659287740865,1.1340508191078307,-2.3581244903067846,2.3581244903067846,-1.1340508191078307,3.9616209952317174,0.0
739640.0783812654,3945767.5119837918,-32500.0,-0.13905603875999417,1.6888915951805283,-0.56978809934168695,0.93167709333602666,-0.8199149873668764,-0.67999207750468049,2.0720800601598306,1.3357908616951866,-2.1173427241179668,2.1173427241179668,-1.3357908616951866,3.6637489338785643,0.0
744640.0783812654,3945767.5119837918,-32500.0,-0.41325865241599619,1.684033031342522,0.21497563733358738,0.96388093577795231,-0.29384705958585755,-0.39790975285711316,1.9883683237903409,1.4230869520009501,-1.69515939287044,1.69515939287044,-1.4230869520009501,3.4553452239726172,0.0
749640.0783812654,3945767.5119837918,-32500.0,-0.65188971267270668,1.5116428737611656,0.95456432388561197,0.89256123647022678,0.21508763274271928,-0.11857288712608484,1.9462462995647984,1.385328792928052,-1.1321947675897421,1.1321947675897421,-1.385328792928052,3.3752555052951072,0.0
754640.0783812654,3945767.5119837918,-32500.0,-0.81297926718814773,1.2035576238156143,1.5835383029702281,0.73397752829265894,0.6645814960387465,0.13556246195031788,1.9420625268751313,1.2321333439921935,-0.4889604847368581,0.4889604847368581,-1.2321333439921935,3.4141849024865683,0.0
759640.0783812654,3945767.5119837918,-32500.0,-0.87264381835297644,0.80855841429679176,2.0587512365034799,0.5150838439404628,1.0247790707121911,0.34780619780221095,1.9598232015889119,0.98964883199828002,0.16731121081051603,-0.16731121081051603,-0.98964883199828002,3.5231668603230228,0.0
764640.0783812654,3945767.5119837918,-32500.0,-0.82765575540113012,0.38046738293455518,2.3634189233316061,0.26693864345009893,1.2812909293504766,0.50901585614130129,1.9798354416096602,0.69326329856831448,0.77582986897855077,-0.77582986897855077,-0.69326329856831448,3.6438144865536599,0.0
769640.0783812654,3945767.5119837918,-32500.0,-0.69232014101916417,-0.032576433730785621,2.504574416619985,0.018495518567560133,1.4343440467736075,0.61746801126706519,1.9861398210884711,0.37950498747218814,1.291615347668603,-1.291615347668603,-0.37950498747218814,3.7315765648178605,0.0
774640.0783812654,3945767.5119837918,-32500.0,-0.49191701843374513,-0.39498492055414519,2.5062028878549198,-0.20765415451848215,1.4952270727396757,0.67731679194349392,1.9695545242314063,0.079570396152142009,1.6893918469228755,-1.6893918469228755,-0.079570396152142009,3.7622917905232596,0.0
779640.0783812654,3945767.5119837918,-32500.0,-0.2554735972248417,-0.68605620924762512,2.4010229857203176,-0.39707128009213172,1.4816671121363481,0.69641059139279204,1.9273094875879111,-0.18428542278545401,1.9625106872867562,-1.9625106872867562,0.18428542278545401,3.7289957058221939,0.0
784640.0783812654,3945767.5119837918,-32500.0,-0.009939076173594838,-0.89868514609937966,2.2232854077352791,-0.54316716492646322,1.4135334836433475,0.68416106356717243,1.8612337345795136,-0.39952283157829926,2.118711542147794,-2.118711542147794,0.39952283157829926,3.6360985388090068,0.0
789640.0783812654,3945767.5119837918,-32500.0,0.22332700729065499,-1.0360394380922076,2.0037990452597572,-0.64561977648123903,1.3096609468524059,0.64988879530370791,1.7757881441665342,-0.56207105911708433,2.174753993301997,-2.174753993301997,0.56207105911708433,3.4941089747299992,0.0
794640.0783812654,3945767.5119837918,-32500.0,0.42983168861943194,-1.1076962648362374,1.7673502505201186,-0.70832818845438772,1.1859979434668402,0.60178824474393378,1.6765090169675265,-0.67409035209162382,2.1514618510980279,-2.1514618510980279,0.67409035209162382,3.3157899139967304,0.0
799640.0783812654,3945767.5119837918,-32500.0,0.60160613347023617,-1.1262256225571021,1.5320219384796898,-0.73748587913249419,1.0548796612544129,0.54644708795685459,1.5689704755237306,-0.74158186492880684,2.069966929899822,-2.069966929899822,0.74158186492880684,3.1137050216590487,0.0
804640.0783812654,3945767.5119837918,-32500.0,0.73597583128170119,-1.10467505886924,1.3097363328440421,-0.7400764559046108,0.92508435282214674,0.48877222064076142,1.4581098247042634,-0.7723560108714963,1.9493481350833459,-1.9493481350833459,0.7723560108714963,2.8988877219067541,0.0
664640.0783812654,3950767.5119837918,-32500.0,-1.3523973137467897,-0.818673897911673,-0.41671718060405871,-0.87499037831096893,-0.55366855233873224,-0.44700819462644464,1.2530774924915484,-0.22747181385729051,0.17217151523740523,-0.17217151523740523,0.22747181385729051,2.464796968185738,0.0
669640.0783812654,3950767.5119837918,-32500.0,-1.3893929985197506,-0.9577963698340447,-0.5828090502480936,-0.98152918882027262,-0.70375875540005361,-0.54599465216492027,1.4234436008309355,-0.30208373736405114,0.18057745332108066,-0.18057745332108066,0.30208373736405114,2.794597704357813,0.0
674640.0783812654,3950767.5119837918,-32500.0,-1.3925103638001357,-1.0983113998099627,-0.79073270083143798,-1.0863614263434471,-0.88481443979665286,-0.66339118934854979,1.6107828330236222,-0.38327848732019121,0.17000936514211537,-0.17000936514211537,0.38327848732019121,3.1564347784787743,0.0
679640.0783812654,3950767.5119837918,-32500.0,-1.3511956866324621,-1.229470670164968,-1.0445839991573433,-1.181679804170559,-1.0988171959202777,-0.80018541106223384,1.8128419921209704,-0.466196916448195,0.13016601166576441,-0.13016601166576441,0.466196916448195,3.5460922739775547,0.0
684640.0783812654,3950767.5119837918,-32500.0,-1.2555240254818512,-1.3358998138996678,-1.3451634408246491,-1.256742589140067,-1.3451935835376552,-0.95588508855430887,2.0253475042443148,-0.54285856958931777,0.04843697668576577,-0.04843697668576577,0.54285856958931777,3.9554274424397882,0.0
689640.0783812654,3950767.5119837918,-32500.0,-1.0983823885279631,-1.3974261247330295,-1.6875587789828934,-1.2978692681398316,-1.6192150036309751,-1.1276320685755201,2.2414596380695562,-0.60157641579996479,-0.0892068117510465,0.0892068117510465,0.60157641579996479,4.3712831136515931,0.0
694640.0783812654,3950767.5119837918,-32500.0,-0.87847846867257096,-1.3900036591014449,-2.058244890282543,-1.2891435078396771,-1.9101443518822909,-1.3091819259552919,2.4513966771931912,-0.62689968424628606,-0.2961874951983875,0.2961874951983875,0.62689968424628606,4.7746395261365473,0.0
699640.0783812654,3950767.5119837918,-32500.0,-0.60382048034887781,-1.288371839046192,-2.4322382309812909,-1.214194687112192,-2.1994954886384779,-1.4899479075323439,2.6424886995710715,-0.60058063044113319,-0.58182850660103624,0.58182850660103624,0.60058063044113319,5.1404256230441927,0.0
704640.0783812654,3950767.5119837918,-32500.0,-0.2947715653327338,-1.0709352268434986,-2.7713488640576425,-1.0593242888702827,-2.4600777796953919,-1.6544707990666176,2.8000173607612457,-0.50409227282590607,-0.94639625410825512,0.94639625410825512,0.50409227282590607,5.4385637388123635,0.0
709640.0783812654,3950767.5119837918,-32500.0,0.014814345835687519,-0.7267750931460365,-3.0250488556532527,-0.81788617367432881,-2.6567706479686448,-1.7828220068794698,2.9091826300999326,-0.32298983704022011,-1.3753712805978724,1.3753712805978724,0.32298983704022011,5.6368791416111126,0.0
714640.0783812654,3950767.5119837918,-32500.0,0.28016868621905883,-0.26360610171994159,-3.1355689440165042,-0.49517521700582917,-2.7500001825329061,-1.8524637463829541,2.9581759069023952,-0.052762468166984822,-1.8346536221501055,1.8346536221501055,0.052762468166984822,5.7063503948398617,0.0
719640.0783812654,3950767.5119837918,-32500.0,0.45317095202645769,0.28589999107367176,-3.0480705020955909,-0.11226702818141011,-2.7023920237628452,-1.8418319852114888,2.9415473098008547,0.29521642422144934,-2.2693427439858329,2.2693427439858329,-0.29521642422144934,5.6286913934442246,0.0
724640.0783812654,3950767.5119837918,-32500.0,0.49444832101601316,0.86296289863653297,-2.7248383453369485,0.29329475121859305,-2.4879019684538259,-1.7352936710643265,2.8628396476231588,0.6900843807945567,-2.6088385648935075,2.6088385648935075,-0.6900843807945567,5.4054163824213148,0.0
729640.0783812654,3950767.5119837918,-32500.0,0.38691972733418212,1.3897245618810399,-2.1598053482342428,0.67174285839402148,-2.1011318149311959,-1.528286911092158,2.7364734162194795,1.0829749451941684,-2.7794838228854237,2.7794838228854237,-1.0829749451941684,5.066389591777412,0.0
734640.0783812654,3950767.5119837918,-32500.0,0.14545050303911794,1.7847746227607715,-1.3877201886470683,0.97046584359025778,-1.5633359667833095,-1.2307978379661977,2.58824860134958,1.4151069336213373,-2.7227190809088535,2.7227190809088535,-1.4151069336213373,4.6742250163046091,0.0
739640.0783812654,3950767.5119837918,-32500.0,-0.18266956826066763,1.9833098263254199,-0.48270342257095739,1.1462933917500462,-0.92187070224367351,-0.86741263961068782,2.451495577227794,1.6312119276666333,-2.41307146491924,2.41307146491924,-1.6312119276666333,4.3180439183798072,0.0
744640.0783812654,3950767.5119837918,-32500.0,-0.52839951420758957,1.9547215687822925,0.45539927678070397,1.176475153486096,-0.24200829643464417,-0.47327280521829268,2.356613802187062,1.6939793469702331,-1.8686681147563902,1.8686681147563902,-1.6939793469702331,4.0874760019928313,0.0
749640.0783812654,3950767.5119837918,-32500.0,-0.81948855581843738,1.7104584523454103,1.3230174760704714,1.0640792695457835,0.40669686649196973,-0.086961183931758779,2.3174527864501528,1.5939088761697153,-1.1491716464874471,1.1491716464874471,-1.5939088761697153,4.0283358332351851,0.0
754640.0783812654,3950767.5119837918,-32500.0,-0.99961122084437715,1.2990702097389881,2.0353593319988788,0.83579123332601557,0.96481041299949377,0.25729371366556925,2.3248009324510406,1.3506667040509948,-0.34141410677350414,0.34141410677350414,-1.3506667040509948,4.114262436058814,0.0
759640.0783812654,3950767.5119837918,-32500.0,-1.0407800421874323,0.79110913784072168,2.5416024481475521,0.5334241543239534,1.3933513433030462,0.53551815617072573,2.3535709237381943,1.0059041307351653,0.46157946459868837,-0.46157946459868837,-1.0059041307351653,4.2692793465277212,0.0
764640.0783812654,3950767.5119837918,-32500.0,-0.94550451000814584,0.26050535884571813,2.8288570070828363,0.20285640152056769,1.6773961480856885,0.73646154489225057,2.3767143439133069,0.61111461774459708,1.1802960889775922,-1.1802960889775922,-0.61111461774459708,4.4152555439723864,0.0
769640.0783812654,3950767.5119837918,-32500.0,-0.74006305684120433,-0.23085016590182042,2.9160568447144133,-0.11561622136080289,1.8233066228478794,0.86064256878846934,2.3749730402741278,0.21543711811878974,1.7611754398465111,-1.7611754398465111,-0.21543711811878974,4.5000463766560914,0.0
774640.0783812654,3950767.5119837918,-32500.0,-0.46334569458371627,-0.6415130434411126,2.8422609575544464,-0.39306463655123886,1.8520644391612751,0.91715005993734289,2.3394440509894285,-0.14288049966507899,2.1799171150670196,-2.1799171150670196,0.14288049966507899,4.5008857304058996,0.0
779640.0783812654,3950767.5119837918,-32500.0,-0.1559510217502294,-0.95171031230805703,2.6543173229400883,-0.61346927747489777,1.7916857176785486,0.91972540581300077,2.2697480476454821,-0.44004917025525325,2.4374750750074705,-2.4374750750074705,0.44004917025525325,4.4168374301246631,0.0
784640.0783812654,3950767.5119837918,-32500.0,0.14752467367466465,-1.1596021225026512,2.3972438415931121,-0.77211850759000422,1.6708973979284254,0.88331984703544975,2.1708790871277963,-0.6661057237188297,2.5522579529032834,-2.5522579529032834,0.6661057237188297,4.2597564398106167,0.0
789640.0783812654,3950767.5119837918,-32500.0,0.42222154709590182,-1.2754154514891396,2.1085407945886865,-0.87245141206401455,1.5150300592219395,0.82171402393191051,2.0503607168533464,-0.8218188875405481,2.5518173149048859,-2.5518173149048859,0.8218188875405481,4.0471114825963701,0.0
794640.0783812654,3950767.5119837918,-32500.0,0.65347948479808737,-1.3156671318831523,1.8160484388242935,-0.92268291086042153,1.3440839791187789,0.74625873369235063,1.916223239596355,-0.91483324992982762,2.4660709979703701,-2.4660709979703701,0.91483324992982762,3.79723172640997,0.0
799640.0783812654,3950767.5119837918,-32500.0,0.83530770713703328,-1.2986678626326718,1.5382442048165317,-0.9330041476880635,1.1724125662363383,0.66549898400595509,1.77571817895204,-0.9561926552110922,2.3228136085868796,-2.3228136085868796,0.9561926552110922,3.5266241675085346,0.0
804640.0783812654,3950767.5119837918,-32500.0,0.96804570278829405,-1.241622291217642,1.2858164047513476,-0.91364112199967429,1.0093538336109691,0.58535335406888889,1.6344480043757494,-0.95775953069380937,2.145368851653557,-2.145368851653557,0.95775953069380937,3.2487726289986059,0.0
809640.0783812654,3950767.5119837918,-32500.0,1.0560231839339351,-1.159127689758769,1.0636441535512113,-0.87372947239330534,0.86026622803768527,0.50956401671672158,1.4961431093144539,-0.93059766364651153,1.9518400000755309,-1.9518400000755309,0.93059766364651153,2.9738787424697053,0.0
664640.0783812654,3955767.5119837918,-32500.0,-1.5211295052518186,-0.774653724688385,-0.27958151369458983,-0.96827956844813756,-0.5204908644772418,-0.48883553838076121,1.3210986083139491,-0.13857935061112442,0.16118594625045496,-0.16118594625045496,0.13857935061112442,2.5982923460743721,0.0
669640.0783812654,3955767.5119837918,-32500.0,-1.5932577125025142,-0.93432068652092648,-0.43268924818688653,-1.1051569848359786,-0.6808963045010531,-0.606922041352289,1.5148814494279208,-0.21071733016585212,0.18264960013924422,-0.18264960013924422,0.21071733016585212,2.974711379782649,0.0
674640.0783812654,3955767.5119837918,-32500.0,-1.6312146692450569,-1.1034905490693647,-0.6323300480768228,-1.2460967477073681,-0.87983331921491958,-0.75021302384888222,1.7323806702669715,-0.29257486806323518,0.18809675719417288,-0.18809675719417288,0.29257486806323518,3.3952291364775542,0.0
679640.0783812654,3955767.5119837918,-32500.0,-1.6208113820841537,-1.2717376288584383,-0.8858921467081845,-1.382595818033691,-1.1218664280837258,-0.92134761036347212,1.9721205898443732,-0.37997756793239812,0.16603038861144992,-0.16603038861144992,0.37997756793239812,3.8571651112791869,0.0
684640.0783812654,3955767.5119837918,-32500.0,-1.5471640730079261,-1.422612678239473,-1.1981104460859491,-1.50193912294127,-1.4091017087464539,-1.1213794135979549,2.2302370632970154,-0.46512255735813568,0.10132872851358135,-0.10132872851358135,0.46512255735813568,4.3531777004512264,0.0
689640.0783812654,3955767.5119837918,-32500.0,-1.3971978625992318,-1.5326747311602349,-1.5681082816987049,-1.5866800179194773,-1.7390114952162607,-1.3484615531444097,2.4995980657394181,-0.53551525883830664,-0.02424873042650233,0.02424873042650233,0.53551525883830664,4.8695311905951844,0.0
694640.0783812654,3955767.5119837918,-32500.0,-1.1635935978876737,-1.5716847693814155,-1.9854142131184418,-1.6149548049998581,-2.1016196982111084,-1.5961606342980363,2.7689986901124577,-0.57337013138695703,-0.23013459721993251,0.23013459721993251,0.57337013138695703,5.3844445427393524,0.0
699640.0783812654,3955767.5119837918,-32500.0,-0.84999768446534429,-1.5050049457420895,-2.4254215749439161,-1.5623013840820894,-2.4764210405377876,-1.8516221517038034,3.0227754623012668,-0.55617860605995217,-0.53290739767920592,0.53290739767920592,0.55617860605995217,5.8670852139183802,0.0
704640.0783812654,3955767.5119837918,-32500.0,-0.47649991221936505,-1.2992889015473743,-2.8455441223762565,-1.4056503251828936,-2.8299323579943985,-2.0941130068358222,3.2413634283474546,-0.45934120666020573,-0.93971318994324904,0.93971318994324904,0.45934120666020573,6.2780897229222132,0.0
709640.0783812654,3955767.5119837918,-32500.0,-0.083254662295013215,-0.93196266465542166,-3.1842788842719503,-1.1297500408968129,-3.1153860967109321,-2.2948191004184144,3.403419399396614,-0.26161647840103175,-1.4396483778481808,1.4396483778481808,0.26161647840103175,6.5727326039151741,0.0
714640.0783812654,3955767.5119837918,-32500.0,0.27084284583145307,-0.40342900116464547,-3.3660147844942823,-0.7352698018969559,-3.2764378354552597,-2.4189851820751445,3.4898869189665875,0.046673454203460141,-1.9952353841102302,1.9952353841102302,-0.046673454203460141,6.7078052480606063,0.0
719640.0783812654,3955767.5119837918,-32500.0,0.51733427052400405,0.25153565090653401,-3.313823507042359,-0.24626864367756543,-3.2562973814199938,-2.4312270641653462,3.4894844511677472,0.45438075954706458,-2.538062970089241,2.538062970089241,-0.45438075954706458,6.6526350693045782,0.0
724640.0783812654,3955767.5119837918,-32500.0,0.59575519767195451,0.95903770972861035,-2.9697828719466948,0.28671201818505343,-3.0118841243115599,-2.3038243357785384,3.4040668419907028,0.9229323292305962,-2.9736298809783266,2.9736298809783266,-0.9229323292305962,6.4033015897503862,0.0
729640.0783812654,3955767.5119837918,-32500.0,0.4754475094780653,1.6139219526592368,-2.3178020964547814,0.79170457916694592,-2.5296109481827909,-2.0260981501028716,3.2524506475313153,1.3871756466765048,-3.1986383431732102,3.1986383431732102,-1.3871756466765048,5.9969949055765772,0.0
734640.0783812654,3955767.5119837918,-32500.0,0.1727132378796489,2.1021747736737106,-1.3996471343228443,1.1897855874762009,-1.8366381168913031,-1.6113733387049463,3.0711502186607835,1.7668570040114742,-3.1286013590780786,3.1286013590780786,-1.7668570040114742,5.5203223915080173,0.0
739640.0783812654,3955767.5119837918,-32500.0,-0.24660837306897929,2.332308042547838,-0.31458177289986616,1.415535846702257,-1.0012373490554924,-1.0978228489394237,2.9079744632289852,1.9871635173706645,-2.7266379448619604,2.7266379448619604,-1.9871635173706645,5.0998983154994377,0.0
744640.0783812654,3955767.5119837918,-32500.0,-0.68355464150937706,2.2633957262612356,0.80098106947490189,1.4357886711985366,-0.11970650071174314,-0.54153557804012498,2.8048695244864228,2.0010523409635708,-2.0205515446236531,2.0205515446236531,-2.0010523409635708,4.8589628754655703,0.0
749640.0783812654,3955767.5119837918,-32500.0,-1.0359437771012128,1.9169751603858995,1.8075158201686405,1.2584914849851119,0.70634140085570318,-0.0037215604599330513,2.7765475820665531,1.8035835208780477,-1.0989159171788183,1.0989159171788183,-1.8035835208780477,4.8464627607202546,0.0
754640.0783812654,3955767.5119837918,-32500.0,-1.2286024995183586,1.3675484531033499,2.5964256014420983,0.92796715630392679,1.393546730362307,0.463122441600547,2.8033571265162771,1.4318114293129076,-0.086944619481559626,0.086944619481559626,-1.4318114293129076,5.0041713324054315,0.0
759640.0783812654,3955767.5119837918,-32500.0,-1.2310739348994248,0.71719733581052358,3.1109082867444511,0.50952793672636987,1.892416183473894,0.82500006131087567,2.8465283017297245,0.951130658332909,0.88713480706308367,-0.88713480706308367,-0.951130658332909,5.2171354590283556,0.0
764640.0783812654,3955767.5119837918,-32500.0,-1.0577064823188167,0.066496832294519984,3.3481864383624096,0.070811049524291791,2.1908256557252379,1.0694873591192458,2.8699113437843291,0.43524041064784358,1.721298178204917,-1.721298178204917,-0.43524041064784358,5.3844328431436379,0.0
769640.0783812654,3955767.5119837918,-32500.0,-0.75410404169821821,-0.50709233406966758,3.3467259069097675,-0.33299261050131168,2.3071137628951113,1.2026888848096573,2.8517327585170844,-0.051735921576584021,2.3552872072838857,-2.3552872072838857,0.051735921576584021,5.4491991773989961,0.0
774640.0783812654,3955767.5119837918,-32500.0,-0.37857351330482297,-0.95840532042522208,3.1669635014381234,-0.66642467436812725,2.2779544855451852,1.2427915792610451,2.7853482772383016,-0.46564345041490007,2.7712564661825243,-2.7712564661825243,0.46564345041490007,5.3950222673612238,0.0
779640.0783812654,3955767.5119837918,-32500.0,0.013751051170012527,-1.2727811996935849,2.8734999499328517,-0.91394989172142893,2.1462642019353106,1.2131818256148135,2.6748824567503191,-0.78448169121090716,2.9842167370889787,-2.9842167370889787,0.78448169121090716,5.2318167345999376,0.0
784640.0783812654,3955767.5119837918,-32500.0,0.38036429708625413,-1.458027944007144,2.5230775039666686,-1.0757097083681502,1.9523265785716113,1.137074111954457,2.5301801771114389,-1.0048222150791395,3.0287138078438129,-3.0287138078438129,1.0048222150791395,4.982584200141976,0.0
789640.0783812654,3955767.5119837918,-32500.0,0.6944277927109862,-1.534866057307962,2.1589643264626561,-1.1617636527248842,1.7289663580942003,1.034311586017969,2.3628775793182846,-1.1357447517830681,2.946680649304287,-2.946680649304287,1.1357447517830681,4.6740898383951448,0.0
794640.0783812654,3955767.5119837918,-32500.0,0.9433869972410166,-1.5288558662829945,1.8102084917066463,-1.1868487230392821,1.5000749108561833,0.92009282590471564,2.1838610323824477,-1.192838165531696,2.7788328525919166,-2.7788328525919166,1.192838165531696,4.3313760721484575,0.0
799640.0783812654,3955767.5119837918,-32500.0,1.1254821496657053,-1.4649477737812795,1.4936559165019456,-1.1665715465489293,1.2812492173226044,0.80500101778322819,2.0018237318554579,-1.1935836373203617,2.5598912817667299,-2.5598912817667299,1.1935836373203617,3.9751647706788704,0.0
804640.0783812654,3955767.5119837918,-32500.0,1.2458851971306562,-1.364549122997748,1.216997756860154,-1.1151332683385582,1.0814130977389771,0.69571194444475248,1.8229049060457656,-1.1544324344540686,2.3168163222815923,-2.3168163222815923,1.1544324344540686,3.6211247430561242,0.0
809640.0783812654,3955767.5119837918,-32500.0,1.313410952332885,-1.2444560491165779,0.98177121793191824,-1.0442793724273221,0.9046492838617668,0.59592551363626467,1.6513083438280705,-1.0893305127960222,2.0689514402946703,-2.0689514402946703,1.0893305127960222,3.2801776424157691,0.0
814640.0783812654,3955767.5119837918,-32500.0,1.338134270238585,-1.1169268075478915,0.78581430233981975,-0.96306181161447169,0.75182983920702851,0.50725662262535443,1.4899012219733576,-1.0092522995794475,1.8291308128139128,-1.8291308128139128,1.0092522995794475,2.9592718119800123,0.0
659640.0783812654,3960767.5119837918,-32500.0,-1.5482626089504699,-0.53600332182967991,-0.029920820828129774,-0.89811240561010697,-0.33466259804652976,-0.41470113145899595,1.1946454608973036,0.021304756572791482,0.092669709243916043,-0.092669709243916043,-0.021304756572791482,2.3424139630077399,0.0
664640.0783812654,3960767.5119837918,-32500.0,-1.6805909582784559,-0.68796797142047361,-0.12163962207550373,-1.0520512311964738,-0.46200441894534633,-0.52480288167795452,1.3811219608146168,-0.029893006217994053,0.13011178555276137,-0.13011178555276137,0.029893006217994053,2.7101729461308186,0.0
669640.0783812654,3960767.5119837918,-32500.0,-1.7956473139863232,-0.86280433965862058,-0.25166110719532808,-1.2226661510050842,-0.62719821599766545,-0.66296132539887864,1.5973659816111772,-0.094046811213737896,0.16398871964642078,-0.16398871964642078,0.094046811213737896,3.1330789576697069,0.0
674640.0783812654,3960767.5119837918,-32500.0,-1.8791722342361672,-1.0566873643756165,-0.43044884570958303,-1.40562345228941,-0.83843124341846986,-0.83463302421467434,1.8452692119713174,-0.17060430429624646,0.18647380434991484,-0.18647380434991484,0.17060430429624646,3.6142233620429489,0.0
679640.0783812654,3960767.5119837918,-32500.0,-1.9132440051729942,-1.2606812857283676,-0.66892279737366023,-1.5924477168602618,-1.1036601798838204,-1.0449875446057615,2.124838299118283,-0.25649772872917426,0.18556389965539405,-0.18556389965539405,0.25649772872917426,4.1535085295620222,0.0
684640.0783812654,3960767.5119837918,-32500.0,-1.877222556917344,-1.4585644579487664,-0.97658412985860288,-1.7689905408251747,-1.4289374512823902,-1.2977675842157126,2.4332935517912255,-0.34470221588603966,0.14418081085326795,-0.14418081085326795,0.34470221588603966,4.7456125400322495,0.0
689640.0783812654,3960767.5119837918,-32500.0,-1.7502756520244369,-1.6247319182050428,-1.3582200381935166,-1.9140490669453343,-1.8156673438594546,-1.5934576506776839,2.7638519933842072,-0.42260033864034419,0.039965626271233901,-0.039965626271233901,0.42260033864034419,5.3774319831034179,0.0
694640.0783812654,3960767.5119837918,-32500.0,-1.5161300218401357,-1.723082575181931,-1.8088820261253573,-1.9988072662430469,-2.2566310574947632,-1.9266679656835199,3.1043442941847843,-0.47061207699160468,-0.15333762854549748,0.15333762854549748,0.47061207699160468,6.025275318842076,0.0
699640.0783812654,3960767.5119837918,-32500.0,-1.1703075519188824,-1.708412266483277,-2.3073275752770113,-1.9881814217319957,-2.7310202865659576,-2.2828984265752914,3.436106641610837,-0.4619989115004442,-0.46169833683810851,0.46169833683810851,0.4619989115004442,6.6524930527188788,0.0
704640.0783812654,3960767.5119837918,-32500.0,-0.72903516759135856,-1.5322898095427622,-2.8091857101008633,-1.845423413600862,-3.1995200991017896,-2.6353546730533113,3.7338971677910546,-0.36522139193736325,-0.90266685356908805,0.90266685356908805,0.36522139193736325,7.2088094914679015,0.0
709640.0783812654,3960767.5119837918,-32500.0,-0.23712684239145976,-1.1550719202052446,-3.2427561839496009,-1.5410484474303157,-3.6016556320277648,-2.9432244265334955,3.967878495995496,-0.15035276946688048,-1.4731251617399737,1.4731251617399737,0.15035276946688048,7.6332221128034581,0.0
714640.0783812654,3960767.5119837918,-32500.0,0.23007798121863304,-0.56376216022353398,-3.5120028850270417,-1.0657508776844911,-3.8587218577644911,-3.153511749941639,4.1086746859749725,0.1998065299076266,-2.1351645718033954,2.1351645718033954,-0.1998065299076266,7.8625914005917199,0.0
719640.0783812654,3960767.5119837918,-32500.0,0.57656963653150839,0.20859860209165165,-3.5114644602932366,-0.44420122089457414,-3.8855965667459103,-3.2085198656824008,4.1356218287806712,0.67568507567219371,-2.8059535931700044,2.8059535931700044,-0.67568507567219371,7.8473827939528391,0.0
724640.0783812654,3960767.5119837918,-32500.0,0.71038512046517766,1.0712040964583727,-3.1544653057172032,0.25666627625159116,-3.61223068747422,-3.0595341969605476,4.0464892797713752,1.229393325101112,-3.3603857636981047,3.3603857636981047,-1.229393325101112,7.5738949818128161,0.0
729640.0783812654,3960767.5119837918,-32500.0,0.57844764697441065,1.8826561554528245,-2.4084300849889662,0.9325832919842556,-3.0101955481158571,-2.6839186367166716,3.8654043017681792,1.7738457793979121,-3.6539085516270449,3.6539085516270449,-1.7738457793979121,7.0884647315582683,0.0
734640.0783812654,3960767.5119837918,-32500.0,0.19691058088734986,2.4828882666901939,-1.3224354551470328,1.4641328436444336,-2.1135846441832178,-2.0990374116912047,3.6447559550291189,2.1990031233426746,-3.5643655498149882,3.5643655498149882,-2.1990031233426746,6.5129430836506907,0.0
739640.0783812654,3960767.5119837918,-32500.0,-0.3416293863025946,2.7423020742302264,-0.029623068506906998,1.7512285868459407,-1.0217990506004671,-1.365162863535601,3.4542268906212272,2.4036015633802124,-3.0383987615580268,3.0383987615580268,-2.4036015633802124,6.0297267119910796,0.0
744640.0783812654,3960767.5119837918,-32500.0,-0.89371901725524794,2.606885564172305,1.2833387308027739,1.7456232771205935,0.12167537288298355,-0.57333704127283247,3.3515000688135412,2.3299650293476963,-2.1194147684250328,2.1194147684250328,-2.3299650293476963,5.8067468160586646,0.0
749640.0783812654,3960767.5119837918,-32500.0,-1.3140885135852329,2.1161194406619552,2.4293374254127351,1.4654930178304288,1.1677006758210602,0.17816093938993158,3.3484578663214108,1.9845874475103242,-0.94002106903796134,0.94002106903796134,-1.9845874475103242,5.8839943323609036,0.0
754640.0783812654,3960767.5119837918,-32500.0,-1.5037939835649594,1.3847181056221529,3.2722691582036814,0.98522126986898417,2.0003524143393983,0.80872683825052227,3.4064526569082925,1.433890996684311,0.31901900247061776,-0.31901900247061776,-1.433890996684311,6.1467333695570519,0.0
759640.0783812654,3960767.5119837918,-32500.0,-1.4346946172215602,0.5597111318525908,3.7546049558771677,0.40715642280951631,2.5600071470904724,1.2715177437364416,3.4669132922169559,0.77873157291907513,1.4827897780000348,-1.4827897780000348,-0.77873157291907513,6.427062878427269,0.0
764640.0783812654,3960767.5119837918,-32500.0,-1.1436129051371899,-0.2245551947344219,3.8942280339203998,-0.16984866224920053,2.8445827740351621,1.5562696541489194,3.4836573861007869,0.12190001980027843,2.4246405398904565,-2.4246405398904565,-0.12190001980027843,6.6015454674663667,0.0
769640.0783812654,3960767.5119837918,-32500.0,-0.70628830289110145,-0.87533654849253939,3.7597884845410294,-0.67236695119375367,2.8942128345206672,1.6813386937019648,3.4348905466351609,-0.45689705869478159,3.0834727341075179,-3.0834727341075179,0.45689705869478159,6.6157053293383044,0.0
774640.0783812654,3960767.5119837918,-32500.0,-0.20745452209588994,-1.3490753774448472,3.440225428483294,-1.0601920289473907,2.769900487055605,1.6810776510204066,3.3197608863394623,-0.91179346565459474,3.4574960301962681,-3.4574960301962681,0.91179346565459474,6.4678004381891627,0.0
779640.0783812654,3960767.5119837918,-32500.0,0.28104049963292288,-1.6431549235996654,3.0205009163470895,-1.3227699461738534,2.5350356910513865,1.5941169727831994,3.1499932434363895,-1.2288244643821733,3.5850023547171403,-3.5850023547171403,1.2288244643821733,6.1854624194020973,0.0
784640.0783812654,3960767.5119837918,-32500.0,0.71031141980150159,-1.7809734400311612,2.5681360299275675,-1.470049398345707,2.2438528031484952,1.4554403094946577,2.9423238424207669,-1.4170232000571688,3.52316857291168,-3.52316857291168,1.4170232000571688,5.807389400140881,0.0
789640.0783812654,3960767.5119837918,-32500.0,1.0549215933333864,-1.7975619157446019,2.1293234905005853,-1.5227533503520669,1.9367339400955892,1.2925881460868194,2.7133797240336035,-1.4981055119238815,3.3315707000115076,-3.3315707000115076,1.4981055119238815,5.3719931419119291,0.0
794640.0783812654,3960767.5119837918,-32500.0,1.3080861219791668,-1.7292271898993523,1.7310144839185035,-1.5048023513620052,1.6402461416294472,1.1249392561622666,2.4769248039660727,-1.4980587678034951,3.0623838661198421,-3.0623838661198421,1.4980587678034951,4.9117269637055223,0.0
799640.0783812654,3960767.5119837918,-32500.0,1.4753151758534528,-1.6077202562080442,1.385531636653079,-1.4386039206575554,1.3695735712339066,0.9647184265887504,2.2430849417814471,-1.4417115283595616,2.7563186415831393,-2.7563186415831393,1.4417115283595616,4.4511975052050738,0.0
804640.0783812654,3960767.5119837918,-32500.0,1.5687092999055714,-1.4579371942547623,1.0954380314904655,-1.342787879816616,1.131635303067273,0.81865951639200429,2.0188493919245358,-1.3499943329450117,2.4423257559943972,-2.4423257559943972,1.3499943329450117,4.0074130301235593,0.0
809640.0783812654,3960767.5119837918,-32500.0,1.6027716987279483,-1.2978141532775851,0.8575693426303731,-1.2315959695542571,0.92794328247147684,0.68967780495184616,1.8087640150946371,-1.2390883136045248,2.1392346091421426,-2.1392346091421426,1.2390883136045248,3.5910046117856567,0.0
814640.0783812654,3960767.5119837918,-32500.0,1.5917780085214281,-1.1393052237176375,0.66592966705091217,-1.115192024473447,0.75683116549209117,0.57825698212776933,1.6154144941271349,-1.1206612780197451,1.858049731854976,-1.858049731854976,1.1206612780197451,3.2077160773535573,0.0
819640.0783812654,3960767.5119837918,-32500.0,1.5483843792787986,-0.98971481936242522,0.51355678662783455,-1.000369471889957,0.61501683988945055,0.48347575225728157,1.4398595428290326,-1.0025979337911668,1.6041894161582846,-1.6041894161582846,1.0025979337911668,2.8598011034738953,0.0
654640.0783812654,3965767.5119837918,-32500.0,-1.4694063216318833,-0.27824162653697376,0.14706553214859414,-0.78262996714093058,-0.16553665151463484,-0.33210790738499951,1.0597727674881747,0.15686124726139183,-0.0053017906663674758,0.0053017906663674758,-0.15686124726139183,2.0542661499261992,0.0
659640.0783812654,3965767.5119837918,-32500.0,-1.642064917597744,-0.40075736555592595,0.11100114808035018,-0.93705894956247804,-0.25414357123796255,-0.42739331010286841,1.2300156240777775,0.13217438772884332,0.031961892763899963,-0.031961892763899963,-0.13217438772884332,2.3935523508075747,0.0
664640.0783812654,3965767.5119837918,-32500.0,-1.8158624144460833,-0.55143521177618959,0.049698486401212487,-1.1170171639676365,-0.3746711988254206,-0.55029177421012265,1.43098770554773,0.09584535996538876,0.074099756972643704,-0.074099756972643704,-0.09584535996538876,2.7924088795080921,0.0
669640.0783812654,3965767.5119837918,-32500.0,-1.9801545768288333,-0.73216965640569631,-0.046711466997592328,-1.3228200428398393,-0.53657076384765212,-0.70803070292777315,1.6675351824267142,0.046142756706092122,0.11765670963765419,-0.11765670963765419,-0.046142756706092122,3.2585921252905155,0.0
674640.0783812654,3965767.5119837918,-32500.0,-2.119389255885892,-0.94198494546650802,-0.19045280854481411,-1.5519041525303079,-0.7509106094278718,-0.90889220956371042,1.9439996672013606,-0.017575365827653483,0.15592935634622021,-0.15592935634622021,0.017575365827653483,3.7986778862413488,0.0
679640.0783812654,3965767.5119837918,-32500.0,-2.2123880274525614,-1.1748107567197852,-0.39565330307243435,-1.7969729867431432,-1.0296869885235893,-1.1616376862668896,2.2629992032778428,-0.093685319277085691,0.17744674246046477,-0.17744674246046477,0.093685319277085691,4.4163683357885422,0.0
684640.0783812654,3965767.5119837918,-32500.0,-2.232526530475766,-1.4164870442736168,-0.67684954938136721,-2.0436043880443058,-1.384173161820387,-1.474226290753591,2.6239994281294861,-0.17657096328502161,0.16430786603075312,-0.16430786603075312,0.17657096328502161,5.1099461098307017,0.0
689640.0783812654,3965767.5119837918,-32500.0,-2.1497540948197074,-1.6412751392692191,-1.0457579129544163,-2.2675974755050952,-1.8217704273309165,-1.8514557511146359,3.0216586135936065,-0.25439453004226675,0.090912857257743798,-0.090912857257743798,0.25439453004226675,5.8687612738734245,0.0
694640.0783812654,3965767.5119837918,-32500.0,-1.9356702766300378,-1.8087970013595005,-1.5055628771985679,-2.4328436149368335,-2.3408351541765371,-2.2911722656413058,3.4437841525145032,-0.30676708294778393,-0.075809105993791703,0.075809105993791703,0.30676708294778393,6.6689001846561791,0.0
699640.0783812654,3965767.5119837918,-32500.0,-1.5727373507523534,-1.8633484488838172,-2.0423422615586375,-2.4912749793600373,-2.9233313399819112,-2.7789715310481471,3.8692006999137973,-0.30336374222705581,-0.37286737596879588,0.37286737596879588,0.30336374222705581,7.4687502260758798,0.0
704640.0783812654,3965767.5119837918,-32500.0,-1.0675613921222304,-1.7387001832573226,-2.6144809177693635,-2.3872716567374996,-3.5262206243964824,-3.2820621964978587,4.2664995543673125,-0.20540280227177166,-0.83211072176958123,0.83211072176958123,0.20540280227177166,8.206122582820699,0.0
709640.0783812654,3965767.5119837918,-32500.0,-0.46539891104746361,-1.3719626049495537,-3.1433812321709156,-2.0691409964346703,-4.0744752461620237,-3.7443283358537882,4.5953005014730639,0.027425183506084139,-1.4639856489042176,1.4639856489042176,-0.027425183506084139,8.7998281577283528,0.0
714640.0783812654,3965767.5119837918,-32500.0,0.14122108902438249,-0.72821829864663279,-3.5120861287336296,-1.5087325563297254,-4.4611081741321517,-4.0863428163613547,4.8120487021017526,0.42257425074497679,-2.2356681245527827,2.2356681245527827,-0.42257425074497679,9.1596149671986371,0.0
719640.0783812654,3965767.5119837918,-32500.0,0.62043058413187591,0.16826682481887273,-3.5805043539392614,-0.72575510298062296,-4.5609839718413889,-4.215007620722484,4.8817093463392265,0.97402728130300442,-3.0511775659313098,3.0511775659313098,-0.97402728130300442,9.208082463081471,0.0
724640.0783812654,3965767.5119837918,-32500.0,0.83418599844755092,1.2097396115778358,-3.2227648218059697,0.19350293777305827,-4.2623865429499261,-4.0456072149382516,4.7941279620550237,1.6228878069334731,-3.7479228974847647,3.7479228974847647,-1.6228878069334731,8.9151953289006816,0.0
729640.0783812654,3965767.5119837918,-32500.0,0.69311156332431234,2.2078464995802918,-2.3805553111373019,1.0982162183257151,-3.5110786058984775,-3.5328186858259403,4.5796828356499679,2.2527678501284591,-4.1250467620699762,4.1250467620699762,-2.2527678501284591,8.3391742228681753,0.0
734640.0783812654,3965767.5119837918,-32500.0,0.20983496310858324,2.9380939408347237,-1.1095682041293196,1.8065472820442752,-2.3487243298363025,-2.6984867045063172,4.3146089382299575,2.7126144878497707,-4.0062121265378723,4.0062121265378723,-2.7126144878497707,7.6550281524908055,0.0
739640.0783812654,3965767.5119837918,-32500.0,-0.48410797665946648,3.2169378919653462,0.41205561979131211,2.164315868724084,-0.92129618936555413,-1.6394855947556064,4.1019459828853053,2.866071626144056,-3.3145993883201945,3.3145993883201945,-2.866071626144056,7.1287188007545454,0.0
744640.0783812654,3965767.5119837918,-32500.0,-1.1787121803064964,2.9748611603562671,1.9296919001155133,2.1021211364898296,0.55583181403334059,-0.50594885493731789,4.019579156234836,2.646021291958363,-2.11892357573802,2.11892357573802,-2.646021291958363,6.982589044008356,0.0
749640.0783812654,3965767.5119837918,-32500.0,-1.6671760032938077,2.282878042156538,3.1953362066891029,1.659196790594085,1.8638107858439326,0.54296256992229897,4.0671154156738547,2.0833085865858707,-0.6186266414599495,0.6186266414599495,-2.0833085865858707,7.2178031338595092,0.0
754640.0783812654,3965767.5119837918,-32500.0,-1.8228488423001075,1.3173904195581936,4.0447288485981332,0.9612939910681122,2.844546849968435,1.3843867498350733,4.1725729945761918,1.2925332585586629,0.92654245235677402,-0.92654245235677402,-1.2925332585586629,7.6255672183606364,0.0
759640.0783812654,3965767.5119837918,-32500.0,-1.6309258111206557,0.28763331321357105,4.431176105876327,0.16839238701588233,3.4333259873179394,1.9574881893077263,4.2506054195938647,0.4253881157441588,2.2828078180985321,-2.2828078180985321,-0.4253881157441588,7.9730114800968828,0.0
764640.0783812654,3965767.5119837918,-32500.0,-1.1683463077192162,-0.63248492504870335,4.4095976432061548,-0.57777027730289832,3.6522740905430635,2.262896460123164,4.246580255159988,-0.38049926204897266,3.3015418928603046,-3.3015418928603046,0.38049926204897266,8.1219758020505584,0.0
769640.0783812654,3965767.5119837918,-32500.0,-0.55575156982369667,-1.3399300684363766,4.0920341880655879,-1.1843688151640117,3.5787535336097949,2.343801391200822,4.1442062829119148,-1.0337806863764154,3.9334984183950734,-3.9334984183950734,1.0337806863764154,8.0342812788326992,0.0
774640.0783812654,3965767.5119837918,-32500.0,0.088694165720798579,-1.8030862274825843,3.6020430362824003,-1.6124027493444753,3.3093624406840445,2.2620692760885981,3.9541043679768055,-1.4963009464001464,4.2079597808497367,-4.2079597808497367,1.4963009464001464,7.735624193835239,0.0
779640.0783812654,3965767.5119837918,-32500.0,0.67683755800558343,-2.041547751872073,3.044464555065741,-1.864699494111423,2.9334616473358786,2.079245374965752,3.6996537102376954,-1.7722200460411048,4.1981480277496503,-4.1981480277496503,1.7722200460411048,7.2802941329775619,0.0
784640.0783812654,3965767.5119837918,-32500.0,1.1581801548794539,-2.1012728790641595,2.4932358916917012,-1.9684820206423943,2.5200418888264844,1.8459242690569091,3.4065666789848188,-1.8907342928935307,3.9901145687294433,-3.9901145687294433,1.8907342928935307,6.7275426390219826,0.0
789640.0783812654,3965767.5119837918,-32500.0,1.5146543257072911,-2.0348557212752634,1.9919932704873529,-1.9602246851959606,2.1151414091046208,1.5983582955085522,3.0971710375382053,-1.8905910588226376,3.6625886876355307,-3.6625886876355307,1.8905910588226376,6.129088763286715,0.0
794640.0783812654,3965767.5119837918,-32500.0,1.7504016924441423,-1.8897674466356913,1.5607578930529118,-1.8757064025606256,1.7451204858964555,1.3595011321409924,2.7884324590572187,-1.8097381533139951,3.2777348421390591,-3.2777348421390591,1.8097381533139951,5.5244419822324105,0.0
799640.0783812654,3965767.5119837918,-32500.0,1.8817673446868701,-1.7033723856950513,1.2038550073918608,-1.745011174701014,1.4219547624802253,1.1419365018390204,2.4921014919908862,-1.6800619732096398,2.8794831935494289,-2.8794831935494289,1.6800619732096398,4.9407352539240543,0.0
804640.0783812654,3965767.5119837918,-32500.0,1.9297755267014283,-1.5022661058774553,0.91662058345007813,-1.590991828787909,1.1483236864338886,0.95107003792847622,2.215559993544737,-1.5257569016252659,2.4958454018224683,-2.4958454018224683,1.5257569016252659,4.3946426807808932,0.0
809640.0783812654,3965767.5119837918,-32500.0,1.9154176415681734,-1.3037520630379884,0.69016734879012431,-1.4296696186409816,0.92159036680003137,0.78781894907987171,1.9627610153188682,-1.3637482924526494,2.1426344524193683,-2.1426344524193683,1.3637482924526494,3.894905243610558,0.0
814640.0783812654,3965767.5119837918,-32500.0,1.8572075686669041,-1.1180138663921784,0.51436147186972059,-1.2714584661493216,0.73654168736110393,0.6505846203501906,1.7351399083422812,-1.2049976413923078,1.8271438587748587,-1.8271438587748587,1.2049976413923078,3.4447106618787426,0.0
819640.0783812654,3965767.5119837918,-32500.0,1.7702610175620777,-0.9502194444492289,0.3794641116441333,-1.1225613034515602,0.58709598984299882,0.53656666534365716,1.5324287092947133,-1.0559938890321758,1.5511760925775819,-1.5511760925775819,1.0559938890321758,3.0436371699022744,0.0
654640.0783812654,3970767.5119837918,-32500.0,-1.488661506754722,-0.11652362837439011,0.25409531887925291,-0.77907626589565449,-0.077437971719389098,-0.32589259476018068,1.0764546658060179,0.25573134679105275,-0.085273678690849938,0.085273678690849938,-0.25573134679105275,2.0597116566470386,0.0
659640.0783812654,3970767.5119837918,-32500.0,-1.6928782131826163,-0.22318881220464085,0.24787035837750959,-0.94877660291117993,-0.15135705498028362,-0.42677805537930208,1.255139715883572,0.24918556682637466,-0.05193914338303407,0.05193914338303407,-0.24918556682637466,2.4147526360986378,0.0
664640.0783812654,3970767.5119837918,-32500.0,-1.9080250350563432,-0.36083490371182708,0.22284946683802509,-1.151767781882155,-0.25680518436092981,-0.55971375602583895,1.4681894213241455,0.23282665460504245,-0.010443099622204188,0.010443099622204188,-0.23282665460504245,2.8378947451202459,0.0
669640.0783812654,3970767.5119837918,-32500.0,-2.1245196313181967,-0.5339955232868836,0.16940878394289402,-1.3909621908013432,-0.40480729764958723,-0.73433936240219688,1.7219783926633325,0.20429332176919399,0.037481273617367611,-0.037481273617367611,-0.20429332176919399,3.3402279388243707,0.0
674640.0783812654,3970767.5119837918,-32500.0,-2.3268075359971974,-0.74519168034220451,0.07470000843672879,-1.6666920861602801,-0.60912736409133128,-0.96237748216722885,2.02325515010638,0.16186077173171315,0.087092204563921749,-0.087092204563921749,-0.16186077173171315,3.9325369264965144,0.0
679640.0783812654,3970767.5119837918,-32500.0,-2.4917041795070189,-0.99252887242044896,-0.07751130692156985,-1.9743932705451595,-0.8860010733734982,-1.2572868852105759,2.3780406918687111,0.10558234740643772,0.12874280612264116,-0.12874280612264116,-0.10558234740643772,4.6235281553114262,0.0
684640.0783812654,3970767.5119837918,-32500.0,-2.5873506722832174,-1.2660482405992246,-0.30609094339944537,-2.3012593247606676,-1.2528325400174984,-1.6330430501390789,2.7896170757159386,0.039162015240371245,0.14543667447669675,-0.14543667447669675,-0.039162015240371245,5.4168820776247335,0.0
689640.0783812654,3970767.5119837918,-32500.0,-2.5739782796190349,-1.5428029814448501,-0.62995541452023118,-2.6219379316374987,-1.7250259018073886,-2.1013976862570254,3.2558935828894877,-0.02732247641156501,0.11023410959166605,-0.11023410959166605,0.02732247641156501,6.3067734694227573,0.0
694640.0783812654,3970767.5119837918,-32500.0,-2.4083713712240642,-1.7813383483326954,-1.0624109084689133,-2.8939849191876572,-2.3098953301133713,-2.6668141285356532,3.7663558438652167,-0.074071612974827075,-0.015350136452579613,0.015350136452579613,0.074071612974827075,7.2717295287126245,0.0
699640.0783812654,3970767.5119837918,-32500.0,-2.0543487606123234,-1.917676083243008,-1.6011635796010488,-3.0550097144127508,-2.9967465818887713,-3.3184260278889441,4.2986092595805738,-0.068615219509600978,-0.27962983381582956,0.27962983381582956,0.068615219509600978,8.2673633768873618,0.0
704640.0783812654,3970767.5119837918,-32500.0,-1.5008162528714024,-1.8670570804683848,-2.2138162928125582,-3.025196098736576,-3.7433580315019239,-4.0192843088799721,4.8153280783608103,0.034353425308338403,-0.73205195672339962,0.73205195672339962,-0.034353425308338403,9.2199084252616803,0.0
709640.0783812654,3970767.5119837918,-32500.0,-0.78551231201312044,-1.5377107579921472,-2.8217546895037473,-2.7203796302091243,-4.4619650970398519,-4.6953919364824719,5.2638558399011091,0.286420389247525,-1.4035636442952248,1.4035636442952248,-0.286420389247525,10.02469130797591,0.0
714640.0783812654,3970767.5119837918,-32500.0,-0.015458337860069003,-0.86224604736943167,-3.2908319434973663,-2.0799976505907001,-5.0126238843999982,-5.2306547023050785,5.5820131669537147,0.72793064833867682,-2.2752003114494812,2.2752003114494812,-0.72793064833867682,10.556201916090854,0.0
719640.0783812654,3970767.5119837918,-32500.0,0.63356726486256332,0.15512211496427644,-3.4430031691462828,-1.1078513356512811,-5.2163999113282316,-5.4772775053498481,5.7137722288196429,1.3589501530710526,-3.2431359596437446,3.2431359596437446,-1.3589501530710526,10.697487445848369,0.0
724640.0783812654,3970767.5119837918,-32500.0,0.95815303451934519,1.3932715078079305,-3.1022944886165398,0.089498159244150319,-4.899416441045747,-5.2899953412890524,5.6353956539597183,2.1079714790328299,-4.1021513556896885,4.1021513556896885,-2.1079714790328299,10.393113308860888,0.0
729640.0783812654,3970767.5119837918,-32500.0,0.81157377986666623,2.6054009040708119,-2.1724439830142166,1.2952483440640572,-3.9643753027746675,-4.5816944356195206,5.3848034329016894,2.8201183683832487,-4.577053027896465,4.577053027896465,-2.8201183683832487,9.7182435117319823,0.0
734640.0783812654,3970767.5119837918,-32500.0,0.19657834317165504,3.4785652875430992,-0.71315147340182261,2.2316622204083547,-2.4601712705073484,-3.3785481674311457,5.0749467827939494,3.288823504626897,-4.4150124897379062,4.4150124897379062,-3.288823504626897,8.9306363121024361,0.0
739640.0783812654,3970767.5119837918,-32500.0,-0.69822066443295239,3.7541951263255178,1.0394999775892211,2.6605446960560948,-0.60241946712847838,-1.8391872207122104,4.8600132822087145,3.332851787878174,-3.5064619556391952,3.5064619556391952,-3.332851787878174,8.4208267925900646,0.0
744640.0783812654,3970767.5119837918,-32500.0,-1.5631198601671179,3.3466870658080121,2.741955996584259,2.4846410073974723,1.2846451238064058,-0.21459674752478958,4.8399841979001934,2.8816857217082501,-1.9608729646739735,1.9608729646739735,-2.8816857217082501,8.4627952510874618,0.0
749640.0783812654,3970767.5119837918,-32500.0,-2.1051199261739115,2.3813978703967202,4.0728656918672215,1.7858752774160245,2.8823317883096347,1.2366864171942198,4.9803572406020633,2.0134078738590615,-0.077684756444229786,0.077684756444229786,-2.0134078738590615,8.9551255150466584,0.0
754640.0783812654,3970767.5119837918,-32500.0,-2.1704525818707538,1.1272522368277189,4.8464278147969591,0.77730777865601275,3.9829649206931865,2.3313233250270584,5.1535765475626754,0.91847852627190529,1.7747629328557661,-1.7747629328557661,-0.91847852627190529,9.5462514815375137,0.0
759640.0783812654,3970767.5119837918,-32500.0,-1.7800595653549232,-0.12482133530314822,5.0480307239554936,-0.29384716890120499,4.531876819388958,2.9998226198089517,5.2423104929552204,-0.18336602922870671,3.2949197301269413,-3.2949197301269413,0.18336602922870671,9.9374104102656524,0.0
764640.0783812654,3970767.5119837918,-32500.0,-1.0783718233337503,-1.161128626996311,4.7920464566466405,-1.2314823560375656,4.6005785457365551,3.2735687601200349,5.1905947701781177,-1.1196155760682369,4.3247987454359569,-4.3247987454359569,1.1196155760682369,9.9971876235672053,0.0
769640.0783812654,3970767.5119837918,-32500.0,-0.24867448192354358,-1.88188903025051,4.2468452751836798,-1.9286138907227832,4.325602901549666,3.2428217344568027,4.9978952992725141,-1.8001661685034045,4.8497060500518874,-4.8497060500518874,1.8001661685034045,9.7272734341962224,0.0
774640.0783812654,3970767.5119837918,-32500.0,0.55350210583310522,-2.2842924732127132,3.5718288112883014,-2.3609577402008801,3.8513643578355041,3.0136526891262951,4.6946137680939941,-2.211437732103418,4.9504028126036772,-4.9504028126036772,2.211437732103418,9.1985032315771882,0.0
779640.0783812654,3970767.5119837918,-32500.0,1.2296176063616833,-2.4228491589304935,2.8851112448121459,-2.5585037197509224,3.2960616143356791,2.6795218388431254,4.3208140169604583,-2.3895086450199852,4.746908745356361,-4.746908745356361,2.3895086450199852,8.5019444085633733,0.0
784640.0783812654,3970767.5119837918,-32500.0,1.7371849862723709,-2.3723253686663384,2.2578276164080835,-2.5756318440456525,2.7405126483323947,2.3094195518065317,3.9136400519868522,-2.3917191485691469,4.3574203705540722,-4.3574203705540722,2.3917191485691469,7.7212201961025304,0.0
789640.0783812654,3970767.5119837918,-32500.0,2.0743665315897259,-2.203846172498777,1.7228452198957842,-2.4698387080489494,2.2312805009960344,1.9474205864694081,3.502092071563915,-2.2765461768650925,3.8774615907232435,-3.8774615907232435,2.2765461768650925,6.9211285142116221,0.0
794640.0783812654,3970767.5119837918,-32500.0,2.2624027043361754,-1.974013109106753,1.287530304194952,-2.2904769504521747,1.7894892277846368,1.61762104994454,3.1061959163580979,-2.093170807332315,3.374414411081045,-3.374414411081045,2.093170807332315,6.1460061889750079,0.0
799640.0783812654,3970767.5119837918,-32500.0,2.3318327421217404,-1.7227082462692545,0.94499122222392373,-2.0749108382845431,1.4199806315626375,1.3302935308543706,2.7381629052915719,-1.8782028897341738,2.8904488178750829,-2.8904488178750829,1.8782028897341738,5.4226750851263992,0.0
804640.0783812654,3970767.5119837918,-32500.0,2.3138344191074647,-1.4752411803682697,0.68200634832340035,-1.8488724744465879,1.1185451327436013,1.0872167467295073,2.4041933706280147,-1.6564039707012692,2.4485319303655655,-2.4485319303655655,1.6564039707012692,4.7647929818511159,0.0
809640.0783812654,3970767.5119837918,-32500.0,2.2358098356479661,-1.2459147102218753,0.4838131622860346,-1.6285981163037748,0.87681407381885101,0.88556038229931233,2.1062753923256894,-1.4430390120074372,2.058528272377286,-2.058528272377286,1.4430390120074372,4.1770022753322538,0.0
814640.0783812654,3970767.5119837918,-32500.0,2.1197868830747195,-1.0414886271611936,0.33659885103365011,-1.4233324167935733,0.68520271548612932,0.72041131765602118,1.8436934753459968,-1.2464907894552479,1.7221558777007764,-1.7221558777007764,1.2464907894552479,3.6582634188441649,0.0
819640.0783812654,3970767.5119837918,-32500.0,1.982397710410037,-0.86395623178295455,0.22854334860594683,-1.2375455040898677,0.5344848970571362,0.5862672581351045,1.6141641476798299,-1.0705198411432546,1.4365494662407596,-1.4365494662407596,1.0705198411432546,3.2042808756028562,0.0
824640.0783812654,3970767.5119837918,-32500.0,1.8355835138771432,-0.71254124555072151,0.150054858012521,-1.0726521852666724,0.41650826392107004,0.4778338447124329,1.4146225971255055,-0.91598798750873334,1.1966113751685947,-1.1966113751685947,0.91598798750873334,2.8091450037757939,0.0
649640.0783812654,3975767.5119837918,-32500.0,-1.2492639523046709,0.12925074854319413,0.31483876780378861,-0.60049110606513922,0.056956686636787324,-0.22997822357582437,0.93180935317006763,0.33167156281316817,-0.1962904876929023,0.1962904876929023,-0.33167156281316817,1.7414681452192315,0.0
654640.0783812654,3975767.5119837918,-32500.0,-1.4540452164973681,0.073614004668005162,0.34397154142794945,-0.74515218289940233,0.024152790878934086,-0.30614392101184429,1.0852374660607338,0.35005257106865967,-0.18176812259974323,0.18176812259974323,-0.35005257106865967,2.0421455247462657,0.0
659640.0783812654,3975767.5119837918,-32500.0,-1.6836313297789158,-0.0063232599995923311,0.36823657519756869,-0.9239907357406979,-0.028519699571104198,-0.40869666125392212,1.2694640517304905,0.36417153190943735,-0.1582780977286638,0.1582780977286638,-0.36417153190943735,2.4048824276951901,0.0
664640.0783812654,3975767.5119837918,-32500.0,-1.9351126665333109,-0.11706521695213498,0.38224475069309044,-1.1434283331653399,-0.10973735181741313,-0.54684887843816554,1.491045743773364,0.37174809241980622,-0.12450494477487983,0.12450494477487983,-0.37174809241980622,2.8425064769616699,0.0
669640.0783812654,3975767.5119837918,-32500.0,-2.2012337915283005,-0.2654989839936846,0.37782692009729096,-1.4095653343038412,-0.23133239663192967,-0.73271210046310908,1.7577023057128001,0.37020065064699709,-0.080212788245608679,0.080212788245608679,-0.37020065064699709,3.3694717647572321,0.0
674640.0783812654,3975767.5119837918,-32500.0,-2.4681611361435891,-0.45774184990411237,0.34311212707729577,-1.7267126127747812,-0.40898188053349793,-0.98179271057709261,2.0782247757743808,0.35709198298801792,-0.027516384290139556,0.027516384290139556,-0.35709198298801792,4.0011187589913417,0.0
679640.0783812654,3975767.5119837918,-32500.0,-2.7127872790218364,-0.69688968371416216,0.26168838269767386,-2.0947919774468731,-0.66257576834122434,-1.3131150137635719,2.4618806467601817,0.33110039004858027,0.027059658127213254,-0.027059658127213254,-0.33110039004858027,4.7520251210834639,0.0
684640.0783812654,3975767.5119837918,-32500.0,-2.9000812213534619,-0.97911798135258499,0.11234041102563175,-2.5051341079297313,-1.0156583376159782,-1.7484058358835153,2.9166756638321667,0.29383029856475396,0.069540244423538483,-0.069540244423538483,-0.29383029856475396,5.6328945291673786,0.0
689640.0783812654,3975767.5119837918,-32500.0,-2.9817599176529535,-1.2876566618740313,-0.12964962179714101,-2.9343424163255363,-1.4928553103644413,-2.3093615821284064,3.4459482579119323,0.25278249430326338,0.074572189485089285,-0.074572189485089285,-0.25278249430326338,6.6453009460877137,0.0
694640.0783812654,3975767.5119837918,-32500.0,-2.8987588662348998,-1.5847380157692368,-0.48797472885051879,-3.3365412344425063,-2.1136066308341057,-3.0115350988002891,4.0435891934274508,0.22555303143136374,0.0014955073700225613,-0.0014955073700225613,-0.22555303143136374,7.7736852728441566,0.0
699640.0783812654,3975767.5119837918,-32500.0,-2.5913464444808496,-1.8032382687326249,-0.97529827508038991,-3.6359533945373572,-2.8801551435844157,-3.8531325731062012,4.6885076233015166,0.24449377172843775,-0.20708548358173409,0.20708548358173409,-0.24449377172843775,8.9746409432416758,0.0
704640.0783812654,3975767.5119837918,-32500.0,-2.0211132751418375,-1.8429191699465635,-1.5758844477028096,-3.7247487319267378,-3.7584872483518637,-4.797776148593635,5.3390057977234227,0.35926148385355977,-0.61924828702130785,0.61924828702130785,-0.35926148385355977,10.165300168408139,0.0
709640.0783812654,3975767.5119837918,-32500.0,-1.2059028166118311,-1.5805514477718543,-2.2220027348947604,-3.4749553932804096,-4.6543871957955192,-5.7534060463704488,5.9294432958373324,0.63194146979447408,-1.2929943282492704,1.2929943282492704,-0.63194146979447408,11.21614288009177,0.0
714640.0783812654,3975767.5119837918,-32500.0,-0.2586396203777942,-0.90565100790747022,-2.7728618706311532,-2.7749147111634045,-5.3945044531078024,-6.5561758109174955,6.3746204806832312,1.1173692332940173,-2.2351421655665522,2.2351421655665522,-1.1173692332940173,11.958677647368043,0.0
719640.0783812654,3975767.5119837918,-32500.0,0.59610137379086314,0.21331097065918878,-3.0161666942645207,-1.5936461359666956,-5.7329046024869541,-6.9770344895634588,6.5894546110208569,1.8243634466194694,-3.3456301323510145,3.3456301323510145,-1.8243634466194694,12.222883654047429,0.0
724640.0783812654,3975767.5119837918,-32500.0,1.0663734805094247,1.6515705168267436,-2.7182672776337085,-0.053944116509448158,-5.40770586861374,-6.7717976233321266,6.5290649553316564,2.6676351799670819,-4.3769728560352101,4.3769728560352101,-2.6676351799670819,11.917105512497022,0.0
729640.0783812654,3975767.5119837918,-32500.0,0.91781430127099395,3.094343065745079,-1.7308821273044335,1.5364875632893857,-4.2531222251469076,-5.7789368728550059,6.2417647001048335,3.4433951582816289,-4.9611918908106176,4.9611918908106176,-3.4433951582816289,11.14445212870776,0.0
734640.0783812654,3975767.5119837918,-32500.0,0.1323628833012131,4.1113088961928375,-0.11151727251643094,2.7541652171898039,-2.3228225076115905,-4.0279591978892579,5.8994572628974167,3.8723760517986938,-4.740769679003888,4.740769679003888,-3.8723760517986938,10.295849222298706,0.0
739640.0783812654,3975767.5119837918,-32500.0,-1.0174969508595684,4.34269206773146,1.8339616997886325,3.232130067597506,0.064770181071659175,-1.7834095683284312,5.7347100174620307,3.7195318368989612,-3.561344969769308,3.561344969769308,-3.7195318368989612,9.9413736359097591,0.0
744640.0783812654,3975767.5119837918,-32500.0,-2.0736386738811801,3.6907502209244152,3.6528223399587803,2.8409275054067566,2.4237244103303195,0.53107691526830914,5.8596692244664386,2.9264570444544264,-1.5960006309788475,1.5960006309788475,-2.9264570444544264,10.361560484519964,0.0
749640.0783812654,3975767.5119837918,-32500.0,-2.6267143381618512,2.3712952971021761,4.9447249984670876,1.7473095494461646,4.2987006249757682,2.4979555091776264,6.1588893249349992,1.6559827408102146,0.71100389166369804,-0.71100389166369804,-1.6559827408102146,11.236222013449863,0.0
754640.0783812654,3975767.5119837918,-32500.0,-2.5083618610362644,0.78619146357438596,5.5222627802362458,0.31008014471924328,5.4348243212042826,3.8557035998856848,6.4191762045048568,0.21071782331357491,2.8506201513919298,-2.8506201513919298,-0.21071782331357491,12.026617427957939,0.0
759640.0783812654,3975767.5119837918,-32500.0,-1.816476279374964,-0.67583020518685244,5.4356892338117779,-1.0981957605975443,5.8212209021592285,4.5490836401468231,6.4941771640758281,-1.1089616860692735,4.4558605427439648,-4.4558605427439648,1.1089616860692735,12.393479864788425,0.0
764640.0783812654,3975767.5119837918,-32500.0,-0.80129966949941445,-1.7739410294381495,4.8832187172659784,-2.2227656900717632,5.6184982838818707,4.6807816356531076,6.3443568732941813,-2.1096301859673625,5.3885945880647359,-5.3885945880647359,2.1096301859673625,12.254354487834016,0.0
769640.0783812654,3975767.5119837918,-32500.0,0.2750146664876954,-2.4376653133376864,4.0950607390830021,-2.9615919560261958,5.0484876036467998,4.4238894455360045,6.0027146758507994,-2.729328186995895,5.7024765429249022,-5.7024765429249022,2.729328186995895,11.685821308648073,0.0
774640.0783812654,3975767.5119837918,-32500.0,1.2244378533616149,-2.7157436584229342,3.256708416120778,-3.3301203727577953,4.3115478895103321,3.9497586869254611,5.531704194464556,-3.0035934359306475,5.5517982696821617,-5.5517982696821617,3.0035934359306475,10.825069955366303,0.0
779640.0783812654,3975767.5119837918,-32500.0,1.9530737127455631,-2.7095830801726057,2.4839051813866502,-3.4049303031800644,3.5503980829759594,3.3910783432422886,4.9944784867141943,-3.015012710148905,5.110175590637402,-5.110175590637402,3.015012710148905,9.808590796435702,0.0
784640.0783812654,3975767.5119837918,-32500.0,2.4417752980991048,-2.5248603863564352,1.8308625136917365,-3.2781569534905612,2.8483707607399866,2.8340295017886872,4.4415213088100627,-2.8537198643720929,4.5240713140796638,-4.5240713140796638,2.8537198643720929,8.7447159940779624,0.0
789640.0783812654,3975767.5119837918,-32500.0,2.715791292597987,-2.2476358161464058,1.3102129815359385,-3.0317336699844293,2.2433250286329653,2.3257248079020312,3.9074382710651099,-2.5961429783440013,3.8974118849646548,-3.8974118849646548,2.5961429783440013,7.7075860187057046,0.0
794640.0783812654,3975767.5119837918,-32500.0,2.8191903370587887,-1.9381643228930832,0.91184964844721672,-2.7277753944229888,1.7441688145370888,1.8860942858436485,3.4127550818639509,-2.2981284091542973,3.2942158087995237,-3.2942158087995237,2.2981284091542973,6.7414373744801308,0.0
799640.0783812654,3975767.5119837918,-32500.0,2.7985708476713218,-1.6337497335307565,0.61618189284890768,-2.4083362614482744,1.3441737192230874,1.5186388118107359,2.9674030446280151,-1.9960763086884283,2.7481405202790619,-2.7481405202790619,1.9960763086884283,5.8682034909308554,0.0
804640.0783812654,3975767.5119837918,-32500.0,2.6948626999794056,-1.3545850203615428,0.4018562178667387,-2.0991331331196417,1.0298312245059207,1.2182423319235556,2.5741787738952322,-1.7111782409260132,2.27260580807862,-2.27260580807862,1.7111782409260132,5.0948822243055076,0.0
809640.0783812654,3975767.5119837918,-32500.0,2.5404593316445134,-1.1094843079268299,0.24950522499366085,-1.8141041064938859,0.78598103606362701,0.97612995622788923,2.2315253548424434,-1.4540236362033849,1.8689364297014208,-1.8689364297014208,1.4540236362033849,4.4193751017720837,0.0
814640.0783812654,3975767.5119837918,-32500.0,2.3592349017933718,-0.9003761721040433,0.1431110340654988,-1.5593993359104525,0.59839456641042255,0.78268533750309377,1.9355212465743472,-1.2284318857845618,1.5320422589211775,-1.5320422589211775,1.2284318857845618,3.8346216501003036,0.0
819640.0783812654,3975767.5119837918,-32500.0,2.1678118864769647,-0.72542249762325228,0.070130172030378218,-1.3363942132031994,0.45483159473222801,0.62887014354123805,1.6811915684840335,-1.0342457496479807,1.2540121488763283,-1.2540121488763283,1.0342457496479807,3.3313026772783112,0.0
824640.0783812654,3975767.5119837918,-32500.0,1.9771613168324191,-0.58100727066906965,0.021078818199420028,-1.1437692745501107,0.34527492693047457,0.50681598333819333,1.4633145930593348,-0.86920061556880279,1.0262034107411266,-1.0262034107411266,0.86920061556880279,2.8994886616122444,0.0
649640.0783812654,3980767.5119837918,-32500.0,-1.1421639791748859,0.3066221572474005,0.35731230269020364,-0.53353851826717014,0.14534284352955279,-0.19866181420610124,0.9338234585437416,0.39579257170980731,-0.28954945703969548,0.28954945703969548,-0.39579257170980731,1.7097606431260433,0.0
654640.0783812654,3980767.5119837918,-32500.0,-1.3536059252723378,0.28373598987400295,0.40658458587740565,-0.67498732173576503,0.13457145073740664,-0.27044943830901347,1.0882987969273006,0.43143010999025366,-0.29028485007809357,0.29028485007809357,-0.43143010999025366,2.0068899461034992,0.0
659640.0783812654,3980767.5119837918,-32500.0,-1.597613258635785,0.24109878720204392,0.458377120477508,-0.85388434694481885,0.10912023236039374,-0.36925604735342749,1.274725535367929,0.46674438906162913,-0.28288699159305036,0.28288699159305036,-0.46674438906162913,2.3681068923887323,0.0
664640.0783812654,3980767.5119837918,-32500.0,-1.8742599113371272,0.1716624244263199,0.50955491916416162,-1.0789845053994784,0.061041600075835312,-0.5055012436504378,1.5003840145976468,0.49996434231887293,-0.2649593810786644,0.2649593810786644,-0.49996434231887293,2.8080974179063491,0.0
669640.0783812654,3980767.5119837918,-32500.0,-2.1797743586675891,0.067068929863995985,0.55456771963176577,-1.3597759160011016,-0.021122206525366359,-0.69342466355769083,1.7740709911685477,0.52880822630147739,-0.23442087887439769,0.23442087887439769,-0.52880822630147739,3.3441707933357741,0.0
674640.0783812654,3980767.5119837918,-32500.0,-2.5039106870300771,-0.08168030390038919,0.58429016888439989,-1.7052451748309281,-0.15349247701142105,-0.95211458477228572,2.1061989678180391,0.5507137549637745,-0.19052426114692597,0.19052426114692597,-0.5507137549637745,3.9958823524650589,0.0
679640.0783812654,3980767.5119837918,-32500.0,-2.8263365070290245,-0.28250052816951055,0.58462455203965447,-2.1213161431464616,-0.35797675626972869,-1.3063567070584958,2.5086161265419662,0.56352428293978352,-0.13575752813104652,0.13575752813104652,-0.56352428293978352,4.7837443793945118,0.0
684640.0783812654,3980767.5119837918,-32500.0,-3.1122607001358005,-0.53867475214427463,0.53517769198165988,-2.6061542422571136,-0.6628053026109878,-1.786666601168339,2.9936114498841433,0.56700724293987204,-0.079060778032738893,0.079060778032738893,-0.56700724293987204,5.7263031361583154,0.0
689640.0783812654,3980767.5119837918,-32500.0,-3.3083639524728334,-0.84250881137269529,0.40884766779866782,-3.1424150724075428,-1.1012826823017392,-2.427219412322005,3.5709867033452665,0.56570400564378609,-0.040694374704666414,0.040694374704666414,-0.56570400564378609,6.8345393845780853,0.0
694640.0783812654,3980767.5119837918,-32500.0,-3.341743213178229,-1.1654303108579653,0.17407757509968619,-3.685930003345089,-1.7065444522046163,-3.2594193431481897,4.2420856133057399,0.57353772081871557,-0.058473578283979311,0.058473578283979311,-0.57353772081871557,8.1023541245967436,0.0
699640.0783812654,3980767.5119837918,-32500.0,-3.127117684408963,-1.4451679578778465,-0.19720761381320179,-4.1520689617631596,-2.4989266667862626,-4.2978058161184576,4.9911423738751823,0.61991431982329082,-0.19333208271083624,0.19333208271083624,-0.61991431982329082,9.4922789359138875,0.0
704640.0783812654,3980767.5119837918,-32500.0,-2.590016991823914,-1.5744476738286515,-0.71209694319709294,-4.4052754523949726,-3.462198447638805,-5.5149171051659147,5.7756147909299784,0.75502814075658387,-0.52862897031421163,0.52862897031421163,-0.75502814075658387,10.917454789690252,0.0
709640.0783812654,3980767.5119837918,-32500.0,-1.7125893481588612,-1.4026921714453897,-1.3274628536199919,-4.2645919406644435,-4.507918708587785,-6.8051137151336407,6.5182320277312709,1.0481241295693671,-1.1526186214258558,1.1526186214258558,-1.0481241295693671,12.225802852867565,0.0
714640.0783812654,3980767.5119837918,-32500.0,-0.597059496042184,-0.77009031937623706,-1.9151465249803197,-3.5453531420880928,-5.4376159061237308,-7.9479381356542342,7.1077218713406243,1.5677329687450239,-2.1110489558778016,2.1110489558778016,-1.5677329687450239,13.201302081155127,0.0
719640.0783812654,3980767.5119837918,-32500.0,0.48637291278311928,0.4085307478995916,-2.2453072846741606,-2.1533501496677943,-5.932108144676735,-8.600470702851112,7.4214963353603451,2.3334311676053741,-3.3274109545945825,3.3274109545945825,-2.3334311676053741,13.608512654641396,0.0
724640.0783812654,3980767.5119837918,-32500.0,1.1341312295286405,2.0232799813370641,-2.0299690273162581,-0.21420508880489222,-5.6148226582161254,-8.3638397924145753,7.3848936902501023,3.2462271735930592,-4.5241835570661904,4.5241835570661904,-3.2462271735930592,13.310439097847309,0.0
729640.0783812654,3980767.5119837918,-32500.0,0.98424657743254484,3.6898061771980784,-1.0568543452379002,1.8448965418515157,-4.2176196048251979,-6.9495635266594533,7.0644954020465525,4.0440193092164707,-5.2287319544422806,5.2287319544422806,-4.0440193092164707,12.463451072630567,0.0
734640.0783812654,3980767.5119837918,-32500.0,-0.019527598143478351,4.8314362402484354,0.63158548424301564,3.3840664875208621,-1.7917249466679483,-4.3887741777471367,6.7329780209109344,4.3578453532586687,-4.9473656446038605,4.9473656446038605,-4.3578453532586687,11.677928702803655,0.0
739640.0783812654,3980767.5119837918,-32500.0,-1.4826741002732005,4.9586157323810189,2.6576539026137609,3.8439949715211603,1.1987737583782609,-1.1289110987688638,6.7407844928178724,3.8949341626110061,-3.4647027310162595,3.4647027310162595,-3.8949341626110061,11.756123804640206,0.0
744640.0783812654,3980767.5119837918,-32500.0,-2.7304172808189406,3.9731933878132191,4.451192170484422,3.0683723212355973,4.0380509709005299,2.1133616895644645,7.16229701165227,2.639615340725491,-1.0456085071653254,1.0456085071653254,-2.639615340725491,12.836380732826632,0.0
749640.0783812654,3980767.5119837918,-32500.0,-3.2064982424647455,2.2323728547406256,5.5448343678918004,1.3869391804375781,6.0984451210673756,4.676440102924901,7.7082474142850677,0.89367705041981127,1.6690935386612753,-1.6690935386612753,-0.89367705041981127,14.21389071469611,0.0
754640.0783812654,3980767.5119837918,-32500.0,-2.7652866019477575,0.31472712546626774,5.7876050226153151,-0.60736249074581239,7.1037635424906274,6.218961044301202,8.0522551008524026,-0.89067261942300635,4.0057133400722096,-4.0057133400722096,0.89067261942300635,15.159866785130816,0.0
759640.0783812654,3980767.5119837918,-32500.0,-1.6491236544868078,-1.2926596422323129,5.3332005062579544,-2.3780703018974303,7.1480519000270979,6.7619077187071079,8.0468331696978872,-2.3384112949318592,5.5569100335791424,-5.5569100335791424,2.3384112949318592,15.363341163413949,0.0
764640.0783812654,3980767.5119837918,-32500.0,-0.25879764079228257,-2.3561710419593083,4.4768669201709601,-3.629510000794935,6.5327060943830251,6.5527299976591431,7.7080886652111769,-3.2737766897991505,6.2535763989534683,-6.2535763989534683,3.2737766897991505,14.858321533107175,0.0
769640.0783812654,3980767.5119837918,-32500.0,1.0604262681117402,-2.8732310223659669,3.4964095307827767,-4.3075030910403909,5.5853017174175061,5.8966695326108329,7.1314370224151915,-3.7052129406061152,6.2561625736381217,-6.2561625736381217,3.7052129406061152,13.840489865184971,0.0
774640.0783812654,3980767.5119837918,-32500.0,2.1095405795010462,-2.9665951496651473,2.576712773248508,-4.5054596201021448,4.5564517964152911,5.0494246546119239,6.4255523736143862,-3.7438300723803275,5.8057489405269846,-5.8057489405269846,3.7438300723803275,12.532799151478502,0.0
779640.0783812654,3980767.5119837918,-32500.0,2.8256401302605383,-2.7888486287403311,1.8067497369338497,-4.3682705870674043,3.5963445702159018,4.1817396202816184,5.6795544584662707,-3.5265975060673762,5.1229305478201637,-5.1229305478201637,3.5265975060673762,11.119277710084672,0.0
784640.0783812654,3980767.5119837918,-32500.0,3.2322078685174058,-2.4699901001099627,1.2082887202622421,-4.0327559817801086,2.7736997973623727,3.3872633246090764,4.9540655098146438,-3.1721765174894694,4.3674316351761755,-4.3674316351761755,3.1721765174894694,9.7265748353210491,0.0
789640.0783812654,3980767.5119837918,-32500.0,3.39143136700838,-2.1011326383315554,0.76693702002475816,-3.6035559226049951,2.1052553843708282,2.7052950894387742,4.2841372210457118,-2.7659152568490613,3.6367147225651162,-3.6367147225651162,2.7659152568490613,8.4294373739225517,0.0
794640.0783812654,3980767.5119837918,-32500.0,3.3729407623011589,-1.7374210903946123,0.45419554598877804,-3.1504436120117321,1.5804492602692541,2.1427871537590688,3.6859929975629169,-2.3612902220644303,2.9804494772775811,-2.9804494772775811,2.3612902220644303,7.2640957568297093,0.0
799640.0783812654,3980767.5119837918,-32500.0,3.2381767720461707,-1.4074422087995049,0.23982429060523422,-2.714741425684021,1.1775945431761154,1.690329021348393,3.1636436330472946,-1.987464667392282,2.4171332367150722,-2.4171332367150722,1.987464667392282,6.2415773311532599,0.0
804640.0783812654,3980767.5119837918,-32500.0,3.0350528643808694,-1.1226689928377589,0.097376355657352864,-2.3176949098222912,0.87285959567110982,1.3320281864422465,2.7140141889463343,-1.6573667940998438,1.9473886501484059,-1.9473886501484059,1.6573667940998438,5.3581002642885593,0.0
809640.0783812654,3980767.5119837918,-32500.0,2.7980073615026235,-0.88469992715317136,0.0058490277549790651,-1.9677304083639262,0.64448981069946687,1.0508840921531644,2.3304557783900499,-1.3741443683859338,1.5629517822508709,-1.5629517822508709,1.3741443683859338,4.6022185078526219,0.0
814640.0783812654,3980767.5119837918,-32500.0,2.5502472030479333,-0.69009026700887222,-0.050511358632031482,-1.6657762258583868,0.47431810737056918,0.83132196339739606,2.0049519114136753,-1.1356383185671022,1.2521002580072347,-1.2521002580072347,1.1356383185671022,3.9593152913673517,0.0
819640.0783812654,3980767.5119837918,-32500.0,2.3064747058227297,-0.53328172134558605,-0.083092052885406414,-1.4087964670176421,0.34791703676037417,0.66012562505381356,1.7293954122210289,-0.93720639592313759,1.0026220681684643,-1.0026220681684643,0.93720639592313759,3.414214841841229,0.0
824640.0783812654,3980767.5119837918,-32500.0,2.0753440627137945,-0.40823393315409201,-0.099916217402077276,-1.191973027807077,0.25417243972377429,0.52655741737988959,1.4962510166952967,-0.77337296955215484,0.80325690162402685,-0.80325690162402685,0.77337296955215484,2.952568052388493,0.0
829640.0783812654,3980767.5119837918,-32500.0,1.8614081550305388,-0.30924622603025503,-0.10653110741115011,-1.0099663701846195,0.18468269588318104,0.42211813123432784,1.2988382689336961,-0.63871729066308069,0.6442628499428078,-0.6442628499428078,0.63871729066308069,2.5614886983001184,0.0
644640.0783812654,3985767.5119837918,-32500.0,-0.80269624995946232,0.46254036805254772,0.31535665465105295,-0.33592309748463933,0.21565235279238359,-0.11012512847923049,0.80877969950710749,0.39404362685226152,-0.36066005103228244,0.36066005103228244,-0.39404362685226152,1.4405719253464284,0.0
649640.0783812654,3985767.5119837918,-32500.0,-0.9737672079920271,0.4854446110317488,0.36977241668733662,-0.43541807097678603,0.23316490364345266,-0.15459597478583237,0.93644004733644626,0.4403197535055911,-0.38356988795510322,0.38356988795510322,-0.4403197535055911,1.6776128691679904,0.0
654640.0783812654,3985767.5119837918,-32500.0,-1.1784450220856255,0.50079489142591127,0.4329633222131169,-0.56444399645914389,0.24691042885672079,-0.21716596680945188,1.0900262753139665,0.4908754711104229,-0.4032781541685701,0.4032781541685701,-0.4908754711104229,1.9653887931405429,0.0
659640.0783812654,3985767.5119837918,-32500.0,-1.4211666264678351,0.50386529334771457,0.50528088934997684,-0.73156337042707387,0.2529633608860386,-0.30548880930540967,1.2756547849576787,0.54525005486940925,-0.41748082602590092,0.41748082602590092,-0.54525005486940925,2.3164216468097116,0.0
664640.0783812654,3985767.5119837918,-32500.0,-1.705177326085255,0.48821498906579552,0.58618591383067509,-0.94732385006759923,0.24510012119590777,-0.43048839413976436,1.5009225298137137,0.60251602678363292,-0.42325999529006242,0.42325999529006242,-0.60251602678363292,2.7462616909303734,0.0
669640.0783812654,3985767.5119837918,-32500.0,-2.0308868470668542,0.44544018000693453,0.67350228837949344,-1.2241603417489897,0.21368837186029052,-0.60764589987333417,1.7751805087093135,0.66117880811729368,-0.41725834836382514,0.41725834836382514,-0.66117880811729368,3.273878843910961,0.0
674640.0783812654,3985767.5119837918,-32500.0,-2.3931653161371562,0.365261394464442,0.76226845632484752,-1.5756276418570494,0.14419654305488327,-0.85860568370767476,2.1097685581053893,0.7191989619115684,-0.39627142563931067,0.39627142563931067,-0.7191989619115684,3.9217173856804513,0.0
679640.0783812654,3985767.5119837918,-32500.0,-2.7771997777695678,0.23642345247713395,0.84309307493277441,-2.0142866378318511,0.015383650288418592,-1.2129218127357926,2.5180984128565496,0.77433851078698357,-0.35864768386450807,0.35864768386450807,-0.77433851078698357,4.7149540453266745,0.0
684640.0783812654,3985767.5119837918,-32500.0,-3.1527125350396012,0.049258863489468299,0.90006008332312704,-2.5471344522354804,-0.20246359991418858,-1.7093526881261358,3.0152727791041567,0.82520347946611361,-0.30710002929968844,0.30710002929968844,-0.82520347946611361,5.6791354857830179,0.0
689640.0783812654,3985767.5119837918,-32500.0,-3.4670638789210204,-0.19875506199571125,0.90863687615731048,-3.1669946715743831,-0.54819003820133261,-2.3952562924778471,3.6163353184097504,0.87357842557578924,-0.25369758331360814,0.25369758331360814,-0.87357842557578924,6.8348542605054883,0.0
694640.0783812654,3985767.5119837918,-32500.0,-3.6395810320709323,-0.4927904898066634,0.8349653968287194,-3.8381608552720796,-1.0669457749957265,-3.3211004296662732,4.3311231454788164,0.92879295682392193,-0.2275922530794347,0.2275922530794347,-0.92879295682392193,8.187552925632124,0.0
699640.0783812654,3985767.5119837918,-32500.0,-3.5630278383586873,-0.78481206262149827,0.63960563951002836,-4.4758951860313392,-1.7994095318043077,-4.5248623807772024,5.1535329336821407,1.014497166399126,-0.28465498401503703,0.28465498401503703,-1.014497166399126,9.7103974657992076,0.0
704640.0783812654,3985767.5119837918,-32500.0,-3.1233058781676735,-0.97451065226962275,0.29103550488813129,-4.924278561882991,-2.7564427481374212,-5.9991461106560688,6.0460865794530063,1.1763825453301351,-0.51427060143685355,0.51427060143685355,-1.1763825453301351,11.319707832368669,0.0
709640.0783812654,3985767.5119837918,-32500.0,-2.2518207959350311,-0.89831568698800335,-0.2049400813505286,-4.948082263372692,-3.8733477953024482,-7.6358336920766821,6.9245956356191654,1.4846426569592244,-1.0308675723040266,1.0308675723040266,-1.4846426569592244,12.848256091611953,0.0
714640.0783812654,3985767.5119837918,-32500.0,-1.0158408779992256,-0.35233498469950592,-0.75971457035402912,-4.2709907199788324,-4.9487350561106647,-9.1568544176114184,7.6521255312272842,2.0171651159511006,-1.9288306106887534,1.9288306106887534,-2.0171651159511006,14.035429129795384,0.0
719640.0783812654,3985767.5119837918,-32500.0,0.2863016985659913,0.81569741039250299,-1.1611953928223007,-2.6999447969752208,-5.6025335838941812,-10.073609928162503,8.0623255972751533,2.8049198944292524,-3.1828047527959633,3.1828047527959633,-2.8049198944292524,14.57591901008519,0.0
724640.0783812654,3985767.5119837918,-32500.0,1.126106296041179,2.5389751708820589,-1.0931662163501565,-0.33556633355816889,-5.3290896457287342,-9.7613781430447819,8.0440137164054928,3.7387120389678574,-4.5182112722599577,4.5182112722599577,-3.7387120389678574,14.288974118361409,0.0
729640.0783812654,3985767.5119837918,-32500.0,0.96930046333305464,4.3811683852990804,-0.27868963589930723,2.2507869796104978,-3.720718531912889,-7.7273975972699418,7.7042145332346266,4.4956512608519716,-5.3674573662209308,5.3674573662209308,-4.4956512608519716,13.440607050813478,0.0
734640.0783812654,3985767.5119837918,-32500.0,-0.3039916178165703,5.6044861343168328,1.2789848977106619,4.1126497121608887,-0.80745257187315,-4.001753750297171,7.5021042673658851,4.6073627498115517,-5.0748075407997142,5.0748075407997142,-4.6073627498115517,12.998504778411037,0.0
739640.0783812654,3985767.5119837918,-32500.0,-2.1285553960721622,5.5668159907412305,3.1578995081323393,4.4158883563829763,2.7612922584061548,0.65819054391551268,7.9438561967159513,3.7297091381124692,-3.3382953665518262,3.3382953665518262,-3.7297091381124692,13.975810788946742,0.0
744640.0783812654,3985767.5119837918,-32500.0,-3.5271153511642379,4.1887242908552267,4.6984401783933905,3.005101819594362,5.9719257699264041,5.0533613548272642,8.8915495927493193,1.9360568749160252,-0.53243269024707851,0.53243269024707851,-1.9360568749160252,16.044469241891832,0.0
749640.0783812654,3985767.5119837918,-32500.0,-3.7786196870538795,2.0238506121430651,5.4095925394784352,0.50484312540137388,8.009716166772483,8.1748977688684032,9.7425029144582176,-0.27195942897041059,2.4674661577432206,-2.4674661577432206,0.27195942897041059,17.972132347377261,0.0
754640.0783812654,3985767.5119837918,-32500.0,-2.838250534180232,-0.14586855304392879,5.2261151419155576,-2.1416457703983225,8.6413436012523661,9.6512276668972969,10.089940060394193,-2.2752590897257567,4.8268765864906618,-4.8268765864906618,2.2752590897257567,18.924681519182261,0.0
759640.0783812654,3985767.5119837918,-32500.0,-1.1858788409360772,-1.7677832604583192,4.4253871572800012,-4.2184762502080195,8.1505008038006324,9.7115213367877864,9.8680217623539033,-3.668019844415042,6.1522325854518076,-6.1522325854518076,3.668019844415042,18.738869077316746,0.0
764640.0783812654,3985767.5119837918,-32500.0,0.59289086658098133,-2.6735099251195642,3.3765221533863263,-5.4507746785650557,7.0230394770855771,8.8601311945858328,9.2094532737696824,-4.3584399452251557,6.5001879664792366,-6.5001879664792366,4.3584399452251557,17.65298748620193,0.0
769640.0783812654,3985767.5119837918,-32500.0,2.0936421808733514,-2.9675102368666852,2.3585022147441457,-5.904798338035727,5.6859648535367313,7.584681354701778,8.2997713650717237,-4.4709884669051538,6.1596758718098732,-6.1596758718098732,4.4709884669051538,16.024237124674407,0.0
774640.0783812654,3985767.5119837918,-32500.0,3.1498872889305218,-2.8540942934117353,1.5133587259090315,-5.7966902617770213,4.4090276317272297,6.2267012784012081,7.2978615162198661,-4.2047820930257203,5.4459508614141132,-5.4459508614141132,4.2047820930257203,14.168320108335401,0.0
779640.0783812654,3985767.5119837918,-32500.0,3.7638063296598663,-2.5243215810542994,0.87842551222686194,-5.3540164552689822,3.3182543960303224,4.9751613479566403,6.3116515819912493,-3.7411159832839034,4.599320910603522,-4.599320910603522,3.7411159832839034,12.305833398384038,0.0
784640.0783812654,3985767.5119837918,-32500.0,4.0183940507309037,-2.1143619370818469,0.43466602008369343,-4.754580016486492,2.4461606549080184,3.9087534372466299,5.4021830251685365,-3.2093907843707834,3.7671613416677898,-3.7671613416677898,3.2093907843707834,10.566124359160764,0.0
789640.0783812654,3985767.5119837918,-32500.0,4.016464517607008,-1.7053155175435615,0.14243416428551298,-4.1155741669696928,1.7772879422299481,3.0415286956036685,4.5966391876646666,-2.6876012743740523,3.0231669985214937,-3.0231669985214937,2.6876012743740523,9.0108874464115658,0.0
794640.0783812654,3985767.5119837918,-32500.0,3.8500571905569467,-1.3376414040318372,-0.039160004753593228,-3.5042818640358639,1.2777883085372947,2.3561053704664672,3.9010618912511279,-2.2153821626355166,2.3936791870442216,-2.3936791870442216,2.2153821626355166,7.6585674858204431,0.0
799640.0783812654,3985767.5119837918,-32500.0,3.5901001818104894,-1.0263973468816006,-0.1443694874506633,-2.9535114189871305,0.9111274212046524,1.8235736819978843,3.3098660254609382,-1.8079090619297637,1.8789350288209266,-1.8789350288209266,1.8079090619297637,6.503111803744992,0.0
804640.0783812654,3985767.5119837918,-32500.0,3.2863487861185701,-0.7726974314376025,-0.19906903063449399,-2.4748538502579658,0.64491203779917328,1.4137942184345047,2.8120684480171767,-1.4665579659284194,1.4670035259542069,-1.4670035259542069,1.4665579659284194,5.5264442659635558,0.0
809640.0783812654,3985767.5119837918,-32500.0,2.9712491347540628,-0.57104715638607451,-0.22162934997836289,-2.0681001239370262,0.4529523987282546,1.0998973619225925,2.3949876339001412,-1.1858972102732614,1.141800191496442,-1.141800191496442,1.1858972102732614,4.7059885488580582,0.0
814640.0783812654,3985767.5119837918,-32500.0,2.6645134534410055,-0.41355255187654871,-0.22456022004260676,-1.727239300651233,0.31512968549348702,0.85969182400536315,2.0462250888356572,-0.95781889221124583,0.88718871553353784,-0.88718871553353784,0.95781889221124583,4.0188218734636001,0.0
819640.0783812654,3985767.5119837918,-32500.0,2.3771017976925921,-0.29210387341047528,-0.21611765298020616,-1.4439815626875945,0.21645062132179713,0.67561590193228171,1.7545795236069204,-0.77376467316870368,0.68878547201781271,-0.68878547201781271,0.77376467316870368,3.4437319794126018,0.0
824640.0783812654,3985767.5119837918,-32500.0,2.1142634710635537,-0.1993689489397841,-0.20160690183633481,-1.2096729222294555,0.1459448867179492,0.53411466732583512,1.5103570198454046,-0.62579766934283521,0.53453380151916063,-0.53453380151916063,0.62579766934283521,2.9620559458400999,0.0
829640.0783812654,3985767.5119837918,-32500.0,1.8776946889570925,-0.12914061274531599,-0.1843477617200438,-1.0162378044066613,0.095672833117931441,0.42487715244784735,1.3053734411674809,-0.50702557385520208,0.41468171169233442,-0.41468171169233442,0.50702557385520208,2.5578577015346404,0.0
644640.0783812654,3990767.5119837918,-32500.0,-0.59441005102943245,0.59698899745773149,0.29188058313411835,-0.22619059049727636,0.2775657342399645,-0.064840239466444322,0.81805573885269856,0.40525790289948738,-0.42985573639643382,0.42985573639643382,-0.40525790289948738,1.4319234821800531,0.0
649640.0783812654,3990767.5119837918,-32500.0,-0.74284846061756726,0.65213456227467992,0.34863343934951324,-0.30594458897637899,0.31378836459107934,-0.097805171452795422,0.94480386081183609,0.45913207089421593,-0.46981413344626788,0.46981413344626788,-0.45913207089421593,1.659938148788457,0.0
654640.0783812654,3990767.5119837918,-32500.0,-0.92495702540076852,0.70768245314190481,0.41710048131501792,-0.41222809395158555,0.35234002537004244,-0.14588259715893798,1.0968452752896125,0.52005627125421594,-0.51033464024421116,0.51033464024421116,-0.52005627125421594,1.9357640557612548,0.0
659640.0783812654,3990767.5119837918,-32500.0,-1.1469089406404556,0.76062531649463627,0.49926112723242977,-0.55376262671825949,0.39131128718213609,-0.21611312965965435,1.2801094003490119,0.58839589875198439,-0.54958644780661037,0.54958644780661037,-0.58839589875198439,2.2713418628022075,0.0
664640.0783812654,3990767.5119837918,-32500.0,-1.4146922372547985,0.80632996776014421,0.59694653964147848,-0.74181929903539301,0.42707567595725737,-0.31887698647859614,1.5019891964015832,0.6641973539336401,-0.58487530266655319,0.58487530266655319,-0.6641973539336401,2.6817326020209564,0.0
669640.0783812654,3990767.5119837918,-32500.0,-1.732813944142076,0.83802087280718152,0.71135241846993891,-0.99054111098219821,0.4532294371321382,-0.4694191029548036,1.7716382667240174,0.74702659782640202,-0.6125135518885535,0.6125135518885535,-0.74702659782640202,3.1857136335213179,0.0
674640.0783812654,3990767.5119837918,-32500.0,-2.1019074799363051,0.84634330923671519,0.84215633260477529,-1.3167945102952188,0.45901460851643588,-0.68992550524004614,2.100252253772068,0.83583374344868333,-0.62791528347214531,0.62791528347214531,-0.83583374344868333,3.806186722207956,0.0
679640.0783812654,3990767.5119837918,-32500.0,-2.5146516982459262,0.81935123090936468,0.98603315305766459,-1.7388720032155207,0.42711259336578156,-1.0121265954205554,2.5012543606671329,0.92898059768642771,-0.62625594425552966,0.62625594425552966,-0.92898059768642771,4.5699914221271758,0.0
684640.0783812654,3990767.5119837918,-32500.0,-2.9493657775236182,0.7436564677999099,1.134356799107447,-2.2727827523480473,0.3308803373730797,-1.4800208520501932,2.9902108012873376,1.0247330522035456,-0.60432797501756352,0.60432797501756352,-1.0247330522035456,5.5063156543446761,0.0
689640.0783812654,3990767.5119837918,-32500.0,-3.3610453611491717,0.60812077455439084,1.2700472233554307,-2.9240189509929846,0.13166368717649266,-2.1513705046069025,3.5840013358438445,1.1227921982508189,-0.56462517937210199,0.56462517937210199,-1.1227921982508189,6.642237169298042,0.0
694640.0783812654,3990767.5119837918,-32500.0,-3.6711765591039436,0.41229874489701301,1.3641494204775391,-3.6718231477084284,-0.22183340077368338,-3.0946270351723117,4.2977361403249574,1.2277671143991613,-0.52300380455664675,0.52300380455664675,-1.2277671143991613,7.9930131302404002,0.0
699640.0783812654,3990767.5119837918,-32500.0,-3.7616410753052487,0.18225167855778029,1.374298335326039,-4.4431946173443544,-0.7874871446045939,-4.3743799647771286,5.1356703846816396,1.3555518833682878,-0.52077937180010281,0.52077937180010281,-1.3555518833682878,9.5439144297174732,0.0
704640.0783812654,3990767.5119837918,-32500.0,-3.4855819204947842,-0.005560542461596772,1.2501960115753989,-5.0780915615754365,-1.6083027311186826,-6.0136627438289967,6.0719724376795492,1.5423483647370495,-0.63903677219676258,0.63903677219676258,-1.5423483647370495,11.221063325359539,0.0
709640.0783812654,3990767.5119837918,-32500.0,-2.7174532475981321,7.9682618284024267e-05,0.95490098555098746,-5.3009665201419391,-2.663753712846491,-7.919471330171576,7.0247471082239077,1.8514722662560108,-1.0042569402230659,1.0042569402230659,-1.8514722662560108,12.854505846657887,0.0
714640.0783812654,3990767.5119837918,-32500.0,-1.4636234951294669,0.42301772162023998,0.51025715521461423,-4.7415058487118564,-3.7887754898877666,-9.7711222175068926,7.8382955329770887,2.3629656480115746,-1.7587555822785483,1.7587555822785483,-2.3629656480115746,14.154705051035423,0.0
719640.0783812654,3990767.5119837918,-32500.0,-0.014046058749476424,1.4795466331868719,0.057871871441217457,-3.0767728599577313,-4.5895461748982056,-10.921432436354333,8.3034130478620085,3.1196264588566662,-2.9582212142972621,2.9582212142972621,-3.1196264588566662,14.762088508077708,0.0
724640.0783812654,3990767.5119837918,-32500.0,0.99238488724924323,3.179253609837243,-0.11801524540955044,-0.33786455562663664,-4.4562605185909367,-10.452781910191483,8.2757556268021055,4.0144925125666493,-4.3927511017198224,4.3927511017198224,-4.0144925125666493,14.482966135952983,0.0
729640.0783812654,3990767.5119837918,-32500.0,0.81750939690792146,5.0872363875886739,0.29730456979003234,2.759098532808685,-2.8192820508086331,-7.5720239108229102,7.9661131427995802,4.6807191972601583,-5.4567072386621085,5.4567072386621085,-4.6807191972601583,13.80628323034947,0.0
734640.0783812654,3990767.5119837918,-32500.0,-0.75549152652551521,6.3356131968217504,1.3772188374118643,4.8740955936788097,0.35768446810118448,-2.2979991887952718,8.1894561941278496,4.5605512858679607,-5.3339957727771452,5.3339957727771452,-4.5605512858679607,14.222929631645098,0.0
739640.0783812654,3990767.5119837918,-32500.0,-2.9470789190231472,6.1309807680407902,2.744412164567275,4.8099348515592535,4.2508075655883308,4.1257281511626109,9.4912064910475564,3.2737194645280803,-3.5887569602180531,3.5887569602180531,-3.2737194645280803,16.689641771851232,0.0
744640.0783812654,3990767.5119837918,-32500.0,-4.3953897499664238,4.4237371502240954,3.7517533754656616,2.4719107848924433,7.5353061303201248,9.7622662830609475,11.141753578249496,1.021348956933035,-0.66522076141261866,0.66522076141261866,-1.021348956933035,19.971294669480542,0.0
749640.0783812654,3990767.5119837918,-32500.0,-4.2310221249271436,1.9806704319703543,3.96522555064983,-1.0382118540087759,9.2474281787312673,13.169095648290774,12.222086773555088,-1.4669579728697137,2.3535685379497071,-2.3535685379497071,1.4669579728697137,22.335498674347729,0.0
754640.0783812654,3990767.5119837918,-32500.0,-2.6315494645027835,-0.24412901350686986,3.4300496105087332,-4.315612467325491,9.289097750668688,14.094782067712215,12.393292671195546,-3.4420247212974462,4.5233951509149541,-4.5233951509149541,3.4420247212974462,23.022579677835569,0.0
759640.0783812654,3990767.5119837918,-32500.0,-0.4063283600614857,-1.7078815375497909,2.5010608839861423,-6.5125842232090578,8.1961100612787643,13.193869139086379,11.776660056225762,-4.5522947421906226,5.5241891339366118,-5.5241891339366118,4.5522947421906226,22.167492292728006,0.0
764640.0783812654,3990767.5119837918,-32500.0,1.6825235258278679,-2.3657882670849575,1.5361251221517178,-7.4937703772695539,6.6256548268322062,11.353036089663867,10.670280924436042,-4.8564466766496421,5.5569946960917873,-5.5569946960917873,4.8564466766496421,20.295677982534063,0.0
769640.0783812654,3990767.5119837918,-32500.0,3.2354939039761175,-2.4374983458050328,0.74100592957081335,-7.5330628171305003,5.0457953417170316,9.2585328669156883,9.357077622020201,-4.6090176374582761,5.0077143803534927,-5.0077143803534927,4.6090176374582761,17.943503546837146,0.0
774640.0783812654,3990767.5119837918,-32500.0,4.1761545097617496,-2.1820105971071255,0.17592308148887492,-6.9984521280296965,3.6879177107963375,7.2999854700379156,8.0331425741849642,-4.0730982623742529,4.2138692804008597,-4.2138692804008597,4.0730982623742529,15.500868896919291,0.0
779640.0783812654,3990767.5119837918,-32500.0,4.599532747386136,-1.7946275232725351,-0.18093836136123673,-6.1922335006778635,2.61844335015576,5.6396727900300814,6.8080599478193102,-3.4398087244467836,3.3915537404290008,-3.3915537404290008,3.4398087244467836,13.19731876213228,0.0
784640.0783812654,3990767.5119837918,-32500.0,4.6519384639914634,-1.3919086187030172,-0.37999841832582859,-5.3131515301276471,1.8194893141938002,4.3081394000063229,5.7294405376148552,-2.8212432352342378,2.6500628258125558,-2.6500628258125558,2.8212432352342378,11.141867071635611,0.0
789640.0783812654,3990767.5119837918,-32500.0,4.4691830722157997,-1.0307320160073097,-0.47173915984736348,-4.4723813563193513,1.242219617213401,3.2745316889051055,4.8076426593052739,-2.2709301703661677,2.0293821437605764,-2.0293821437605764,2.2709301703661677,9.3680501727559644,0.0
794640.0783812654,3990767.5119837918,-32500.0,4.1554952662489679,-0.73147648022548795,-0.49623816525005909,-3.7217368732008267,0.83405761889675401,2.487197644877114,4.033649864434798,-1.8066304934303639,1.5322470592146327,-1.5322470592146327,1.8066304934303639,7.868130080933545,0.0
799640.0783812654,3990767.5119837918,-32500.0,3.7825453892891399,-0.49537987504371744,-0.48180696220118824,-3.0778150365483197,0.54961353559580528,1.8934932363119663,3.3901674566085647,-1.4272386388515812,1.1448215157422539,-1.1448215157422539,1.4272386388515812,6.6150510201076198,0.0
804640.0783812654,3990767.5119837918,-32500.0,3.3957393590142901,-0.31522767238505778,-0.44701669107382586,-2.5385846600085236,0.35340756211648666,1.4477189537470125,2.8577880255225661,-1.1232623840160716,0.84808122393519514,-0.84808122393519514,1.1232623840160716,5.5751074214832492,0.0
809640.0783812654,3990767.5119837918,-32500.0,3.0216552210310641,-0.181151314726409,-0.40337668526895409,-2.0935003697943091,0.2191557484494136,1.1131392864930052,2.4180277371360859,-0.88259312550011659,0.6232878447775686,-0.6232878447775686,0.88259312550011659,4.7145853666878574,0.0
814640.0783812654,3990767.5119837918,-32500.0,2.6743357583848808,-0.083419647857496323,-0.35764681322767822,-1.7291443314965327,0.12798510892835155,0.86143929020000087,2.0545692453969959,-0.69334391892864478,0.45418029510313995,-0.45418029510313995,0.69334391892864478,4.0028338534034846,0.0
819640.0783812654,3990767.5119837918,-32500.0,2.3599368709960045,-0.013571142306282155,-0.31354947279049955,-1.4321034256789502,0.066593776023903484,0.67131000581562827,1.7535772127181741,-0.54503897360118625,0.32752516481346616,-0.32752516481346616,0.54503897360118625,3.413368782106776,0.0
824640.0783812654,3990767.5119837918,-32500.0,2.079909702549779,0.035289324939879727,-0.27294015418437745,-1.1902616285863747,0.025708567485791672,0.52692688477837457,1.5035848074168043,-0.42895172810861382,0.23293945829654583,-0.23293945829654583,0.42895172810861382,2.9239715652634204,0.0
829640.0783812654,3990767.5119837918,-32500.0,1.8330710995394386,0.068570608036139874,-0.23656948458619487,-0.99324218519002549,-0.0010954786845048965,0.41661596078268615,1.2952120749125087,-0.33804478369561602,0.16245244517184415,-0.16245244517184415,0.33804478369561602,2.5163274364059176,0.0
644640.0783812654,3995767.5119837918,-32500.0,-0.34077546789099322,0.70730038693488684,0.24248102271578795,-0.095195749434861865,0.32736083232561175,-0.011480294074887216,0.8371145871761112,0.39176904290214931,-0.48292874237012184,0.48292874237012184,-0.39176904290214931,1.4512282541725319,0.0
649640.0783812654,3995767.5119837918,-32500.0,-0.45379242538850983,0.7917273913596703,0.29395685305830976,-0.14769314579904111,0.38001558160754606,-0.029424563877401007,0.96431169816056328,0.44795081624699751,-0.53856371178177831,0.53856371178177831,-0.44795081624699751,1.6736392719130011,0.0
654640.0783812654,3995767.5119837918,-32500.0,-0.59683677843099769,0.88478190500326248,0.35772886554604238,-0.2208587526015702,0.44091004881978968,-0.057820360158296176,1.1160868695845538,0.51281791851711533,-0.59902373207187898,0.59902373207187898,-0.51281791851711533,1.9404292182202201,0.0
659640.0783812654,3995767.5119837918,-32500.0,-0.7768606057286892,0.98570880713657938,0.43670934566864317,-0.32246016439426195,0.51037714332600548,-0.10224413329294421,1.2979387722461233,0.58738332425926032,-0.66342737431331011,0.66342737431331011,-0.58738332425926032,2.2621730366403683,0.0
664640.0783812654,3995767.5119837918,-32500.0,-1.0015433665202573,1.0925728758439675,0.53426907918196931,-0.46298414034357083,0.58786453468781885,-0.17123854946890829,1.5166285698356192,0.67251640972456783,-0.7300388770608438,0.7300388770608438,-0.67251640972456783,2.6521495110548789,0.0
669640.0783812654,3995767.5119837918,-32500.0,-1.2785001602249475,1.2016433459978151,0.65405989170716294,-0.65630212914629371,0.6711137652906406,-0.27785871044497867,1.7803917547444945,0.7687675822995802,-0.79592345650318508,0.79592345650318508,-0.7687675822995802,3.1268979321662376,0.0
674640.0783812654,3995767.5119837918,-32500.0,-1.613542615391516,1.3066329607616762,0.79954594760820197,-0.92013128982780412,0.75479597585768032,-0.44192594404873026,2.0991013695747833,0.87614477936852186,-0.8566170948196975,0.8566170948196975,-0.87614477936852186,3.706671282583764,0.0
679640.0783812654,3995767.5119837918,-32500.0,-2.0073121575530299,1.3979422638533445,0.97300482382574505,-1.2757324992726617,0.82834790018484739,-0.69313886393479152,2.4842964837539374,0.99390582943410433,-0.90602382859905628,0.90602382859905628,-0.99390582943410433,4.4154701279971063,0.0
684640.0783812654,3995767.5119837918,-32500.0,-2.4493513755771019,1.4623632805284064,1.1736387392911629,-1.7456592420124502,0.87276611266192283,-1.0749260580301974,2.948937503884232,1.1205606119330382,-0.93703819605868377,0.93703819605868377,-1.1205606119330382,5.2799841580696834,0.0
689640.0783812654,3995767.5119837918,-32500.0,-2.9086677776040029,1.4843093441124604,1.3943492395361017,-2.3472879838879757,0.85639203989637391,-1.6480869542574301,3.5066676462227706,1.254537123584911,-0.94390144204132331,0.94390144204132331,-1.254537123584911,6.3261161885166635,0.0
694640.0783812654,3995767.5119837918,-32500.0,-3.3207823433536459,1.4506900560384755,1.6168746405803576,-3.0783246970528606,0.73069096781045006,-2.4911646544999266,4.1700477179536461,1.3963936887564339,-0.92804717285446781,0.92804717285446781,-1.3963936887564339,7.5707222927624471,0.0
699640.0783812654,3995767.5119837918,-32500.0,-3.5746899855789445,1.3628700125925968,1.8058556640622325,-3.8892480559719069,0.42951105833921788,-3.6900380365081054,4.9456257022093206,1.5539074736845011,-0.90979705048034065,0.90979705048034065,-1.5539074736845011,9.0049234698786016,0.0
704640.0783812654,3995767.5119837918,-32500.0,-3.511536259531252,1.2594143209092403,1.9048830383205464,-4.6397013883197191,-0.11967479964456103,-5.3016147900800474,5.8191166324711698,1.751049576127129,-0.94718743126551197,0.94718743126551197,-1.751049576127129,10.565018761917999,0.0
709640.0783812654,3995767.5119837918,-32500.0,-2.9612701431965451,1.2483467379667437,1.8425325863652653,-5.048714221739492,-0.95690409456151715,-7.2684680315871972,6.7229830241230903,2.0384958625178933,-1.1565159297600738,1.1565159297600738,-2.0384958625178933,12.091734955697737,0.0
714640.0783812654,3995767.5119837918,-32500.0,-1.8549303562928021,1.5293200167598819,1.5620097055701285,-4.684027738656745,-2.0055617228322968,-9.2675476070175051,7.4999799153934621,2.4929637971395904,-1.7109624771976366,1.7109624771976366,-2.4929637971395904,13.298664704478332,0.0
719640.0783812654,3995767.5119837918,-32500.0,-0.4212020516204929,2.3500896007478298,1.0835732179513256,-3.0925579584168981,-2.9515285794752399,-10.534345224133297,7.9141859529662959,3.1749223652260365,-2.7658002914549176,2.7658002914549176,-3.1749223652260365,13.825812512210751,0.0
724640.0783812654,3995767.5119837918,-32500.0,0.65772496133229719,3.8202703205796986,0.57176248030501453,-0.18314214210908716,-3.1823965327079038,-9.8538436081412915,7.8259553875294099,4.0115269389882835,-4.2613515790747281,4.2613515790747281,-4.0115269389882835,13.55963956006568,0.0
729640.0783812654,3995767.5119837918,-32500.0,0.46210751993864818,5.6081395325554064,0.30848663110972935,3.2479813792682046,-1.9990698710131394,-6.0588034366969552,7.7340789728246158,4.6475891722732046,-5.6848673837953632,5.6848673837953632,-4.6475891722732046,13.399059973085835,0.0
734640.0783812654,3995767.5119837918,-32500.0,-1.3559330807153545,6.8412651662426125,0.47767018256699867,5.4606972662790172,0.7909776027333546,0.88897620202445993,8.8698646940579273,4.4802906569610395,-6.1310461073161511,6.1310461073161511,-4.4802906569610395,15.363227312602614,0.0
739640.0783812654,3995767.5119837918,-32500.0,-3.8164974753023544,6.6321895584301629,0.91040685524197396,4.8469969317114519,4.3553925646661931,9.127258285967832,11.323225812750266,3.0912798433568054,-4.9504478533666081,4.9504478533666081,-3.0912798433568054,19.698904247648834,0.0
744640.0783812654,3995767.5119837918,-32500.0,-5.161505325697358,4.9205012992905424,1.1697187379387168,1.4352655878483569,7.2158707405464657,15.764089794988269,13.627375701848875,0.76262968476255011,-2.4727757803907977,2.4727757803907977,-0.76262968476255011,24.093580692574626,0.0
749640.0783812654,3995767.5119837918,-32500.0,-4.4396935318189916,2.574899353172285,0.97300033872910596,-3.0507704674271681,8.3726832744154862,18.92198566341267,14.744650881597586,-1.6315937267504892,0.18386788059210391,-0.18386788059210391,1.6315937267504892,26.584452015871168,0.0
754640.0783812654,3995767.5119837918,-32500.0,-2.1632200413336484,0.58642178933378719,0.41435943696534977,-6.7258246810541635,7.8950864795409039,18.713597346764704,14.545282895909427,-3.3152817756943,2.0561288349337645,-2.0561288349337645,3.3152817756943,26.691061428413317,0.0
759640.0783812654,3995767.5119837918,-32500.0,0.50988473998329198,-0.59794085051710355,-0.22444358674588291,-8.7449108054922053,6.4961145579483031,16.441744128113104,13.407351467767107,-4.0566406954404997,2.8829739178460043,-2.8829739178460043,4.0566406954404997,24.963054803467156,0.0
764640.0783812654,3995767.5119837918,-32500.0,2.7214108270030781,-1.0525652335035369,-0.72934625505492767,-9.2464935470550902,4.8733726563175885,13.426119811150651,11.806520858284351,-4.0535313320824518,2.9160391829178685,-2.9160391829178685,4.0535313320824518,22.237440541003089,0.0
769640.0783812654,3995767.5119837918,-32500.0,4.1632341200432625,-1.0492881662191995,-1.0295357663407012,-8.7578719764860047,3.4269129182235409,10.488183008519879,10.101568736174601,-3.6275308164259181,2.5277194086331258,-2.5277194086331258,3.6275308164259181,19.195025911415136,0.0
774640.0783812654,3995767.5119837918,-32500.0,4.8884085325540045,-0.83398374321930901,-1.1486823259025702,-7.7783184824809464,2.295041937647925,7.9845349482993084,8.4974424409035354,-3.0384382170995483,1.9988642061231789,-1.9988642061231789,3.0384382170995483,16.251738850963683,0.0
779640.0783812654,3995767.5119837918,-32500.0,5.0836079864266308,-0.56158708326997764,-1.1425459867212293,-6.6453304520721055,1.4735604550318873,5.9951703304433108,7.0841152224500465,-2.4418186074199584,1.4845002011708985,-1.4845002011708985,2.4418186074199584,13.609298239301117,0.0
784640.0783812654,3995767.5119837918,-32500.0,4.9401955895358558,-0.30915544376639731,-1.0640112456395432,-5.5461337401991129,0.90501804247126671,4.4747323145108968,5.8839563265903374,-1.9111399677440168,1.0491686359091732,-1.0491686359091732,1.9111399677440168,11.335568827010302,0.0
789640.0783812654,3995767.5119837918,-32500.0,4.6076354518001024,-0.1054907232133714,-0.95166162505282326,-4.5662771369592274,0.52420395954619292,3.337438480281341,4.8857440426385805,-1.4704024066661803,0.70747685618193534,-0.70747685618193534,1.4704024066661803,9.4269929962094956,0.0
794640.0783812654,3995767.5119837918,-32500.0,4.1879912095214173,0.045333786030163171,-0.82980026533972051,-3.7327068361626927,0.27553218734278651,2.496057538668027,4.0647139570331854,-1.1186430016268079,0.45153766830386638,-0.45153766830386638,1.1186430016268079,7.8475678316009594,0.0
799640.0783812654,3995767.5119837918,-32500.0,3.7448666771249188,0.1497351485127825,-0.71202937997451843,-3.0425811497862125,0.11688959979864402,1.8762638212495921,3.3929563525194832,-0.84455609878632298,0.26592108768947892,-0.26592108768947892,0.84455609878632298,6.5503879224795014,0.0
804640.0783812654,3995767.5119837918,-32500.0,3.3147114387199288,0.21722990783644511,-0.60496415724592378,-2.4801419914545089,0.018273126735841704,1.4196407404505664,2.8441760067808088,-0.63408112558695973,0.1346402299268733,-0.1346402299268733,0.63408112558695973,5.4884395299391633,0.0
809640.0783812654,3995767.5119837918,-32500.0,2.9163020291780275,0.25709159460118147,-0.5110578963216118,-2.0257021617380189,-0.040946361197899697,1.0821949630166106,2.3954783605820396,-0.47385259944644442,0.043859695589268499,-0.043859695589268499,0.47385259944644442,4.6193425455541615,0.0
814640.0783812654,3995767.5119837918,-32500.0,2.5575867084419452,0.27712094734069875,-0.43048069828621283,-1.6599872698722604,-0.074647870051972764,0.8315652546556922,2.027727240747041,-0.35247517806269124,-0.01743388128095022,0.01743388128095022,0.35247517806269124,3.9069177898950067,0.0
819640.0783812654,3995767.5119837918,-32500.0,2.2402446631505679,0.28340707815721522,-0.36227163955999286,-1.3659404926412391,-0.09203993496130887,0.64424149282829668,1.725284879072035,-0.2607617946258588,-0.057612072397041247,0.057612072397041247,0.2607617946258588,3.3212115272373706,0.0
824640.0783812654,3995767.5119837918,-32500.0,1.9625696310496679,0.28049407233114299,-0.3050034865774629,-1.129238381366092,-0.099174348957192321,0.50323961868761624,1.4755349326004137,-0.1915370403064483,-0.082863936567198315,0.082863936567198315,0.1915370403064483,2.8378636008712794,0.0
829640.0783812654,3995767.5119837918,-32500.0,1.7212166452770588,0.27167141557212021,-0.25714327719676289,-0.93820443040774004,-0.099999137842180938,0.39630410803894839,1.2683681602331571,-0.13929988279670005,-0.097685038185276907,0.097685038185276907,0.13929988279670005,2.4372618993987749,0.0
834640.0783812654,3995767.5119837918,-32500.0,1.5122193037032527,0.25926611253011023,-0.21723318190504645,-0.78348320610534561,-0.097072218905070673,0.31457550291375891,1.0957097295271907,-0.099878370799578106,-0.10530270524205433,0.10530270524205433,0.099878370799578106,2.1036996283960532,0.0
644640.0783812654,4000767.5119837918,-32500.0,-0.050883670275413788,0.78271469558873652,0.17109151671509396,0.052554281276137281,0.36016867241111106,0.048178019955902956,0.86857713098712885,0.35282343406915129,-0.51256248928501191,0.51256248928501191,-0.35282343406915129,1.5074727606727991,0.0
649640.0783812654,4000767.5119837918,-32500.0,-0.11722931337370027,0.88972597486700367,0.21014869253690516,0.033733984434726465,0.42495803109788138,0.048200666705931629,0.99896557546619347,0.40534209172347252,-0.5801080595234912,0.5801080595234912,-0.40534209172347252,1.7321674748208564,0.0
654640.0783812654,4000767.5119837918,-32500.0,-0.20628043207594476,1.0124799189554241,0.25955562387493425,0.0027818761501867692,0.50280220312833124,0.043946791413071049,1.1537741386083948,0.46667340337137592,-0.65644941892134379,0.65644941892134379,-0.46667340337137592,1.9992128884383555,0.0
659640.0783812654,4000767.5119837918,-32500.0,-0.32459560395407433,1.1525027114601532,0.32222801661440431,-0.045941592704465725,0.5960726652356263,0.032145597757443807,1.3381012168322226,0.53812059944121016,-0.74190280600521152,0.74190280600521152,-0.53812059944121016,2.3177410773725118,0.0
664640.0783812654,4000767.5119837918,-32500.0,-0.480093916860035,1.3107897860136393,0.40182758113802863,-0.12045603680973518,0.70713910611409359,0.0074258045495476949,1.5580202499138696,0.6209733627798586,-0.83617759857911067,0.83617759857911067,-0.6209733627798586,2.6988298557592652,0.0
669640.0783812654,4000767.5119837918,-32500.0,-0.68181647381585053,1.4872564353270954,0.5028268386931094,-0.23198810731109448,0.83790036117516919,-0.038962852092926187,1.8206104532647762,0.71634972088041704,-0.93795991332865802,0.93795991332865802,-0.71634972088041704,3.1557201900323197,0.0
674640.0783812654,4000767.5119837918,-32500.0,-0.93904731016638354,1.679902917654482,0.63042694987375414,-0.39585583038685479,0.9888513826701214,-0.1211400488879593,2.1338277277208428,0.82495148336675928,-1.0443510244025143,1.0443510244025143,-0.82495148336675928,3.7038284884583756,0.0
679640.0783812654,4000767.5119837918,-32500.0,-1.2591872551174617,1.8836541003106346,0.79013671760782533,-0.63206916442116501,1.157354523543741,-0.26157813231028892,2.5060629529228211,0.9467420353865682,-1.1502238369186304,1.1502238369186304,-0.9467420353865682,4.3602671352229505,0.0
684640.0783812654,4000767.5119837918,-32500.0,-1.6434075835974027,2.0889806658655115,0.98665988937665072,-0.96477938426109966,1.3346346262028974,-0.49526495149604849,2.9451557064381335,1.0806426470496664,-1.2477619638259325,1.2477619638259325,-1.0806426470496664,5.1423205879607341,0.0
689640.0783812654,4000767.5119837918,-32500.0,-2.078760305184606,2.2808118757889173,1.2214989884962055,-1.4186654333189901,1.5009392544812517,-0.87469456078193542,3.4565812036120267,1.2245599492520407,-1.3269033366219261,1.3269033366219261,-1.2245599492520407,6.0638565096341832,0.0
694640.0783812654,4000767.5119837918,-32500.0,-2.5255886095072646,2.4391505891707297,1.4884245552461244,-2.0085455270218611,1.6186123739827059,-1.4736333083135051,4.0406449578060473,1.3765037176008839,-1.3783044231285528,1.3783044231285528,-1.3765037176008839,7.127916908799051,0.0
699640.0783812654,4000767.5119837918,-32500.0,-2.9011589566565461,2.5444332659792233,1.7659561205601837,-2.7161512225095157,1.6243129358276664,-2.3833354483366298,4.6888694737987962,1.5382746012004511,-1.4018373748333848,1.4018373748333848,-1.5382746012004511,8.312845138273147,0.0
704640.0783812654,4000767.5119837918,-32500.0,-3.0673494587363552,2.5927039714135618,2.0070564526422334,-3.447217311100454,1.4258310749708423,-3.6860832838882573,5.3786670036550568,1.7238051159793197,-1.4248187555186937,1.4248187555186937,-1.7238051159793197,9.5492083160229662,0.0
709640.0783812654,4000767.5119837918,-32500.0,-2.8457023526975171,2.6254491182972304,2.1299664022913927,-3.9701834353597025,0.91772370781271684,-5.3776552736465533,6.0561992159081388,1.9728881383692733,-1.5319327301192647,1.5319327301192647,-1.9728881383692733,10.689195168594578,0.0
714640.0783812654,4000767.5119837918,-32500.0,-2.1043864847892428,2.7684209065526497,2.0221027021895615,-3.8710635089963232,0.041255273100452426,-7.2044442180573647,6.5906578132370619,2.3629717979649301,-1.8949976706755058,1.8949976706755058,-2.3629717979649301,11.490726782691226,0.0
719640.0783812654,4000767.5119837918,-32500.0,-0.95644742616887213,3.240148092479898,1.5777628060029785,-2.6324077046042165,-1.0904463800360573,-8.4269935815236678,6.756025010497746,2.9911775082019112,-2.7553437550935698,2.7553437550935698,-2.9911775082019112,11.705333217962082,0.0
724640.0783812654,4000767.5119837918,-32500.0,0.010067819647600708,4.2417330708669549,0.78058664099632435,-0.0086852359998845878,-2.0497368279507131,-7.7004495269251887,6.573332870886115,3.8770303731569284,-4.2717945640660719,4.2717945640660719,-3.8770303731569284,11.513829231351636,0.0
729640.0783812654,4000767.5119837918,-32500.0,-0.16843178302034162,5.6723851517951234,-0.21826744021853522,3.3073453165544815,-2.142537963054314,-3.5450590964535436,7.1566568505466943,4.7818550220116736,-6.2106840161974288,6.2106840161974288,-4.7818550220116736,12.423795112379386,0.0
734640.0783812654,4000767.5119837918,-32500.0,-1.9816585981368442,6.8959633550413111,-1.150264243310015,5.409612935840113,-0.90131034135477439,4.2708945640861549,9.2334001221666071,5.1393149950525165,-7.7612839905210835,7.7612839905210835,-5.1393149950525165,16.35478674091102,0.0
739640.0783812654,4000767.5119837918,-32500.0,-4.4252137636866733,7.0747113080124384,-1.8353333963612408,4.3777569657522628,1.2526740746098997,13.485768492652413,12.821122226410093,4.4207701247844478,-7.9923376617029129,7.9923376617029129,-4.4207701247844478,22.214408158649611,0.0
744640.0783812654,4000767.5119837918,-32500.0,-5.5344135197206432,5.9982504018930998,-2.2954652849271167,0.29844011109330842,3.1400662242869384,20.407761289682238,15.551903409864249,2.7397199861363459,-6.7521167675660356,6.7521167675660356,-2.7397199861363459,27.152276682325411,0.0
749640.0783812654,4000767.5119837918,-32500.0,-4.3638431044204893,4.3167276302075726,-2.6108816020586723,-4.6351860989499505,3.8794482078554444,22.856783414304001,16.519939547629541,0.85201673849895299,-4.8286530907936118,4.8286530907936118,-0.85201673849895299,29.356878065478014,0.0
754640.0783812654,4000767.5119837918,-32500.0,-1.7079121994534707,2.8271752905037011,-2.7821839808487039,-8.2544244638832147,3.5130561404463214,21.405645349891046,15.887397127779469,-0.53585972939042659,-3.1210806675502627,3.1210806675502627,0.53585972939042659,28.733793092583969,0.0
759640.0783812654,4000767.5119837918,-32500.0,1.0781943443463968,1.8706328886778112,-2.7788714475799057,-9.8580596590049172,2.6033533334405963,17.958079521105542,14.281019175028675,-1.2202818445575847,-2.0028401382133132,2.0028401382133132,1.2202818445575847,26.216187298328904,0.0
764640.0783812654,4000767.5119837918,-32500.0,3.171277011301247,1.3826313480721992,-2.6146889995466704,-9.8658557486687855,1.6451007391408892,14.113852151510157,12.305128445521838,-1.3677290668576974,-1.4026574305748447,1.4026574305748447,1.3677290668576974,22.855855438609336,0.0
769640.0783812654,4000767.5119837918,-32500.0,4.3957508277445614,1.1744253148953547,-2.3445010395846166,-8.9780171601066705,0.87344742521105967,10.691627758339253,10.345098254254815,-1.2258700226673032,-1.1172676070482352,1.1172676070482352,1.2258700226673032,19.384163377723546,0.0
774640.0783812654,4000767.5119837918,-32500.0,4.9081634578583708,1.0931431736460004,-2.0290632818173946,-7.7377241285696776,0.33551425494266901,7.9444039134045292,8.5846048767779219,-0.97733701579925325,-0.98326007102935653,0.98326007102935653,0.97733701579925325,16.184766878997412,0.0
779640.0783812654,4000767.5119837918,-32500.0,4.9413646674385783,1.0522620815508532,-1.7136174144093046,-6.4613230768275161,-0.0038028463922222719,5.8528021906771874,7.0825591198208357,-0.72159108691543805,-0.90779180164519646,0.90779180164519646,0.72159108691543805,13.407199663372033,0.0
784640.0783812654,4000767.5119837918,-32500.0,4.6941457151623505,1.0134962740056694,-1.4242376869873448,-5.2990713449560713,-0.19899089559021479,4.3040050374762533,5.8357977873014653,-0.50076856749484089,-0.8483902528719397,0.8483902528719397,0.50076856749484089,11.074320861158276,0.0
789640.0783812654,4000767.5119837918,-32500.0,4.3064033833960425,0.96474212502853018,-1.1722199896739169,-4.3045490493704266,-0.29849796611340229,3.1729244999669848,4.8158193181827098,-0.32616382340250472,-0.78963938253205102,0.78963938253205102,0.32616382340250472,9.1507976322031688,0.0
794640.0783812654,4000767.5119837918,-32500.0,3.8665309182792793,0.90553185280670245,-0.95971296515454563,-3.4823979491912498,-0.33834783260590018,2.3514428597909651,3.9871586090034175,-0.19523206191232989,-0.72824775443604339,0.72824775443604339,0.19523206191232989,7.5802787137833967,0.0
799640.0783812654,4000767.5119837918,-32500.0,3.4258762791984787,0.83937663697714693,-0.78408002758291506,-2.8158677283367064,-0.34303757320956285,1.7549611032229513,3.3155361331253346,-0.10058566922113948,-0.66536237186914327,0.66536237186914327,0.10058566922113948,6.3035883973807278,0.0
804640.0783812654,4000767.5119837918,-32500.0,3.0116067690859625,0.77032710058104259,-0.64066974928561737,-2.2811875067138971,-0.32833518033993397,1.3204696218029912,2.7709238558582951,-0.034151869610141383,-0.60314938359835713,0.60314938359835713,0.034151869610141383,5.2666536762140881,0.0
809640.0783812654,4000767.5119837918,-32500.0,2.6360904085704,0.70170643126358956,-0.52436286074143668,-1.8543936294970036,-0.30398741844628452,1.0022522002684326,2.3282627422960038,0.011192435618872898,-0.5435051036277061,0.5435051036277061,-0.011192435618872898,4.4232285549771087,0.0
814640.0783812654,4000767.5119837918,-32500.0,2.3031287537577025,0.63583043410404116,-0.43033549081387928,-1.5141533672720808,-0.27580270315950867,0.76758614693586802,1.9671833432843708,0.041172306919268709,-0.48771416972827969,0.48771416972827969,-0.041172306919268709,3.735156052539971,0.0
819640.0783812654,4000767.5119837918,-32500.0,2.0118694512858593,0.57411232233948217,-0.35437140696824171,-1.2426012267136508,-0.24710213320221744,0.59318731627940335,1.67136931837257,0.060164122895410233,-0.43647601610576242,0.43647601610576242,-0.060164122895410233,3.1715891696917984,0.0
824640.0783812654,4000767.5119837918,-32500.0,1.7591597522861531,0.51727605324040304,-0.29293679777686898,-1.0252693051013608,-0.21967736670111959,0.46250465831188564,1.4278533973294549,0.071414865589170456,-0.39004165334944396,0.39004165334944396,-0.071414865589170456,2.707874196594616,0.0
829640.0783812654,4000767.5119837918,-32500.0,1.5409070326629284,0.46556593139512087,-0.24314244209292807,-0.85066315743012444,-0.19440239042298052,0.36374737436735144,1.2263670075285467,0.077288213767542274,-0.34835775023725302,0.34835775023725302,-0.077288213767542274,2.3244228357315051,0.0
834640.0783812654,4000767.5119837918,-32500.0,1.3528301655502086,0.41891592752876256,-0.20266102060385294,-0.70974772424571697,-0.17161544202816092,0.28847940348976076,1.0587851302498328,0.07948284364663441,-0.31118404342979367,0.31118404342979367,-0.07948284364663441,2.0057068291740885,0.0
644640.0783812654,4005767.5119837918,-32500.0,0.26193947185270205,0.81464092479728001,0.084686594342939209,0.21062558084797356,0.37214556246939007,0.11163388276284848,0.91271584983119802,0.29028931862074836,-0.5127433942043248,0.5127433942043248,-0.29028931862074836,1.6021404833872963,0.0
649640.0783812654,4005767.5119837918,-32500.0,0.25027564786553919,0.93426444758600879,0.10593405649748998,0.22988945309295206,0.44304187479827506,0.13159350222543215,1.0497520998508802,0.33338288427335611,-0.58622017588177511,0.58622017588177511,-0.33338288427335611,1.8394958932810219,0.0
654640.0783812654,4005767.5119837918,-32500.0,0.22615680258339096,1.074279985569057,0.13346443529420468,0.24757442736770816,0.52985491825970821,0.15455459287085196,1.2121135966375181,0.38385916299077821,-0.67131513023121392,0.67131513023121392,-0.38385916299077821,2.1202434364294378,0.0
659640.0783812654,4005767.5119837918,-32500.0,0.18449709928216765,1.2379371240881185,0.16930491673977902,0.2611475707385672,0.63633297508129905,0.18021860255082583,1.4048414043332988,0.44289408044407397,-0.76946327204140541,0.76946327204140541,-0.44289408044407397,2.4529578480812573,0.0
664640.0783812654,4005767.5119837918,-32500.0,0.11856774928067719,1.4285612878911778,0.21613557491040097,0.26651914745676902,0.76690295023840505,0.20748049913675989,1.6337633346377549,0.51170055638191247,-0.88187588419709717,0.88187588419709717,-0.51170055638191247,2.8475655860631419,0.0
669640.0783812654,4005767.5119837918,-32500.0,0.019723902663734735,1.6491555388057704,0.27745204214714136,0.25727530574415702,0.9265279117995312,0.23370127420508058,1.9053524107662354,0.59140970075857724,-1.0091949735483985,1.0091949735483985,-0.59140970075857724,3.3151376677211641,0.0
674640.0783812654,4005767.5119837918,-32500.0,-0.1226290873675117,1.9016709546977291,0.35770247004267897,0.22365313202409798,1.120225459370642,0.25344447486373461,2.2262873109815193,0.68287325504831742,-1.1509409256162531,1.1509409256162531,-0.68287325504831742,3.8672140358516551,0.0
679640.0783812654,4005767.5119837918,-32500.0,-0.32044339144576595,2.1857752004734734,0.4622996787203873,0.15133217194176385,1.3519071788942278,0.25635458282016949,2.6024526755448152,0.78638120309366277,-1.3047061934508166,1.3047061934508166,-0.78638120309366277,4.5142442358177215,0.0
684640.0783812654,4005767.5119837918,-32500.0,-0.58508097766797684,2.4969446413312477,0.59729020767990904,0.020410244310904796,1.6219426820144507,0.22377040718742741,3.0369505778606642,0.90135346593682431,-1.4651420753758149,1.4651420753758149,-0.90135346593682431,5.2624539107814892,0.0
689640.0783812654,4005767.5119837918,-32500.0,-0.92278893233064685,2.8238446337211167,0.76824189220151906,-0.19436934193548189,1.9224862181352691,0.12377436249712913,3.5264965532168051,1.0262495501974835,-1.6230826963615761,1.6230826963615761,-1.0262495501974835,6.1080768523669606,0.0
694640.0783812654,4005767.5119837918,-32500.0,-1.3259260182423471,3.1454859832567368,0.97755107083627213,-0.519624833250111,2.2292423217753314,-0.094825275608675555,4.0555095305471909,1.1593762505566532,-1.7658916534788691,1.7658916534788691,-1.1593762505566532,7.0275631256920184,0.0
699640.0783812654,4005767.5119837918,-32500.0,-1.7586698749481424,3.4299932326174232,1.2189107663974388,-0.97057399404761535,2.4884922817709252,-0.50640580827923243,4.5878955299637738,1.3021328780708465,-1.8816590677956229,1.8816590677956229,-1.3021328780708465,7.9626514677015123,0.0
704640.0783812654,4005767.5119837918,-32500.0,-2.139414408869925,3.6394861771240059,1.467475468991261,-1.5216357996581611,2.6003061853509806,-1.2003425655477582,5.0597100379741224,1.4674854849312482,-1.9723689008217506,1.9723689008217506,-1.4674854849312482,8.801867073822045,0.0
709640.0783812654,4005767.5119837918,-32500.0,-2.3328842408352579,3.7490857450379349,1.6654852194157355,-2.0537073970111002,2.4059815946199152,-2.2373158764972816,5.3833103192040381,1.6969698703860419,-2.0831631428899606,2.0831631428899606,-1.6969698703860419,9.3701809114391494,0.0
714640.0783812654,4005767.5119837918,-32500.0,-2.1863993705562792,3.787771082810151,1.7083262273387463,-2.2901674173563085,1.7034671670250261,-3.5306179934897912,5.4651988351747516,2.0849379673613373,-2.3498212009188815,2.3498212009188815,-2.0849379673613373,9.4706285304790061,0.0
719640.0783812654,4005767.5119837918,-32500.0,-1.6624868591565976,3.8909896999947557,1.4478899584913947,-1.7935156080335217,0.33400958037017464,-4.625169042139798,5.1581513724214858,2.789951910645744,-3.0391162299602836,3.0391162299602836,-2.789951910645744,9.1143388180191334,0.0
724640.0783812654,4005767.5119837918,-32500.0,-1.0652622622598724,4.3028790353485693,0.74331208648409863,-0.19096768075416412,-1.6311485833095707,-4.4744998290058335,4.9749712007148297,3.976517631860875,-4.4947360653718862,4.4947360653718862,-3.976517631860875,9.203007585552708,0.0
729640.0783812654,4005767.5119837918,-32500.0,-1.1185759673029161,5.2158589268054074,-0.42576340380981476,2.2389690232275736,-3.7035584929723528,-1.6344447268017388,6.6464025936291282,5.622394588640681,-6.8638151326924515,6.8638151326924515,-5.622394588640681,11.785883361436381,0.0
734640.0783812654,4005767.5119837918,-32500.0,-2.4028102874022235,6.4615135129777457,-1.8511731767485864,4.0493455033849539,-5.1022671406345914,4.5650073561936289,9.3286743062172981,7.2822159093564647,-9.6766460857948129,9.6766460857948129,-7.2822159093564647,17.249798172718243,0.0
739640.0783812654,4005767.5119837918,-32500.0,-4.3142992974557481,7.4420958347323021,-3.1454407177720212,3.3846291930690477,-5.3528001331976425,12.468784640028764,13.445354745306574,8.1937262178470291,-11.831797796126253,11.831797796126253,-8.1937262178470291,23.449946877118876,0.0
744640.0783812654,4005767.5119837918,-32500.0,-5.1951558366004686,7.6338278353399103,-3.9738061578799679,0.0035570873427353831,-4.7370833921381275,18.611807570688729,16.123875944015293,7.9057467737419689,-12.411753422077846,12.411753422077846,-7.9057467737419689,27.95232498406115,0.0
749640.0783812654,4005767.5119837918,-32500.0,-4.1252942741222229,7.0737189684681772,-4.2396645974297211,-4.2187751731695977,-3.9039073913393643,20.702623163120304,16.826728340437562,6.7055660446511158,-11.46919801945492,11.46919801945492,-6.7055660446511158,29.470431156772246,0.0
754640.0783812654,4005767.5119837918,-32500.0,-1.7790535495427242,6.1638371184730651,-4.0573932638463654,-7.2831255249165334,-3.235582941648226,19.207035827560887,15.909916501415342,5.2419658445015118,-9.7487812130293676,9.7487812130293676,-5.2419658445015118,28.247789777157102,0.0
759640.0783812654,4005767.5119837918,-32500.0,0.64252588929800569,5.2374752584382405,-3.615760372677272,-8.5662900558003194,-2.7639647010839883,15.952469876568415,14.102271110919874,3.965235305667933,-7.9371569359130181,7.9371569359130181,-3.965235305667933,25.358971405598698,0.0
764640.0783812654,4005767.5119837918,-32500.0,2.4391154039003005,4.4295092401109128,-3.076415054737371,-8.4814897828934441,-2.4032653722456394,12.431081130972036,12.0238546530876,3.0053489832145219,-6.3617815045200379,6.3617815045200379,-3.0053489832145219,21.848733673268804,0.0
769640.0783812654,4005767.5119837918,-32500.0,3.4870867105782075,3.7564525721748465,-2.5415739978065535,-7.6617628696637414,-2.0908169634679417,9.3581924981657281,10.033346667992362,2.3218816163672926,-5.0926913764040274,5.0926913764040274,-2.3218816163672926,18.378376511550524,0.0
774640.0783812654,4005767.5119837918,-32500.0,3.9361065399177888,3.1977306029352257,-2.0620579587026011,-6.5732516931486824,-1.8039964573300078,6.9248786581951265,8.2829107032216207,1.8361003948398955,-4.0963094730384508,4.0963094730384508,-1.8361003948398955,15.261076275521617,0.0
779640.0783812654,4005767.5119837918,-32500.0,3.9871026463031853,2.7301276737014968,-1.655687377535296,-5.4755592895278857,-1.5408103591018663,5.0890996224664224,6.8092704284415948,1.482627128131992,-3.3171070812468599,3.3171070812468599,-1.482627128131992,12.597703908398644,0.0
784640.0783812654,4005767.5119837918,-32500.0,3.8056987596707121,2.3358053469288866,-1.3225859891441933,-4.486592101934499,-1.3046719756208194,3.7378047872628977,5.5967420863350581,1.2173241436653008,-2.7051549207960486,2.7051549207960486,-1.2173241436653008,10.383579693378397,0.0
789640.0783812654,4005767.5119837918,-32500.0,3.5065776881200437,2.0018802907125965,-1.0549165291825036,-3.6452995457639914,-1.0979938548885464,2.7546854528272497,4.6106705103262362,1.0123263182385571,-2.2213486608663429,2.2213486608663429,-1.0123263182385571,8.570110342979639,0.0
794640.0783812654,4005767.5119837918,-32500.0,3.1618004421032246,1.7186805323867764,-0.8422677154047713,-2.9519912565079665,-0.92078480622091596,2.0422864850504716,3.8129340667020997,0.85014752216633638,-1.8361814941897772,1.8361814941897772,-0.85014752216633638,7.0958538988271789,0.0
799640.0783812654,4005767.5119837918,-32500.0,2.8133222106765134,1.478475281394225,-0.67431221707224687,-2.3907035789470417,-0.77112694916428215,1.5256260749805257,3.1683567720425554,0.71952999014133012,-1.5274833403788481,1.5274833403788481,-0.71952999014133012,5.9007381283705902,0.0
804640.0783812654,4005767.5119837918,-32500.0,2.4835759945080529,1.2747872456137952,-0.54192835792137217,-1.9405626621992191,-0.64602822619794331,1.1494254319375812,2.646850720394593,0.612925699521639,-1.2784943896508223,1.2784943896508223,-0.612925699521639,4.9317148423201367,0.0
809640.0783812654,4005767.5119837918,-32500.0,2.1830456242095342,1.1020648950396124,-0.43752644130804741,-1.5810567731201581,-0.54212068747132325,0.87384022764416691,2.2236661542271858,0.52504657993146842,-1.0764394376207647,1.0764394376207647,-0.52504657993146842,4.1442848367576559,0.0
814640.0783812654,4005767.5119837918,-32500.0,1.9152628163083418,0.95552557605667332,-0.35500241960092471,-1.2941423363872351,-0.45610396136009046,0.6704742487956975,1.8788790716389316,0.45203716917018999,-0.9115040347312503,0.9115040347312503,-0.45203716917018999,3.5021701299332868,0.0
819640.0783812654,4005767.5119837918,-32500.0,1.6799417343848615,0.83106431357479171,-0.28954386727141135,-1.0648041017071177,-0.38497784341869379,0.51917947334429226,1.5966407830920724,0.39099400157180852,-0.77609637839591361,0.77609637839591361,-0.39099400157180852,2.9762709598458024,0.0
824640.0783812654,4005767.5119837918,-32500.0,1.4748702303649899,0.72518168592013899,-0.2373999300119666,-0.8809249130704877,-0.3261349660768626,0.40565982873199702,1.3644212378177869,0.33967617159896391,-0.66430829395936308,0.66430829395936308,-0.33967617159896391,2.5434516916342664,0.0
829640.0783812654,4005767.5119837918,-32500.0,1.2970102147717375,0.63491522985355153,-0.19566459964115188,-0.73289541170103545,-0.27737234389292664,0.31974128276563651,1.1723375290906715,0.29632290102250014,-0.5715163767700786,0.5715163767700786,-0.29632290102250014,2.1853954556510895,0.0
834640.0783812654,4005767.5119837918,-32500.0,1.1431118834427449,0.55777177496285502,-0.16209185597303194,-0.61316787644076232,-0.23686170678732149,0.25414759357387423,1.0125938581228768,0.25953254166150752,-0.49408368317549956,0.49408368317549956,-0.25953254166150752,1.8876169611607978,0.0
644640.0783812654,4010767.5119837918,-32500.0,0.58121426388313624,0.79803536092039129,-0.0074150248473409779,0.3711627179155616,0.36107737912561089,0.1758545562887964,0.96715668839042923,0.20868079101577972,-0.47977453579387086,0.47977453579387086,-0.20868079101577972,1.7283493738909226,0.0
649640.0783812654,4010767.5119837918,-32500.0,0.62761688570801244,0.91815376229680046,-0.0065374399149309963,0.43017040405924717,0.43094904911494486,0.21642286963562682,1.1139812935781888,0.23776090456536375,-0.55163400019562125,0.55163400019562125,-0.23776090456536375,1.9879088851457645,0.0
654640.0783812654,4010767.5119837918,-32500.0,0.67333547824773488,1.0598636131754153,-0.0046092759947404102,0.49909557806831562,0.51704628694043575,0.26774811137403171,1.2881803121389834,0.27157697678311432,-0.63608847940083202,0.63608847940083202,-0.27157697678311432,2.2952944879626753,0.0
659640.0783812654,4010767.5119837918,-32500.0,0.71541804561002609,1.2271011374546863,-0.0010488709494198096,0.57904394870187048,0.623479565721342,0.3328405459731737,1.495220933205313,0.31086729745945274,-0.7352942819959728,0.7352942819959728,-0.31086729745945274,2.6598823017328201,0.0
664640.0783812654,4010767.5119837918,-32500.0,0.74925252023068956,1.4242054132998254,0.0050109136622107538,0.67068911859811231,0.75529530999592775,0.41544237509343601,1.7413995561881881,0.3564156196597224,-0.85156288424198068,0.85156288424198068,-0.3564156196597224,3.0923869839299267,0.0
669640.0783812654,4010767.5119837918,-32500.0,0.76785380888152333,1.6556497776973025,0.014853295258540998,0.77372791500330618,0.91849499815573477,0.52003303120392075,2.0336497978192138,0.40901114297053914,-0.9871826184239989,0.9871826184239989,-0.40901114297053914,3.6044705772044123,0.0
674640.0783812654,4010767.5119837918,-32500.0,0.76095809686248339,1.9254622855529935,0.030357557738979454,0.8859455141865995,1.1198023875756258,0.65160690810470989,2.3789830814269819,0.46939700658202704,-1.1440778507558311,1.1440778507558311,-0.46939700658202704,4.2076868177222062,0.0
679640.0783812654,4010767.5119837918,-32500.0,0.71400520398531797,2.2361230510775107,0.054231849303574033,1.0016893107237108,1.3658653868914463,0.81494402981752556,2.7832326541652725,0.53824167975602211,-1.3232298485219294,1.3232298485219294,-0.53824167975602211,4.9111846191631514,0.0
684640.0783812654,4010767.5119837918,-32500.0,0.60730045179875947,2.5866444723295055,0.090279004710976635,1.1095320114352158,1.6612905433350305,1.0128513601581968,3.2485427973475449,0.61624643693324055,-1.5238053050000349,1.5238053050000349,-0.61624643693324055,5.7172102264607743,0.0
689640.0783812654,4010767.5119837918,-32500.0,0.41609028476787668,2.9695179481730003,0.14361278342640918,1.1890395586268203,2.0044211653145392,1.2424791093796104,3.7687257831703467,0.70469318281858417,-1.7420775443856291,1.7420775443856291,-0.70469318281858417,6.6129420996734112,0.0
694640.0783812654,4010767.5119837918,-32500.0,0.11309096496113195,3.366438686968301,0.2206004736250628,1.207131178680916,2.3790609832763296,1.4883818688038097,4.3212901751910531,0.80715445588151935,-1.9706650944592257,1.9706650944592257,-0.80715445588151935,7.5567946477807624,0.0
699640.0783812654,4010767.5119837918,-32500.0,-0.32381608038269116,3.7436487326249779,0.32802863953754702,1.1161014701624992,2.7396433371020144,1.7109250243598746,4.8550420822732985,0.9338865350433847,-2.1997014379609405,2.1997014379609405,-0.9338865350433847,8.4579808154912861,0.0
704640.0783812654,4010767.5119837918,-32500.0,-0.89508372228279132,4.0501798454866158,0.47052966996330997,0.8588273294536457,2.9877248496836617,1.8303227408851226,5.274039226916333,1.1116111725861058,-2.4237190077552517,2.4237190077552517,-1.1116111725861058,9.1528690355102498,0.0
709640.0783812654,4010767.5119837918,-32500.0,-1.5523358123160911,4.2270258838429831,0.64479870573879317,0.39237806438093087,2.9422359617185334,1.713431786178901,5.4267251034376729,1.4020933155301187,-2.6610813038161036,2.6610813038161036,-1.4020933155301187,9.3996111540188956,0.0
714640.0783812654,4010767.5119837918,-32500.0,-2.1693699897239349,4.2408164717333783,0.82927343725679037,-0.2542923910536401,2.320834233654419,1.1882552992255535,5.1454138479815175,1.9296187013299262,-2.9934727463963942,2.9934727463963942,-1.9296187013299262,8.9723781965385765,0.0
719640.0783812654,4010767.5119837918,-32500.0,-2.5489831522361173,4.1518837454615785,0.97065527826158515,-0.88614902672011042,0.78034340969607907,0.1424644680244995,4.6336903370178577,2.9021106392932907,-3.6204166760816427,3.6204166760816427,-2.9021106392932907,8.1274735439388266,0.0
724640.0783812654,4010767.5119837918,-32500.0,-2.5424980769642747,4.1891054465128796,0.97697954825779287,-1.081415565023508,-1.906930161605241,-1.2246510883308777,4.9588085860220454,4.5758208997650218,-4.8795378569614982,4.8795378569614982,-4.5758208997650218,8.7492085683496938,0.0
729640.0783812654,4010767.5119837918,-32500.0,-2.3098736737343235,4.7185562733804911,0.74040672137287233,-0.38763161506628591,-5.5224093390889726,-2.0742615991356419,7.3734039595573808,7.0817415904437437,-7.1111632384056707,7.1111632384056707,-7.0817415904437437,12.937432129059315,0.0
734640.0783812654,4010767.5119837918,-32500.0,-2.4137153515437664,5.9649763639765814,0.21166196920987967,1.0384720047223643,-9.1601386456104628,-1.0759245469705263,11.058470779788621,10.108184520412458,-10.265260624262165,10.265260624262165,-10.108184520412458,19.153918817763685,0.0
739640.0783812654,4010767.5119837918,-32500.0,-3.1942859165578361,7.6310482627346108,-0.51190513727481102,2.0026018776496812,-11.571568903812373,2.3168581854669061,14.259546971410455,12.74073516898744,-13.511846899224837,13.511846899224837,-12.74073516898744,24.722832467981981,0.0
744640.0783812654,4010767.5119837918,-32500.0,-4.0053786035807928,8.9718692913445413,-1.201006718000502,1.3088121662533507,-12.07372694061956,6.6609381390282296,16.077648886026701,13.947126724394893,-15.56650297593257,15.56650297593257,-13.947126724394893,27.850842465589206,0.0
749640.0783812654,4010767.5119837918,-32500.0,-3.8771725804700785,9.421626941364357,-1.6556674636009443,-0.76380991672048371,-11.008350277384316,9.7000021403176735,16.222337876259633,13.418472665771496,-15.727287478645188,15.727287478645188,-13.418472665771496,28.119667533424874,0.0
754640.0783812654,4010767.5119837918,-32500.0,-2.7005377752449222,8.9887615758331059,-1.8220866006823309,-2.9340141137949574,-9.2207840419157918,10.512393609392452,15.061762092686161,11.709598050792181,-14.33673355698857,14.33673355698857,-11.709598050792181,26.211327945208875,0.0
759640.0783812654,4010767.5119837918,-32500.0,-1.1018027689524954,8.0312788156012349,-1.7670724448655888,-4.3262559003554104,-7.3806373223779289,9.6617097736465425,13.227449676809805,9.6064244459162129,-12.213817975078788,12.213817975078788,-9.6064244459162129,23.163152525909926,0.0
764640.0783812654,4010767.5119837918,-32500.0,0.3320492343857705,6.9023144251806521,-1.5885543029746614,-4.8350873882526368,-5.7917554388282344,8.0788498519182212,11.231436011790969,7.6277599275252905,-10.012504873335791,10.012504873335791,-7.6277599275252905,19.805895764712602,0.0
769640.0783812654,4010767.5119837918,-32500.0,1.3551346280787835,5.8118921826083003,-1.363273755674963,-4.7243228657762195,-4.5181240582893203,6.4012535879660621,9.359828811625583,5.9758121405902624,-8.0552040903667095,8.0552040903667095,-5.9758121405902624,16.616340140040755,0.0
774640.0783812654,4010767.5119837918,-32500.0,1.9646835636997737,4.8480738809394959,-1.1370896494330645,-4.2850818233406205,-3.5271438068386094,4.9222348358094656,7.728276230687424,4.6708654810057997,-6.4353454685192073,6.4353454685192073,-4.6708654810057997,13.800769180405796,0.0
779640.0783812654,4010767.5119837918,-32500.0,2.252599203473808,4.0315205003033103,-0.93236275452048689,-3.7214437973472085,-2.763862544930471,3.7262498606433834,6.3592726534568706,3.664199228189208,-5.1394447422245726,5.1394447422245726,-3.664199228189208,11.411961407271486,0.0
784640.0783812654,4010767.5119837918,-32500.0,2.3222208029452882,3.3537355175047243,-0.75717835214658091,-3.1499603009094583,-2.1770651239034038,2.8020854379431843,5.2337354254173007,2.8936376485417812,-4.1181544236584502,4.1181544236584502,-2.8936376485417812,9.4296806463982481,0.0
789640.0783812654,4010767.5119837918,-32500.0,2.2578720159908334,2.7964561938025554,-0.61207880142499849,-2.627016663147522,-1.7252040515647142,2.1051793870853674,4.3180308615316019,2.3035953741836903,-3.3174228050374315,3.3174228050374315,-2.3035953741836903,7.8047966555002191,0.0
794640.0783812654,4010767.5119837918,-32500.0,2.1195747576360979,2.3399748340006474,-0.49417278637789019,-2.1737341838285227,-1.3760722868565984,1.5860610973883089,3.5764834373038004,1.8497398215063203,-2.6895034211550088,2.6895034211550088,-1.8497398215063203,6.4810782608611399,0.0
799640.0783812654,4010767.5119837918,-32500.0,1.9467014252736536,1.9662598983713977,-0.39939091746660921,-1.7927467128020744,-1.1051109054198374,1.2012167984986484,2.9765409800611895,1.4983141897893493,-2.1955315316376538,2.1955315316376538,-1.4983141897893493,5.405098284709255,0.0
804640.0783812654,4010767.5119837918,-32500.0,1.7634998946274716,1.6598758906156756,-0.32360676284367668,-1.4781435452288227,-0.89371708256631754,0.91590214786690727,2.4904628872703927,1.2241029275105701,-1.80502505365818,1.80502505365818,-1.2241029275105701,4.5301091431124982,0.0
809640.0783812654,4010767.5119837918,-32500.0,1.5839872813745433,1.4080295305995785,-0.26312142790956805,-1.2208804166277438,-0.72783928638903939,0.70370244610613564,2.0954496792744117,1.0083933176607949,-1.4944932621341143,1.4944932621341143,-1.0083933176607949,3.8169711450196298,0.0
814640.0783812654,4010767.5119837918,-32500.0,1.4156160856782725,1.2002988617660675,-0.2148177604572005,-1.0114911598790695,-0.59687171285286733,0.54505761076613413,1.7731411501708185,0.8372999478602775,-1.2459723858249427,1.2459723858249427,-0.8372999478602775,3.2337379732055664,0.0
819640.0783812654,4010767.5119837918,-32500.0,1.2618002178080376,1.0282735354578563,-0.17615764627532407,-0.84130002428540562,-0.49280251868582914,0.42568054615536688,1.5089189794959559,0.7004841328841912,-1.0457549453890302,1.0457549453890302,-0.7004841328841912,2.7547184280906385,0.0
824640.0783812654,4010767.5119837918,-32500.0,1.1235707702433824,0.8852004912624909,-0.14511517006203412,-0.70285283709253132,-0.40956654126776643,0.33519914008174284,1.2912123540183889,0.59020675727907745,-0.88337014816808512,0.88337014816808512,-0.59020675727907745,2.3594232675910178,0.0
829640.0783812654,4010767.5119837918,-32500.0,1.0006227391767257,0.76566878417179429,-0.12009141132723741,-0.58996812474912685,-0.34255743634031938,0.26609284689952617,1.1108831003196129,0.50063703250500169,-0.75079467923321086,0.75079467923321086,-0.50063703250500169,2.0315773042015568,0.0
834640.0783812654,4010767.5119837918,-32500.0,0.89195800891299559,0.66534364746493913,-0.099831857678728264,-0.49762339872776379,-0.2882624794054468,0.21289837897204317,0.96071306005119594,0.42735086910910153,-0.6418537166475855,0.6418537166475855,-0.42735086910910153,1.7582673517845622,0.0
644640.0783812654,4015767.5119837918,-32500.0,0.88900389253851297,0.7323411222825067,-0.094748215048952533,0.52566566453210639,0.32678813406501367,0.23756842967992192,1.0274476241316479,0.11472441200441311,-0.41302462219817659,0.41302462219817659,-0.11472441200441311,1.8733927901983713,0.0
649640.0783812654,4015767.5119837918,-32500.0,0.99149851128191113,0.84031840642681266,-0.11337486837081462,0.6229513890939633,0.38827305451040439,0.29795545684609792,1.1859553790331467,0.12719484768163097,-0.47517335877887629,0.47517335877887629,-0.12719484768163097,2.1610988319764854,0.0
654640.0783812654,4015767.5119837918,-32500.0,1.1048032070473948,0.96731125113607119,-0.13605955181808871,0.74128453221429813,0.46356135972297829,0.37658671914225944,1.3746422514967926,0.14121605078463723,-0.54871817952578361,0.54871817952578361,-0.14121605078463723,2.5033321323530573,0.0
659640.0783812654,4015767.5119837918,-32500.0,1.2281268018433427,1.1167124279515588,-0.16368585287226092,0.88533650348422954,0.55598204736485646,0.47969278181602537,1.5997622196228991,0.15703458774227008,-0.63594860813527232,0.63594860813527232,-0.15703458774227008,2.9112825751329168,0.0
664640.0783812654,4015767.5119837918,-32500.0,1.359060468820392,1.2922520775443858,-0.19725804318229492,1.0604790656550507,0.66954017816173295,0.6157546899257168,1.8686426291519833,0.17501162629212896,-0.73957587137305281,0.73957587137305281,-0.17501162629212896,3.3979782577759123,0.0
669640.0783812654,4015767.5119837918,-32500.0,1.4924659293716622,1.4977748020934682,-0.23783408349263438,1.2724881246464088,0.80886316984090412,0.79625061678716702,2.1895712118120496,0.19574169236851408,-0.8627606379955286,0.8627606379955286,-0.19574169236851408,3.977994164111613,0.0
674640.0783812654,4015767.5119837918,-32500.0,1.6187550131859194,1.7367677854998818,-0.28635384822455928,1.526748159241299,0.9788969964446782,1.0365039027107863,2.5713410084664261,0.22029936199593497,-1.009106666726407,1.009106666726407,-0.22029936199593497,4.666464316351064,0.0
679640.0783812654,4015767.5119837918,-32500.0,1.7213284412373477,2.0114792063629903,-0.34326223863601119,1.8264910834985155,1.1840723320412638,1.3564180498370701,3.0221321981681886,0.25074285447023897,-1.1826028362294549,1.1826028362294549,-0.25074285447023897,5.4767454172898704,0.0
684640.0783812654,4015767.5119837918,-32500.0,1.7729958651836657,2.3214157228172456,-0.40774679200241221,2.1692648355553446,1.4264189026205276,1.7804992022835542,3.5471848044934302,0.2911212914333019,-1.3875108933321005,1.3875108933321005,-0.2911212914333019,6.4156147792899212,0.0
689640.0783812654,4015767.5119837918,-32500.0,1.7315339969665349,2.6610209824898639,-0.47628004381763356,2.5403526085224652,1.7017114556318242,2.3357199648887326,4.1443942992185576,0.3494388274503949,-1.6282563203139984,1.6282563203139984,-0.3494388274503949,7.4742325060879384,0.0
694640.0783812654,4015767.5119837918,-32500.0,1.5355890218025703,3.0165762676892607,-0.53998114297844446,2.9014210285090161,1.9921881619629547,3.0440614108426085,4.7965878942276436,0.44134073944707708,-1.9095387204057435,1.9095387204057435,-0.44134073944707708,8.6124787866728507,0.0
699640.0783812654,4015767.5119837918,-32500.0,1.1047375955911845,3.3631841911242373,-0.5801617677671097,3.1730005989146082,2.2539345088467773,3.9034603858738328,5.4589873341362427,0.59661182019610259,-2.2372010531994873,2.2372010531994873,-0.59661182019610259,9.7347206324572415,0.0
704640.0783812654,4015767.5119837918,-32500.0,0.35289211813535343,3.6646685767328053,-0.56161226631009831,3.2127743005917333,2.39764439709769,4.846431768671728,6.0406713861566743,0.86941854810990793,-2.6208464957633142,2.6208464957633142,-0.86941854810990793,10.66015093647909,0.0
709640.0783812654,4015767.5119837918,-32500.0,-0.76752941971907584,3.8826524326807581,-0.42460164916489612,2.8035444656613615,2.2657221952240625,5.6632416048377499,6.3809496596792439,1.351104505403308,-3.0792674154742068,3.0792674154742068,-1.351104505403308,11.111803233738474,0.0
714640.0783812654,4015767.5119837918,-32500.0,-2.1697214257231874,4.0039143158597286,-0.081072329906940591,1.6939762947861456,1.6210728460575219,5.8912768234866286,6.2315993584993832,2.1775411665309159,-3.6480850236161748,3.6480850236161748,-2.1775411665309159,10.820898263981416,0.0
719640.0783812654,4015767.5119837918,-32500.0,-3.4974825064946393,4.0886618435498825,0.56994293185345668,-0.2208395308435627,0.18522393889035876,4.7454169310346126,5.3959154267264404,3.5110537705678162,-4.3849517547771413,4.3849517547771413,-3.5110537705678162,10.067902612076434,0.0
724640.0783812654,4015767.5119837918,-32500.0,-4.099174337111184,4.3115748282932786,1.5826200968661335,-2.5132655792218124,-2.223106206723573,1.3447199424558456,6.3355469467364767,5.4737878300434391,-5.3682408817829641,5.3682408817829641,-5.4737878300434391,10.978744574604697,0.0
729640.0783812654,4015767.5119837918,-32500.0,-3.4495281437664516,4.9197645609951444,2.8521761222643889,-3.8972325290951617,-5.4524078249935757,-4.3840412491261764,8.4446110543280497,8.0446707645112863,-6.6994475876130988,6.6994475876130988,-8.0446707645112863,15.932281194412953,0.0
734640.0783812654,4015767.5119837918,-32500.0,-2.0285536992730551,6.0497468904276896,4.0311559537539976,-2.8679880774962276,-8.8521214534863901,-10.466074971651945,13.094288003834942,10.974340093602496,-8.4896207494979414,8.4896207494979414,-10.974340093602496,22.991200865487937,0.0
739640.0783812654,4015767.5119837918,-32500.0,-1.3543059429690685,7.5132616214707522,4.6547024861465127,0.410116214843184,-11.453392961360036,-13.415052911984834,16.505515937383286,13.724142386261956,-10.67539802380389,10.67539802380389,-13.724142386261956,28.590828029965724,0.0
744640.0783812654,4015767.5119837918,-32500.0,-2.1891696477915792,8.8119931472293143,4.4868923688046145,3.5524474612252055,-12.525328172410982,-11.563525072805609,17.629187709982578,15.514907595544045,-12.712188001941442,12.712188001941442,-15.514907595544045,30.602238119481701,0.0
749640.0783812654,4015767.5119837918,-32500.0,-3.5104133878207082,9.4632357989044937,3.7122310965345946,4.5151539727106149,-12.038947651835324,-6.8603232022334133,16.780371266299728,15.764167557920725,-13.79093611751156,13.79093611751156,-15.764167557920725,29.192650102311575,0.0
754640.0783812654,4015767.5119837918,-32500.0,-4.0470554810852866,9.3258027387715394,2.7273947585050458,3.4781183706121399,-10.553489752631579,-2.3147283727809418,14.878514107281392,14.570808452606492,-13.558904802204189,13.558904802204189,-14.570808452606492,25.855187481607139,0.0
759640.0783812654,4015767.5119837918,-32500.0,-3.5799636351925188,8.5943942949858965,1.8379548475940484,1.7357354896838006,-8.7236597029995302,0.61848922781408111,12.678564144556921,12.554118443284674,-12.318537207237481,12.318537207237481,-12.554118443284674,21.98112509786823,0.0
764640.0783812654,4015767.5119837918,-32500.0,-2.5757626763421593,7.5687359607236688,1.1637533047851789,0.22262477595588262,-6.974768126670547,1.9968249169609524,10.578903694345708,10.341258821538721,-10.608298929072861,10.608298929072861,-10.341258821538721,18.323248114234445,0.0
769640.0783812654,4015767.5119837918,-32500.0,-1.5049826326698992,6.4821123121055217,0.70158226330370754,-0.76592212806497784,-5.4842631289498653,2.3827903823460219,8.735480064497164,8.3061790976933931,-8.8440273688697193,8.8440273688697193,-8.3061790976933931,15.147599169495049,0.0
774640.0783812654,4015767.5119837918,-32500.0,-0.61165522802336381,5.464421053072452,0.40329482806514594,-1.2823591944295527,-4.283462294178622,2.2707986278001888,7.1825285822702511,6.5918809465884722,-7.2431968151841515,7.2431968151841515,-6.5918809465884722,12.488806687110413,0.0
779640.0783812654,4015767.5119837918,-32500.0,0.038814610910286748,4.5696175417499312,0.21806281534631611,-1.4738421680482245,-3.3426684574083234,1.9643200284729072,5.902339198081596,5.2117320459067935,-5.8826725264741393,5.8826725264741393,-5.2117320459067935,10.299305827779927,0.0
784640.0783812654,4015767.5119837918,-32500.0,0.46820625463305582,3.8093545079036306,0.10625672461278501,-1.4732883319826835,-2.6153283643146046,1.6179917344358536,4.8590504422016458,4.1256632070770021,-4.7658950758893237,4.7658950758893237,-4.1256632070770021,8.5108334852455911,0.0
789640.0783812654,4015767.5119837918,-32500.0,0.72600801250451907,3.1754851089407889,0.040536953857406792,-1.3734897911715183,-2.0559990581953103,1.2988511205747764,4.0135871301853312,3.2797809426693534,-3.8657542069680395,3.8657542069680395,-3.2797809426693534,7.0556802083856693,0.0
794640.0783812654,4015767.5119837918,-32500.0,0.86181979261005992,2.6523072233102964,0.0031423094498092444,-1.231494552767409,-1.6261356824862698,1.0292541139090943,3.329754810388712,2.6229877177466188,-3.1465197357988659,3.1465197357988659,-2.6229877177466188,5.8733314607782505,0.0
799640.0783812654,4015767.5119837918,-32500.0,0.91591300605095882,2.2225464517087636,-0.017105523326588445,-1.0793773256832193,-1.2949961584901923,0.81124511280560663,2.776344896967466,2.1123739546088474,-2.5735439865229384,2.5735439865229384,-2.1123739546088474,4.9121452986785039,0.0
804640.0783812654,4015767.5119837918,-32500.0,0.91792899398271721,1.8700108354026943,-0.027120237514985494,-0.93362113042755079,-1.0388180016270752,0.63894561193638022,2.3274639616573229,1.7138616483324667,-2.1168212083183713,2.1168212083183713,-1.7138616483324667,4.1292241507618836,0.0
809640.0783812654,4015767.5119837918,-32500.0,0.88848019743799633,1.5805791322175871,-0.031134141424207281,-0.80163690817835154,-0.83953678846287672,0.50432975658482804,1.9621042789008989,1.4011324045928717,-1.7517352325134485,1.7517352325134485,-1.4011324045928717,3.4895578909904716,0.0
814640.0783812654,4015767.5119837918,-32500.0,0.8413652197358189,1.342406264609008,-0.031719620749691591,-0.68586041091516359,-0.68353921178689681,0.39965708560078278,1.6634568921648143,1.1541468257288567,-1.4586671103352717,1.4586671103352717,-1.1541468257288567,2.9649265333784682,0.0
819640.0783812654,4015767.5119837918,-32500.0,0.7855438679775183,1.1457670920679173,-0.030429211944281487,-0.58616887001626228,-0.56059874871430737,0.3183173371582636,1.4181700490112603,0.95773374525434829,-1.2222122577431684,1.2222122577431684,-0.95773374525434829,2.5327474841346858,0.0
824640.0783812654,4015767.5119837918,-32500.0,0.72666809297021262,0.98277951865753954,-0.028191397972555592,-0.50125096202495301,-0.46303454250792436,0.25498262372301955,1.2156813491718497,0.80042336177573381,-1.0303686674365349,1.0303686674365349,-0.80042336177573381,2.1750335790745643,0.0
829640.0783812654,4015767.5119837918,-32500.0,0.66818366313589006,0.84709910927431886,-0.025553685621760577,-0.42934875593427968,-0.38506463868545315,0.20548653716204715,1.0476438892955038,0.67352845146020746,-0.87381140287221692,0.87381140287221692,-0.67352845146020746,1.8774839427701426,0.0
834640.0783812654,4015767.5119837918,-32500.0,0.61209307648688138,0.73363577051676243,-0.022831577736623324,-0.36864030865573322,-0.32232001495177703,0.16662310894758747,0.90745623114009966,0.57044499177076191,-0.74529409476111241,0.74529409476111241,-0.57044499177076191,1.6287279952071647,0.0
644640.0783812654,4020767.5119837918,-32500.0,1.167953120822572,0.62175037328938676,-0.16718514590157538,0.66591661689804837,0.27125113357761094,0.29361371975239164,1.0881172794111291,0.016517577912103398,-0.31522228863739915,0.31522228863739915,-0.016517577912103398,2.0224951227387846,0.0
649640.0783812654,4020767.5119837918,-32500.0,1.3193335641995518,0.70623079633986396,-0.20109514896492933,0.79697066338511324,0.31771321939705988,0.37160705499194863,1.258467050782075,0.012240281454671459,-0.3602246222246217,0.3602246222246217,-0.012240281454671459,2.3395589346217416,0.0
654640.0783812654,4020767.5119837918,-32500.0,1.4909582995915949,0.80382467547117309,-0.24276106014034476,0.95854414655042397,0.37313370637524412,0.47433035320700928,1.4618994929430977,0.0066390779960483204,-0.41339822169593166,0.41339822169593166,-0.0066390779960483204,2.7183224432055919,0.0
659640.0783812654,4020767.5119837918,-32500.0,1.6835769037683905,0.91632486327254303,-0.2939992988696698,1.1581933818456114,0.43906355501002375,0.61072112098708808,1.7055268305834288,-0.00026839367290343308,-0.47659077575215314,0.47659077575215314,0.00026839367290343308,3.1720171836574429,0.0
664640.0783812654,4020767.5119837918,-32500.0,1.896201330606462,1.0454733665682046,-0.35693866646696243,1.4050115316161851,0.51702930704402295,0.79319604383421494,1.9978349437881282,-0.0081031870642834791,-0.55220126977095318,0.55220126977095318,0.0081031870642834791,3.7163434967734852,0.0
669640.0783812654,4020767.5119837918,-32500.0,2.1245927076606326,1.1927260799686668,-0.43393427301741155,1.7094579679821105,0.60821409775772228,1.0389650627090969,2.348695385104651,-0.015735358375752462,-0.64341975311231092,0.64341975311231092,0.015735358375752462,4.3693637269401853,0.0
674640.0783812654,4020767.5119837918,-32500.0,2.3587804142316466,1.3588767400895601,-0.52730155270027756,2.0825471009388656,0.71282672399122304,1.3716723466861866,2.7690984910073189,-0.020562981605577013,-0.75461391683248336,0.75461391683248336,0.020562981605577013,5.1507269143462748,0.0
679640.0783812654,4020767.5119837918,-32500.0,2.5791437424169414,1.5435181593396015,-0.63868975794101068,2.533689552142051,0.82892900914851608,1.8231641144522455,3.2703204423603727,-0.017212960531654331,-0.89196538839701633,0.89196538839701633,0.017212960531654331,6.0795397961218347,0.0
684640.0783812654,4020767.5119837918,-32500.0,2.7505553369617424,1.7443961958878635,-0.76776966816500203,3.0658846038590015,0.95037293101337372,2.4346562329007133,3.862016695435734,0.0047255000551578163,-1.0645184894345625,1.0645184894345625,-0.0047255000551578163,7.1696787215302482,0.0
689640.0783812654,4020767.5119837918,-32500.0,2.8144262922433549,1.956932146046733,-0.90968657873978453,3.6660376504176417,1.0633973077400944,3.2553172736010048,4.5483652727440633,0.064470793658047754,-1.2858597739693725,1.2858597739693725,-0.064470793658047754,8.4205710762096295,0.0
694640.0783812654,4020767.5119837918,-32500.0,2.6799187224542909,2.1746962686930762,-1.0504458982350227,4.287061437543926,1.1415300236416821,4.3335438595659879,5.3207794895359868,0.19583138011891699,-1.5765877355131344,1.5765877355131344,-0.19583138011891699,9.800642442227943,0.0
699640.0783812654,4020767.5119837918,-32500.0,2.2196145944275854,2.392560276521758,-1.159237523549113,4.8181304203449073,1.1392360239220838,5.6908637726797666,6.144873209168928,0.45474875539653703,-1.9671977359696504,1.9671977359696504,-0.45474875539653703,11.220730927972932,0.0
704640.0783812654,4020767.5119837918,-32500.0,1.2839856391162168,2.6154461168806971,-1.1772885232850423,5.0435898741450975,0.98732968046806213,7.2598718255072274,6.9391879534247183,0.92549072979460223,-2.4990499528820038,2.4990499528820038,-0.92549072979460223,12.499476461183207,0.0
709640.0783812654,4020767.5119837918,-32500.0,-0.23574284460598771,2.8752842916315835,-1.0057101800611008,4.6089294871169093,0.59899076394134243,8.7602380447662735,7.5482116836492095,1.7151318113202092,-3.2159453226913892,3.2159453226913892,-1.7151318113202092,13.343611783375302,0.0
714640.0783812654,4020767.5119837918,-32500.0,-2.2562653652572702,3.251392089331139,-0.50249292354104946,3.0601302466083959,-0.096754547406724858,9.5035855183751305,7.7398749663484629,2.9138953444633935,-4.129780698712894,4.129780698712894,-2.9138953444633935,13.438066655804176,0.0
719640.0783812654,4020767.5119837918,-32500.0,-4.2682933399661414,3.8661244287264012,0.48824865983203747,0.1011723817788435,-1.0804619678416618,8.2247317259236059,7.4222497209015188,4.4964886462241438,-5.1416325303250314,5.1416325303250314,-4.4964886462241438,12.94798921461954,0.0
724640.0783812654,4020767.5119837918,-32500.0,-5.235236401989777,4.7982650556959507,2.0460618913997566,-3.79311479924759,-2.1641769737442034,3.3181178566537897,7.9472245306372553,6.1986825561880758,-5.9497631528765149,5.9497631528765149,-6.1986825561880758,13.790643144573121,0.0
729640.0783812654,4020767.5119837918,-32500.0,-4.1630768837072294,5.9065150115975138,4.0330070556312236,-6.7364999544332314,-3.054947126393341,-5.8929480371686083,10.769707765448121,7.5662761978567641,-6.1285082182270703,6.1285082182270703,-7.5662761978567641,18.792194518372863,0.0
734640.0783812654,4020767.5119837918,-32500.0,-1.4970899108807727,6.7827882085960605,6.0143811028165963,-6.0907514728046372,-3.6616535386589746,-17.113255741123893,15.345832270314407,8.3881344467749983,-5.6011237714118955,5.6011237714118955,-8.3881344467749983,26.59174189623872,0.0
739640.0783812654,4020767.5119837918,-32500.0,0.41887425805408746,7.1144654600431201,7.4027769157774346,-1.2104574481100105,-4.2762323874345638,-25.091970341868706,18.986553426493529,9.067134844274257,-5.0791685416414944,5.0791685416414944,-9.067134844274257,32.997641010800471,0.0
744640.0783812654,4020767.5119837918,-32500.0,-0.27532906873259655,7.0531642353087722,7.7985269620420272,4.9248530148262502,-5.131723338098336,-25.931969269726071,20.00199266627039,10.054182599260892,-5.4392510413130655,5.4392510413130655,-10.054182599260892,35.094244812007446,0.0
749640.0783812654,4020767.5119837918,-32500.0,-2.7259172883852538,6.9239072818088445,7.2328913741124135,8.6288131575399749,-5.9556653151733832,-20.809088679937719,18.560288158962827,11.053645427077361,-6.605407299871052,6.605407299871052,-11.053645427077361,32.8613203501573,0.0
754640.0783812654,4020767.5119837918,-32500.0,-4.8377930246565191,6.7883893634530148,6.0810294252602208,8.9618951647187188,-6.3144161845965865,-13.807027164663237,15.864238555582276,11.409838359883139,-7.7301584302487285,7.7301584302487285,-11.409838359883139,28.220741669456011,0.0
759640.0783812654,4020767.5119837918,-32500.0,-5.5823426319410503,6.5279700444917577,4.7712116301043777,7.259553030178628,-6.091812985283247,-7.9101858083180927,13.011370739609957,10.89327720979424,-8.1953555672760192,8.1953555672760192,-10.89327720979424,23.108298422717002,0.0
764640.0783812654,4020767.5119837918,-32500.0,-5.1730166580643751,6.0832012518122882,3.5823661010590242,5.0473592351264776,-5.4641129091132745,-3.9691375038728429,10.519713849399563,9.7485728152390667,-7.9517080634529673,7.9517080634529673,-9.7485728152390667,18.562832146307631,0.0
769640.0783812654,4020767.5119837918,-32500.0,-4.2043970218496804,5.4960996642423359,2.6233030822105814,3.1359954968919035,-4.6660228786623712,-1.6728812401445439,8.492303332097336,8.3411296597084217,-7.2444724221276848,7.2444724221276848,-8.3411296597084217,14.872177938616236,0.0
774640.0783812654,4020767.5119837918,-32500.0,-3.1297771662788332,4.8457312874637299,1.8981969454166003,1.7466055220880823,-3.8640096146183671,-0.45879636042264921,6.8782782899788533,6.9389190486754888,-6.3358158911378428,6.3358158911378428,-6.9389190486754888,11.973803838977876,0.0
779640.0783812654,4020767.5119837918,-32500.0,-2.1760032458500698,4.1996124186784973,1.3688032060590833,0.82994445566433239,-3.1431994310305811,0.12599385449823089,5.5987730897285335,5.6803528719880001,-5.4035629452106422,5.4035629452106422,-5.6803528719880001,9.7118728393359177,0.0
784640.0783812654,4020767.5119837918,-32500.0,-1.4163365286837015,3.599781428210632,0.9889583651499857,0.26416312685675392,-2.5333274366225935,0.37165755571038872,4.5828568641192273,4.613308708866902,-4.5418355600631317,4.5418355600631317,-4.613308708866902,7.9384874188733114,0.0
789640.0783812654,4020767.5119837918,-32500.0,-0.84809625214268836,3.0661737634536288,0.71828605099805143,-0.064968356271387251,-2.0346037138765634,0.44541408011747968,3.7734119257857719,3.7371233507312422,-3.7887167512762132,3.7887167512762132,-3.7371233507312422,6.5373048673332645,0.0
794640.0783812654,4020767.5119837918,-32500.0,-0.44026767864602062,2.6040808976020879,0.52550964907763109,-0.24318571127908589,-1.6344623003859911,0.43796166908105072,3.1257419457700433,3.0301959506610689,-3.1511074273363509,3.1511074273363509,-3.0301959506610689,5.4213807752090473,0.0
799640.0783812654,4020767.5119837918,-32500.0,-0.15660735911225249,2.2105634240779906,0.38774947787824515,-0.3288670948938433,-1.3165727031552725,0.39638912644227964,2.6050940371461686,2.4648409989574112,-2.6209588189547222,2.6209588189547222,-2.4648409989574112,4.5260828277084544,0.0
804640.0783812654,4020767.5119837918,-32500.0,0.035163995746611353,1.878783507867374,0.28873862790057214,-0.35973672136414447,-1.0650557813601935,0.34410900467111338,2.1844608841345767,2.0142058529692317,-2.1844495366518828,2.1844495366518828,-2.0142058529692317,3.8029136043618763,0.0
809640.0783812654,4020767.5119837918,-32500.0,0.16081265099458242,1.600580025875268,0.21706672247065106,-0.359398520895024,-0.8661188156234555,0.29209163841553437,1.8428366346994227,1.654938545394542,-1.8266713528955907,1.8266713528955907,-1.654938545394542,3.2150536966032721,0.0
814640.0783812654,4020767.5119837918,-32500.0,0.23978264087868933,1.3678503721326816,0.16476976710629593,-0.34228152855475386,-0.7084368227920026,0.24495473232963008,1.5638626396070179,1.3678039352624476,-1.5337660743143007,1.5337660743143007,-1.3678039352624476,2.7342647470330088,0.0
819640.0783812654,4020767.5119837918,-32500.0,0.28628415491764664,1.1732033294217241,0.12628844298692418,-0.31702469939801192,-0.58299143797195785,0.20418336361975159,1.3347763237367876,1.1374156741359638,-1.2937195063831957,1.2937195063831957,-1.1374156741359638,2.3387117351319437,0.0
824640.0783812654,4020767.5119837918,-32500.0,0.3105020063196588,1.0102020884301426,0.097729364161782684,-0.28868034460761788,-0.48272185033829351,0.16979893617108394,1.1455974853634816,0.9516623795963276,-1.0965004370488154,1.0965004370488154,-0.9516623795963276,2.011399200576828,0.0
829640.0783812654,4020767.5119837918,-32500.0,0.31964543836247378,0.87339181957431367,0.076351579212521434,-0.26010929564843255,-0.40214865192252569,0.14120545796533346,0.98849854230099066,0.80108895262057256,-0.93390969760608933,0.93390969760608933,-0.80108895262057256,1.7390228119039219,0.0
834640.0783812654,4020767.5119837918,-32500.0,0.31877378811985535,0.7582253808554501,0.06021302351757811,-0.23284992259114237,-0.33703587585445399,0.1176056359410057,0.85731849817045536,0.67833912201423585,-0.79932558625093675,0.79932558625093675,-0.67833912201423585,1.5111128653786896,0.0
644640.0783812654,4025767.5119837918,-32500.0,1.4032901067502532,0.47470090673032628,-0.21639737450413984,0.78488977728473563,0.19836524566222286,0.34128100685899793,1.1437341228378513,-0.077563395396302359,-0.1922036697343259,0.1922036697343259,0.077563395396302359,2.1617939479011063,0.0
649640.0783812654,4025767.5119837918,-32500.0,1.5921045123372006,0.52718994176949185,-0.2587528885251173,0.94269753337363438,0.22473908819198848,0.43348692675182787,1.3243475481719784,-0.096274772812236398,-0.2143970149953226,0.2143970149953226,0.096274772812236398,2.5049907166661591,0.0
654640.0783812654,4025767.5119837918,-32500.0,1.8071808986343072,0.58468086854510581,-0.31021288551925275,1.1378250819910747,0.25353442289604339,0.55531974602279899,1.540382342014105,-0.11808484443187603,-0.24011141516673204,0.24011141516673204,0.11808484443187603,2.9158466653716002,0.0
659640.0783812654,4025767.5119837918,-32500.0,2.0497443869031637,0.64679265774597372,-0.37262677926097326,1.3795845349208091,0.28391065944047217,0.71758519913320795,1.7995846244243108,-0.14268761043732778,-0.27038748403226409,0.27038748403226409,0.14268761043732778,3.4091266688084207,0.0
664640.0783812654,4025767.5119837918,-32500.0,2.3188769160156437,0.71260097164817149,-0.4479871387378746,1.6791607406274849,0.31408113172351665,0.9353113758244338,2.1112788796917794,-0.16892971664991518,-0.30687222554100557,0.30687222554100557,0.16892971664991518,4.002466267919174,0.0
669640.0783812654,4025767.5119837918,-32500.0,2.6096020792651702,0.78042536926475814,-0.53819220164258563,2.0493591603401939,0.34066823879063718,1.2293340186565209,2.4864618389277777,-0.19405248913282638,-0.35227688147890646,0.35227688147890646,0.19405248913282638,4.7163464216167821,0.0
674640.0783812654,4025767.5119837918,-32500.0,2.9097518825163342,0.84765261100724809,-0.64453243646444269,2.5035244081703256,0.35769713866916009,1.6282572737763199,2.9376553245855286,-0.21238256175330833,-0.41118560199803306,0.41118560199803306,0.21238256175330833,5.5733884865915808,0.0
679640.0783812654,4025767.5119837918,-32500.0,3.1950525181788771,0.91077718520935569,-0.76668200231170103,3.052737472063189,0.35509672397488645,2.170521409014273,3.4782357996919759,-0.21314037895099233,-0.49145769065953426,0.49145769065953426,0.21314037895099233,6.5962511061542992,0.0
684640.0783812654,4025767.5119837918,-32500.0,3.4218832056501953,0.96608244943529331,-0.90084966793002896,3.6996815812622552,0.31664290240574106,2.9056536192722211,4.1206957158492923,-0.17693843324786168,-0.60657797512435607,0.60657797512435607,0.17693843324786168,7.8028619984771197,0.0
689640.0783812654,4025767.5119837918,-32500.0,3.5177101060056399,1.0118448091260852,-1.0366088175854946,4.4265014005462824,0.21758692400633423,3.892252797836778,4.8727986092281856,-0.070603419134591561,-0.77936231131423483,0.77936231131423483,0.070603419134591561,9.1969101258933783,0.0
694640.0783812654,4025767.5119837918,-32500.0,3.3711945833739838,1.0536764869118966,-1.151914429032503,5.1728475120428206,0.02312626846889369,5.1870413654035241,5.7298100160625829,0.15938689051383559,-1.0471328552578987,1.0471328552578987,-0.15938689051383559,10.750648755191596,0.0
699640.0783812654,4025767.5119837918,-32500.0,2.8292217161430808,1.1154003090628846,-1.2063077140127705,5.8005351275208445,-0.30891959247697981,6.8133310029144942,6.6603161740387495,0.5922755756549416,-1.4670520267845994,1.4670520267845994,-0.5922755756549416,12.377151758758819,0.0
704640.0783812654,4025767.5119837918,-32500.0,1.7190438212204375,1.2573601616655257,-1.1341557524937751,6.0473873507484655,-0.81355495750750872,8.688505987714743,7.5843077019084104,1.3287885365806729,-2.1159946010648953,2.1159946010648953,-1.3287885365806729,13.893904318986827,0.0
709640.0783812654,4025767.5119837918,-32500.0,-0.070006077884901249,1.598256357816322,-0.84420140952225042,5.4953751616027722,-1.4787965014915598,10.485038307802332,8.3499209536552446,2.4576657126564601,-3.0695801308317265,3.0695801308317265,-2.4576657126564601,15.000041280564355,0.0
714640.0783812654,4025767.5119837918,-32500.0,-2.4058544824738033,2.3175180132911533,-0.23852783318492846,3.6317691292932266,-2.1682799699708495,11.424865888548032,8.7437097626853912,3.961775772994685,-4.3307386668472958,4.3307386668472958,-3.961775772994685,15.355672120845677,0.0
719640.0783812654,4025767.5119837918,-32500.0,-4.661331675470274,3.5799157786337545,0.73445676790095527,0.1550372540580375,-2.5284308124076653,10.127047408624078,8.6733413111199571,5.5519232788664601,-5.6810805733198402,5.6810805733198402,-5.5519232788664601,15.023784863293153,0.0
724640.0783812654,4025767.5119837918,-32500.0,-5.6505283804698632,5.3159246860729645,2.0044182037509053,-4.369009730071082,-2.0073140817543127,4.8974960834696635,8.9602874698229336,6.539920585953471,-6.5182397153918963,6.5182397153918963,-6.539920585953471,15.596291123065882,0.0
729640.0783812654,4025767.5119837918,-32500.0,-4.2960072392713702,6.9507712408980602,3.3569725709594676,-7.8970590743911417,-0.21971597292465841,-4.9908564620917861,11.467169011231983,6.093612938474867,-5.9765119223908298,5.9765119223908298,-6.093612938474867,19.913404942929425,0.0
734640.0783812654,4025767.5119837918,-32500.0,-1.076671742666248,7.5360043293564623,4.5510730624955578,-7.618811665389158,2.3719304982899412,-17.383589487725498,15.713380980443361,4.1154609436298841,-3.6912837201926521,3.6912837201926521,-4.1154609436298841,27.399806016913946,0.0
739640.0783812654,4025767.5119837918,-32500.0,1.5044634311999541,6.6134756167493887,5.4683259906643551,-2.6074351119103909,4.3184535604133885,-27.207022970196391,19.336595066376887,1.9128041317511384,-0.68609619257174359,0.68609619257174359,-1.9128041317511384,34.079722709989646,0.0
744640.0783812654,4025767.5119837918,-32500.0,1.2082132737824474,4.8900773942522253,6.0608055985564304,4.4553100248420732,4.3720732320303544,-30.201370675876205,20.600465724518578,1.1998900680979376,1.1700771038510263,-1.1700771038510263,-1.1998900680979376,36.758135537809601,0.0
749640.0783812654,4025767.5119837918,-32500.0,-1.5123096635028836,3.5268470709277806,6.2303452352065269,9.6613630964749522,2.7188397263253679,-26.577158519881145,19.368757799224351,2.3111352519845552,0.98063379399080763,-0.98063379399080763,-2.3111352519845552,34.953996304572946,0.0
754640.0783812654,4025767.5119837918,-32500.0,-4.4907274626021998,3.0037047807965185,5.9196428221199779,11.351521626351452,0.54345049740593698,-19.837186644038944,16.641615597176276,4.1600919312726781,-0.56821820760978281,0.56821820760978281,-4.1600919312726781,30.301416035742744,0.0
759640.0783812654,4025767.5119837918,-32500.0,-6.2283987712046649,3.0530552925245624,5.2317862099936017,10.36141622131708,-1.1850509426439992,-13.227641419246398,13.556207920635519,5.6131850666563201,-2.3018864332277396,2.3018864332277396,-5.6131850666563201,24.794982724858631,0.0
764640.0783812654,4025767.5119837918,-32500.0,-6.5560698859076005,3.247501560928161,4.3675991598575807,8.2227549161999161,-2.1681408949491265,-8.1820501221413888,10.793943361049863,6.2474265833177123,-3.5253629060707405,3.5253629060707405,-6.2474265833177123,19.70569527692486,0.0
769640.0783812654,4025767.5119837918,-32500.0,-5.9647487201024667,3.3419112865153182,3.5035259124610825,5.9981481832762382,-2.5305223345837002,-4.8063638532618542,8.5635125517688397,6.176896593856565,-4.1065240903100193,4.1065240903100193,-6.176896593856565,15.51358314032692,0.0
774640.0783812654,4025767.5119837918,-32500.0,-4.9777978221513575,3.2771541443203964,2.7399730565693696,4.1461894795220466,-2.5051830704196183,-2.7102073010442607,6.828052397267518,5.6796100490998098,-4.1883727090070364,4.1883727090070364,-5.6796100490998098,12.240298857680688,0.0
779640.0783812654,4025767.5119837918,-32500.0,-3.9336652929075275,3.0846624309437121,2.1119755532513245,2.7601617020817701,-2.2845897972787377,-1.4649308514078241,5.4872066848731924,4.9954583402460262,-3.9650226431261157,3.9650226431261157,-4.9954583402460262,9.7354146103068064,0.0
784640.0783812654,4025767.5119837918,-32500.0,-2.9966812885910565,2.8174249440478984,1.6168122858987322,1.7816747745517545,-1.99112213549743,-0.7462908242894164,4.4472884733770695,4.2774349857325769,-3.5910202366771182,3.5910202366771182,-4.2774349857325769,7.8228425322759243,0.0
789640.0783812654,4025767.5119837918,-32500.0,-2.2225334860197377,2.5205645475576808,1.2357499121208626,1.1143811155817407,-1.6912853279596012,-0.34115090691999272,3.6348742247436805,3.6058737468260036,-3.1662979149177604,3.1662979149177604,-3.6058737468260036,6.3529191118073545,0.0
794640.0783812654,4025767.5119837918,-32500.0,-1.6122957628325696,2.2244429889355581,0.94629298744249835,0.6693006606676124,-1.4162188926108774,-0.11846291746779142,2.994975056688526,3.0144500322861365,-2.7473074749450213,2.7473074749450213,-3.0144500322861365,5.2116376372049293,0.0
799640.0783812654,4025767.5119837918,-32500.0,-1.144822494625342,1.9464847550151172,0.7276961392799326,0.37719406567288394,-1.1773142354250961,-0.00037616604205497852,2.4867983916185814,2.5109626224265207,-2.3618777178131833,2.3618777178131833,-2.5109626224265207,4.3156143917653935,0.0
804640.0783812654,4025767.5119837918,-32500.0,-0.79319704736806251,1.6950145139435635,0.56279882736214992,0.18820533009271809,-0.97597713708895029,0.058513876165329617,2.0800047736903968,2.0905790434917519,-2.0209082205298485,2.0209082205298485,-2.0905790434917519,3.6044833573485233,0.0
809640.0783812654,4025767.5119837918,-32500.0,-0.5319562234195615,1.4726831615513281,0.43816746292143333,0.067854569813510346,-0.8091329146242664,0.084413541172253651,1.7518752001955842,1.7433371967340863,-1.726098778437688,1.726098778437688,-1.7433371967340863,3.0343672778352202,0.0
814640.0783812654,4025767.5119837918,-32500.0,-0.33962440721391557,1.2789286050367246,0.34359668932936471,-0.0071839075130234803,-0.67210943086446118,0.092342510903295982,1.4852605275747406,1.4580313222581627,-1.4746112696518161,1.4746112696518161,-1.4580313222581627,2.5730489289438099,0.0
819640.0783812654,4025767.5119837918,-32500.0,-0.19910334973889782,1.1115632204657966,0.27145863755978628,-0.052499443521340443,-0.56003801215118931,0.090851063511151908,1.267111379949873,1.2240338147107379,-1.2617079066996064,1.2617079066996064,-1.2240338147107379,2.1965826412585749,0.0
824640.0783812654,4025767.5119837918,-32500.0,-0.097210229694225506,0.9677269381203244,0.21609791067162096,-0.078442735277544959,-0.46846430517933613,0.084761984462689982,1.0874211196216763,1.0320167856343436,-1.0821588570855061,1.0821588570855061,-1.0320167856343436,1.886951240932069,0.0
829640.0783812654,4025767.5119837918,-32500.0,-0.023969003509889918,0.84442374717104618,0.17333399087108389,-0.091862225208581103,-0.39355934107342327,0.076755479060757692,0.93845972609791473,0.87412414078140221,-0.93093911485202385,0.93093911485202385,-0.87412414078140221,1.6304410186880698,0.0
834640.0783812654,4025767.5119837918,-32500.0,0.028087973267402883,0.73880140755121604,0.14007558978026663,-0.097279872948412408,-0.33214124971923931,0.068283821566814284,0.81421394703104355,0.74389284240780529,-0.80353236776903914,0.80353236776903914,-0.74389284240780529,1.4165033021368865,0.0
644640.0783812654,4030767.5119837918,-32500.0,1.5844097825118801,0.30270411180221596,-0.2369851514309938,0.87747595537145417,0.11343773842531442,0.37858721647279953,1.1896874330117768,-0.15998004350349795,-0.052153821127259296,0.052153821127259296,0.15998004350349795,2.2800426112931431,0.0
649640.0783812654,4030767.5119837918,-32500.0,1.7965875905586539,0.3185965893000427,-0.27955515485087729,1.0534040923547969,0.11679295778741187,0.48082667643552901,1.3775992758263405,-0.1888305807708035,-0.048429748371821832,0.048429748371821832,0.1888305807708035,2.6427829453773088,0.0
654640.0783812654,4030767.5119837918,-32500.0,2.0369837329210752,0.33066001061253719,-0.32987231443239579,1.270230003456623,0.115322414605714,0.61565821489902239,1.6022179783107025,-0.22093648874680522,-0.043038453784608285,0.043038453784608285,0.22093648874680522,3.0767612143805727,0.0
659640.0783812654,4030767.5119837918,-32500.0,2.3061238323929345,0.33638414088701168,-0.38885826215533548,1.5377110245109253,0.1056818486650648,0.79475936808155612,1.8715036286770019,-0.25509466134370684,-0.036168767847633426,0.036168767847633426,0.25509466134370684,3.5973163996378315,0.0
664640.0783812654,4030767.5119837918,-32500.0,2.6017356297882244,0.33237765580568424,-0.45707410235726093,1.867272261908451,0.082712836117207797,1.0342177146726141,2.1950159088756331,-0.2885682566758635,-0.028700126797345349,0.028700126797345349,0.2885682566758635,4.2226480312593786,0.0
669640.0783812654,4030767.5119837918,-32500.0,2.9164981935087422,0.31430298626257347,-0.53424818901654703,2.271484184762774,0.038563611101650186,1.3560690347360689,2.5840008892556532,-0.31593838752490044,-0.02289595236193917,0.02289595236193917,0.31593838752490044,4.973699452514607,0.0
674640.0783812654,4030767.5119837918,-32500.0,3.2344891179500963,0.27709378936272094,-0.61845887221768214,2.7625164413109937,-0.038514513581504761,1.7900902290821528,3.051219410156742,-0.32724384907761933,-0.023644506133965459,0.023644506133965459,0.32724384907761933,5.8732943772942852,0.0
679640.0783812654,4030767.5119837918,-32500.0,3.5258494922565911,0.21584913320501795,-0.70479224898550841,3.3485941529460317,-0.16566691680074724,2.3754571564304503,3.6101951327490824,-0.30508878362186714,-0.040599668074359829,0.040599668074359829,0.30508878362186714,6.9437879982493964,0.0
684640.0783812654,4030767.5119837918,-32500.0,3.7393743139990896,0.12815972034107365,-0.78327887954287123,4.0268054208086443,-0.36693513515663134,3.161148426749933,4.2732473412833905,-0.22043654193177892,-0.091696814249574932,0.091696814249574932,0.22043654193177892,8.2019696746170023,0.0
689640.0783812654,4030767.5119837918,-32500.0,3.7936265646935929,0.019176989275026264,-0.83603527189906068,4.7697434807836681,-0.67377557543096334,4.2024078268107168,5.0471815169602339,-0.027219043375073151,-0.20849267323068571,0.20849267323068571,0.027219043375073151,9.6492368774182449,0.0
694640.0783812654,4030767.5119837918,-32500.0,3.5697178376653778,-0.088643078726236058,-0.83404440071738728,5.5029167220957476,-1.1221034679837938,5.5475360734731805,5.9250186609797613,0.34270266586959047,-0.44316125706611115,0.44316125706611115,-0.34270266586959047,11.254418101487969,0.0
699640.0783812654,4030767.5119837918,-32500.0,2.9146496606138559,-0.13922700264274057,-0.73537902245994102,6.0713920581771612,-1.7405000264006336,7.2042454222668439,6.8722439828407706,0.97908450726320961,-0.87470259507627224,0.87470259507627224,-0.97908450726320961,12.927183251863665,0.0
704640.0783812654,4030767.5119837918,-32500.0,1.6743316931188685,-0.021056243948292561,-0.48948676321287621,6.2023036304957397,-2.5200699134239146,9.068980020388377,7.8081382535561783,1.9748294456681226,-1.605987856774969,1.605987856774969,-1.9748294456681226,14.485265234058465,0.0
709640.0783812654,4030767.5119837918,-32500.0,-0.2134254323197089,0.44832756878081559,-0.056069801050371369,5.4931011838822021,-3.354290296450082,10.803786195911036,8.5906752723982969,3.3663382510524036,-2.7316890894494357,2.7316890894494357,-3.3663382510524036,15.638073967717224,0.0
714640.0783812654,4030767.5119837918,-32500.0,-2.5439947598796664,1.4952692688151479,0.55252077200628369,3.5001839326302315,-3.9495654898517678,11.677349612122901,9.0373066706647567,5.0069826163784086,-4.2441985917387228,4.2441985917387228,-5.0069826163784086,16.064152214651632,0.0
719640.0783812654,4030767.5119837918,-32500.0,-4.6471473161865635,3.255392408517944,1.2136854472451299,0.04240856951481603,-3.7603920599672436,10.492207731824758,9.0753041653826152,6.3921139702025451,-5.8585182296618354,5.8585182296618354,-6.3921139702025451,15.781000724372909,0.0
724640.0783812654,4030767.5119837918,-32500.0,-5.4196120923451749,5.4975049391845081,1.6813004513473222,-4.2566275340097377,-2.1084720223121032,5.9001795363785829,9.2124049117098608,6.6020493266720708,-6.8450524168316376,6.8450524168316376,-6.6020493266720708,16.016899496096816,0.0
729640.0783812654,4030767.5119837918,-32500.0,-3.9839836920310878,7.3847622871885825,1.7239773493556176,-7.5834517575147959,1.319339127287972,-2.5801934901216117,10.885244639293798,4.7131788769334557,-6.1810695013662853,6.1810695013662853,-4.7131788769334557,19.180484805840432,0.0
734640.0783812654,4030767.5119837918,-32500.0,-0.84664020701326048,7.7588100992054407,1.4061722696065042,-7.6197045220747315,5.7666731282329247,-13.254580598463782,14.256308001976816,0.78733257858737682,-3.3386108601150428,3.3386108601150428,-0.78733257858737682,25.328354903487977,0.0
739640.0783812654,4030767.5119837918,-32500.0,1.8354962514628566,6.134755922543949,1.1766400181636034,-3.5302203041696587,9.3896402169499549,-22.324184780414903,17.465617737463877,-3.4924893358864244,0.78383612283328663,-0.78383612283328663,3.4924893358864244,31.35276079937185,0.0
744640.0783812654,4030767.5119837918,-32500.0,2.0244611276548414,3.3922159577210134,1.4590798583305318,2.7663254672581425,10.541006987094656,-26.376718121171365,18.942465039874513,-5.8723416086942661,4.1738209573198413,-4.1738209573198413,5.8723416086942661,34.375960872671477,0.0
749640.0783812654,4030767.5119837918,-32500.0,-0.24202093315343551,1.0351973873723868,2.188508074645739,8.1207748875323542,9.11945403711014,-24.959400773422253,18.315403828214038,-5.4694408835605275,5.3748513667749416,-5.3748513667749416,5.4694408835605275,33.577996175229607,0.0
754640.0783812654,4030767.5119837918,-32500.0,-3.2755588444930894,-0.1030888558522907,2.9339304494718164,10.724955322600035,6.3473068976811646,-20.242198220175684,16.194848401485014,-3.2036728622086459,4.5039408639331944,-4.5039408639331944,3.2036728622086459,29.962469375305979,0.0
759640.0783812654,4030767.5119837918,-32500.0,-5.5463645840589715,-0.16044241956002697,3.3491038610009793,10.757949147567276,3.5443061461546383,-14.774260556282975,13.482257075009588,-0.55373546025907006,2.6286327809412686,-2.6286327809412686,0.55373546025907006,25.126357345114346,0.0
764640.0783812654,4030767.5119837918,-32500.0,-6.5489124983233662,0.31962371256746108,3.366162343636816,9.3159203939557447,1.4009165283806408,-10.063782906781197,10.852175115000419,1.5331371259121622,0.72895479140065134,-0.72895479140065134,-1.5331371259121622,20.299421763698415,0.0
769640.0783812654,4030767.5119837918,-32500.0,-6.5096966800229579,0.89016196457431707,3.0963422695018803,7.3944297306623268,0.0307650351906457,-6.562477349739277,8.6223364033293137,2.7964581465414571,-0.71474328854482527,0.71474328854482527,-2.7964581465414571,16.099644742191209,0.0
774640.0783812654,4030767.5119837918,-32500.0,-5.8636578038965421,1.3328490305120715,2.68548064250017,5.5642765426020713,-0.72172244522999984,-4.1646686062892924,6.8492419674965337,3.3591875627896517,-1.6176039862265388,1.6176039862265388,-3.3591875627896517,12.697443380692031,0.0
779640.0783812654,4030767.5119837918,-32500.0,-4.9715876223335496,1.5941299774873281,2.2426884863543801,4.0500764681480641,-1.062540137177338,-2.5973238323228585,5.47174420955605,3.4500634794695464,-2.0765445135953322,2.0765445135953322,-3.4500634794695464,10.038645215326332,0.0
784640.0783812654,4030767.5119837918,-32500.0,-4.0555747495037995,1.6974913304228543,1.8294520786364992,2.8861390940744038,-1.1593344645146562,-1.5994934229882189,4.4058277519970357,3.2711184932716995,-2.2293348001941125,2.2293348001941125,-3.2711184932716995,7.9923568498410749,0.0
789640.0783812654,4030767.5119837918,-32500.0,-3.2255912537938367,1.6882585377468908,1.4719873819427474,2.0278857963508128,-1.1254763675252615,-0.97352138565839086,3.5781713861221096,2.9632687616396707,-2.1946823095771588,2.1946823095771588,-2.9632687616396707,6.4224210911989186,0.0
794640.0783812654,4030767.5119837918,-32500.0,-2.5219245386291096,1.6089530098949503,1.1759314745155269,1.4101518443235457,-1.0301045235329824,-0.58404297209298794,2.9313787147516916,2.6126012667030514,-2.0577368610052327,2.0577368610052327,-2.6126012667030514,5.2133134454777785,0.0
799640.0783812654,4030767.5119837918,-32500.0,-1.9480602976882624,1.4918072389731278,0.93690915376474959,0.97174905301117342,-0.91237411909725019,-0.34293119529034088,2.4219947750419371,2.2664725059304369,-1.8736239282460265,1.8736239282460265,-2.2664725059304369,4.2749707046438719,0.0
804640.0783812654,4030767.5119837918,-32500.0,-1.4909965619973722,1.3586457918227135,0.74673628698426897,0.663125099829035,-0.79294847784779954,-0.1943039768055535,2.0174904523468862,1.9479517371571904,-1.6754576572503643,1.6754576572503643,-1.9479517371571904,3.5398404050937398,0.0
809640.0783812654,4030767.5119837918,-32500.0,-1.1322597647447967,1.2230934959787252,0.59659525510461076,0.44686535938219013,-0.68175803839914817,-0.10318915225270896,1.6935698076138583,1.6660480329668643,-1.4817368439533687,1.4817368439533687,-1.6660480329668643,2.9580624110549376,0.0
814640.0783812654,4030767.5119837918,-32500.0,-0.85324469235067135,1.093011322190764,0.47844089539648033,0.29575437438626806,-0.58280167501341051,-0.047822560868548136,1.4320391709822355,1.4221950483922521,-1.30184386954535,1.30184386954535,-1.4221950483922521,2.4929759020817079,0.0
819640.0783812654,4030767.5119837918,-32500.0,-0.63744124827525006,0.97247855426240881,0.38547924437994169,0.19039833905948195,-0.4969657658222924,-0.014676170151098098,1.2192015517209889,1.2140938701749426,-1.1397459352688306,1.1397459352688306,-1.2140938701749426,2.1175425926177898,0.0
824640.0783812654,4030767.5119837918,-32500.0,-0.47109195701021322,0.86321938625653927,0.3122074597049691,0.11712886582420422,-0.42361767071740636,0.0046689466930231347,1.0446749503187238,1.037874671581291,-0.99634710186595454,0.99634710186595454,-1.037874671581291,1.8116841910883632,0.0
829640.0783812654,4030767.5119837918,-32500.0,-0.34312986657251882,0.76556233588515921,0.25427314837771436,0.066363590248258816,-0.36147575578900237,0.015464521662528125,0.90053047953338172,0.88924986100442105,-0.87092428879329975,0.87092428879329975,-0.88924986100442105,1.5603584663944619,0.0
834640.0783812654,4030767.5119837918,-32500.0,-0.24483523937085508,0.67905778754829771,0.20828023922316405,0.031396383780970212,-0.30906576118336854,0.020994969308746229,0.78066542704658248,0.76408796540792689,-0.76197572106779954,0.76197572106779954,-0.76408796540792689,1.3521864235373093,0.0
644640.0783812654,4035767.5119837918,-32500.0,1.7057617403478156,0.1187594573176432,-0.2270521326978002,0.94089876988835808,0.022482816087749782,0.40443505227701892,1.2226337715130686,-0.22494675942332343,0.095494772763779975,-0.095494772763779975,0.22494675942332343,2.3693243094925371,0.0
649640.0783812654,4035767.5119837918,-32500.0,1.926517823071682,0.097636061856593445,-0.2616171288428793,1.1257431655225165,0.0022149571997920397,0.51221533124296514,1.4140181330148385,-0.25846295011781395,0.12539538386152851,-0.12539538386152851,0.25846295011781395,2.7429924417004026,0.0
654640.0783812654,4035767.5119837918,-32500.0,2.1735291826954257,0.064621329764897706,-0.30013768394858625,1.3518145811745941,-0.029826594071631653,0.65355930578624188,1.6421037765599242,-0.29364566286141042,0.1617518241983007,-0.1617518241983007,0.29364566286141042,3.1885485228531052,0.0
659640.0783812654,4035767.5119837918,-32500.0,2.4456747072865186,0.015667317067450923,-0.34188821299840633,1.6281070148367132,-0.079127637427287789,0.8400461843866408,1.9145815475861079,-0.32789067151260382,0.20496299020337111,-0.20496299020337111,0.32789067151260382,3.7208166781874374,0.0
664640.0783812654,4035767.5119837918,-32500.0,2.7383028345468086,-0.054157977687344254,-0.38511868387767112,1.9646544914213919,-0.15357458337943508,1.0873565043896543,2.2405659365250741,-0.35630652076677033,0.25454279087846293,-0.25454279087846293,0.35630652076677033,4.3570564608515774,0.0
669640.0783812654,4035767.5119837918,-32500.0,3.0408099202119057,-0.15043914586294838,-0.42637754522445787,2.3716507795042752,-0.2643769809300382,1.4165156880708887,2.6305826555604437,-0.37026258232722553,0.30817962224716144,-0.30817962224716144,0.37026258232722553,5.1166152586369407,0.0
674640.0783812654,4035767.5119837918,-32500.0,3.3330310100680371,-0.27862968614715261,-0.45950847647297294,2.857417424725154,-0.42716857569442329,1.8551754371690146,3.0962281751872114,-0.35519397016746007,0.3600964292614996,-0.3600964292614996,0.35519397016746007,6.0197518831971637,0.0
679640.0783812654,4035767.5119837918,-32500.0,3.5801919247800083,-0.44217087755221413,-0.47426771436864523,3.4242982427891562,-0.66306896083117151,2.4384316626719276,3.6491320629086004,-0.28746879212164389,0.39831936186233641,-0.39831936186233641,0.28746879212164389,7.0849149976086032,0.0
684640.0783812654,4035767.5119837918,-32500.0,3.7265769041168197,-0.63860114486516883,-0.45465660152083165,4.0610627156814134,-0.99906711748603649,3.2079682139354548,4.29858747775467,-0.13035726680933435,0.40039663432403161,-0.40039663432403161,0.13035726680933435,8.3233271769758854,0.0
689640.0783812654,4035767.5119837918,-32500.0,3.6892559637029909,-0.85231976027224277,-0.37748002964706823,4.7299593497148873,-1.4662061281481349,4.2069413540025735,5.0469492465812547,0.17008225354195489,0.32730605118052752,-0.32730605118052752,-0.17008225354195489,9.7292242298487608,0.0
694640.0783812654,4035767.5119837918,-32500.0,3.3559572411994312,-1.0425384321081359,-0.212590466289649,5.3468305737425679,-2.0924183274911847,5.465668032188697,5.8818211797514799,0.68643311600551304,0.11628051836127601,-0.11628051836127601,-0.68643311600551304,11.263885210740881,0.0
699640.0783812654,4035767.5119837918,-32500.0,2.5963302346946842,-1.1261974969460371,0.071948999596131297,5.755429212164171,-2.8843941733078076,6.9699716558924631,6.7645595664734373,1.5018479680590304,-0.32384761982815446,0.32384761982815446,-1.5018479680590304,12.832810531219293,0.0
704640.0783812654,4035767.5119837918,-32500.0,1.3030171478118213,-0.96068067456944939,0.49413126511754274,5.7057987448924905,-3.7906637639019261,8.601998492545059,7.616939613878122,2.6790927536283289,-1.1048581336469647,1.1048581336469647,-2.6790927536283289,14.261065996263769,0.0
709640.0783812654,4035767.5119837918,-32500.0,-0.51778063678350916,-0.34371660729707043,1.0252216723728995,4.8658330796747835,-4.6408418484390035,10.049640233170996,8.3150011651689759,4.187520697831582,-2.3188773909986189,2.3188773909986189,-4.187520697831582,15.288601713285633,0.0
714640.0783812654,4035767.5119837918,-32500.0,-2.6061794305038632,0.93173473146117913,1.5413481748270879,2.9229150385816904,-5.0753682486854093,10.711428219042425,8.716263533648398,5.7780811364655547,-3.9390688022254858,3.9390688022254858,-5.7780811364655547,15.647309281720045,0.0
719640.0783812654,4035767.5119837918,-32500.0,-4.3335622799542008,2.9202577686793063,1.789571149731783,-0.16206084919209951,-4.530978914023339,9.6965300880363809,8.7770508649797421,6.852488036845922,-5.6590643114910799,5.6590643114910799,-6.852488036845922,15.351871041444779,0.0
724640.0783812654,4035767.5119837918,-32500.0,-4.8142868874200815,5.2774380365281486,1.4461694949692763,-3.7875707609906328,-2.4140093251877226,6.1054321552908295,8.8242069902107758,6.4961270070015793,-6.7691705880577597,6.7691705880577597,-6.4961270070015793,15.301784532390343,0.0
729640.0783812654,4035767.5119837918,-32500.0,-3.4580334714025813,7.1257684440197373,0.34500801009221876,-6.5473833130094166,1.4418795524561121,-0.29149360004577696,9.7446931200981215,3.9266918288418777,-6.3211788019047068,6.3211788019047068,-3.9266918288418777,17.309508346872345,0.0
734640.0783812654,4035767.5119837918,-32500.0,-0.74511294068761247,7.3974160618801497,-1.2218894123181196,-6.7916032663582913,6.25957515519561,-8.3207675387282443,12.014045650054577,-0.67811975493259435,-3.7779503587220669,3.7779503587220669,0.67811975493259435,21.773739363148191,0.0
739640.0783812654,4035767.5119837918,-32500.0,1.6907370078053157,5.6749409561622404,-2.5034496346465493,-3.8973176631598436,10.394658221955867,-15.529329427549291,14.544850065461624,-5.7460395518688063,0.24727306008371963,-0.24727306008371963,5.7460395518688063,26.61252703387618,0.0
744640.0783812654,4035767.5119837918,-32500.0,2.252448572805668,2.722949360705381,-2.8087048218202226,0.95303861330012296,12.330197513855584,-19.598725288410257,16.028299332088018,-9.1559984736883706,4.1180180569032334,-4.1180180569032334,9.1559984736883706,29.556157559518084,0.0
749640.0783812654,4035767.5119837918,-32500.0,0.71497541586928248,-0.066131560502280584,-2.0656109999767143,5.5992817166941329,11.730258959983372,-19.85486344572384,15.970673998944786,-9.7884936877838573,6.3426813392251251,-6.3426813392251251,9.7884936877838573,29.673551022360243,0.0
754640.0783812654,4035767.5119837918,-32500.0,-1.8425662732583941,-1.7338536367655111,-0.7788774045741359,8.4899514465537873,9.4382854035887078,-17.333101354067679,14.631314382615923,-8.1058020751277535,6.5497160736350324,-6.5497160736350324,8.1058020751277535,27.38732347107052,0.0
759640.0783812654,4035767.5119837918,-32500.0,-4.1591762628537285,-2.178573529541568,0.46087538994854488,9.3587316981957116,6.6306991644218405,-13.649980283502522,12.600778653936141,-5.3792396186772056,5.3516573576921385,-5.3516573576921385,5.3792396186772056,23.752113213973946,0.0
764640.0783812654,4035767.5119837918,-32500.0,-5.5774616986911525,-1.8198688082911421,1.3265225821401385,8.7789638330168547,4.1243538274221674,-10.025740040830053,10.421531483814363,-2.7067249292023412,3.6144725618147042,-3.6144725618147042,2.7067249292023412,19.757031451453923,0.0
769640.0783812654,4035767.5119837918,-32500.0,-6.0571394180010332,-1.1352727389957149,1.7701168305931718,7.4839952045930191,2.2398873575101268,-7.0359119332325619,8.4292382720848416,-0.63367606472057481,1.9556207771927812,-1.9556207771927812,0.63367606472057481,16.026022921154311,0.0
774640.0783812654,4035767.5119837918,-32500.0,-5.8565099409483681,-0.44086812666999309,1.8876559998262883,6.0110455763352784,0.97469024033075902,-4.7981335510138221,6.7611116866452621,0.73796979959842468,0.65292964249203833,-0.65292964249203833,-0.73796979959842468,12.834609007719806,0.0
779640.0783812654,4035767.5119837918,-32500.0,-5.2743075121409433,0.11953490593582181,1.8039021838020148,4.6495871030763993,0.19651513708396701,-3.2159101057212913,5.4252658893734438,1.5222654603230632,-0.24688484827000501,0.24688484827000501,-1.5222654603230632,10.236356039532643,0.0
784640.0783812654,4035767.5119837918,-32500.0,-4.5388117724231529,0.51232718785705555,1.6195263180924928,3.51206120423242,-0.24329955262593692,-2.1340608810746091,4.3737466389215465,1.8887904886103191,-0.80406235070331933,0.80406235070331933,-1.8887904886103191,8.1772507018034037,0.0
789640.0783812654,4035767.5119837918,-32500.0,-3.7912115567324016,0.75577876256067433,1.4002487864967474,2.6138418661005551,-0.46587218922772283,-1.4084074518255882,3.54922406573644,1.9885638039831903,-1.1074724689915421,1.1074724689915421,-1.9885638039831903,6.5665825273284399,0.0
794640.0783812654,4035767.5119837918,-32500.0,-3.1048176717082168,0.8845502092777382,1.1830661008887398,1.927806202639706,-0.55702448830355777,-0.92663772609212547,2.9016351694352549,1.9331233636100384,-1.2386975476080118,1.2386975476080118,-1.9331233636100384,5.3120673004865848,0.0
799640.0783812654,4035767.5119837918,-32500.0,-2.5094322773563382,0.93289006836225008,0.98581362182417642,1.4141018037419184,-0.57297905399450966,-0.60827252692266176,2.3908148155348443,1.796780249771734,-1.2608419492752612,1.2608419492752612,-1.796780249771734,4.3336993242438302,0.0
804640.0783812654,4035767.5119837918,-32500.0,-2.0103994282124242,0.92863500687036449,0.81504188110799169,1.0338323346508418,-0.54871900083229785,-0.39815439166091871,1.985494960739203,1.6256393487062371,-1.2184616613788346,1.2184616613788346,-1.6256393487062371,3.5670636895585681,0.0
809640.0783812654,4035767.5119837918,-32500.0,-1.6009889114761322,0.89230119988260281,0.67130727192067052,0.75408214910271298,-0.5051634064845193,-0.25939007771473171,1.6616767630407889,1.4465875565340818,-1.1412133259296084,1.1412133259296084,-1.4465875565340818,2.9622291647843562,0.0
814640.0783812654,4035767.5119837918,-32500.0,-1.2696042283607378,0.83811292094227219,0.55235213482146372,0.54886549371712812,-0.45435923117851013,-0.16761550896001923,1.4010647471944999,1.2742397656196629,-1.0479601438798452,1.0479601438798452,-1.2742397656196629,2.4812326565161089,0.0
819640.0783812654,4035767.5119837918,-32500.0,-1.0036124811282532,0.77549312107870505,0.45486791330467091,0.39843438615765314,-0.40293970402293788,-0.10683185190102894,1.1897381757548304,1.1157376540121089,-0.95019940790755331,0.95019940790755331,-1.1157376540121089,2.095457809177077,0.0
824640.0783812654,4035767.5119837918,-32500.0,-0.79117453932538262,0.71043306496051162,0.37539891479365822,0.28810441879397886,-0.35432142322510701,-0.066546351350362423,1.0170897219041057,0.97386184445577939,-0.85459783269575684,0.85459783269575684,-0.97386184445577939,1.7833778419301265,0.0
829640.0783812654,4035767.5119837918,-32500.0,-0.6219734894127279,0.64657239491134455,0.31075898380667455,0.2070897448742873,-0.31005882974308296,-0.039866633172582426,0.87500668624565958,0.84896784179097506,-0.76475009460919197,0.76475009460919197,-0.84896784179097506,1.5287654488397964,0.0
644640.0783812654,4040767.5119837918,-32500.0,1.7669401759782533,-0.064310329707120126,-0.18815354982001664,0.97477459385485998,-0.06852040503913831,0.41863947905783938,1.2406594886684759,-0.26898130890109323,0.24127158083637062,-0.24127158083637062,0.26898130890109323,2.4251394047867265,0.0
649640.0783812654,4040767.5119837918,-32500.0,1.9825619280724001,-0.11910003992246183,-0.20776710651701846,1.1597661037776674,-0.11086973926897213,0.52761338801506208,1.4313877644613324,-0.30144015248735251,0.29496615265426279,-0.29496615265426279,0.30144015248735251,2.8003934554022081,0.0
654640.0783812654,4040767.5119837918,-32500.0,2.2193496988968078,-0.19191796923645937,-0.22587340833487146,1.3834968921795985,-0.17080624334051431,0.66932111967235186,1.657524719944613,-0.33249051205768471,0.3587420793092449,-0.3587420793092449,0.33249051205768471,3.245266049619794,0.0
659640.0783812654,4040767.5119837918,-32500.0,2.4740394297413499,-0.28743840355403272,-0.23980950334361276,1.6533056346534971,-0.25526527509185115,0.85444925465961175,1.9260549200391854,-0.35787989465868919,0.4331273941769912,-0.4331273941769912,0.35787989465868919,3.7731058098593602,0.0
664640.0783812654,4040767.5119837918,-32500.0,2.7392455305620986,-0.41085304268675094,-0.24529375659405367,1.9767322992467262,-0.37377446130463116,1.09712970957765,2.2450480466750911,-0.37042200570373596,0.51744488092054164,-0.51744488092054164,0.37042200570373596,4.3989765178730549,0.0
669640.0783812654,4040767.5119837918,-32500.0,3.0011044003313385,-0.56725268045103805,-0.23568059449104628,2.3603188808132338,-0.53921688141877289,1.4157623542131919,2.6234772442053722,-0.35842066120036564,0.60864678059460553,-0.60864678059460553,0.35842066120036564,5.1390254098213139,0.0
674640.0783812654,4040767.5119837918,-32500.0,3.2360198756709324,-0.76024071851620723,-0.20101936525509634,2.8072521616061512,-0.76855688733325256,1.8336537541571871,3.0706292114731317,-0.30347181255876948,0.69937893997649514,-0.69937893997649514,0.30347181255876948,6.0089777089490326,0.0
679640.0783812654,4040767.5119837918,-32500.0,3.4065529728263884,-0.98919885529184581,-0.1270444893278867,3.3130992466368965,-1.0831480140732459,2.3789222422892808,3.594765117160831,-0.17765650111387693,0.77492894001087187,-0.77492894001087187,0.17765650111387693,7.0211220216381482,0.0
684640.0783812654,4040767.5119837918,-32500.0,3.4570682542461713,-1.2443733822535004,0.0054862166774199183,3.8586411372955274,-1.507770029341629,3.0825221011127977,4.2005678619184872,0.059448777144217202,0.80875712387057019,-0.80875712387057019,-0.059448777144217202,8.178861021885151,0.0
689640.0783812654,4040767.5119837918,-32500.0,3.3110336700394596,-1.4988293663876173,0.22009146922057979,4.3988209381568879,-2.0666944494819219,3.972218963809885,4.8848380250731473,0.46251474691294781,0.75671168799926591,-0.75671168799926591,-0.46251474691294781,9.4676712235731646,0.0
694640.0783812654,4040767.5119837918,-32500.0,2.8743055950878058,-1.6968225291660259,0.5404442228828803,4.8477492169446279,-2.7737887150738034,5.0588846833897803,5.6299955219349158,1.0974747706118702,0.55130674470660757,-0.55130674470660757,-1.0974747706118702,10.84154732737267,0.0
699640.0783812654,4040767.5119837918,-32500.0,2.0523941391803406,-1.7403559500117169,0.97934127039271435,5.0628980078352566,-3.6122850834947173,6.3100919841287952,6.3956389207512636,2.0268810108093858,0.10043301884551159,-0.10043301884551159,-2.0268810108093858,12.20570784796238,0.0
704640.0783812654,4040767.5119837918,-32500.0,0.79295185198522744,-1.4814275106834407,1.5164337496024451,4.8390803287213711,-4.5000042444192516,7.6067420159672121,7.1107363615634585,3.2726431644224414,-0.69968244619879005,0.69968244619879005,-3.2726431644224414,13.401701418409965,0.0
709640.0783812654,4040767.5119837918,-32500.0,-0.8386355275925349,-0.73803245533088579,2.0632418971018311,3.9354987940953512,-5.2418795063386856,8.6864364890614798,7.6746253262603501,4.7453094228414248,-1.9208988858976257,1.9208988858976257,-4.7453094228414248,14.213997619387143,0.0
714640.0783812654,4040767.5119837918,-32500.0,-2.5658030270644772,0.63685596651834597,2.4266791813542317,2.1707526387889002,-5.4908615181502007,9.1004404577675881,7.9853676078406419,6.1457306474718907,-3.5132425749399152,3.5132425749399152,-6.1457306474718907,14.442456192381696,0.0
719640.0783812654,4040767.5119837918,-32500.0,-3.8597276100091937,2.6121235358867443,2.3094541110057287,-0.39341016508674231,-4.7735852925458664,8.2512294518019225,8.0255765432543065,6.895564197019632,-5.1811351246652526,5.1811351246652526,-6.895564197019632,14.117883040315469,0.0
724640.0783812654,4040767.5119837918,-32500.0,-4.0814228328200066,4.8043510650197083,1.4114394366101251,-3.2408241933824069,-2.6628458525667549,5.6035802289956331,8.0165447661925491,6.2294815652754645,-6.3140705959776318,6.3140705959776318,-6.2294815652754645,13.885203212392938,0.0
729640.0783812654,4040767.5119837918,-32500.0,-2.887422581245362,6.4413359021279941,-0.34005033524777023,-5.3714286525581185,0.88391318587585166,1.0854454454804168,8.4840744673809816,3.5852223050067602,-6.1422627855107104,6.1422627855107104,-3.5852223050067602,15.017505833205394,0.0
734640.0783812654,4040767.5119837918,-32500.0,-0.68935118222254987,6.6769327552351552,-2.560722207615977,-5.7035232007971182,5.2155511350430404,-4.5494354304549338,9.8221264812380191,-0.81632279132151142,-4.2074170472532817,4.2074170472532817,0.81632279132151142,18.003315660928955,0.0
739640.0783812654,4040767.5119837918,-32500.0,1.3615910284220385,5.1905261272498384,-4.4663307768480207,-3.8130331501299963,9.0923490753194471,-9.8333521133416539,11.604349854052968,-5.7271831464829139,-0.8689842668773462,0.8689842668773462,5.7271831464829139,21.598679502191068,0.0
744640.0783812654,4040767.5119837918,-32500.0,2.1123770035582035,2.5388381654400822,-5.3263917799753244,-0.36852027429460987,11.336537512386087,-13.320634214791941,12.90832101273115,-9.456546585377998,2.7246633249915022,-2.7246633249915022,9.456546585377998,24.166221917614745,0.0
749640.0783812654,4040767.5119837918,-32500.0,1.2407460692820009,-0.19257855346940633,-4.9456479736002681,3.2770612052212309,11.527300492899792,-14.394502980740908,13.206107374286892,-10.922969792822082,5.341063540547486,-5.341063540547486,10.922969792822082,24.838906828097329,0.0
754640.0783812654,4040767.5119837918,-32500.0,-0.66136897859460875,-2.1188899142228173,-3.7030348164277109,5.9687839765745547,10.103695597888514,-13.429993829723129,12.519437572438589,-10.186775247284578,6.3947786129013924,-6.3947786129013924,10.186775247284578,23.66545680394346,0.0
759640.0783812654,4040767.5119837918,-32500.0,-2.693640215845686,-2.9624595873440613,-2.1888349743038003,7.2732266439731772,7.8987118156886069,-11.311297144602742,11.175324061006819,-8.0945507273358857,6.0684880538808983,-6.0684880538808983,8.0945507273358857,21.238314447402125,0.0
764640.0783812654,4040767.5119837918,-32500.0,-4.2239286628191168,-2.9348445422853979,-0.85133743146245144,7.3787666198737112,5.6346593936503719,-8.8699112952297892,9.5518436521939662,-5.5961978920255966,4.9319902017919084,-4.9319902017919084,5.5961978920255966,18.249800380354326,0.0
769640.0783812654,4040767.5119837918,-32500.0,-5.0448897545057729,-2.4155746440762886,0.11508946881231225,6.7271033724048781,3.7150092235994387,-6.6235591186037537,7.9355876931386904,-3.3300121306091919,3.5374709528699357,-3.5374709528699357,3.3300121306091919,15.229383644524587,0.0
774640.0783812654,4040767.5119837918,-32500.0,-5.2403485072963649,-1.7275941494238736,0.70529904863046333,5.7324217930428034,2.2652077653427627,-4.7880124342446413,6.489168991226677,-1.569053188102274,2.2381522148619375,-2.2381522148619375,1.569053188102274,12.481791700353737,0.0
779640.0783812654,4040767.5119837918,-32500.0,-5.0044232673376996,-1.0672522878902406,1.0004117220266511,4.6750439975733107,1.2530218655385441,-3.3900541392907213,5.2741148963333337,-0.34093810227001992,1.1900345214542443,-1.1900345214542443,0.34093810227001992,10.132403148688473,0.0
784640.0783812654,4040767.5119837918,-32500.0,-4.5271928556653442,-0.52239272825793404,1.0969631892086922,3.7050351236123404,0.58696488419898329,-2.370393632882092,4.2875800652234863,0.44067764555134992,0.42115729367982579,-0.42115729367982579,-0.44067764555134992,8.1967591359730321,0.0
789640.0783812654,4040767.5119837918,-32500.0,-3.9506346945776407,-0.11357311067282444,1.0751865217690633,2.8824955255246687,0.17053813590726288,-1.6460818929551466,3.4979009049063086,0.89124480672182527,-0.10236491995325109,0.10236491995325109,-0.89124480672182527,6.6362534486990672,0.0
794640.0783812654,4040767.5119837918,-32500.0,-3.3647795535795697,0.17156526898670921,0.99158405603958033,2.2166449614437518,-0.076228743533978183,-1.139551413436658,2.8684303037598458,1.1152946143512841,-0.43421232208771815,0.43421232208771815,-1.1152946143512841,5.3927657399474027,0.0
799640.0783812654,4040767.5119837918,-32500.0,-2.8190536434359523,0.35707263472279155,0.88194849766564598,1.6927627670184817,-0.21248245892208481,-0.78831318659279859,2.3665827428284496,1.1937494829454942,-0.626833671165826,0.626833671165826,-1.1937494829454942,4.4067942105758195,0.0
804640.0783812654,4040767.5119837918,-32500.0,-2.3357803781035473,0.46791491959578702,0.76707260310661962,1.2877348900534702,-0.27920053129348171,-0.54566335919525888,1.965479411393851,1.184035874649727,-0.72348004389947707,0.72348004389947707,-1.184035874649727,3.625358051655454,0.0
809640.0783812654,4040767.5119837918,-32500.0,-1.9210844412952706,0.52555468133449668,0.65795604564758192,0.97786267829447016,-0.30360903460804795,-0.3781310270240259,1.6435841392473076,1.1246460662463045,-0.75680944888363677,0.75680944888363677,-1.1246460662463045,3.0044334751726289,0.0
814640.0783812654,4040767.5119837918,-32500.0,-1.5723628896016335,0.54680708786686827,0.55964733812009437,0.74216930024095917,-0.30327067579769651,-0.2622991091890422,1.3839093010334178,1.0402807175878215,-0.75017604901418222,0.75017604901418222,-1.0402807175878215,2.5087894359895415,0.0
819640.0783812654,4040767.5119837918,-32500.0,-1.2829385086341467,0.5441380776643826,0.47379979060238997,0.56338415427227173,-0.28925184617118099,-0.18200433997037485,1.1731850746542005,0.94617918747373697,-0.71966130578452014,0.71966130578452014,-0.94617918747373697,2.1108282797978881,0.0
824640.0783812654,4040767.5119837918,-32500.0,-1.0447358713371029,0.52645132560357988,0.4002602272356296,0.42785234013174872,-0.2683747133657815,-0.12616539487292985,1.001098000479234,0.85134373744410174,-0.67601340443642588,0.67601340443642588,-0.85134373744410174,1.7891773305761636,0.0
829640.0783812654,4040767.5119837918,-32500.0,-0.84970407406570314,0.49992959386241131,0.33800872714776542,0.32503293818212853,-0.24474379181519015,-0.087203154815442399,0.85964553973751312,0.76078838238809421,-0.62622283675458379,0.62622283675458379,-0.76078838238809421,1.5273715485623414,0.0
649640.0783812654,4045767.5119837918,-32500.0,1.9712637777650754,-0.31757176586134506,-0.1245638533633744,1.1584507565046425,-0.21548150656536708,0.52817195336099465,1.4293660185949277,-0.31730552349831159,0.44981706412649564,-0.44981706412649564,0.31730552349831159,2.8139674016221665,0.0
654640.0783812654,4045767.5119837918,-32500.0,2.1845916401540659,-0.42145978584216698,-0.11679028540593896,1.3702208339168183,-0.29842382337881562,0.66498501759317707,1.648506012009294,-0.33814693939559026,0.53498370388136995,-0.53498370388136995,0.33814693939559026,3.2466811714315043,0.0
659640.0783812654,4045767.5119837918,-32500.0,2.4066460138897261,-0.55130072312741651,-0.096947036336636261,1.6213665945651732,-0.41066131050750776,0.84153177149385616,1.906599882441764,-0.34772300720894622,0.63241175994942112,-0.63241175994942112,0.34772300720894622,3.7554448621356182,0.0
664640.0783812654,4045767.5119837918,-32500.0,2.6276317976012753,-0.71132480601393433,-0.058642124285427304,1.9164672543007397,-0.56215713332317285,1.0696947604621017,2.2102278668247508,-0.33687523421959176,0.74066393370501915,-0.74066393370501915,0.33687523421959176,4.3523259111998804,0.0
669640.0783812654,4045767.5119837918,-32500.0,2.8313030566228634,-0.90465526913478755,0.0071082437522760073,2.2580898183823903,-0.7657412078787712,1.3643750172254161,2.5662404786597257,-0.29163360670318944,0.85538415895531283,-0.85538415895531283,0.29163360670318944,5.0493816253074444,0.0
674640.0783812654,4045767.5119837918,-32500.0,2.9924005478171098,-1.1314526701099576,0.11249806674150606,2.6443691752338245,-1.0373195709681615,1.7435443224795308,2.9809730992137284,-0.19134914096851496,0.96723562407491681,-0.96723562407491681,0.19134914096851496,5.856928559068435,0.0
679640.0783812654,4045767.5119837918,-32500.0,3.0738839168905927,-1.3857036809690679,0.27323892334902272,3.0650451260858729,-1.3953625573993307,2.2274354166773187,3.4588086972424668,-0.0066754941843971682,1.0588687489581596,-1.0588687489581596,0.0066754941843971682,6.7804590285546045,0.0
684640.0783812654,4045767.5119837918,-32500.0,3.0248777912236364,-1.6500924279324263,0.5079086339847807,3.4954327650836743,-1.8587833011287807,2.83591764075608,3.9998057134166753,0.30185885456476957,1.1008567063037156,-1.1008567063037156,-0.30185885456476957,7.8155629736935293,0.0
689640.0783812654,4045767.5119837918,-32500.0,2.781388139693842,-1.8886041656073087,0.83510714600361458,3.8881408839802054,-2.4416832378866644,3.5824770027225861,4.5961084766795457,0.78293524520880942,1.0470971949757684,-1.0470971949757684,-0.78293524520880942,8.9402317580614952,0.0
694640.0783812654,4045767.5119837918,-32500.0,2.2735927452750722,-2.0374840803806098,1.2663943758850382,4.1635541360403652,-3.1427107136403447,4.4625400658619112,5.2270791457594452,1.4877283044991962,0.83153295524713222,-0.83153295524713222,-1.4877283044991962,10.104459819955796,0.0
699640.0783812654,4045767.5119837918,-32500.0,1.4453918677609006,-1.997709391258921,1.7923860625382975,4.2029550220965479,-3.926522852957135,5.4337579590311726,5.853891810943634,2.4517221850735429,0.37064876116635714,-0.37064876116635714,-2.4517221850735429,11.218881205465271,0.0
704640.0783812654,4045767.5119837918,-32500.0,0.29191463418572322,-1.6370337732540143,2.3602582755604122,3.8533503017892055,-4.6966024003781923,6.3878498294374548,6.4162754310098524,3.6581951644139998,-0.42000962898708871,0.42000962898708871,-3.6581951644139998,12.148611822555162,0.0
709640.0783812654,4045767.5119837918,-32500.0,-1.0859172444512464,-0.81621802849647218,2.845952566104073,2.9594917694985376,-5.2653418049287284,7.1204727341866043,6.8378085983862809,4.9807190581707381,-1.5843117446257808,1.5843117446257808,-4.9807190581707381,12.727288118743179,0.0
714640.0783812654,4045767.5119837918,-32500.0,-2.4304100436317335,0.54352899475387073,3.0367836457287725,1.4398359200123045,-5.3416869933256672,7.3198340784543801,7.0514074907266933,6.1194746866114578,-3.0533660513244136,3.0533660513244136,-6.1194746866114578,12.820199205993093,0.0
719640.0783812654,4045767.5119837918,-32500.0,-3.3328248033049723,2.3510815485376688,2.658056492742559,-0.59548592186687788,-4.5751132134341699,6.612407788149703,7.0587715219223472,6.5818656681088363,-4.5622330081428117,4.5622330081428117,-6.5818656681088363,12.476343559903434,0.0
724640.0783812654,4045767.5119837918,-32500.0,-3.3664871172057365,4.2435398281454617,1.4821142646486594,-2.7396088756566543,-2.6955184029144359,4.7038636976064003,7.0162050989599756,5.7928833295907385,-5.6233824070778571,5.6233824070778571,-5.7928833295907385,12.159206515918838,0.0
729640.0783812654,4045767.5119837918,-32500.0,-2.357284610467397,5.6074784991239266,-0.48773621874661588,-4.3170865329181893,0.26773257435644454,1.5979925977976543,7.2476530649608071,3.3890750084631041,-5.6577341323150812,5.6577341323150812,-3.3890750084631041,12.735895837604895,0.0
734640.0783812654,4045767.5119837918,-32500.0,-0.63423304192276442,5.8260987199187797,-2.8730978814774679,-4.6477961731598745,3.8230351314195947,-2.2373603477881319,8.0047139684229673,-0.41610168681809423,-4.310948593535981,4.310948593535981,0.41610168681809423,14.645014411150818,0.0
739640.0783812654,4045767.5119837918,-32500.0,1.0198270073344418,4.6681127910798876,-4.9961430042304285,-3.4566572160596554,7.1105311884600351,-5.9505775512543382,9.1432773602326858,-4.7124797500575468,-1.7738123615197687,1.7738123615197687,4.7124797500575468,17.19717767142124,0.0
744640.0783812654,4045767.5119837918,-32500.0,1.8074131761076564,2.5032999029951215,-6.2141757656291166,-1.1070524933338342,9.2926923261827579,-8.6760069462848932,10.162187435254728,-8.264619630669312,1.208458384919127,-1.208458384919127,8.264619630669312,19.27933916338155,0.0
749640.0783812654,4045767.5119837918,-32500.0,1.4127865516100273,0.10272863213047341,-6.2735192112344116,1.5914496952504567,9.9753929448679717,-9.9478789776927936,10.604102516671448,-10.167982018593177,3.7298196939537562,-3.7298196939537562,10.167982018593177,20.173687262066846,0.0
754640.0783812654,4045767.5119837918,-32500.0,0.11745572023615264,-1.8163411840618751,-5.3863510834778747,3.8487465869326911,9.3261341402040756,-9.8410367444078002,10.352673334027136,-10.255813743101605,5.2041711844487111,-5.2041711844487111,10.255813743101605,19.746392422025171,0.0
759640.0783812654,4045767.5119837918,-32500.0,-1.4959914735940456,-2.9107120693558932,-4.0146673626854978,5.2418070931242671,7.8542353729225303,-8.7895131181604533,9.5510154774845386,-8.9885461561601634,5.5543728661606719,-5.5543728661606719,8.9885461561601634,18.2779257039135,0.0
764640.0783812654,4045767.5119837918,-32500.0,-2.9144094566566117,-3.2184224975158622,-2.5954260823777808,5.7504701166043573,6.0980389117264755,-7.2987022673154041,8.4340566591287356,-7.0526505437509428,5.0668403722104536,-5.0668403722104536,7.0526505437509428,16.20367167858722,0.0
769640.0783812654,4045767.5119837918,-32500.0,-3.8726113618495339,-2.9792163036033492,-1.3958865626574373,5.5914525219088569,4.4357515161996428,-5.7551930314448221,7.2163301599659384,-5.0252348554642623,4.1353595054358436,-4.1353595054358436,5.0252348554642623,13.920804717647377,0.0
774640.0783812654,4045767.5119837918,-32500.0,-4.3337438913095152,-2.4583097934856522,-0.51126797776010879,5.0379093158196344,3.053151875345383,-4.3773811782897587,6.0465102982845522,-3.2476530085149555,3.0847863630138779,-3.0847863630138779,3.2476530085149555,11.705412844841451,0.0
779640.0783812654,4045767.5119837918,-32500.0,-4.389490970416567,-1.8559356029323935,0.07299711734034342,4.3157469561132098,1.9952347498718468,-3.249069797563934,5.0059596398808139,-1.8519096212901409,2.1140330563931888,-2.1140330563931888,1.8519096212901409,9.7097186293717161,0.0
784640.0783812654,4045767.5119837918,-32500.0,-4.1705726170290225,-1.2902075856817243,0.41862451046588217,3.5736317925129262,1.2315362083889034,-2.3735931183889436,4.1244327045467664,-0.83928082077581601,1.3123384334038917,-1.3123384334038917,0.83928082077581601,7.9937260489562769,0.0
789640.0783812654,4045767.5119837918,-32500.0,-3.7960019312592679,-0.814585546511293,0.59490458518163125,2.8923405625210421,0.70374173657152783,-1.7173206317210479,3.3981246328727885,-0.15058577196108752,0.69814847536589997,-0.69814847536589997,0.15058577196108752,6.5610203962016378,0.0
794640.0783812654,4045767.5119837918,-32500.0,-3.3546236626132653,-0.44227434139011584,0.66074112344415092,2.3058186860303014,0.35179632348505741,-1.2360077973857497,2.8071172429895461,0.28950183704382071,0.25367216812646398,-0.25367216812646398,-0.28950183704382071,5.3863877679234191,0.0
799640.0783812654,4045767.5119837918,-32500.0,-2.9045192221784202,-0.16577981145697049,0.65986926380550592,1.8204824680050837,0.12482293268859951,-0.88769639241237475,2.3282605683252013,0.55062410393276151,-0.052404007782367146,0.052404007782367146,-0.55062410393276151,4.4334365804835203,0.0
804640.0783812654,4045767.5119837918,-32500.0,-2.4793490669603933,0.030629268915020342,0.62212861259395602,1.4288506080920136,-0.01627025872678662,-0.63752109378231525,1.9405472991665924,0.68892197365063423,-0.25265239192263866,0.25265239192263866,-0.68892197365063423,3.6643630459056769,0.0
809640.0783812654,4045767.5119837918,-32500.0,-2.0958161748291704,0.16414649250844637,0.56664509632354521,1.1178564035662433,-0.099841932146581075,-0.45845544027902058,1.6262371510378324,0.74629181929795374,-0.3755125732867961,0.3755125732867961,-0.74629181929795374,3.0446324765107091,0.0
814640.0783812654,4045767.5119837918,-32500.0,-1.7598991206720818,0.25030789466388381,0.50501815132052275,0.87334738702353898,-0.14572075580089064,-0.33037473264614314,1.3707477048848489,0.75247868232420978,-0.44369863037209112,0.44369863037209112,-0.75247868232420978,2.5447020386336052,0.0
819640.0783812654,4045767.5119837918,-32500.0,-1.4713601852829841,0.30191237187275777,0.44387251456234145,0.68223204995590014,-0.1674265746970609,-0.23865113893587395,1.1622855592277062,0.72785926888684849,-0.474403311193485,0.474403311193485,-0.72785926888684849,2.1402413735648249,0.0
824640.0783812654,4045767.5119837918,-32500.0,-1.2267156144463476,0.32894912882781335,0.38669114345628991,0.53329836287522481,-0.17400959756554085,-0.17280265519963262,0.9914162662860182,0.68599767670695777,-0.4801822341332842,0.4801822341332842,-0.68599767670695777,1.8116582572783788,0.0
829640.0783812654,4045767.5119837918,-32500.0,-1.0210664813313979,0.33894556192345721,0.33505128040384352,0.41735413618532952,-0.17143901976574036,-0.12537705171163988,0.85064498551842915,0.63568785467384159,-0.46996883419059815,0.46996883419059815,-0.63568785467384159,1.5433840458003485,0.0
649640.0783812654,4050767.5119837918,-32500.0,1.9033324602452373,-0.48752531278951888,-0.020856488659146501,1.1269060032181308,-0.30639225247740765,0.51592114600038985,1.4091613922081261,-0.30838600755167644,0.58212349350730164,-0.58212349350730164,0.30838600755167644,2.7860715347526175,0.0
654640.0783812654,4050767.5119837918,-32500.0,2.0844085224789044,-0.61204043108280393,0.01475568982851248,1.3196721634431916,-0.40619403090246187,0.6438010418083896,1.6170479363720835,-0.31479722590700232,0.68134197369074934,-0.68134197369074934,0.31479722590700232,3.1969705198699452,0.0
659640.0783812654,4050767.5119837918,-32500.0,2.2647535620377717,-0.76234693129154374,0.069504491334761789,1.5438020830320882,-0.53743116290290593,0.80649486515141156,1.8593763754869599,-0.3043854981029519,0.79238428831911878,-0.79238428831911878,0.3043854981029519,3.6748313934834922,0.0
664640.0783812654,4050767.5119837918,-32500.0,2.4329718519610699,-0.9408556244439239,0.15104307652660401,1.8010119371631375,-0.70945281334456656,1.0133704855016863,2.1409868706899498,-0.26669214530605251,0.91267603791722318,-0.91267603791722318,0.26669214530605251,4.2284237681058698,0.0
669640.0783812654,4050767.5119837918,-32500.0,2.5717997540125097,-1.1478832743895164,0.26936115686227013,2.0903328881139465,-0.93366443003650468,1.2756364628445742,2.4664058617150744,-0.18665633899115708,1.0362990471386697,-1.0362990471386697,0.18665633899115708,4.8655417960626206,0.0
674640.0783812654,4050767.5119837918,-32500.0,2.6564107999019893,-1.3795801729580612,0.43691724810856364,2.4058890790464558,-1.2232346148806561,1.6059736626932291,2.8390210588351645,-0.043309766897668522,1.152002150420304,-1.152002150420304,0.043309766897668522,5.5912137559826327,0.0
679640.0783812654,4050767.5119837918,-32500.0,2.6530671015521889,-1.6247154718836785,0.66813232096474684,2.7335910209042003,-1.59192542147561,2.0173239647298593,3.2597536114952597,0.1912301584914966,1.2405101094041899,-1.2405101094041899,-0.1912301584914966,6.4048081236258527,0.0
684640.0783812654,4050767.5119837918,-32500.0,2.5191250099029241,-1.8601031465031543,0.97752810300114723,3.0466187345377529,-2.0512783817287867,2.5201420616010912,3.7250662873397906,0.55157501766214811,1.2713069899270513,-1.2713069899270513,-0.55157501766214811,7.2956786680445989,0.0
689640.0783812654,4050767.5119837918,-32500.0,2.2062259320361552,-2.0448924573872502,1.3753704392590529,3.3000469941590014,-2.6050283240522401,3.1171135929708722,4.2242256425540177,1.0759654776549705,1.1996850748101624,-1.1996850748101624,-1.0759654776549705,8.2371752975316817,0.0
694640.0783812654,4050767.5119837918,-32500.0,1.669461140569525,-2.1150770036786732,1.859318654465286,3.426091420740597,-3.2394101064142728,3.7941938887040831,4.7360313902297344,1.7974170814635528,0.96605671127627812,-0.96605671127627812,-1.7974170814635528,9.1795115134863892,0.0
699640.0783812654,4050767.5119837918,-32500.0,0.88571342165459721,-1.9817872530456657,2.4008076371787785,3.3335394652377075,-3.9085185991024463,4.5073098620748304,5.2259382350340253,2.7253634064155552,0.50142581615209902,-0.50142581615209902,-2.7253634064155552,10.043598090715284,0.0
704640.0783812654,4050767.5119837918,-32500.0,-0.11742212355808669,-1.5401958005218146,2.9268159889698269,2.9178446730290388,-4.5161561504641012,5.1661100836407554,5.6458844345758861,3.8148829969197822,-0.25505267760388595,0.25505267760388595,-3.8148829969197822,10.721185997924048,0.0
709640.0783812654,4050767.5119837918,-32500.0,-1.2274697654303228,-0.69855322725941216,3.3028865768007725,2.0904700545544528,-4.9010095919265435,5.620862014434362,5.941293181084391,4.9262241653800221,-1.3205562009684861,1.3205562009684861,-4.9262241653800221,11.091988256550927,0.0
714640.0783812654,4050767.5119837918,-32500.0,-2.2264810504282777,0.56592477393480112,3.3322920270187137,0.83285496581789353,-4.8406151991271651,5.6659476287407307,6.0718307784025853,5.7912311451996512,-2.6161075174190658,2.6161075174190658,-5.7912311451996512,11.074953262857074,0.0
719640.0783812654,4050767.5119837918,-32500.0,-2.8180442004022281,2.1337530181472442,2.7945020915452004,-0.7349691432214156,-4.0964249808812818,5.0791033377134607,6.0508940867924998,6.0237292084048812,-3.9168014553366026,3.9168014553366026,-6.0237292084048812,10.731441963212189,0.0
724640.0783812654,4050767.5119837918,-32500.0,-2.7333017804957165,3.6940149723513027,1.5395394188808731,-2.3101221048481988,-2.5138875392832922,3.7082915693591452,5.992209791805239,5.2206090733058153,-4.8509252893961241,4.8509252893961241,-5.2206090733058153,10.398726618744108,0.0
729640.0783812654,4050767.5119837918,-32500.0,-1.8995638645384634,4.7880042416234234,-0.38379881038385921,-3.4491912891051038,-0.15276782792052571,1.5855538817008177,6.1036263158436812,3.1642246622332784,-5.0014571209666201,5.0014571209666201,-3.1642246622332784,10.662865433027591,0.0
734640.0783812654,4050767.5119837918,-32500.0,-0.56887437840162947,4.985979275873631,-2.6487963615250241,-3.7324037059828097,2.634680250737961,-1.0010706137714429,6.5441475246295493,0.038334708346330348,-4.1095776690272796,4.1095776690272796,-0.038334708346330348,11.866382555492279,0.0
739640.0783812654,4050767.5119837918,-32500.0,0.73352040625933268,4.127097744452132,-4.721426390547979,-2.986216393730361,5.2745691991614549,-3.5596503189530204,7.2505351469914956,-3.5196832383503263,-2.2694429904946261,2.2694429904946261,3.5196832383503263,13.641233619938495,0.0
744640.0783812654,4050767.5119837918,-32500.0,1.466937446927931,2.4467081850587866,-6.0870055251390145,-1.406802310530185,7.1972625037665523,-5.5794151199948896,7.9712105759092626,-6.6460296904283513,0.053477364424020291,-0.053477364424020291,6.6460296904283513,15.257246709895567,0.0
749640.0783812654,4050767.5119837918,-32500.0,1.3659858850001059,0.46658692888912062,-6.4900284276567799,0.52957641569901259,8.0825809334543379,-6.7407838697043214,8.4110643687337081,-8.6436543206165251,2.2345927243317085,-2.2345927243317085,8.6436543206165251,16.1625673943972,0.0
754640.0783812654,4050767.5119837918,-32500.0,0.54083116514112728,-1.2752111272381514,-6.0141545908430452,2.3074122465797169,7.9562974181896333,-7.0107733096228495,8.4036528410010263,-9.2638249255659026,3.7847925333528734,-3.7847925333528734,9.2638249255659026,16.16331830230704,0.0
759640.0783812654,4050767.5119837918,-32500.0,-0.65652198547290241,-2.4497666774020064,-4.9713895781679129,3.5844777553044738,7.0989426894516914,-6.5837777976900815,7.9748175946378606,-8.7052532864219785,4.519181327889342,-4.519181327889342,8.7052532864219785,15.359348761210788,0.0
764640.0783812654,4050767.5119837918,-32500.0,-1.8510986128196449,-2.992428928512092,-3.7181299981296827,4.2582930616820045,5.8705042648139676,-5.7444519028226555,7.2532600526192565,-7.4053736927632237,4.5305807097312467,-4.5305807097312467,7.4053736927632237,14.000947335507929,0.0
769640.0783812654,4050767.5119837918,-32500.0,-2.7914250067022039,-3.0213247214317631,-2.5242335867803494,4.4063322150266311,4.5724423187322483,-4.7507126993725253,6.3848898089822645,-5.8114436813931016,4.0537374793125869,-4.0537374793125869,5.8114436813931016,12.360739890359255,0.0
774640.0783812654,4050767.5119837918,-32500.0,-3.3803967635393914,-2.7213962825594549,-1.5341463085046483,4.1857302637503428,3.3933155392651111,-3.7796732683088354,5.4885240196686853,-4.2498638985290045,3.3351878836999616,-3.3351878836999616,4.2498638985290045,10.659643739284075,0.0
779640.0783812654,4050767.5119837918,-32500.0,-3.6342711168724646,-2.2627792216852805,-0.78983227325332228,3.7558422393966779,2.4175643581373896,-2.9256330487981246,4.6428868517984183,-2.9000568448193245,2.5627668800196841,-2.5627668800196841,2.9000568448193245,9.0438231449373827,0.0
784640.0783812654,4050767.5119837918,-32500.0,-3.6254410435736548,-1.766964198649511,-0.27259032082270346,3.240706938518489,1.659442391577552,-2.2220720991403118,3.890514813073116,-1.8259964047492367,1.8499494571965398,-1.8499494571965398,1.8259964047492367,7.5921041061440135,0.0
789640.0783812654,4050767.5119837918,-32500.0,-3.4391570251822996,-1.3052126170592888,0.061680828678413943,2.7213772851391251,1.0963554234966739,-1.6666992147138842,3.2469116541775227,-1.0216122278546715,1.249238510921858,-1.249238510921858,1.0216122278546715,6.3345712978032882,0.0
794640.0783812654,4050767.5119837918,-32500.0,-3.1502985906583958,-0.91060262394941716,0.26087370220747658,2.2428870369176477,0.69204221945450239,-1.2404974328094105,2.709331723491804,-0.44791189816658089,0.77332086252209398,-0.77332086252209398,0.44791189816658089,5.2711252667217483,0.0
799640.0783812654,4050767.5119837918,-32500.0,-2.815218299861324,-0.59202136764794833,0.36654187242463315,1.8251797763024293,0.40948939442662458,-0.9194000713264523,2.2653515214405955,-0.056459498025643901,0.41334060034023623,-0.41334060034023623,0.056459498025643901,4.3856632172698049,0.0
804640.0783812654,4050767.5119837918,-32500.0,-2.47189584786104,-0.34526935616387094,0.41083872483350087,1.4728819370546165,0.21665805747797606,-0.68028626166585038,1.900181850377205,0.19847910328948667,0.15132009406786492,-0.15132009406786492,-0.19847910328948667,3.6553915192619448,0.0
809640.0783812654,4050767.5119837918,-32500.0,-2.1434574172909624,-0.16038768945312828,0.41692765771971013,1.1823881476082136,0.088107496051500089,-0.5034332865923038,1.6001571051642418,0.35507846384059971,-0.032660649099773703,0.032660649099773703,-0.35507846384059971,3.0562631095656645,0.0
814640.0783812654,4050767.5119837918,-32500.0,-1.8423266821725155,-0.025893474728996047,0.40067085902780153,0.9463906463800944,0.004659586867291626,-0.37307091828207384,1.3535318698852601,0.44303284145550526,-0.15692610951435079,0.15692610951435079,-0.44303284145550526,2.5657855954409836,0.0
819640.0783812654,4050767.5119837918,-32500.0,-1.5738246419382673,0.069074908550099137,0.37249946512138327,0.75650050289394277,-0.047664059946657199,-0.27706728502807026,1.1504575922157541,0.48441340108223652,-0.23684491132810537,0.23684491132810537,-0.48441340108223652,2.1642217347357846,0.0
824640.0783812654,4050767.5119837918,-32500.0,-1.3388891517815236,0.1338638118484731,0.33902267484354393,0.60461579739506954,-0.078821370928520804,-0.20631025640735021,0.9827958551305086,0.49511145758886238,-0.28461817656670679,0.28461817656670679,-0.49511145758886238,1.8348932672864011,0.0
654640.0783812654,4055767.5119837918,-32500.0,1.9361889390904148,-0.75754207531473183,0.15595712291693989,1.2408817533982714,-0.4905498844603946,0.6096388679311826,1.5663278425014904,-0.26884712990835608,0.79288322733904204,-0.79288322733904204,0.26884712990835608,3.1032698724060555,0.0
659640.0783812654,4055767.5119837918,-32500.0,2.0715112250793215,-0.91504067413641377,0.24261096985409161,1.4334579425495986,-0.63195440207213338,0.75522281830940607,1.7888761582863162,-0.23717093777629922,0.90833097864853163,-0.90833097864853163,0.23717093777629922,3.5418262992855789,0.0
664640.0783812654,4055767.5119837918,-32500.0,2.1856919772396233,-1.0956420615076259,0.3616261657108405,1.6485191357190561,-0.81258071958242417,0.93709229221518975,2.0437911910925988,-0.17301472956123909,1.0296461755154724,-1.0296461755154724,0.17301472956123909,4.042733251320648,0.0
669640.0783812654,4055767.5119837918,-32500.0,2.2618770090302398,-1.2967270887458251,0.52263191534477871,1.8824433113005903,-1.0415809534579465,1.1630633315793433,2.3334840326333453,-0.061480787362391487,1.1494586764724373,-1.1494586764724373,0.061480787362391487,4.6099038203570926,0.0
674640.0783812654,4055767.5119837918,-32500.0,2.277508653098645,-1.5108248718215782,0.73658756283727256,2.1268081215321599,-1.328586637348421,1.4412372987693578,2.6588976658095476,0.11695947360989922,1.2551076462305133,-1.2551076462305133,-0.11695947360989922,5.2438821986795698,0.0
679640.0783812654,4055767.5119837918,-32500.0,2.2041941451911433,-1.7228033963078935,1.014577876378699,2.3659098542291273,-1.6821626038676338,1.7786842630775255,3.0183833227756196,0.38649486927297994,1.3265144390828711,-1.3265144390828711,-0.38649486927297994,5.9393440772575623,0.0
684640.0783812654,4055767.5119837918,-32500.0,2.0091813088032282,-1.906350560701344,1.3651449171612116,2.5737792275186866,-2.1068221705911316,2.1789635638650751,3.4061603386561909,0.77450048617445,1.3340179719719119,-1.3340179719719119,-0.77450048617445,6.6816607015898422,0.0
689640.0783812654,4055767.5119837918,-32500.0,1.6598157016305584,-2.0203512509673556,1.7893230661895529,2.7112926468388383,-2.5979212070773365,2.6379534886839249,3.8104162496512202,1.3071360881809349,1.2370835017614108,-1.2370835017614108,-1.3071360881809349,7.442661783110224,0.0
694640.0783812654,4055767.5119837918,-32500.0,1.1326585138405894,-2.006771474526885,2.2725829768342676,2.7248333578091239,-3.1338856980683989,3.1375826861612532,4.2113782128344441,2.0000654150232404,0.98571017448561271,-0.98571017448561271,-2.0000654150232404,8.1763653936022749,0.0
699640.0783812654,4055767.5119837918,-32500.0,0.42847440917540264,-1.7932093730966798,2.7736304213271006,2.5492151285937728,-3.6660214891278149,3.6376863351700579,4.5802321105172048,2.8423929244819184,0.52749968210680409,-0.52749968210680409,-2.8423929244819184,8.8166960265080316,0.0
704640.0783812654,4055767.5119837918,-32500.0,-0.40800218119253057,-1.3049083598257265,3.2121494138556552,2.1188191634552433,-4.1081699085562366,4.0677727106573336,4.8806580614255166,3.7736842992044748,-0.17598673057799341,0.17598673057799341,-3.7736842992044748,9.2813143604471389,0.0
709640.0783812654,4055767.5119837918,-32500.0,-1.2698468340619495,-0.49113580776796539,3.4616735779681567,1.3907567739467306,-4.332051187423235,4.323220885477296,5.0758388030909511,4.6590448193810623,-1.1214564632435542,1.1214564632435542,-4.6590448193810623,9.4885318502474263,0.0
714640.0783812654,4055767.5119837918,-32500.0,-1.985239460823623,0.63371221137862677,3.3589107940103826,0.37986996483175828,-4.1783068287413752,4.2735867907304659,5.1442725915061214,5.2763623660030294,-2.2287707952240319,2.2287707952240319,-5.2763623660030294,9.3966569067193166,0.0
719640.0783812654,4055767.5119837918,-32500.0,-2.3492103467601226,1.9461608320672616,2.7426579332826662,-0.80473505266012157,-3.4941493674254769,3.7913735962229036,5.1051455694791112,5.3393200575099007,-3.314616057910972,3.314616057910972,-5.3393200575099007,9.0719077384698412,0.0
724640.0783812654,4055767.5119837918,-32500.0,-2.2001335550852192,3.1961269226864135,1.5257479025545362,-1.9457958497316437,-2.19942222871149,2.802845195794093,5.0426798918845108,4.5780163503279816,-4.103604494786893,4.103604494786893,-4.5780163503279816,8.7628707660206206,0.0
729640.0783812654,4055767.5119837918,-32500.0,-1.5200981121532786,4.0524772497093977,-0.22293471685390864,-2.7562397529396407,-0.36003117292084724,1.3454670873251955,5.0940923321039531,2.8706206022548253,-4.3025178827047261,4.3025178827047261,-2.8706206022548253,8.8670257778284824,0.0
734640.0783812654,4055767.5119837918,-32500.0,-0.49755257187208152,4.2227098982993843,-2.2397582999432704,-2.9783933560375475,1.7776106672738348,-0.40248214083509248,5.362180779220501,0.36631866359644372,-3.7282951913877977,3.7282951913877977,-0.36631866359644372,9.633066391029093,0.0
739640.0783812654,4055767.5119837918,-32500.0,0.51540660205192268,3.597500161590681,-4.1232728280180835,-2.5045181528802387,3.8358551493334931,-2.1542608982960676,5.8143702395678556,-2.4955312554472568,-2.4243613652820537,2.4243613652820537,2.4955312554472568,10.864895289446554,0.0
744640.0783812654,4055767.5119837918,-32500.0,1.1545202614851864,2.3247170892762905,-5.4816432496914533,-1.4420876063115107,5.4350969028449825,-3.6085321619055684,6.3043201623387901,-5.1227083034576273,-0.67730340627330587,0.67730340627330587,5.1227083034576273,12.090887208944199,0.0
749640.0783812654,4055767.5119837918,-32500.0,1.213303073679739,0.74976841185224841,-6.088707758241477,-0.07141658672944283,6.3345531080033508,-4.5565188658810749,6.667390886617496,-7.002407639573379,1.096421979721292,-1.096421979721292,7.002407639573379,12.905826333015709,0.0
754640.0783812654,4055767.5119837918,-32500.0,0.71739424696154419,-0.74139181894434325,-5.9511771538444718,1.2789061260520929,6.5007218018594761,-4.940465009662403,6.76987315245165,-7.8858188674210599,2.5247717468743196,-2.5247717468743196,7.8858188674210599,13.118129341783911,0.0
759640.0783812654,4055767.5119837918,-32500.0,-0.13101183183927786,-1.8710988301274032,-5.2588969715056235,2.3565464084960808,6.0749982701254011,-4.8387939798086972,6.5732223557813558,-7.8235240725935586,3.4053221543391921,-3.4053221543391921,7.8235240725935586,12.735667631089123,0.0
764640.0783812654,4055767.5119837918,-32500.0,-1.0757782318177229,-2.5315570309984343,-4.2726309543435255,3.0443301580389202,5.2814979248801945,-4.4037230262279161,6.1327156115534942,-7.0675178094138795,3.7250339070702827,-3.7250339070702827,7.0675178094138795,11.889868663543211,0.0
769640.0783812654,4055767.5119837918,-32500.0,-1.9104408172298917,-2.7580194938934559,-3.2244628701041429,3.3474304508579067,4.3377755437996326,-3.7956016593539492,5.5391449304889457,-5.9307153300999991,3.5995087129802572,-3.5995087129802572,5.9307153300999991,10.755841152489729,0.0
774640.0783812654,4055767.5119837918,-32500.0,-2.5216619793418094,-2.6619560449414679,-2.269142846144137,3.3438253134401474,3.4045275874019847,-3.1419968271066585,4.8794435201790591,-4.6822866138326997,3.1913553919062068,-3.1913553919062068,4.6822866138326997,9.4962721670235588,0.0
779640.0783812654,4055767.5119837918,-32500.0,-2.8816021961122722,-2.3700925321530839,-1.4817430079513381,3.1345836501819764,2.5750318953819944,-2.5249216522145854,4.2199924435621297,-3.5035014958536648,2.6502308718424734,-2.6502308718424734,3.5035014958536648,8.2346069620858042,0.0
784640.0783812654,4055767.5119837918,-32500.0,-3.0175923124750437,-1.9887897904634062,-0.87883754840238171,2.8117467534982286,1.8877243809048756,-1.9861135790948936,3.6037137598387083,-2.4893979317071029,2.0855559932892085,-2.0855559932892085,2.4893979317071029,7.0502669585887743,0.0
789640.0783812654,4055767.5119837918,-32500.0,-2.9815432839514298,-1.5920203499550321,-0.4436393865495965,2.4447453373950965,1.3455691803184915,-1.5390539850590872,3.0537421562130751,-1.6713440110463602,1.5635306955476209,-1.5635306955476209,1.6713440110463602,5.9855181305776677,0.0
794640.0783812654,4055767.5119837918,-32500.0,-2.8287793152399399,-1.2234359806847417,-0.14549315725035444,2.0790687939155035,0.93299300050919132,-1.1806816126809507,2.5786810145416741,-1.0423828033437554,1.1159294893523701,-1.1159294893523701,1.0423828033437554,5.0560190519367207,0.0
799640.0783812654,4055767.5119837918,-32500.0,-2.6070133619602345,-0.9039398334956843,0.048246545111083193,1.740624580022488,0.6274434589241622,-0.90005237450745734,2.1769480850107774,-0.57708725491563451,0.75163732786199988,-0.75163732786199988,0.57708725491563451,4.2606801393420826,0.0
804640.0783812654,4055767.5119837918,-32500.0,-2.3525708618716572,-0.63970216552902515,0.16642472589405338,1.4414919648324995,0.40597670388133866,-0.68373059241716727,1.8408195357162676,-0.24428907028230717,0.46650819692435708,-0.46650819692435708,0.24428907028230717,3.5892019208669597,0.0
809640.0783812654,4055767.5119837918,-32500.0,-2.0906455188001503,-0.42853491934177917,0.2321220575622632,1.185008513279967,0.24834850042930995,-0.51867630946266619,1.5606557595945696,-0.013983275536884124,0.25028590255554217,-0.25028590255554217,0.013983275536884124,3.0271620855739978,0.0
814640.0783812654,4055767.5119837918,-32500.0,-1.8372648976851027,-0.26424153879735773,0.26268830122089004,0.96954953607408234,0.1380270253651262,-0.39352143610020368,1.3273842133165417,0.1396337095610814,0.090843764342002864,-0.090843764342002864,-0.1396337095610814,2.55912269738785,0.0
819640.0783812654,4055767.5119837918,-32500.0,-1.6016326191843309,-0.13926951131172766,0.27060890188197217,0.79104648470582695,0.062140650353607413,-0.29893444055235707,1.1331266068022272,0.23734433633763402,-0.023530880644800758,0.023530880644800758,-0.23734433633763402,2.1703412710636005,0.0
824640.0783812654,4055767.5119837918,-32500.0,-1.3882281344893377,-0.046162598437981053,0.26457554082751622,0.64452757392585946,0.010976975348263661,-0.22753330105677158,0.97118657343416237,0.29519090280185217,-0.10309999342482486,0.10309999342482486,-0.29519090280185217,1.8475858892020731,0.0
654640.0783812654,4060767.5119837918,-32500.0,1.7571627022283647,-0.85704893618688949,0.29530489741688254,1.1429891674707975,-0.55057894156705489,0.56645955773357237,1.4998959645562793,-0.20760413919441656,0.86854043910994894,-0.86854043910994894,0.20760413919441656,2.9742976306045832,0.0
659640.0783812654,4060767.5119837918,-32500.0,1.8487948031477455,-1.0105628776554552,0.40798565337271986,1.3027618186892864,-0.69426566303174475,0.69348117042447432,1.700045585307254,-0.15587185378383933,0.98050588355462387,-0.98050588355462387,0.15587185378383933,3.3685880771516961,0.0
664640.0783812654,4060767.5119837918,-32500.0,1.9130743463381847,-1.1803526087374745,0.55550938633963853,1.4757094437043892,-0.87341002235149989,0.84921128749320829,1.9257019002347917,-0.068596850616073346,1.0939893744520828,-1.0939893744520828,0.068596850616073346,3.8120743891840849,0.0
669640.0783812654,4060767.5119837918,-32500.0,1.9347223852064976,-1.3612952227865915,0.74607044951586676,1.6565707828284362,-1.0946189341268935,1.0386486255053315,2.1775996103087873,0.067894930149406507,1.2005614487357288,-1.2005614487357288,-0.067894930149406507,4.3055020563472297,0.0
674640.0783812654,4060767.5119837918,-32500.0,1.8946771676939103,-1.5433053415877644,0.98796342914046431,1.8358171991716903,-1.3639482181494624,1.2663245493371995,2.454914429003241,0.27042670915052347,1.2869105004262822,-1.2869105004262822,-0.27042670915052347,4.8460637210812934,0.0
679640.0783812654,4060767.5119837918,-32500.0,1.7708228667483066,-1.7091762700859647,1.2879357760206562,1.9979890743947752,-1.6852647930503106,1.5350893902472682,2.7543896260279861,0.55823799157738463,1.3333698906692715,-1.3333698906692715,-0.55823799157738463,5.4254033417472556,0.0
684640.0783812654,4060767.5119837918,-32500.0,1.5402559532089461,-1.8322812672037239,1.6482174946190027,2.1200125478125837,-2.0575017584368647,1.8441050553204215,3.0692435281343009,0.95072397870620051,1.3127786015695171,-1.3127786015695171,-0.95072397870620051,6.0271253468677255,0.0
689640.0783812654,4060767.5119837918,-32500.0,1.183956680460188,-1.8748891534161023,2.0617631497690683,2.1701189379108712,-2.4704972551593447,2.1858309803059686,3.3879738858417174,1.4626394053216771,1.1905449241938306,-1.1905449241938306,-1.4626394053216771,6.6241068272253054,0.0
694640.0783812654,4060767.5119837918,-32500.0,0.69462394370461111,-1.7885808564117023,2.5055327508297567,2.1085345933290718,-2.8993977852123449,2.5419962184310143,3.6934051876118614,2.095674373775184,0.92736970309983224,-0.92736970309983224,-2.095674373775184,7.1764262478657548,0.0
699640.0783812654,4060767.5119837918,-32500.0,0.087623307450606938,-1.5191192588039477,2.9325314778877014,1.8917207031354883,-3.2983751271788386,2.8790863429722724,3.9627165493108052,2.8258604124616111,0.48659907938062497,-0.48659907938062497,-2.8258604124616111,7.6315882646977462,0.0
704640.0783812654,4060767.5119837918,-32500.0,-0.58702083996303533,-1.0185863730757259,3.2651309176194365,1.482205655705833,-3.5958547082543668,3.1448738326457337,4.1697011375801258,3.588130494735176,-0.15198205133080567,0.15198205133080567,-3.588130494735176,7.9299530296830865,0.0
709640.0783812654,4060767.5119837918,-32500.0,-1.2370390073735762,-0.26649561797371651,3.394817928735042,0.86511033583523933,-3.6954458586821857,3.2688883319660218,4.2909308004466062,4.2631208586257996,-0.97198641933344287,0.97198641933344287,-4.2631208586257996,8.019597045346007,0.0
714640.0783812654,4060767.5119837918,-32500.0,-1.7337373405964414,0.70263984895975096,3.1957100565904484,0.069231613987473878,-3.4882683493258217,3.1707603112626392,4.317236809895407,4.6764223987524813,-1.8986124088764997,1.8986124088764997,-4.6764223987524813,7.885215356992302,0.0
719640.0783812654,4060767.5119837918,-32500.0,-1.940383530052932,1.7756401387706175,2.5578901626063613,-0.8152325524299342,-2.8810510640948648,2.7795138824557659,4.2695269021354134,4.623697782250094,-2.7868288044627869,2.7868288044627869,-4.623697782250094,7.5917309744595922,0.0
724640.0783812654,4060767.5119837918,-32500.0,-1.7639959139217851,2.7593169650672631,1.4380366689535731,-1.6360021513278544,-1.8374891588089248,2.0622890694576315,4.2107143932715374,3.9299173766005375,-3.4360767175584743,3.4360767175584743,-3.9299173766005375,7.324047988133052,0.0
729640.0783812654,4060767.5119837918,-32500.0,-1.2132184606624214,3.4193025095153091,-0.091084450963173205,-2.2081239970396132,-0.41811210443694308,1.0527534948561372,4.2331610504251866,2.5320380550439765,-3.6425653720423057,3.6425653720423057,-2.5320380550439765,7.3537654539615263,0.0
734640.0783812654,4060767.5119837918,-32500.0,-0.42714561958590302,3.5586135348879577,-1.8242729035902765,-2.3731150722313381,1.2062268838360133,-0.13754096044741956,4.404141941697044,0.54746868716933794,-3.27896694281094,3.27896694281094,-0.54746868716933794,7.8544010766732226,0.0
739640.0783812654,4060767.5119837918,-32500.0,0.35680607130311809,3.1040016867278353,-3.4665474195032289,-2.0646319307649095,2.787285639819514,-1.3388818062800962,4.7061815494401609,-1.7215820892850628,-2.3635889485571662,2.3635889485571662,1.7215820892850628,8.7183515233001501,0.0
744640.0783812654,4060767.5119837918,-32500.0,0.89279518091582366,2.1488244416651243,-4.7274737242710261,-1.3431958086746523,4.0737253444407271,-2.3720304302119959,5.0462126517777763,-3.871327575303984,-1.07284776529968,1.07284776529968,3.871327575303984,9.6409485998546298,0.0
749640.0783812654,4060767.5119837918,-32500.0,1.0265961451465171,0.92034925126188016,-5.4208970147287356,-0.37556538933593692,4.8919545218251335,-3.1036839991574596,5.3213922756597301,-5.5337259213123833,0.31955676206822003,-0.31955676206822003,5.5337259213123833,10.332345454300953,0.0
754640.0783812654,4060767.5119837918,-32500.0,0.74692094357268723,-0.3111181105227635,-5.5158236739416644,0.63046544965192475,5.1914848210071316,-3.4806991356061863,5.452437429226908,-6.4942014223571114,1.5443464312777593,-1.5443464312777593,6.4942014223571114,10.628058346106819,0.0
759640.0783812654,4060767.5119837918,-32500.0,0.16506309325480276,-1.3271847277933717,-5.1178152144132101,1.4977027566775192,5.0367110413631542,-3.5294260311308574,5.3876847942045973,-6.731534287497464,2.4219202130121587,-2.4219202130121587,6.731534287497464,10.495689093166369,0.0
764640.0783812654,4060767.5119837918,-32500.0,-0.55153793943324825,-2.0133641905986037,-4.40451617553635,2.1225390517789435,4.5604324331214325,-3.3282028670410169,5.1346350366119244,-6.3769705499695828,2.893311990468705,-2.893311990468705,6.3769705499695828,9.9962960127839136,0.0
769640.0783812654,4060767.5119837918,-32500.0,-1.2468958650404334,-2.3578211776132143,-3.5570794485557888,2.4793318485320488,3.9099932891732667,-2.9723638887478669,4.743077850321729,-5.6339290308993126,2.9991014451479314,-2.9991014451479314,5.6339290308993126,9.2364172769808945,0.0
774640.0783812654,4060767.5119837918,-32500.0,-1.8157232699766004,-2.4171763803307664,-2.7162046487085623,2.598739310331331,3.2092570860487486,-2.5475260425805653,4.2722432142008859,-4.7044912689541381,2.833910723682652,-2.833910723682652,4.7044912689541381,8.3291045944286726,0.0
779640.0783812654,4060767.5119837918,-32500.0,-2.2107828609521913,-2.2762215210852967,-1.9681651641468898,2.5389048017357374,2.5428536082444233,-2.1166494684083705,3.7736399749524465,-3.7464280981566187,2.5037026312416595,-2.5037026312416595,3.7464280981566187,7.3705403770941018,0.0
784640.0783812654,4060767.5119837918,-32500.0,-2.4303559109907549,-2.0181566515575691,-1.3513211504151028,2.3623342239738863,1.9572503951957934,-1.7184084765798988,3.2850752723294359,-2.8608157347316889,2.0990753575977528,-2.0990753575977528,2.8608157347316889,6.4308781850458141,0.0
789640.0783812654,4060767.5119837918,-32500.0,-2.4996161147753195,-1.7093733972603291,-0.870861887215307,2.1226125566773844,1.4699332264849045,-1.3716833417572352,2.830640658361431,-2.0988533999808316,1.6849061817825877,-1.6849061817825877,2.0988533999808316,5.5544921373458269,0.0
794640.0783812654,4060767.5119837918,-32500.0,-2.4545145333039553,-1.3955326567240869,-0.51339396509750135,1.859524965948677,1.080037070425943,-1.0818216374977441,2.4233304088217809,-1.4760921304358672,1.3008138173545143,-1.3008138173545143,1.4760921304358672,4.7647818562892139,0.0
799640.0783812654,4060767.5119837918,-32500.0,-2.3311852770781214,-1.1039011451828231,-0.25777929643758773,1.5993408283370576,0.77707545137124112,-0.84623796268409224,2.0681408788041327,-0.98656548297491375,0.96655824092338194,-0.96655824092338194,0.98656548297491375,4.0701581647914118,0.0
804640.0783812654,4060767.5119837918,-32500.0,-2.1605193489142018,-0.84797657010263161,-0.081781622716696617,1.3574039063167411,0.54686968152992688,-0.65849571782154936,1.7643680865414582,-0.61363557705458782,0.68842480976169051,-0.68842480976169051,0.61363557705458782,3.4694294294301349,0.0
809640.0783812654,4060767.5119837918,-32500.0,-1.9663391765082769,-0.63213126981715706,0.034560751436002804,1.1412248376369807,0.37501271925628143,-0.51089037283314398,1.5073198735898954,-0.33707115350899675,0.46466980065715724,-0.46466980065715724,0.33707115350899675,2.9559398118262186,0.0
814640.0783812654,4060767.5119837918,-32500.0,-1.7656073609752807,-0.4553323090548233,0.10766923629516817,0.95320273676357825,0.24858137708271744,-0.39588592333385036,1.2905997902491306,-0.13705978888481032,0.28945849830304926,-0.28945849830304926,0.13705978888481032,2.5204328840355323,0.0
819640.0783812654,4060767.5119837918,-32500.0,-1.5695387262781166,-0.31375898100674032,0.15032079744545479,0.79269320073729832,0.15676783994845539,-0.30679247493095047,1.108011662087363,0.0038782642203916418,0.15540003864009025,-0.15540003864009025,-0.0038782642203916418,2.1528698992524453,0.0
659640.0783812654,4065767.5119837918,-32500.0,1.6151649123191036,-1.0548468772976987,0.55501815155623502,1.1625396467735147,-0.72707894047687238,0.6263624385377935,1.597960443076224,-0.06937529217426569,1.0128307723660632,-1.0128307723660632,0.06937529217426569,3.1673171926013932,0.0
664640.0783812654,4065767.5119837918,-32500.0,1.6369816719433727,-1.2050557078905568,0.72084689553237014,1.2964156006873671,-0.89711568850579826,0.75675204358099579,1.7938201619820919,0.035856483326607513,1.1123383390036632,-1.1123383390036632,-0.035856483326607513,3.552563276789281,0.0
669640.0783812654,4065767.5119837918,-32500.0,1.6151790552965228,-1.357382828439456,0.92729634672246541,1.4299742695286972,-1.1017571017167103,0.91193183126917676,2.0084617172503476,0.18924966829986922,1.1998837176226425,-1.1998837176226425,-0.18924966829986922,3.9733534288451029,0.0
674640.0783812654,4065767.5119837918,-32500.0,1.5347277881517576,-1.5003564440651058,1.179519149658133,1.5537303282892478,-1.3439491339249536,1.0938930737123589,2.2399538999619217,0.40425924893348575,1.2623045935109769,-1.2623045935109769,-0.40425924893348575,4.4246988738457702,0.0
679640.0783812654,4065767.5119837918,-32500.0,1.3797349675970898,-1.6164704176906515,1.4798919479351962,1.6537211234015468,-1.623885851982523,1.3027699260762164,2.4842692983158678,0.69485946789373121,1.2813816666023332,-1.2813816666023332,-0.69485946789373121,4.8967325739767009,0.0
684640.0783812654,4065767.5119837918,-32500.0,1.1359240957513765,-1.6810021079488919,1.8251766111642584,1.7107826269251107,-1.936738375568241,1.5353473068849175,2.7345609613497013,1.0729907107687173,1.2335415544036878,-1.2335415544036878,-1.0729907107687173,5.3730630868579485,0.0
689640.0783812654,4065767.5119837918,-32500.0,0.79482373867677814,-1.6618089134340412,2.2024995641683542,1.7005957591940299,-2.2695716054466044,1.7830452401701971,2.9804787135661215,1.5440570470207429,1.0908344836405335,-1.0908344836405335,-1.5440570470207429,5.8293059335932176,0.0
694640.0783812654,4065767.5119837918,-32500.0,0.35980501088721362,-1.5212636853943873,2.5843861168609239,1.5953146894533168,-2.5976973794020126,2.0295378279146088,3.207856520104809,2.1000402664106756,0.82421721350141897,-0.82421721350141897,-2.1000402664106756,6.2325134738756915,0.0
699640.0783812654,4065767.5119837918,-32500.0,-0.14668865286479918,-1.2218330966514779,2.9238853541954493,1.3677935217469397,-2.8813070461545034,2.2485388837923268,3.3993514590459211,2.7104894831915507,0.41027314176480534,-0.41027314176480534,-2.7104894831915507,6.5427679811694794,0.0
704640.0783812654,4065767.5119837918,-32500.0,-0.67682609502313884,-0.73661708675142645,3.1520787348006674,0.99925049750961736,-3.0641166695277042,2.4028429940669689,3.5368387100172876,3.3131712734906835,-0.15801780652996555,0.15801780652996555,-3.3131712734906835,6.7188440825713291,0.0
709640.0783812654,4065767.5119837918,-32500.0,-1.1559583040596326,-0.064779922720203845,3.1816483276231984,0.49021010294584905,-3.076681685508353,2.4462915287591156,3.6064272479493362,3.8085566182466124,-0.85752473227754877,0.85752473227754877,-3.8085566182466124,6.7303276382008033,0.0
714640.0783812654,4065767.5119837918,-32500.0,-1.4912464450148357,0.75134172609271777,2.9206422128710727,-0.12759794813216477,-2.8472452692680719,2.3304766818801306,3.6064790627697203,4.0647490436630225,-1.6223685112693662,1.6223685112693662,-4.0647490436630225,6.5781544538276693,0.0
719640.0783812654,4065767.5119837918,-32500.0,-1.594017912981732,1.6150914797038916,2.2983778121691256,-0.78366021499023208,-2.3212935208340957,2.0169842898791659,3.5571622222999544,3.9397084661763855,-2.3401951028344539,2.3401951028344539,-3.9397084661763855,6.3220071293082087,0.0
724640.0783812654,4065767.5119837918,-32500.0,-1.4133851314359569,2.3810080868469101,1.29921756510826,-1.3726738471800564,-1.4865460976604652,1.493272567671549,3.5056202600423654,3.3226031908270097,-2.8662860785756581,2.8662860785756581,-3.3226031908270097,6.1001657157036302,0.0
729640.0783812654,4065767.5119837918,-32500.0,-0.96885496855920505,2.884858513814053,-0.0088289232565972736,-1.7753762645785134,-0.39399842015658632,0.78651863194231586,3.514882355449878,2.1846435947254026,-3.0595305373157835,3.0595305373157835,-2.1846435947254026,6.0997208912538916,0.0
734640.0783812654,4065767.5119837918,-32500.0,-0.36250248359450654,2.9943833636352086,-1.4690298004087425,-1.893667296045598,0.83797874202936251,-0.032583542819920021,3.6292311172292715,0.61668865745088186,-2.8319664568707852,2.8319664568707852,-0.61668865745088186,6.4390885470307548,0.0
739640.0783812654,4065767.5119837918,-32500.0,0.24406892003215336,2.6609153592456756,-2.8666719955918056,-1.6867905003484358,2.0452489309166566,-0.86178264056872167,3.8387016902939628,-1.1723291359248567,-2.1900617741664909,2.1900617741664909,1.1723291359248567,7.0559143145098924,0.0
744640.0783812654,4065767.5119837918,-32500.0,0.6838302559003937,1.9442784711856336,-3.9892232652258146,-1.1899995720632519,3.0611024415463901,-1.5930821280421712,4.0827959203765536,-2.9063795842041316,-1.2433011829501099,1.2433011829501099,2.9063795842041316,7.7512336773178383,0.0
749640.0783812654,4065767.5119837918,-32500.0,0.84395060858481041,0.99451155663840118,-4.6897562634402794,-0.50412973333175004,3.763072685486565,-2.1419987070832383,4.290297789005681,-4.3242577700493978,-0.17105454600949832,0.17105454600949832,4.3242577700493978,8.3202274605517808,0.0
754640.0783812654,4065767.5119837918,-32500.0,0.70003668063683422,-0.0010656724142294467,-4.9234089533708278,0.23917475288199511,4.1019992238776473,-2.4672438046104128,4.4119270759243179,-5.2538401312797802,0.83674283078049161,-0.83674283078049161,5.2538401312797802,8.6310246695700386,0.0
759640.0783812654,4065767.5119837918,-32500.0,0.31065583909915345,-0.87746987371680085,-4.7430553850404849,0.91852090331199765,4.1025616651091941,-2.5735637750047702,4.4133627050535988,-5.6457131618816954,1.6352242691997807,-1.6352242691997807,5.6457131618816954,8.6380927071936213,0.0
764640.0783812654,4065767.5119837918,-32500.0,-0.21788674638584332,-1.5311594159602457,-4.2637683344644755,1.451632484600667,3.8405527375419299,-2.4999337329646636,4.2791498075710788,-5.5592962603525997,2.1531166044547727,-2.1531166044547727,5.5592962603525997,8.3635278716218124,0.0
769640.0783812654,4065767.5119837918,-32500.0,-0.77363404694945204,-1.9283888615226803,-3.61837899462618,1.8040295375514834,3.4117089593197294,-2.3014363912119493,4.0295195223966331,-5.1193072070874317,2.3898761337147105,-2.3898761337147105,5.1193072070874317,7.8688905450954936,0.0
774640.0783812654,4065767.5119837918,-32500.0,-1.2691326940306806,-2.0900373725011301,-2.9231370034938688,1.9811415228372713,2.9057224451872896,-2.033084885975593,3.7017817948372289,-4.468033838623847,2.3929113573010641,-2.3929113573010641,4.468033838623847,7.2294519592344848,0.0
779640.0783812654,4065767.5119837918,-32500.0,-1.6533140267764068,-2.0672862221094013,-2.2609056727263668,2.0128870552610469,2.3916980834675132,-1.7398683407190159,3.333544747453848,-3.7308792182799184,2.2303613122519499,-2.2303613122519499,3.7308792182799184,6.5162020081399312,0.0
784640.0783812654,4065767.5119837918,-32500.0,-1.9088758136767212,-1.9197815166458376,-1.6794136496489822,1.9386641873794412,1.9143853806944056,-1.4531889703985368,2.9555905664956681,-3.0000612306468257,1.9699008275890639,-1.9699008275890639,3.0000612306468257,5.7863887150256925,0.0
789640.0783812654,4065767.5119837918,-32500.0,-2.0425307141067077,-1.7014793364071654,-1.1980335561467768,1.7967856343437758,1.4972105272800311,-1.1916715681949417,2.5899398152232447,-2.3327295815595357,1.66693698893283,-1.66693698893283,2.3327295815595357,5.0807399400526343,0.0
794640.0783812654,4065767.5119837918,-32500.0,-2.0742312256253226,-1.4542158289138896,-0.81715513881144275,1.6189448988737705,1.1480436843429966,-0.96402077507702344,2.2504906962267701,-1.7570349071735478,1.3607939481910565,-1.3607939481910565,1.7570349071735478,4.4247463447377067,0.0
799640.0783812654,4065767.5119837918,-32500.0,-2.0286176548140356,-1.2066880617018421,-0.52660770120887523,1.428514009471205,0.86500314168207093,-0.77225400255271592,1.9447306223683694,-1.2807379513382722,1.0758147444780961,-1.0758147444780961,1.2807379513382722,3.8317553656640766,0.0
804640.0783812654,4065767.5119837918,-32500.0,-1.929569908583878,-0.97629020903503771,-0.31178496553689594,1.2410912588042924,0.64105748476910906,-0.61445068267095226,1.6756166646659507,-0.89918784403444529,0.82461283663211493,-0.82461283663211493,0.89918784403444529,3.3064181480072357,0.0
809640.0783812654,4065767.5119837918,-32500.0,-1.7974364608558426,-0.77192409774262594,-0.15744544926982595,1.0660166530228594,0.46715629553249405,-0.48674234006541928,1.4429664489759244,-0.60138991428237609,0.61167476131698562,-0.61167476131698562,0.60138991428237609,2.8477083741638616,0.0
814640.0783812654,4065767.5119837918,-32500.0,-1.648116700225059,-0.59673531131690705,-0.049718667754820471,0.90807402870672249,0.33410704853863671,-0.38459533138872404,1.2441244865721961,-0.37404596201470081,0.43644458164897276,-0.43644458164897276,0.37404596201470081,2.4512669029668523,0.0
819640.0783812654,4065767.5119837918,-32500.0,-1.4932053597026911,-0.45032507304752212,0.023073746312296337,0.76898697689375939,0.23354700823074748,-0.30354811854346742,1.0748639167965985,-0.20393697627515281,0.29561435446895445,-0.29561435446895445,0.20393697627515281,2.1110584553711433,0.0
659640.0783812654,4070767.5119837918,-32500.0,1.3849284900261951,-1.0565391721132988,0.67715063262431285,1.0214129802491183,-0.73473748477047307,0.55799053999802306,1.4876122369109108,0.01516057871042209,1.0114576704304163,-1.0114576704304163,-0.01516057871042209,2.9491835324415119,0.0
664640.0783812654,4070767.5119837918,-32500.0,1.3731530006573176,-1.1823400609206005,0.85141910298319001,1.1210215959985386,-0.8905821888402804,0.66510004631290776,1.6547519949979379,0.13246345854726294,1.093518276348481,-1.093518276348481,-0.13246345854726294,3.2783215581765992,0.0
669640.0783812654,4070767.5119837918,-32500.0,1.31963152479548,-1.3025606163739951,1.0614809568716661,1.2147055180499506,-1.0734740724911771,0.789762243009973,1.8345408053584793,0.29462761482283373,1.1595330816771123,-1.1595330816771123,-0.29462761482283373,3.6310023179753199,0.0
674640.0783812654,4070767.5119837918,-32500.0,1.2133211769467351,-1.4054818951823709,1.3094429787650859,1.2937887108306427,-1.2839537436514503,0.93231771433491928,2.0245011101768133,0.51161861736954295,1.1971669797285436,-1.1971669797285436,-0.51161861736954295,4.0010786434800982,0.0
679640.0783812654,4070767.5119837918,-32500.0,1.0438275693698995,-1.4746811327609444,1.5939404739704246,1.3464531514270721,-1.5197015207947167,1.0913648036033343,2.2204556845037891,0.79252916262337503,1.1903533676756413,-1.1903533676756413,-0.79252916262337503,4.3783641790387957,0.0
684640.0783812654,4070767.5119837918,-32500.0,0.8037081580736265,-1.4887148753808379,1.907709839158811,1.3576346523442493,-1.773813251915545,1.2627276961510665,2.4160619383550821,1.1431103362433779,1.1195906814013801,-1.1195906814013801,-1.1431103362433779,4.7476659689556016,0.0
689640.0783812654,4070767.5119837918,-32500.0,0.49184454132730537,-1.4218600474977552,2.2345257699909036,1.3096511325081728,-2.0327038387774272,1.4382031590574189,2.6024767376499791,1.5619570302274999,0.96340524619183188,-0.96340524619183188,-1.5619570302274999,5.0881825869929687,0.0
694640.0783812654,4070767.5119837918,-32500.0,0.11768969179664503,-1.24670326336962,2.5459353273645848,1.1840621415467663,-2.2739713057706483,1.6042779260698741,2.7684546953529519,2.0353307497456923,0.7016272751941709,-0.7016272751941709,-2.0353307497456923,5.3738415586432069,0.0
699640.0783812654,4070767.5119837918,-32500.0,-0.29443047350073837,-0.93939392552973255,2.7988177195988655,0.96525271502993437,-2.4649488524611485,1.7412355584806865,2.901275786844141,2.5312295929667759,0.32101086255480804,-0.32101086255480804,-2.5312295929667759,5.5754587337751182,0.0
704640.0783812654,4070767.5119837918,-32500.0,-0.70268071474234584,-0.4879407034704521,2.9355467862829148,0.645933415096133,-2.563146388819376,1.8233443517788237,2.9889485568046443,2.9943854281585427,-0.17685590305623178,0.17685590305623178,-2.9943854281585427,5.6658939870676823,0.0
709640.0783812654,4070767.5119837918,-32500.0,-1.0493234915989365,0.097276312113898172,2.8890885847224421,0.23396812568715833,-2.5201023554009248,1.8210062011439565,3.0240641047468126,3.3452022138336774,-0.7666686007928496,0.7666686007928496,-3.3452022138336774,5.6294493551619356,0.0
714640.0783812654,4070767.5119837918,-32500.0,-1.2692287927464201,0.77364791818694878,2.5950326940470685,-0.24133880849512024,-2.2898865106297173,1.7055994337494822,3.0092124119370895,3.4865465939824025,-1.3927168756084169,1.3927168756084169,-3.4865465939824025,5.4761001570544936,0.0
719640.0783812654,4070767.5119837918,-32500.0,-1.3062466278229179,1.4622267513569553,2.0104989450676931,-0.72672431846255625,-1.8421025185989872,1.4569780840429387,2.9625450325830807,3.3214784389740069,-1.9691847730348875,1.9691847730348875,-3.3214784389740069,5.2583295506220544,0.0
724640.0783812654,4070767.5119837918,-32500.0,-1.1344228503990743,2.0551948443068926,1.1358515239354463,-1.1498572000592617,-1.1766267963756243,1.0721252442015388,2.9194059827889811,2.781197889262006,-2.392039614260181,2.392039614260181,-2.781197889262006,5.0798498770402585,0.0
729640.0783812654,4070767.5119837918,-32500.0,-0.77603409233246468,2.4378854665209757,0.030629094965980003,-1.4334791808034819,-0.33443277481927836,0.57180739956354609,2.9232564027430161,1.8559253325139466,-2.5634364225700366,2.5634364225700366,-1.8559253325139466,5.0705136073998105,0.0
734640.0783812654,4070767.5119837918,-32500.0,-0.30590077669092364,2.5213401901242962,-1.1865389074699328,-1.5163113605106346,0.6021716575664624,0.0014180056430645146,3.0033551259552258,0.61535615221803974,-2.4226283817811374,2.4226283817811374,-0.61535615221803974,5.3101324459906838,0.0
739640.0783812654,4070767.5119837918,-32500.0,0.16473850701943696,2.2733528261857745,-2.3596431145903716,-1.3732715400683644,1.5236233538559518,-0.57628296452756045,3.153459362121342,-0.79478715432815106,-1.9708134702876854,1.9708134702876854,0.79478715432815106,5.7599741464120378,0.0
744640.0783812654,4070767.5119837918,-32500.0,0.52131413648896163,1.7330275430902256,-3.3338318457933291,-1.0256390079463866,2.3186011387015633,-1.0952086920626962,3.3335952672665954,-2.1844266123218632,-1.2768162110324881,1.2768162110324881,2.1844266123218632,6.2878500580511414,0.0
749640.0783812654,4070767.5119837918,-32500.0,0.68200500993033319,1.0003001377242038,-3.9958622509656401,-0.53556171947045261,2.9014930078648979,-1.5017145575941435,3.4935762992098569,-3.3686720193102566,-0.45868920550704328,0.45868920550704328,3.3686720193102566,6.7493842811768641,0.0
754640.0783812654,4070767.5119837918,-32500.0,0.62025478413119994,0.20471791827298411,-4.2994771107901677,0.012904536510154616,3.2307586629663811,-1.7658890223175829,3.597020996484007,-4.2146195297838984,0.35114447848605312,-0.35114447848605312,4.2146195297838984,7.0425768626885414,0.0
759640.0783812654,4070767.5119837918,-32500.0,0.36503862247782715,-0.53183129206396196,-4.2668560101243642,0.53746156193358929,3.3119412529972929,-1.8845524026847655,3.6254642338993239,-4.6667673415221493,1.041488880517218,-1.041488880517218,4.6667673415221493,7.1216031919968543,0.0
764640.0783812654,4070767.5119837918,-32500.0,-0.017513259392882521,-1.1228859749604556,-3.9696553404101218,0.97620683299077871,3.1868630391269361,-1.876351274706775,3.5627201610439703,-4.7448359414809271,1.5447509128112187,-1.5447509128112187,4.7448359414809271,6.9884304407133655,0.0
769640.0783812654,4070767.5119837918,-32500.0,-0.44961528143187174,-1.5278484872658429,-3.5012722027735337,1.295871836839829,2.9160224603816163,-1.7725142525551554,3.4095483220503531,-4.5212159126777722,1.8411111414156334,-1.8411111414156334,4.5212159126777722,6.6765270367851448,0.0
774640.0783812654,4070767.5119837918,-32500.0,-0.86318149430408986,-1.7468237466909509,-2.9520930036742037,1.4900960963572802,2.5618106646578358,-1.6074472872628884,3.1865189362053199,-4.0915087785360731,1.9485590131521839,-1.9485590131521839,4.0915087785360731,6.234319358471871,0.0
779640.0783812654,4070767.5119837918,-32500.0,-1.2113806825304714,-1.8070314306353974,-2.3941756131900034,1.5717800268779778,2.1771635720599702,-1.4119175519417324,2.9196361462435414,-3.5495547138347137,1.9069089112532929,-1.9069089112532929,3.5495547138347137,5.712242439055105,0.0
784640.0783812654,4070767.5119837918,-32500.0,-1.4706439614060824,-1.7481062578289797,-1.8759106132076542,1.5640122553176437,1.8005709362495859,-1.2096089616341785,2.6326321330880589,-2.9722490395099332,1.7628292492663546,-1.7628292492663546,2.9722490395099332,5.1546450576410159,0.0
789640.0783812654,4070767.5119837918,-32500.0,-1.6365621502487917,-1.6107410619791465,-1.4237401739783722,1.4925558962190517,1.455967967088164,-1.0164506078508027,2.3441737968441738,-2.4139667198070835,1.5594933836696461,-1.5594933836696461,2.4139667198070835,4.5960870242468257,0.0
794640.0783812654,4070767.5119837918,-32500.0,-1.7174586599404948,-1.4299984121478118,-1.0472901794878944,1.3810142565358325,1.1553177126310437,-0.84161327347659243,2.0673905712285667,-1.9076259066555574,1.3313490388580165,-1.3313490388580165,1.9076259066555574,4.060767355966461,0.0
799640.0783812654,4070767.5119837918,-32500.0,-1.7282554424593315,-1.232628727467356,-0.74514028526681342,1.2485007216692523,0.90205311264713428,-0.68917344336492636,1.8105107577498423,-1.4690392835554937,1.1028015448243784,-1.1028015448243784,1.4690392835554937,3.5637272482243283,0.0
804640.0783812654,4070767.5119837918,-32500.0,-1.6858643102193356,-1.0370300475386443,-0.50973244175110211,1.1090977133533428,0.69428151576442954,-0.55979978748336157,1.5779490698615517,-1.1020815776856039,0.88920455990570124,-0.88920455990570124,1.1020815776856039,3.1128081777451748,0.0
809640.0783812654,4070767.5119837918,-32500.0,-1.6062921209893282,-0.85453506605103791,-0.33089854597008311,0.97231704969965582,0.52726646782378783,-0.45213681327694089,1.3714380112884954,-0.80326706417892724,0.69881010532068277,-0.69881010532068277,0.80326706417892724,2.710649855386511,0.0
814640.0783812654,4070767.5119837918,-32500.0,-1.503182121254423,-0.69113575187909237,-0.19808822358941594,0.84399416546952588,0.39513383267833646,-0.36381115203429304,1.1909740206568,-0.56523754575113438,0.53485220816729651,-0.53485220816729651,0.56523754575113438,2.3564436683094412,0.0
664640.0783812654,4075767.5119837918,-32500.0,1.1315986235154849,-1.125082987836481,0.94568142552696388,0.95655707169536475,-0.86112128012861699,0.5780113204495777,1.5141348954958154,0.21623415506689636,1.0468965412705593,-1.0468965412705593,-0.21623415506689636,3.0008551725225128,0.0
669640.0783812654,4075767.5119837918,-32500.0,1.057183520746481,-1.2134592594278448,1.1495246291807169,1.0181475683412662,-1.0200439189685582,0.67652252026064552,1.6625972690942976,0.37994363583245261,1.0914230289538993,-1.0914230289538993,-0.37994363583245261,3.292016503881126,0.0
674640.0783812654,4075767.5119837918,-32500.0,0.93732801554893463,-1.2793026627254986,1.3825339966238943,1.0629823256774813,-1.1979329362748823,0.78634965427354053,1.8163237619765249,0.590484972341072,1.1060312211123642,-1.1060312211123642,-0.590484972341072,3.5906809163061646,0.0
679640.0783812654,4075767.5119837918,-32500.0,0.76608062240609232,-1.3081480270812451,1.640552268209551,1.0815618535483094,-1.3909991866505824,0.90538367765018735,1.9713614642787973,0.85285634582757797,1.0771555568073745,-1.0771555568073745,-0.85285634582757797,3.8871593164854676,0.0
684640.0783812654,4075767.5119837918,-32500.0,0.54095399111131159,-1.2824137547913315,1.9138430823616059,1.0625861398813583,-1.5915764376233426,1.0293619808693015,2.1221239259857225,1.1681508738164919,0.98934880783131385,-0.98934880783131385,-1.1681508738164919,4.1681178630104254,0.0
689640.0783812654,4075767.5119837918,-32500.0,0.26541862117089765,-1.1826203544300988,2.1849727214781915,0.99379530472836008,-1.786814737652799,1.1511464273959982,2.2613164476019842,1.5305693638876918,0.82689431737395502,-0.82689431737395502,-1.5305693638876918,4.4165348407828215,0.0
694640.0783812654,4075767.5119837918,-32500.0,-0.048355900780098882,-0.99003858168315773,2.4269386763537377,0.86367983877199206,-1.9575938196829457,1.2601143152667633,2.3802911116110286,1.9237997638421602,0.57673512228661594,-0.57673512228661594,-1.9237997638421602,4.6125054774707639,0.0
699640.0783812654,4075767.5119837918,-32500.0,-0.37726075911113455,-0.69111145746448466,2.6024018668581608,0.66424230656445094,-2.078201307162002,1.3419516484389995,2.4700391766921994,2.3174388193257784,0.23287547128445674,-0.23287547128445674,-2.3174388193257784,4.735475519382244,0.0
704640.0783812654,4075767.5119837918,-32500.0,-0.68674302914983709,-0.28353825004839817,2.6652533134644032,0.39471216368751677,-2.1175318222045867,1.3792516914384065,2.5230408115510445,2.6647983636213217,-0.19809413973287437,0.19809413973287437,-2.6647983636213217,4.7685852060630118,0.0
709640.0783812654,4075767.5119837918,-32500.0,-0.93355999182708693,0.21697773280367774,2.5658422446978832,0.065591486891076717,-2.0425950597472111,1.3533433164904185,2.5360974939927221,2.9040847746098035,-0.69155232123790444,0.69155232123790444,-2.9040847746098035,4.7057068200339085,0.0
714640.0783812654,4075767.5119837918,-32500.0,-1.072980641528434,0.77151280497173169,2.2606162158754519,-0.29828180301053175,-1.8247418471963077,1.247582573061945,2.5138833224591011,2.9650869707609897,-1.2017034133198119,1.2017034133198119,-2.9650869707609897,4.5611095091538214,0.0
719640.0783812654,4075767.5119837918,-32500.0,-1.0702428725824644,1.3174100789693677,1.7253507540466055,-0.65751467851111611,-1.4480498049478943,1.0518431045014076,2.4720350089813738,2.7824995005771966,-1.6635763115116879,1.6635763115116879,-2.7824995005771966,4.3795355810179633,0.0
724640.0783812654,4075767.5119837918,-32500.0,-0.91368677414911947,1.7754595050689361,0.96874052660703036,-0.96251666166697503,-0.91786665063347339,0.76718765519005239,2.4370422960905946,2.3144315177356471,-2.002380004185877,2.002380004185877,-2.3144315177356471,4.2388995475619904,0.0
729640.0783812654,4075767.5119837918,-32500.0,-0.62455271008023638,2.0655575003774755,0.040938507493986399,-1.1628836218791718,-0.26621822676316792,0.4090111325834207,2.4391286000739867,1.561051701458152,-2.1499491022119912,2.1499491022119912,-1.561051701458152,4.2299408821423654,0.0
734640.0783812654,4075767.5119837918,-32500.0,-0.25778806679113309,2.1275825289856756,-0.9685529374591002,-1.2199222708580411,0.44931131991643597,0.0068463700895050258,2.4976913349616248,0.57561186111272644,-2.0641684031322627,2.0641684031322627,-0.57561186111272644,4.4060647099446077,0.0
739640.0783812654,4075767.5119837918,-32500.0,0.10911076173947248,1.9402395099965568,-1.9460692720624901,-1.1181252734610718,1.1547491169898851,-0.40006663901682055,2.6084045836110521,-0.53916961803550523,-1.7441001557457301,1.7441001557457301,0.53916961803550523,4.7414251431991037,0.0
744640.0783812654,4075767.5119837918,-32500.0,0.39667610554351734,1.5296504827907476,-2.7786806988682398,-0.87078763230720979,1.7750411455951107,-0.77060264067560147,2.7443112203522042,-1.6510972938675916,-1.2336767081767497,1.2336767081767497,1.6510972938675916,5.1464086801532893,0.0
749640.0783812654,4075767.5119837918,-32500.0,0.54566796561710729,0.96317736028831891,-3.3801860617415627,-0.51699275728968919,2.2504197375283019,-1.0704420216591595,2.8700163409083141,-2.628942068867417,-0.61125835421803121,0.61125835421803121,2.628942068867417,5.51884705653781,0.0
754640.0783812654,4075767.5119837918,-32500.0,0.5318329386477062,0.33071721953595784,-3.7085332600708747,-0.1110260707468731,2.5479750853156586,-1.2785904314960954,2.9573202649869743,-3.3720975142799254,0.031099913003039603,-0.031099913003039603,3.3720975142799254,5.7812726387437579,0.0
759640.0783812654,4075767.5119837918,-32500.0,0.36801094230730136,-0.27867103136667032,-3.7691116538217657,0.29141699346660471,2.664837128708442,-1.3897195025389055,2.9935419197604634,-3.8288346951850007,0.61027947076749367,-0.61027947076749367,3.8288346951850007,5.8928149760454138,0.0
764640.0783812654,4075767.5119837918,-32500.0,0.094694696694351696,-0.79590667620837541,-3.6049545319394527,0.64505971854268329,2.6232160052629441,-1.4122353498991642,2.9708582716587535,-3.9985574727237108,1.0684269067656817,-1.0684269067656817,3.9985574727237108,5.8459922220041962,0.0
769640.0783812654,4075767.5119837918,-32500.0,-0.23518527285274479,-1.1813951681418544,-3.2798321114859124,0.92154894884569616,2.460599822436464,-1.363597161944154,2.8814139017815399,-3.9206869885985194,1.3789570194673857,-1.3789570194673857,3.9206869885985194,5.6573905253614241,0.0
774640.0783812654,4075767.5119837918,-32500.0,-0.57070541627009364,-1.4246180617881983,-2.861248921252332,1.1101427007190885,2.2192661384069381,-1.2649678433780185,2.7331442533781081,-3.6571037049905062,1.5432019176110359,-1.5432019176110359,3.6571037049905062,5.35720435169155,0.0
779640.0783812654,4075767.5119837918,-32500.0,-0.87245294738805013,-1.5371435268121567,-2.4081032279357202,1.2142610265654536,1.9381418798620964,-1.1368203278280371,2.5428714106024772,-3.2751075735090254,1.5816927213488634,-1.5816927213488634,3.2751075735090254,4.9802648605713307,0.0
784640.0783812654,4075767.5119837918,-32500.0,-1.116147265975004,-1.5433462363774657,-1.9645012960603354,1.2462999262800567,1.6481955600819693,-0.9962307267977103,2.3281324805655266,-2.8351607517594508,1.5243749460956644,-1.5243749460956644,2.8351607517594508,4.5597154915186824,0.0
789640.0783812654,4075767.5119837918,-32500.0,-1.2917070133318715,-1.4720812505042342,-1.5587573821873237,1.2226569040530191,1.3710333364228653,-0.85580804826986323,2.1039641181839532,-2.3845152099277884,1.4026381966658152,-1.4026381966658152,2.3845152099277884,4.1234290772054996,0.0
794640.0783812654,4075767.5119837918,-32500.0,-1.3998741938521266,-1.3508573948442488,-1.2055930654185367,1.1600077337198509,1.119648892480644,-0.72379703416391417,1.8818865422031994,-1.9557042696992197,1.2442595045786491,-1.2442595045786491,1.9557042696992197,3.6926438099294483,0.0
799640.0783812654,4075767.5119837918,-32500.0,-1.4482192325411174,-1.2026712074303376,-0.90964568724369743,1.0730703827049726,0.90022119997433336,-0.60481435168804476,1.6699132459204373,-1.5680818974082276,1.0710733145889297,-1.0710733145889297,1.5680818974082276,3.2820796097672802,0.0
804640.0783812654,4075767.5119837918,-32500.0,-1.447644122669655,-1.0449239553925249,-0.66899717779228651,0.97361956971754715,0.71414181355992001,-0.50079209369494493,1.4730456378253429,-1.2307265953391289,0.89859402402465394,-0.89859402402465394,1.2307265953391289,2.9008542529438923,0.0
809640.0783812654,4075767.5119837918,-32500.0,-1.4098368146689282,-0.8896489618452984,-0.47807308768900542,0.87035047316081426,0.55980862366966544,-0.4118686296986217,1.2939445718053018,-0.9455487038647219,0.73674864782522342,-0.73674864782522342,0.9455487038647219,2.5536966020709877,0.0
669640.0783812654,4080767.5119837918,-32500.0,0.83137627722678975,-1.1042475674205834,1.1960434385209524,0.8439613958989165,-0.95051411561564247,0.57458501318189092,1.4975819022804453,0.44414399617823608,1.0060427678835331,-1.0060427678835331,-0.44414399617823608,2.96612526182561,0.0
674640.0783812654,4080767.5119837918,-32500.0,0.70748917043507009,-1.1382097025644318,1.4072695663850301,0.86370202372379634,-1.0974085168236587,0.65800186158397611,1.6206166357528267,0.64217095480203168,1.0009027279636427,-1.0009027279636427,-0.64217095480203168,3.2037783540151481,0.0
679640.0783812654,4080767.5119837918,-32500.0,0.54330363334806397,-1.1347804491100311,1.6331978460244594,0.85908282024706584,-1.2518366950018243,0.74577658368593791,1.7419350841156758,0.88061377358249993,0.954807402482859,-0.954807402482859,-0.88061377358249993,3.4331801300957947,0.0
684640.0783812654,4080767.5119837918,-32500.0,0.33962051286873851,-1.0802300502032698,1.8629766927656146,0.82197522400560052,-1.4062599462962346,0.83402604291982874,1.8567638221878962,1.1573784523596,0.85600762443001444,-0.85600762443001444,-1.1573784523596,3.6431054005877317,0.0
689640.0783812654,4080767.5119837918,-32500.0,0.10237921872978339,-0.96056041182134311,2.0795389282918491,0.74427385277427227,-1.5493097607091679,0.91689641250774634,1.9592573735380916,1.4642481714672395,0.6935646609847641,-0.6935646609847641,-1.4642481714672395,3.8200929333883713,0.0
694640.0783812654,4080767.5119837918,-32500.0,-0.15573417882766991,-0.76387750929925258,2.2587445896196567,0.61930193105858122,-1.6653639515313088,0.98633509316171597,2.0429688932544514,1.7845209462086467,0.45978193030160419,-0.45978193030160419,-1.7845209462086467,3.9494265915761866,0.0
699640.0783812654,4080767.5119837918,-32500.0,-0.41436752363548979,-0.48384346681220336,2.3696224362337017,0.4438051404395329,-1.7348030727639256,1.0321963186596999,2.1017576766991732,2.0910732238943139,0.15348133096158545,-0.15348133096158545,-2.0910732238943139,4.017182525877355,0.0
704640.0783812654,4080767.5119837918,-32500.0,-0.64607980167174439,-0.1238971655353783,2.3764867030934118,0.22034263513744246,-1.7353852215490158,1.0428983887136292,2.1312469987446896,2.3458193127114653,-0.21630176414788216,0.21630176414788216,-2.3458193127114653,4.0137135489171651,0.0
709640.0783812654,4080767.5119837918,-32500.0,-0.81923638116895225,0.29865117976008881,2.2435955189740726,-0.040435277146716186,-1.6450998323596389,1.0068158529747981,2.1308375979174614,2.5017883018976526,-0.62716293805346079,0.62716293805346079,-2.5017883018976526,3.9387888960962871,0.0
714640.0783812654,4080767.5119837918,-32500.0,-0.90363064240415958,0.75018602723905536,1.9424603185433402,-0.31847548198148085,-1.4465333290991376,0.91443428979508157,2.1059729119728652,2.5088837793494614,-1.0421826092190101,1.0421826092190101,-2.5088837793494614,3.8080452763300841,0.0
719640.0783812654,4080767.5119837918,-32500.0,-0.87826720682260861,1.1818874733770126,1.4608354301253956,-0.58500190381420347,-1.1321662626321312,0.76100025798001947,2.0697375788527275,2.3235310233887754,-1.4124031952571849,1.4124031952571849,-2.3235310233887754,3.6588032384998641,0.0
724640.0783812654,4080767.5119837918,-32500.0,-0.73938230448551479,1.5357996952665889,0.81105049691829501,-0.8059615673130226,-0.70925944706248201,0.54902651029692884,2.0419832728943148,1.9207879306180471,-1.6839064780103918,1.6839064780103918,-1.9207879306180471,3.5496702668365443,0.0
729640.0783812654,4080767.5119837918,-32500.0,-0.50565643966092344,1.7557752162014817,0.034368253292217432,-0.94818156425643907,-0.20244752948588571,0.28973812430421653,2.0438843969031621,1.3055773590983952,-1.8088768262451815,1.8088768262451815,-1.3055773590983952,3.5444444062020235,0.0
734640.0783812654,4080767.5119837918,-32500.0,-0.21760416412468059,1.8009068967652433,-0.80165347350048977,-0.98694061069606265,0.34767423547271536,0.002600946792155002,2.0883424055900259,0.51855869843452618,-1.7579230816458655,1.7579230816458655,-0.51855869843452618,3.6786952729488309,0.0
739640.0783812654,4080767.5119837918,-32500.0,0.070117483395235533,1.6570955003842709,-1.6137533919306097,-0.91258970978457565,0.89054457937772014,-0.28740365514950023,2.1721033054329704,-0.36703610710868817,-1.5294100496751453,1.5294100496751453,0.36703610710868817,3.9340549599288441,0.0
744640.0783812654,4080767.5119837918,-32500.0,0.30172473302935804,1.3421743604291994,-2.3192259114583895,-0.73370405610516576,1.3749876075338048,-0.55423821925706496,2.2765820976867865,-1.2582229830650387,-1.1518447803448795,1.1518447803448795,1.2582229830650387,4.2484881940409824,0.0
749640.0783812654,4080767.5119837918,-32500.0,0.43420296157689342,0.90216483127124747,-2.852797904829623,-0.47536395324154446,1.7591318920465533,-0.7757083093127547,2.376680986099267,-2.0612939123048273,-0.67781363003792183,0.67781363003792183,2.0612939123048273,4.5491243593478394,0.0
754640.0783812654,4080767.5119837918,-32500.0,0.44701291126404191,0.39987266751437195,-3.1785315738739315,-0.17310076039118844,2.017732185807577,-0.93727051941406625,2.4507980048005864,-2.7007856440079818,-0.17146571507788155,0.17146571507788155,2.7007856440079818,4.7775880801458914,0.0
759640.0783812654,4080767.5119837918,-32500.0,0.34447784230899159,-0.099882259058634737,-3.2932954430022656,0.13525661308864442,2.1448232845245969,-1.0336828224413233,2.4878020780540555,-3.1322759921348746,0.30589480488062892,-0.30589480488062892,3.1322759921348746,4.8994794071193963,0.0
764640.0783812654,4080767.5119837918,-32500.0,0.15102966726811781,-0.54327450254062581,-3.2218975676809825,0.41705186703927011,2.1515659861639147,-1.0683234028628994,2.4855406361586945,-3.345855517646013,0.70730475431723905,-0.70730475431723905,3.345855517646013,4.9036331200267442,0.0
769640.0783812654,4080767.5119837918,-32500.0,-0.097795165434649736,-0.89516741260443544,-3.0069411029675899,0.64955138384590361,2.0608373849005215,-1.0508300964129629,2.4369356827964141,-3.3610297416388937,1.0058547357263852,-1.0058547357263852,3.3610297416388937,4.7968495118455303,0.0
774640.0783812654,4080767.5119837918,-32500.0,-0.36487042826013594,-1.1406497775050177,-2.6974778540008884,0.82134841594822372,1.9007944758962116,-0.99408827692881729,2.341057435015518,-3.2165232907374444,1.1944475451427434,-1.1944475451427434,3.2165232907374444,4.5973251573270648,0.0
779640.0783812654,4080767.5119837918,-32500.0,-0.61867990412622831,-1.2818348388445349,-2.3397242741572688,0.93104472369480251,1.6993080160810281,-0.91149220694495803,2.2075597907348103,-2.9590970760661728,1.2814286260410626,-1.2814286260410626,2.9590970760661728,4.3285756893456124,0.0
784640.0783812654,4080767.5119837918,-32500.0,-0.83706636127021583,-1.3323113730453624,-1.9713593658960766,0.98443471718733311,1.4802587202655,-0.81500860653969687,2.0489060955961738,-2.6343957815170342,1.2845606585395282,-1.2845606585395282,2.6343957815170342,4.0147379341609382,0.0
789640.0783812654,4080767.5119837918,-32500.0,-1.0078476410062762,-1.3114076121508975,-1.6193572255504629,0.99137622300607131,1.261814921805978,-0.71416031062459084,1.8767702343396329,-2.2811574764438176,1.2253585487119123,-1.2253585487119123,2.2811574764438176,3.677522229753031,0.0
794640.0783812654,4080767.5119837918,-32500.0,-1.1273641474256528,-1.2395958938890219,-1.3004046154348723,0.96313340989339602,1.056260385251083,-0.61577028224017383,1.7007731514903501,-1.9286989365805791,1.1248821271986973,-1.1248821271986973,1.9286989365805791,3.3346555397637578,0.0
799640.0783812654,4080767.5119837918,-32500.0,-1.1981059489756278,-1.1355041191723221,-1.0227403470876935,0.91052415161761047,0.87076238676502282,-0.52419877170636375,1.5281602698299639,-1.5968291373985317,1.0012434483246531,-1.0012434483246531,1.5968291373985317,2.9994460736551209,0.0
804640.0783812654,4080767.5119837918,-32500.0,-1.2262785409007924,-1.0144123846399031,-0.78846091895253734,0.84287112724993629,0.70853869614060694,-0.44181989677178418,1.3639378291604647,-1.2971711947945392,0.86856731507070195,-0.86856731507070195,1.2971711947945392,2.6810601891641497,0.0
674640.0783812654,4085767.5119837918,-32500.0,0.52077357112250977,-0.99419103034003387,1.3935153573985393,0.69529457452659216,-0.99117366555159225,0.54741266699212066,1.4403886752915338,0.66994311777846061,0.89091926323074089,-0.89091926323074089,-0.66994311777846061,2.8463951888660897,0.0
679640.0783812654,4085767.5119837918,-32500.0,0.36907809505703215,-0.96659799048205597,1.5856051327953395,0.67590272406523189,-1.112182953565118,0.61128725659641669,1.5344291230971243,0.88194122446254897,0.83253169434691865,-0.83253169434691865,-0.88194122446254897,3.0213027963267938,0.0
684640.0783812654,4085767.5119837918,-32500.0,0.18960612729924203,-0.8930208534802303,1.772934736753035,0.62932274771627228,-1.22838342947001,0.67314645325071365,1.6209299447239662,1.1202109474903843,0.72814709490160467,-0.72814709490160467,-1.1202109474903843,3.1752976469070142,0.0
689640.0783812654,4085767.5119837918,-32500.0,-0.010710231962649671,-0.76393831758308917,1.9397971691414866,0.55047479880379901,-1.330171553205058,0.7283788614860558,1.6953447426206418,1.3755681049546786,0.57058178529882431,-0.57058178529882431,-1.3755681049546786,3.2980410727289242,0.0
694640.0783812654,4085767.5119837918,-32500.0,-0.21994397859240281,-0.57251708854950267,2.0655228908094903,0.43589100652603974,-1.4051861414329347,0.7710377305055951,1.7530216359642226,1.6322597540353647,0.35596704114668454,-0.35596704114668454,-1.6322597540353647,3.3789824399593629,0.0
699640.0783812654,4085767.5119837918,-32500.0,-0.42102470038465584,-0.31716071386582922,2.125240133508878,0.28508672808243235,-1.4388045113031802,0.79405764812303103,1.7899597622396359,1.8670901205629447,0.086089063701905499,-0.086089063701905499,-1.8670901205629447,3.4091112642113881,0.0
704640.0783812654,4085767.5119837918,-32500.0,-0.59275671502545746,-0.004302361015727142,2.0920360838171819,0.10203606043590077,-1.4154121597898253,0.78982867766405807,1.8039126632148403,2.0497527636952926,-0.22923775738718577,0.22923775738718577,-2.0497527636952926,3.3836612987678509,0.0
709640.0783812654,4085767.5119837918,-32500.0,-0.71239931338138263,0.34925981151125357,1.9407927195322627,-0.10362027444342205,-1.3205787511441691,0.75119318777898914,1.7957843250532541,2.1450722331226442,-0.57046763859246108,0.57046763859246108,-2.1450722331226442,3.3057952832891453,0.0
714640.0783812654,4085767.5119837918,-32500.0,-0.75984689717256704,0.71549444319811795,1.6535274660809878,-0.3161594159988228,-1.1440328592962945,0.67282326827729344,1.7710328456608435,2.1176223738532554,-0.90822187106087526,0.90822187106087526,-2.1176223738532554,3.1908385958944994,0.0
719640.0783812654,4085767.5119837918,-32500.0,-0.72281285093813097,1.0567950635241234,1.2253750770770944,-0.51469633785019897,-0.88296057206952527,0.55277045312591744,1.7403944207694326,1.9385504191365717,-1.2056699152220107,1.2056699152220107,-1.9385504191365717,3.0694487239991437,0.0
724640.0783812654,4085767.5119837918,-32500.0,-0.60167766266365008,1.3307861653569548,0.66960577347496408,-0.67575318357957836,-0.5447668354006886,0.39380144902846015,1.7187544099587164,1.5934501177184845,-1.4237596954519649,1.4237596954519649,-1.5934501177184845,2.9857694812271101,0.0
729640.0783812654,4085767.5119837918,-32500.0,-0.41218108762477162,1.4979040339084309,0.019682101876070043,-0.77728280066730082,-0.14823630338873234,0.20403392115852784,1.7210491027422599,1.0891286928982602,-1.5286735043599591,1.5286735043599591,-1.0891286928982602,2.9849092646759505,0.0
734640.0783812654,4085767.5119837918,-32500.0,-0.1843585012059544,1.5300927780159714,-0.67325831991779361,-0.80329564092007144,0.27776763663800758,-0.0035352410842233806,1.7558843866529315,0.45667838364905489,-1.4997291655116787,1.4997291655116787,-0.45667838364905489,3.0904680084566114,0.0
739640.0783812654,4085767.5119837918,-32500.0,0.042766459230644024,1.4179932083250528,-1.3477982131852835,-0.74774409751172832,0.69824718744314629,-0.212722502568993,1.8206765728280301,-0.25108414623381259,-1.3352181208630074,1.3352181208630074,0.25108414623381259,3.2887377700688583,0.0
744640.0783812654,4085767.5119837918,-32500.0,0.22955255545577091,1.1740348346475276,-1.9429865339214867,-0.61631904740451993,1.0778827584699737,-0.40675665999083599,1.9023317994436315,-0.96797210595162297,-1.0539484881015686,1.0539484881015686,0.96797210595162297,3.5358907612572845,0.0
749640.0783812654,4085767.5119837918,-32500.0,0.34459051514243094,0.83010545842123551,-2.4094268269677568,-0.42543464005350301,1.3871493285891561,-0.57110235440161738,1.9828796791844132,-1.6265286169576127,-0.69164474754148242,0.69164474754148242,1.6265286169576127,3.7794218875109875,0.0
754640.0783812654,4085767.5119837918,-32500.0,0.37113259120564496,0.43047166279530474,-2.717419686158518,-0.19868346268805925,1.6069873241945991,-0.69571659246702433,2.0459676630680264,-2.1703009184562037,-0.29326794582425175,0.29326794582425175,2.1703009184562037,3.975408226546155,0.0
759640.0783812654,4085767.5119837918,-32500.0,0.30921046577138017,0.022346801026225244,-2.8600042266484698,0.038061544776419654,1.730825239981054,-0.77616292965919154,2.0816882897402245,-2.5627166902696175,0.09621388948003351,-0.09621388948003351,2.5627166902696175,4.0957646512934778,0.0
764640.0783812654,4085767.5119837918,-32500.0,0.17331686341345695,-0.3529070850011839,-2.8506918023704255,0.26137562363284772,1.7637440989858195,-0.81343687844701751,2.0889552056742877,-2.7904802721181072,0.43977897408470445,-0.43977897408470445,2.7904802721181072,4.1285979597647069,0.0
769640.0783812654,4085767.5119837918,-32500.0,-0.012901920536051896,-0.66565745916226871,-2.7174374420075327,0.45362114541915571,1.719506041474318,-0.8127782223174419,2.0654693245027405,-2.8615227711148199,0.71308932254562718,-0.71308932254562718,2.8615227711148199,4.0752594621239489,0.0
774640.0783812654,4085767.5119837918,-32500.0,-0.2228186757131628,-0.90010624463856037,-2.4952092864340814,0.60437446146257023,1.6166472937632412,-0.78198259492703659,2.005722897006073,-2.7992230503255007,0.90552124009416857,-0.90552124009416857,2.7992230503255007,3.9462398783627228,0.0
779640.0783812654,4085767.5119837918,-32500.0,-0.43203390880356518,-1.053132996742743,-2.2192808193074889,0.71011761444432764,1.4747749394724061,-0.72972444750150678,1.913701265443573,-2.6352555039526138,1.0182440080816777,-1.0182440080816777,2.6352555039526138,3.7570968116574828,0.0
784640.0783812654,4085767.5119837918,-32500.0,-0.62164190804975816,-1.1311523318274785,-1.9205028077027002,0.77279585569057174,1.311795956456405,-0.66424020234644199,1.7978587542953097,-2.4030754655907556,1.0607027781500582,-1.0607027781500582,2.4030754655907556,3.5250685076619832,0.0
789640.0783812654,4085767.5119837918,-32500.0,-0.77945285320150459,-1.1463446154113004,-1.622858593078857,0.79792756932433884,1.1423187093876439,-0.59250956909372376,1.667002893268607,-2.1331945362026739,1.0468135631148321,-1.0468135631148321,2.1331945362026739,3.2666510868688192,0.0
794640.0783812654,4085767.5119837918,-32500.0,-0.89964055706881951,-1.1132590344873097,-1.3429362592724126,0.79280324440487382,0.97709966827368255,-0.51990476566816246,1.5288952123395225,-1.8505289436270473,0.9917535469569656,-0.9917535469569656,1.8505289436270473,2.9961416633738809,0.0
799640.0783812654,4085767.5119837918,-32500.0,-0.98148307617132347,-1.0462956728763011,-1.0906644246247019,0.76507389242781521,0.82322830693611082,-0.45018771836773991,1.3897730735897116,-1.573516469147789,0.90973198252729381,-0.90973198252729381,1.573516469147789,2.7249835763819563,0.0
679640.0783812654,4090767.5119837918,-32500.0,0.23578603008419613,-0.81085252290693355,1.5101655145591291,0.52736553808318731,-0.97854546064024961,0.49947592800948165,1.3491934634284541,0.86313016608416682,0.7163082669953853,-0.7163082669953853,-0.86313016608416682,2.6527300590420073,0.0
684640.0783812654,4090767.5119837918,-32500.0,0.080766560935406476,-0.72627466335510615,1.6585868099165264,0.47721651702685081,-1.06404095236987,0.54216242764166778,1.4136328524943256,1.0650738587216333,0.61073355869557699,-0.61073355869557699,-1.0650738587216333,2.763437001244665,0.0
689640.0783812654,4090767.5119837918,-32500.0,-0.085880416449346283,-0.59552344553261205,1.7824158080241543,0.4019055431346677,-1.1341214623846598,0.57809340927169561,1.4668330999586812,1.2745895626090216,0.46144069480029831,-0.46144069480029831,-1.2745895626090216,2.8457187889089646,0.0
694640.0783812654,4090767.5119837918,-32500.0,-0.25361197271431274,-0.41531806931604426,1.8645155493379928,0.29999580896006978,-1.1792383919155287,0.60296023913067165,1.5055517343064051,1.4775734978157877,0.26715633048155718,-0.26715633048155718,-1.4775734978157877,2.8922517671238399,0.0
699640.0783812654,4090767.5119837918,-32500.0,-0.40858162788144403,-0.18696028430851436,1.8854035933776589,0.17248972840382026,-1.1886880412923151,0.61190660061426405,1.5273320007113709,1.6547667545393938,0.031311453149955648,-0.031311453149955648,-1.6547667545393938,2.8975572206067239,0.0
704640.0783812654,4090767.5119837918,-32500.0,-0.5347444962497947,0.081898265898974615,1.8252021197169686,0.023702635228551826,-1.1516705160122367,0.59998105689496795,1.5313169626452072,1.7824767007391911,-0.23649657057581797,0.23649657057581797,-1.7824767007391911,2.8600525759075577,0.0
709640.0783812654,4090767.5119837918,-32500.0,-0.61597214293391311,0.37602992704209959,1.6666429209883828,-0.13814917080857725,-1.0588826442233639,0.56282460023250724,1.519197504124036,1.834633659153349,-0.5196822496297715,0.5196822496297715,-1.834633659153349,2.7846548348910454,0.0
714640.0783812654,4090767.5119837918,-32500.0,-0.63906525500290023,0.67258126820116226,1.3988706461506921,-0.30095636827240235,-0.90450606654152266,0.49753791956596388,1.4960512320463908,1.7863390230494638,-0.79506040596018113,0.79506040596018113,-1.7863390230494638,2.6855054767919087,0.0
719640.0783812654,4090767.5119837918,-32500.0,-0.59716049194511012,0.94277236938064779,1.0213620981433424,-0.44959660569426918,-0.6882406242678093,0.40358264255294768,1.4705713937320997,1.6186226306967404,-1.0349051623041117,1.0349051623041117,-1.6186226306967404,2.5875225296500233,0.0
724640.0783812654,4090767.5119837918,-32500.0,-0.4926352978252872,1.155566299168179,0.54689519663140729,-0.56779011584733874,-0.41684488005504367,0.28348867325039601,1.4539342043415404,1.3235471019847087,-1.2107631291843188,1.2107631291843188,-1.3235471019847087,2.5240094604294789,0.0
729640.0783812654,4090767.5119837918,-32500.0,-0.33843294220960735,1.2829024488769214,0.0023782925605948567,-0.64073080279207251,-0.10458679608111848,0.14310993214107245,1.4567437387436157,0.90828957863270121,-1.2984999066515392,1.2984999066515392,-0.90828957863270121,2.5270258753459025,0.0
734640.0783812654,4090767.5119837918,-32500.0,-0.1569626772806155,1.3053714083260337,-0.57331129845561724,-0.65794752579228766,0.22782539774635677,-0.0087648759617176067,1.4847534430894909,0.39670023226576301,-1.2834257866405849,1.2834257866405849,-0.39670023226576301,2.612162385763773,0.0
739640.0783812654,4090767.5119837918,-32500.0,0.02357742280413299,1.2167403193216637,-1.1345110747919096,-0.61562117800520699,0.55585971629530828,-0.16147497692622753,1.5358472409446937,-0.17269001947013418,-1.1640013103604372,1.1640013103604372,0.17269001947013418,2.76882388286871,0.0
744640.0783812654,4090767.5119837918,-32500.0,0.17467131372368214,1.025840921666495,-1.6359649606655036,-0.51762487456335693,0.85483535603884464,-0.30403425801043044,1.6006115450390928,-0.75219807477030154,-0.95284054064289314,0.95284054064289314,0.75219807477030154,2.9654488445104388,0.0
749640.0783812654,4090767.5119837918,-32500.0,0.2732168906157641,0.75508259728350013,-2.0402012671757284,-0.37490522695852185,1.1037599451907021,-0.42679392497231461,1.6660256701807001,-1.2928153318648663,-0.67452525183459944,0.67452525183459944,1.2928153318648663,3.163774645402794,0.0
754640.0783812654,4090767.5119837918,-32500.0,0.30582578961385493,0.43597732381791915,-2.3231296482818831,-0.20335910446416158,1.2883412070155997,-0.52280101432449499,1.7197536680727539,-1.7522523894440796,-0.36081352486810436,0.36081352486810436,1.7522523894440796,3.3306709213438821,0.0
759640.0783812654,4090767.5119837918,-32500.0,0.27053556597647055,0.10304320870629236,-2.4765061999607778,-0.020841159312110714,1.4024660084526861,-0.58853718106486053,1.7533847099710047,-2.1010816448567597,-0.044673256926813787,0.044673256926813787,2.1010816448567597,3.4435773865782817,0.0
764640.0783812654,4090767.5119837918,-32500.0,0.17574307890790378,-0.21215071708056424,-2.5070023896917668,0.15584921259711981,1.447961704261636,-0.62393340359615768,1.7650264240885649,-2.3256217268174844,0.24518109009264233,-0.24518109009264233,2.3256217268174844,3.491267286914344,0.0
769640.0783812654,4090767.5119837918,-32500.0,0.037082403549150267,-0.48534078144544557,-2.4326539885589926,0.31327187880494417,1.4329737716744444,-0.63177597638189065,1.7561103052374496,-2.4273698662931924,0.48797288662150073,-0.48797288662150073,2.4273698662931924,3.4722315332215321,0.0
774640.0783812654,4090767.5119837918,-32500.0,-0.12654757443223977,-0.70162715851134105,-2.2780458573226081,0.44255808423830723,1.3696044595934045,-0.61675949994016221,1.7208693673677675,-2.419806791132785,0.67226760655931495,-0.67226760655931495,2.419806791132785,3.3921124077598424,0.0
779640.0783812654,4090767.5119837918,-32500.0,-0.29664987502728668,-0.85534460071369067,-2.0695879847236101,0.53953600019841619,1.2714891098763059,-0.58446934766520042,1.6588143816074754,-2.3239081453360511,0.79535068814293219,-0.79535068814293219,2.3239081453360511,3.2609902778041691,0.0
784640.0783812654,4090767.5119837918,-32500.0,-0.45774736119557186,-0.94839742618522904,-1.8318206599252478,0.60405089719255356,1.1518068469828133,-0.54051149998805681,1.5752598064636023,-2.163649149307949,0.86129120440983487,-0.86129120440983487,2.163649149307949,3.0909846119312796,0.0
789640.0783812654,4090767.5119837918,-32500.0,-0.59871747936856212,-0.98787990722952423,-1.5851349760162514,0.63886508825584221,1.0219607646476954,-0.48990345663661328,1.4766883584753736,-1.9623810992764692,0.87849847420989247,-0.87849847420989247,1.9623810992764692,2.8944038030096975,0.0
794640.0783812654,4090767.5119837918,-32500.0,-0.71300225692840014,-0.98367731093498345,-1.3448330091714078,0.64848153442650924,0.89092977073923707,-0.43674185852619851,1.3692048978900579,-1.7404481055531402,0.85740963679931959,-0.85740963679931959,1.7404481055531402,2.6824979681879451,0.0
689640.0783812654,4095767.5119837918,-32500.0,-0.13311959477151816,-0.45475417909172028,1.6194427324748255,0.28917318967888078,-0.96244201145412434,0.45901523178976422,1.2701484051362057,1.1688244260522245,0.36721111104349025,-0.36721111104349025,-1.1688244260522245,2.4565212275400632,0.0
694640.0783812654,4095767.5119837918,-32500.0,-0.26644897408792845,-0.28907656937471804,1.6671738025727385,0.20038550556324411,-0.9863434682057155,0.47229007501440212,1.2952364151234881,1.3274686259935509,0.19321052189012455,-0.19321052189012455,-1.3274686259935509,2.4791064775351481,0.0
699640.0783812654,4095767.5119837918,-32500.0,-0.38505687899625574,-0.087722848108056264,1.6597291720860869,0.093749682195467157,-0.98014271216204996,0.47288460290951162,1.3066895673366221,1.4591875290787706,-0.0116763940257395,0.0116763940257395,-1.4591875290787706,2.4686836406916775,0.0
704640.0783812654,4095767.5119837918,-32500.0,-0.47697762786940295,0.14150699322770394,1.58268319943212,-0.02662948491097291,-0.93646478846467274,0.45760345064151825,1.3045182133413251,1.5456908479510192,-0.23860326972804713,0.23860326972804713,-1.5456908479510192,2.42565938548353,0.0
709640.0783812654,4095767.5119837918,-32500.0,-0.53089635627664167,0.38536462913894826,1.4244256954340275,-0.15399440988479801,-0.84941986124840241,0.42382433018625504,1.2907504412540218,1.567794414394128,-0.47375533526335423,0.47375533526335423,-1.567794414394128,2.3556723737931429,0.0
714640.0783812654,4095767.5119837918,-32500.0,-0.538275914396382,0.62548720445804618,1.1788212678823444,-0.27911717185768764,-0.71591448970757066,0.37003887924177392,1.2699078099645424,1.5080737845221233,-0.69892258534196339,0.69892258534196339,-1.5080737845221233,2.2713027782250403,0.0
719640.0783812654,4095767.5119837918,-32500.0,-0.49557518756174701,0.83991699233884165,0.84774631854984828,-0.391042109810328,-0.53689543394169714,0.29637491567697227,1.2489677118496973,1.3541521290550911,-0.893183605535111,0.893183605535111,-1.3541521290550911,2.1926576584842237,0.0
724640.0783812654,4095767.5119837918,-32500.0,-0.40597376345354097,1.0058440098644426,0.44280964222738112,-0.47840268837099786,-0.31819493797103049,0.20496731402416501,1.2363385214031926,1.1020092245080697,-1.0356658564211019,1.0356658564211019,-1.1020092245080697,2.1449110914931944,0.0
729640.0783812654,4095767.5119837918,-32500.0,-0.27996793048363838,1.1032201116600771,-0.014446467987111709,-0.53114875553888674,-0.070643324191392465,0.100040723104874,1.2395951342992459,0.75844708316175447,-1.1089821083880551,1.1089821083880551,-0.75844708316175447,2.1509579386845443,0.0
734640.0783812654,4095767.5119837918,-32500.0,-0.13439438826664779,1.1184958854189033,-0.49430701421844703,-0.5423379999407113,0.19076347242697644,-0.012387209867197423,1.2625882829485167,0.34183778412146476,-1.1025956917655997,1.1025956917655997,-0.34183778412146476,2.2210352398682347,0.0
739640.0783812654,4095767.5119837918,-32500.0,0.010132831231575488,1.0475069777983363,-0.96253843140048456,-0.50954106043057357,0.44861569897135556,-0.12518089180433015,1.3035569140610388,-0.11939430387703548,-1.0152070366871475,1.0152070366871475,0.11939430387703548,2.3467552998659089,0.0
744640.0783812654,4095767.5119837918,-32500.0,0.13285399189165764,0.89664019024426622,-1.3852624881101747,-0.43545279223191019,0.68545161809051802,-0.23102573731047946,1.3556068869435713,-0.59048593506297964,-0.85541062473802176,0.85541062473802176,0.59048593506297964,2.5049858977322121,0.0
749640.0783812654,4095767.5119837918,-32500.0,0.21663747184628501,0.68186381383463102,-1.7339302019273253,-0.32750494436553379,0.88620637788019496,-0.32342772743182047,1.4091846883064725,-1.0354819332120069,-0.64034055192158457,0.64034055192158457,1.0354819332120069,2.6675137169636938,0.0
754640.0783812654,4095767.5119837918,-32500.0,0.25088643614527728,0.42584742304304923,-1.9891954690918621,-0.19656614618207965,1.0401768708434083,-0.39754479105864399,1.45496322109762,-1.4225787152467504,-0.39262981433287514,0.39262981433287514,1.4225787152467504,2.8092254342181966,0.0
759640.0783812654,4095767.5119837918,-32500.0,0.23286380835062559,0.1539705784125964,-2.14283728289027,-0.055082470046586778,1.142082481470196,-0.45067402731752076,1.4860443838439652,-1.7283853702605902,-0.13651202966432785,0.13651202966432785,1.7283853702605902,2.9121432488160006,0.0
764640.0783812654,4095767.5119837918,-32500.0,0.16725821693217738,-0.10972603421981236,-2.1974914313553979,0.084860388643430956,1.1920801704324313,-0.48232501676623113,1.499814171885941,-1.9402227417373561,0.10592823149144093,-0.10592823149144093,1.9402227417373561,2.9662748044997587,0.0
769640.0783812654,4095767.5119837918,-32500.0,0.064350595947719774,-0.34571779233171163,-2.1645768489628456,0.21311465549724307,1.1948856883140693,-0.49392599756571853,1.49877907107185,-2.056228060255664,0.31752618689294676,-0.31752618689294676,2.056228060255664,2.9687545634133938,0.0
774640.0783812654,4095767.5119837918,-32500.0,-0.062533165828192752,-0.54077691431050834,-2.061194894953259,0.32242310926241419,1.158348529222462,-0.48829145962055531,1.4798004993191396,-2.0836457643538591,0.48741382822630386,-0.48741382822630386,2.0836457643538591,2.9222380066158604,0.0
779640.0783812654,4095767.5119837918,-32500.0,-0.19956191847567403,-0.68830772547443309,-1.9068545777758954,0.40869707545614592,1.0918797572220615,-0.46900680274354922,1.4391961454554132,-2.0360520426938056,0.6110384265795199,-0.6110384265795199,2.0360520426938056,2.8330962184787363,0.0
784640.0783812654,4095767.5119837918,-32500.0,-0.3344012798586512,-0.78755116744703879,-1.7206878782372623,0.47074261549971569,1.005058926990436,-0.43986259429571145,1.379775021820085,-1.9303173230344366,0.68917844161508868,-0.68917844161508868,1.9303173230344366,2.709732405457975,0.0
789640.0783812654,4095767.5119837918,-32500.0,-0.45743450446311795,-0.84213920884084204,-1.5195098356533812,0.50964488203471314,0.90660972536898454,-0.4044207679270278,1.3061881848022068,-1.7839325146578666,0.72643669703081759,-0.72643669703081759,1.7839325146578666,2.5612012197654974,0.0
699640.0783812654,4100767.5119837918,-32500.0,-0.35588462086170281,-0.013784895568213301,1.4532279447005847,0.039535095854590724,-0.80777890401423735,0.36678600960544322,1.1214561215067087,1.282555138677099,-0.044357092081157012,0.044357092081157012,-1.282555138677099,2.1096274579734953,0.0
704640.0783812654,4100767.5119837918,-32500.0,-0.4222828758977894,0.18063157397824231,1.3668934927591168,-0.057636077356189357,-0.76194765100360473,0.3506548610902962,1.1156901530592906,1.3385882089883403,-0.236463865061177,0.236463865061177,-1.3385882089883403,2.0652371794446949,0.0
709640.0783812654,4100767.5119837918,-32500.0,-0.45695454169746047,0.38248304223964669,1.2138998427166605,-0.15799726824742205,-0.68244621511620929,0.32093882211300651,1.1016917996931053,1.3402591483381809,-0.43204012814655801,0.43204012814655801,-1.3402591483381809,2.002022396115946,0.0
714640.0783812654,4100767.5119837918,-32500.0,-0.4544777927985087,0.57714909774583423,0.99116445625551219,-0.2545566583838591,-0.56781407966776343,0.27691376628378628,1.0833779794220004,1.2754133637956993,-0.61681462332654624,0.61681462332654624,-1.2754133637956993,1.9309126323611723,0.0
719640.0783812654,4100767.5119837918,-32500.0,-0.41330655472135602,0.74788666687334926,0.7017584341257368,-0.33935676349638427,-0.41953295530114459,0.21898617399111459,1.0663176607369973,1.1360539666485929,-0.77494350544965473,0.77494350544965473,-1.1360539666485929,1.8680558556021565,0.0
724640.0783812654,4100767.5119837918,-32500.0,-0.33678292499752271,0.87785487474937807,0.35587607143424793,-0.40440068296294768,-0.24247935923496583,0.1488844313088091,1.0568534365331363,0.92049016020550312,-0.89100267880192052,0.89100267880192052,-0.92049016020550312,1.8325237794288147,0.0
729640.0783812654,4100767.5119837918,-32500.0,-0.23335404913246666,0.9526181753339994,-0.029264608318993409,-0.44279270681123645,-0.044887371962179144,0.069666997256496346,1.0604280608104548,0.63482798436897303,-0.95234479137156502,0.95234479137156502,-0.63482798436897303,1.8407378397057781,0.0
734640.0783812654,4100767.5119837918,-32500.0,-0.11576304276983994,0.96263124746760387,-0.43081533816227907,-0.4498743755409676,0.16228147688041311,-0.014495344248653803,1.0796175109991415,0.29329028384738742,-0.95133574835383627,0.95133574835383627,-0.29329028384738742,1.8993580933535752,0.0
739640.0783812654,4100767.5119837918,-32500.0,0.00075066596710331895,0.9051037942336283,-0.82289106709618909,-0.42409010239828326,0.36652271199137149,-0.098753519172894003,1.1129444670596145,-0.082927279240427754,-0.8869136760677252,0.8869136760677252,0.082927279240427754,2.0016352222344458,0.0
744640.0783812654,4100767.5119837918,-32500.0,0.10089817485790382,0.78472964314127569,-1.1799151565837662,-0.3673519230112261,0.55533121262065233,-0.17816102269932332,1.1552755144986007,-0.46818607351326108,-0.76502371578293138,0.76502371578293138,0.46818607351326108,2.1303418732385402,0.0
749640.0783812654,4100767.5119837918,-32500.0,0.17186505902805543,0.61304006185779036,-1.4800153115505492,-0.28479049774564003,0.71778950118193774,-0.24828668567079049,1.1995118554834834,-0.83584337886517479,-0.59776075779289395,0.59776075779289395,0.83584337886517479,2.2644276024442687,0.0
754640.0783812654,4100767.5119837918,-32500.0,0.2052987885995593,0.4065190534024572,-1.7077276413015168,-0.18394306565377816,0.84586607404352721,-0.30573196343005571,1.2385630343852312,-1.1618495918930791,-0.4014087810269068,0.4014087810269068,1.1618495918930791,2.3847334941440694,0.0
759640.0783812654,4100767.5119837918,-32500.0,0.19831215425041032,0.18395539939834837,-1.8554675033027548,-0.073578485536968927,0.93517100730583091,-0.34845310938456814,1.2668735430043758,-1.4277216523023935,-0.19386397928489707,0.19386397928489707,1.4277216523023935,2.4769784709617837,0.0
764640.0783812654,4100767.5119837918,-32500.0,0.15335912955552994,-0.036329577342649869,-1.9235668590881223,0.037563092308473489,0.9850625016102541,-0.37584117616782148,1.2816277832078513,-1.622313717178435,0.0079474800545608071,-0.0079474800545608071,1.622313717178435,2.5325484252513464,0.0
769640.0783812654,4100767.5119837918,-32500.0,0.077161917377912559,-0.2387805914356402,-1.9190820391324648,0.14184829566240173,0.99817981922804988,-0.38858073737538978,1.2846497110431834,-1.7421915982896996,0.19011503646639383,-0.19011503646639383,1.7421915982896996,2.5480718943053695,0.0
774640.0783812654,4100767.5119837918,-32500.0,-0.020921586312690598,-0.41205983429406146,-1.8538016362991174,0.2334703926980656,0.97958177719557871,-0.3883491941554349,1.2761046454377736,-1.7907622211941805,0.34294140647868265,-0.34294140647868265,1.7907622211941805,2.5244104581010882,0.0
779640.0783812654,4100767.5119837918,-32500.0,-0.13064051563737236,-0.54955021863731479,-1.7419984116842566,0.30875122166662322,0.93573145974257455,-0.37744461275357361,1.2507185617514891,-1.7765807237886118,0.4612413107577269,-0.4612413107577269,1.7765807237886118,2.4654563825287679,0.0
709640.0783812654,4105767.5119837918,-32500.0,-0.39331830683800317,0.37142176337912464,1.0329242468540778,-0.15476172384767617,-0.5495647017572044,0.24446242668312654,0.9447681195704648,1.1471852892208942,-0.39410114011384334,0.39410114011384334,-1.1471852892208942,1.7097023426995759,0.0
714640.0783812654,4105767.5119837918,-32500.0,-0.38491106529499131,0.52956801485712912,0.83251464193503222,-0.22962964646896336,-0.45156669363431406,0.20854393324643103,0.92894139811718479,1.0813065401119124,-0.54634945203905105,0.54634945203905105,-1.0813065401119124,1.6501758765964503,0.0
719640.0783812654,4105767.5119837918,-32500.0,-0.34649455066210588,0.66603895085648535,0.57996415121898059,-0.29429046691862337,-0.32854448802969682,0.16281604191134286,0.91513324390229212,0.95626949301931008,-0.67575260040599905,0.67575260040599905,-0.95626949301931008,1.6001051547709217,0.0
724640.0783812654,4105767.5119837918,-32500.0,-0.28125147496354863,0.76833359343983554,0.28403959733724754,-0.3430723322320004,-0.18450063350005241,0.10864643013160366,0.90814268183512392,0.77173243973039884,-0.77082539562895747,0.77082539562895747,-0.77173243973039884,1.5739744048430664,0.0
729640.0783812654,4105767.5119837918,-32500.0,-0.19595544963975062,0.82597412104489942,-0.041492947161689012,-0.37119323651826114,-0.025715044621793939,0.048259838646806275,0.91190217363638826,0.53301025150745363,-0.82227959461455791,0.82227959461455791,-0.53301025150745363,1.5836080512900339,0.0
734640.0783812654,4105767.5119837918,-32500.0,-0.10032396311568531,0.83217484971492595,-0.37895318349506335,-0.37549060224402708,0.13972489438340724,-0.015418604703621856,0.92813004000569643,0.25117407564373379,-0.8245281850136208,0.8245281850136208,-0.25117407564373379,1.6332770533816281,0.0
739640.0783812654,4105767.5119837918,-32500.0,-0.0057445722612706291,0.78506261069923466,-0.70860114093400783,-0.35496286222595369,0.30273345992010348,-0.079045907187971179,0.95558232292985013,-0.057806709487719765,-0.77671815096701846,0.77671815096701846,0.057806709487719765,1.7174890302942107,0.0
744640.0783812654,4105767.5119837918,-32500.0,0.076397242876302368,0.68813758595067054,-1.0109613859649782,-0.31099009625740748,0.45424907252469765,-0.13922698216680823,0.99037876850026696,-0.37481154257693011,-0.68302108920910642,0.68302108920910642,0.37481154257693011,1.8232259661452992,0.0
749640.0783812654,4105767.5119837918,-32500.0,0.136431598260361,0.54983404082395948,-1.2691714302504205,-0.24717052339701409,0.58628087645638582,-0.19289741085984671,1.027179976728736,-0.67990144155137044,-0.55208046051065574,0.55208046051065574,0.67990144155137044,1.9346006399155968,0.0
754640.0783812654,4105767.5119837918,-32500.0,0.16777905725147224,0.38226671753795227,-1.470887618812627,-0.16880337305784321,0.6927781182033993,-0.23765074981608333,1.0605587244785939,-0.95477379375959948,-0.39572715109737899,0.39572715109737899,0.95477379375959948,2.0368920734394016,0.0
759640.0783812654,4105767.5119837918,-32500.0,0.16770200906835719,0.19944951400649047,-1.609393881757307,-0.082133675932056754,0.77016486503800585,-0.27195180237523803,1.0860726259381102,-1.1848484490129698,-0.2272543008188585,0.2272543008188585,1.1848484490129698,2.1187492073154215,0.0
764640.0783812654,4105767.5119837918,-32500.0,0.13732597312095626,0.015384528792853928,-1.6837774327027173,0.0064758733064236365,0.8174732770852271,-0.29520816394230404,1.1010601105097315,-1.3606161484093777,-0.059631896634134263,0.059631896634134263,1.3606161484093777,2.1728869143413547,0.0
769640.0783812654,4105767.5119837918,-32500.0,0.081014024734937448,-0.1575996587258732,-1.6982456950603453,0.091284681219357927,0.83609685431878311,-0.30770370583606155,1.1062065261995067,-1.4780782621968362,0.095992653137591311,-0.095992653137591311,1.4780782621968362,2.1958875904617314,0.0
729640.0783812654,4110767.5119837918,-32500.0,-0.16575171495237298,0.71909750266796801,-0.051074725055367413,-0.31287102806080502,-0.011682538058662973,0.033168477857857433,0.78816755610293465,0.44912855034147292,-0.71372609080798532,0.71372609080798532,-0.44912855034147292,1.3694109780829729,0.0
734640.0783812654,4110767.5119837918,-32500.0,-0.087468852702494118,0.72256314054057202,-0.33594436271227057,-0.31529305318855078,0.12141589640640285,-0.01550243047816962,0.8020379170074412,0.21507125859946141,-0.71787368632363768,0.71787368632363768,-0.21507125859946141,1.4119306649191758,0.0
739640.0783812654,4110767.5119837918,-32500.0,-0.01017923569249176,0.68361255683916045,-0.61431119851888116,-0.29876914009374533,0.25248484268791088,-0.064048847142831752,0.8248995263597767,-0.040387983986699683,-0.68218351007771361,0.68218351007771361,0.040387983986699683,1.4820074823114411,0.0
744640.0783812654,4110767.5119837918,-32500.0,0.057548181433580925,0.60489062025453166,-0.87121924340054679,-0.26431072913256548,0.3748832562631762,-0.11010750603152157,0.85377947245929797,-0.30283713744347052,-0.60962235693962519,0.60962235693962519,0.30283713744347052,1.5696735512091688,0.0
749640.0783812654,4110767.5119837918,-32500.0,0.10835220183824815,0.49264164577416714,-1.0935812618005196,-0.21447868716302335,0.4827043445954276,-0.15153152968290137,0.88461472517038164,-0.55720850306876968,-0.50644058440040318,0.50644058440040318,0.55720850306876968,1.6628054003466926,0.0
709640.0783812654,3920767.5119837918,-37500.0,0.12927543805382832,-0.022207839284303265,-1.4390993611520781,-0.078030808087978243,-0.94240536025668398,-0.48136802833304115,1.0951712429931915,-0.14014404140802461,-0.79960596478766854,0.79960596478766854,0.14014404140802461,2.1352041364645786,0.0
714640.0783812654,3920767.5119837918,-37500.0,0.16358570919178775,0.13875085358505429,-1.3878272278115704,0.013464090959926331,-0.91523037415910857,-0.47105827184223126,1.0826771612202639,-0.032628835702861403,-0.91619322549229043,0.91619322549229043,0.032628835702861403,2.0967354048364673,0.0
719640.0783812654,3920767.5119837918,-37500.0,0.171793424926727,0.30171158107546764,-1.284401168191543,0.10638336265132055,-0.85884686719904846,-0.44758434617575293,1.0592200804882903,0.08660424764090513,-1.0106876545883048,1.0106876545883048,-0.08660424764090513,2.0302937405436499,0.0
724640.0783812654,3920767.5119837918,-37500.0,0.1520328970658481,0.45531765835446458,-1.1284850476829105,0.19477943240219647,-0.77299530602926514,-0.41073129929897906,1.0264865042244911,0.2104426595269957,-1.0726371743704748,1.0726371743704748,-0.2104426595269957,1.9401352831040508,0.0
729640.0783812654,3920767.5119837918,-37500.0,0.10553859043854867,0.58778938439547113,-0.92418267957927269,0.27246621062619231,-0.65974540348530641,-0.36128971965121132,0.98737986396950772,0.33039481861969611,-1.0930172755539282,1.0930172755539282,-0.33039481861969611,1.8337246538031426,0.0
734640.0783812654,3920767.5119837918,-37500.0,0.036804640352038148,0.6883896930173633,-0.68009389358948191,0.33375036883344111,-0.52353612148372797,-0.30108435699575775,0.94592012997477293,0.43751614658145599,-1.0656001516120588,1.0656001516120588,-0.43751614658145599,1.7216154046720951,0.0
739640.0783812654,3920767.5119837918,-37500.0,-0.046819930197573363,0.7488838743030175,-0.40868024635275968,0.37416468699851063,-0.37086809581973113,-0.23285566049620485,0.90674063975153341,0.5235234483397655,-0.98805571188200036,0.98805571188200036,-0.5235234483397655,1.6165832725931213,0.0
744640.0783812654,3920767.5119837918,-37500.0,-0.13606875196431248,0.76469455327067104,-0.12499287503818261,0.39105878071364536,-0.20967155554027281,-0.16000163639266132,0.87423331887396083,0.58188897528372929,-0.86252725036295153,0.86252725036295153,-0.58188897528372929,1.531633509891454,0.0
749640.0783812654,3920767.5119837918,-37500.0,-0.22105664176077255,0.73550258306445249,0.15502791734821447,0.38392458986350381,-0.048449934163683345,-0.086219868145645667,0.85151104420589852,0.608690951282156,-0.69552737516860474,0.69552737516860474,-0.608690951282156,1.4768341586355709,0.0
754640.0783812654,3920767.5119837918,-37500.0,-0.29267023146113141,0.66517030725507809,0.41636448728960995,0.35439249983897259,0.10464659178834804,-0.015113097199319175,0.83956758897101369,0.60304761784285388,-0.49715588365464169,0.49715588365464169,-0.60304761784285388,1.4560082495822377,0.0
759640.0783812654,3920767.5119837918,-37500.0,-0.34376285623765507,0.56102583106536674,0.64650748079754705,0.30591069311396885,0.24265015279602226,0.050171298651657176,0.83707683908016706,0.56706253661801265,-0.2798007597995214,0.2798007597995214,-0.56706253661801265,1.4653837198072779,0.0
764640.0783812654,3920767.5119837918,-37500.0,-0.36993043375461365,0.43269150836708981,0.83654894770042609,0.24319051352147705,0.36037093580051871,0.10720927974676657,0.84096705954754736,0.50532588890140673,-0.056593660582452021,0.056593660582452021,-0.50532588890140673,1.495422319484446,0.0
699640.0783812654,3925767.5119837918,-37500.0,-0.022557552097319692,-0.37870455123890895,-1.5232013882611628,-0.31083894304644516,-1.0624242611160131,-0.57364030850457315,1.2349444311784623,-0.32039868896201162,-0.57077883625436887,0.57077883625436887,0.32039868896201162,2.4155734463188714,0.0
704640.0783812654,3925767.5119837918,-37500.0,0.067834616108792947,-0.23288862744186534,-1.5804132003151445,-0.22324737609218995,-1.0987340742948279,-0.59344659157589741,1.2536690388565712,-0.2428601139775366,-0.72402078296406236,0.72402078296406236,0.2428601139775366,2.4490687214930644,0.0
709640.0783812654,3925767.5119837918,-37500.0,0.1406478352785506,-0.061428893262262897,-1.5903052016679746,-0.12093572579170433,-1.1067749725691176,-0.59987707718150562,1.2572848998951722,-0.14108100462710693,-0.87756322893679961,0.87756322893679961,0.14108100462710693,2.4480218773017062,0.0
714640.0783812654,3925767.5119837918,-37500.0,0.18774304820580726,0.12712243234449827,-1.5433289002741866,-0.0086573176149322452,-1.0811257106578527,-0.59033585602740968,1.2458481322801576,-0.018289329215756323,-1.0196107628726256,1.0196107628726256,0.018289329215756323,2.4104584418325192,0.0
719640.0783812654,3925767.5119837918,-37500.0,0.20283044806663417,0.32076570311722308,-1.4332581692817605,0.10698567891110801,-1.0182202799380904,-0.56305598691045,1.2202753619335351,0.11935327701091059,-1.1366553303033329,1.1366553303033329,-0.11935327701091059,2.3374424586389333,0.0
724640.0783812654,3925767.5119837918,-37500.0,0.182802476485763,0.5050158860088001,-1.2587138432540448,0.21804832905848365,-0.91717217579647825,-0.51747929926385494,1.1826768763622146,0.26297381691102095,-1.2149604036368258,1.2149604036368258,-0.26297381691102095,2.2338910032293162,0.0
729640.0783812654,3925767.5119837918,-37500.0,0.12872069157253335,0.66452493953007863,-1.0241934326420297,0.31608995268555456,-0.78033644392670265,-0.4545232440157162,1.1367371370201003,0.40176060093180893,-1.2424549022635694,1.2424549022635694,-0.40176060093180893,2.1090869950077615,0.0
734640.0783812654,3925767.5119837918,-37500.0,0.046146307955540547,0.78513811700332614,-0.74027227088654679,0.39324811939524906,-0.6134350069243496,-0.37665581942967563,1.0876446964911737,0.52423367759574946,-1.2107030830417482,1.2107030830417482,-0.52423367759574946,1.9765833485130084,0.0
739640.0783812654,3925767.5119837918,-37500.0,-0.055369659093235553,0.85598949144160097,-0.4227945312387984,0.4433410246427486,-0.4251481626113725,-0.28773251925760313,1.0414340741297279,0.61980912619668049,-1.1165181334310204,1.1165181334310204,-0.61980912619668049,1.8530187107939184,0.0
744640.0783812654,3925767.5119837918,-37500.0,-0.16360705947386597,0.87117150536850252,-0.091113358024638602,0.46276244578099429,-0.22619802885245105,-0.19260259672414262,1.0037862616844437,0.68033909590361952,-0.96281112006442671,0.96281112006442671,-0.68033909590361952,1.7552667419782437,0.0
749640.0783812654,3925767.5119837918,-37500.0,-0.26554682033686572,0.83058489267437297,0.23430595529495699,0.45096650877985017,-0.028080935071086176,-0.096550264624236992,0.97855972773918909,0.7012833486578085,-0.75842757353093671,0.75842757353093671,-0.7012833486578085,1.6958864998542069,0.0
754640.0783812654,3925767.5119837918,-37500.0,-0.34936789988879385,0.73977803492386307,0.53443118260097477,0.41043792983461819,0.15830157280854779,-0.0046789354788591411,0.96665696021014846,0.6822510301907484,-0.51697765174917742,0.51697765174917742,-0.6822510301907484,1.6785845761757432,0.0
759640.0783812654,3925767.5119837918,-37500.0,-0.40612092776626352,0.60884861654191791,0.79383933692878261,0.34617423414156923,0.32384334907019618,0.078641841866380527,0.96588343522757047,0.62681725206923966,-0.25492377866990079,0.25492377866990079,-0.62681725206923966,1.6968873790746271,0.0
764640.0783812654,3925767.5119837918,-37500.0,-0.43074295799095896,0.45071021600921085,1.0021309518658552,0.26482355783053974,0.46205416927640774,0.15016984331497046,0.97191201493237012,0.54170747483718418,0.010639966812125146,-0.010639966812125146,-0.54170747483718418,1.7373854898107017,0.0
769640.0783812654,3925767.5119837918,-37500.0,-0.42228227887881264,0.27914523289459992,1.1544134686126821,0.17368607165511785,0.56939923307115992,0.20797408001512105,0.97976026447024145,0.43558641103756968,0.2640526477063535,-0.2640526477063535,-0.43558641103756968,1.7850443228830035,0.0
774640.0783812654,3925767.5119837918,-37500.0,-0.38341435943682944,0.10704793302660673,1.2509200940644414,0.079784864044439519,0.64517743046971643,0.25141207006820449,0.985036485441525,0.3177439671672817,0.49263483990342727,-0.49263483990342727,-0.3177439671672817,1.8272305272231602,0.0
689640.0783812654,3930767.5119837918,-37500.0,-0.29765694548252919,-0.67634129770646856,-1.3726402623417215,-0.53845784580764,-1.0485695899359506,-0.60969939381756288,1.3007428139560324,-0.41756317408333554,-0.28832252022501781,0.28832252022501781,0.41756317408333554,2.5412864769397845,0.0
694640.0783812654,3930767.5119837918,-37500.0,-0.17892180571243238,-0.59292170281118084,-1.5183298727667902,-0.48377392620713078,-1.1451290457914896,-0.6618651369443932,1.3612650559376283,-0.38969234239604583,-0.4315353166884594,0.4315353166884594,0.38969234239604583,2.659159962105067,0.0
699640.0783812654,3930767.5119837918,-37500.0,-0.05787131675402029,-0.47006571752250126,-1.6392288360553675,-0.40508063278089412,-1.2250939226358593,-0.70567128870417084,1.40757157333945,-0.33480985912039085,-0.5963551824096327,0.5963551824096327,0.33480985912039085,2.7483912935084853,0.0
704640.0783812654,3930767.5119837918,-37500.0,0.055484083859552003,-0.30815787134842443,-1.720949754460303,-0.3027610241157962,-1.2797239142392516,-0.73676024606645041,1.4367392220914414,-0.25030511408912415,-0.77599857561506491,0.77599857561506491,0.25030511408912415,2.8015986594354536,0.0
709640.0783812654,3930767.5119837918,-37500.0,0.14982893376637099,-0.11197940886929798,-1.7487647760904146,-0.1797094686056383,-1.3001483781888745,-0.75069100989082549,1.4469821892784185,-0.13616659788401642,-0.95965788886429093,0.95965788886429093,0.13616659788401642,2.8127450653546915,0.0
714640.0783812654,3930767.5119837918,-37500.0,0.21401635193709198,0.10864654371618165,-1.7095503993864027,-0.041674227143480513,-1.2784904819773553,-0.74347727551610676,1.4378887216799281,0.0041602188224606484,-1.132724734002637,1.132724734002637,-0.0041602188224606484,2.7783693711538997,0.0
719640.0783812654,3930767.5119837918,-37500.0,0.23897402744693519,0.33898537460674472,-1.594097178656978,0.10282475555941943,-1.2091887564433583,-0.71222353523453652,1.410435978699802,0.16330699037146046,-1.2778560033466504,1.2778560033466504,-0.16330699037146046,2.6989217062036635,0.0
724640.0783812654,3930767.5119837918,-37500.0,0.21969098663807382,0.56053662681087968,-1.3993601024591664,0.24312933484757673,-1.0902806011548671,-0.6557496583922966,1.3672669393795682,0.3301700782506205,-1.3769353918595191,1.3769353918595191,-0.3301700782506205,2.580002817914242,0.0
729640.0783812654,3930767.5119837918,-37500.0,0.1567837137617924,0.75320766684491613,-1.1300885981450914,0.36763442937894392,-0.92433891702873405,-0.57505881840989259,1.3131149352145206,0.4909064984718442,-1.4137246803304473,1.4137246803304473,-0.4909064984718442,2.4332044380812432,0.0
734640.0783812654,3930767.5119837918,-37500.0,0.057129848969113724,0.89821513720729207,-0.79929284683332213,0.4653787500415662,-0.71876272779847661,-0.47350596553578028,1.2547569957467759,0.63068881364183471,-1.3767194726479739,1.3767194726479739,-0.63068881364183471,2.2760818668241698,0.0
739640.0783812654,3930767.5119837918,-37500.0,-0.066761543181888941,0.98112111272142788,-0.42722130906541161,0.52772191785968103,-0.48523931039680723,-0.35657601614694084,1.2001379311349143,0.73592223123157852,-1.2615374528487935,1.2615374528487935,-0.73592223123157852,2.1305154213947812,0.0
744640.0783812654,3930767.5119837918,-37500.0,-0.1986295591138465,0.99427168862094084,-0.038906567979228146,0.54971848005300905,-0.23840049319335191,-0.23127520422638259,1.1566634645170579,0.79643319171560767,-1.0721832341086566,1.0721832341086566,-0.79643319171560767,2.018562758971338,0.0
749640.0783812654,3930767.5119837918,-37500.0,-0.32118845318030498,0.93800809701423349,0.33924563069030228,0.53084791861030434,0.0060776483345596974,-0.10524499278628878,1.1290961531709545,0.80709166555981937,-0.82078686998250705,0.82078686998250705,-0.80709166555981937,1.955831091247678,0.0
754640.0783812654,3930767.5119837918,-37500.0,-0.41902701809053028,0.82035205009517842,0.68306088072446891,0.47492851689363025,0.23352115435432744,0.014213487171613626,1.1180306810455201,0.76846865864780423,-0.5258316854382401,0.5258316854382401,-0.76846865864780423,1.9452573324225568,0.0
759640.0783812654,3930767.5119837918,-37500.0,-0.48096695843609172,0.65530291058929113,0.97359255510061127,0.38927023308578856,0.43200981638136721,0.12099731327735969,1.1199264994876241,0.68640838961078277,-0.2093104019063273,0.2093104019063273,-0.68640838961078277,1.9761752467682647,0.0
764640.0783812654,3930767.5119837918,-37500.0,-0.5013732798071745,0.46025302833624249,1.1989293300776152,0.28331956690369531,0.59350196024686985,0.21078021259379748,1.1287055831263182,0.57070094934142945,0.10648712467256338,-0.10648712467256338,-0.57070094934142945,2.0298663334939464,0.0
769640.0783812654,3930767.5119837918,-37500.0,-0.48025984131593025,0.25319540485515762,1.3546085407321637,0.16714746572759862,0.71419675101364966,0.28123804828332111,1.1378762909036904,0.43325694267800569,0.40183388986175833,-0.40183388986175833,-0.43325694267800569,2.0870414890878486,0.0
774640.0783812654,3930767.5119837918,-37500.0,-0.42237690144975959,0.050333965592226568,1.4428057755265526,0.050109368778598992,0.79420221654488576,0.33194280928858083,1.1421199763498973,0.28624559109205061,0.66155512110364012,-0.66155512110364012,-0.28624559109205061,2.1326897196308883,0.0
779640.0783812654,3930767.5119837918,-37500.0,-0.33568399830753665,-0.13552143412817197,1.4707193432378391,-0.060104257588162069,0.83671959511976446,0.36401575023721555,1.1379836177481899,0.14057053300448002,0.87594045330429959,-0.87594045330429959,-0.14057053300448002,2.1575373906024153,0.0
784640.0783812654,3930767.5119837918,-37500.0,-0.22965885780242015,-0.29566968744379074,1.4486410843376432,-0.15795076145461975,0.84700588785974606,0.37965876161016165,1.1238779907773067,0.00488785326209773,1.0406655109842184,-1.0406655109842184,-0.00488785326209773,2.1574765063072503,0.0
684640.0783812654,3935767.5119837918,-37500.0,-0.51763186669103667,-0.82118341099522374,-1.2293567152713185,-0.69540937974960382,-1.0412074073029221,-0.65777641997194458,1.3699381899277869,-0.42356166519126115,-0.14308516172615904,0.14308516172615904,0.42356166519126115,2.6744338073352241,0.0
689640.0783812654,3935767.5119837918,-37500.0,-0.3946448139123338,-0.7843486707126216,-1.4148784589409644,-0.6679691372404537,-1.1739807126766157,-0.73401812254067755,1.4611630305793191,-0.42369348402482182,-0.26989692836704376,0.26989692836704376,0.42369348402482182,2.8510804659363358,0.0
694640.0783812654,3935767.5119837918,-37500.0,-0.25534897107217874,-0.70454532211381837,-1.5919535880874049,-0.61241694232607657,-1.2994842105505562,-0.80629323173126677,1.5411355215002833,-0.39841251330897404,-0.42820799264890069,0.42820799264890069,0.39841251330897404,3.0056530646361521,0.0
699640.0783812654,3935767.5119837918,-37500.0,-0.10873015636176783,-0.57650834582648591,-1.7455138936370738,-0.52571252731328177,-1.4077995380836879,-0.86933505152782298,1.6050608537588653,-0.3419443696907889,-0.61560032338296544,0.61560032338296544,0.3419443696907889,3.1280249850489934,0.0
704640.0783812654,3935767.5119837918,-37500.0,0.03287439959881832,-0.39885629786938687,-1.8576581960257141,-0.40721321065050714,-1.4873331324694137,-0.91699288491869702,1.6485894357616113,-0.25026271670815703,-0.82503513724395794,0.82503513724395794,0.25026271670815703,3.2080855143023732,0.0
709640.0783812654,3935767.5119837918,-37500.0,0.15474764510378383,-0.175784393665013,-1.9092387673567999,-0.25965022908807539,-1.5258182251817607,-0.94273974070616195,1.6685971691469903,-0.1224675321859352,-1.0440261867745284,1.0440261867745284,0.1224675321859352,3.2370725004439889,0.0
714640.0783812654,3935767.5119837918,-37500.0,0.24168091167796302,0.081725315171772173,-1.8823762462767699,-0.089815881998755856,-1.5118619470114947,-0.94045829283376936,1.6637972897390036,0.037916705650132498,-1.254622044766307,1.254622044766307,-0.037916705650132498,3.2092924562778467,0.0
719640.0783812654,3935767.5119837918,-37500.0,0.2806363228103475,0.35572103204345756,-1.7636618408307618,0.09134472497214069,-1.4368893325330441,-0.90543347109344341,1.6350267458224796,0.22212080247646993,-1.4345906789994172,1.4345906789994172,-0.22212080247646993,3.1240731477265946,0.0
724640.0783812654,3935767.5119837918,-37500.0,0.26370521005309022,0.62257496477924179,-1.5474656863823359,0.26948822159546326,-1.2971416109003859,-0.83538292452214469,1.5855569673345551,0.41621372375540067,-1.5599818355076571,1.5599818355076571,-0.41621372375540067,2.9876575846190994,0.0
729640.0783812654,3935767.5119837918,-37500.0,0.19059351094959706,0.85587756157168571,-1.238501222653261,0.4285431161151016,-1.0952334814217521,-0.73127898427876503,1.5215362508674282,0.60237657122067634,-1.6088424269988606,1.6088424269988606,-0.60237657122067634,2.8145787379076919,0.0
734640.0783812654,3935767.5119837918,-37500.0,0.069786180083330623,1.0305502543370206,-0.85276018686629063,0.55308399783467077,-0.84075419600749468,-0.59770178975389632,1.4519311073393157,0.76134223876473794,-1.5653841876839427,1.5653841876839427,-0.76134223876473794,2.6277848937709347,0.0
739640.0783812654,3935767.5119837918,-37500.0,-0.082204597918749914,1.1272837580527539,-0.41624018573972654,0.63091389002624021,-0.54957062727666484,-0.44254458918975215,1.3873233553761777,0.87556798866840324,-1.4235525614706193,1.4235525614706193,-0.87556798866840324,2.4563397462340233,0.0
744640.0783812654,3935767.5119837918,-37500.0,-0.24354256802798674,1.1361362835753643,0.038504579026630514,0.65520218089542015,-0.24183522017744949,-0.27605936207068982,1.3374387767862901,0.93237485141670495,-1.1889296766827462,1.1889296766827462,-0.93237485141670495,2.3292742825442572,0.0
749640.0783812654,3935767.5119837918,-37500.0,-0.39109447090423738,1.0582703551081944,0.47726274314595879,0.62559549397670611,0.060899721188180878,-0.10942887830422936,1.3080974154069689,0.92620259527338833,-0.87830798633423157,0.87830798633423157,-0.92620259527338833,2.2657972848073888,0.0
754640.0783812654,3935767.5119837918,-37500.0,-0.50468575143633609,0.90535742639894989,0.86930810047542284,0.54801368767908121,0.33877561751245627,0.046801992318164801,1.2991835646197107,0.85936747910912414,-0.51697123797532352,0.51697123797532352,-0.85936747910912414,2.26683414448439,0.0
759640.0783812654,3935767.5119837918,-37500.0,-0.57043882197240436,0.69691138254594942,1.1915302050491721,0.43324523963345407,0.57619854617022903,0.18407070263172406,1.3050820886950281,0.74118361002891731,-0.13442483256513477,0.13442483256513477,-0.74118361002891731,2.315290930778243,0.0
764640.0783812654,3935767.5119837918,-37500.0,-0.58242596943284319,0.45640849913986192,1.4306949468204913,0.29479500974334577,0.76336404608314734,0.29664452583083806,1.3172945191600782,0.58581082333176537,0.2402724843311535,-0.2402724843311535,-0.58581082333176537,2.3852794398876305,0.0
769640.0783812654,3935767.5119837918,-37500.0,-0.54247626942891014,0.20728049179465768,1.5836140522743987,0.14658329778112053,0.89656592345194297,0.38186757822156586,1.3274512892021963,0.40951209807944911,0.58245242305012712,-0.58245242305012712,-0.40951209807944911,2.4524029151020166,0.0
774640.0783812654,3935767.5119837918,-37500.0,-0.45853229064285744,-0.030302487694689691,1.6555986093751967,0.001022023652823147,0.97746354246078915,0.43987506710159874,1.3292591557708124,0.22804346057259994,0.87432510811831354,-0.87432510811831354,-0.22804346057259994,2.4992793508225284,0.0
779640.0783812654,3935767.5119837918,-37500.0,-0.34225488480210603,-0.24136146938336378,1.6579145839659613,-0.13222367119727352,1.0116951773076754,0.47295452993589226,1.3191232906951116,0.054701584878973253,1.1058139117040153,-1.1058139117040153,-0.054701584878973253,2.516442743517989,0.0
784640.0783812654,3935767.5119837918,-37500.0,-0.20658231497804988,-0.41670708748087421,1.6050041876869889,-0.24672874147601745,1.0072733669499643,0.48476651401219562,1.2958919652730791,-0.10074721788809293,1.2739951174568196,-1.2739951174568196,0.10074721788809293,2.50094565433435,0.0
789640.0783812654,3935767.5119837918,-37500.0,-0.063746916291098257,-0.55248876794114454,1.5120500908432428,-0.33918555595744737,0.97311022877830733,0.47960168541532522,1.2602273185515687,-0.23230803937969924,1.3816434802577078,-1.3816434802577078,0.23230803937969924,2.4543551907869876,0.0
794640.0783812654,3935767.5119837918,-37500.0,0.076018316404894398,-0.6491145794544988,1.393194054937289,-0.40888427392676463,0.91787855107489613,0.46178535915227498,1.2139289120349077,-0.33738664747262859,1.4354176273088135,-1.4354176273088135,0.33738664747262859,2.3809150576535187,0.0
674640.0783812654,3940767.5119837918,-37500.0,-0.83750017191583104,-0.8564542137659632,-0.82419393564028731,-0.80274888033542724,-0.82727363966441991,-0.58722413587379507,1.2785374471785433,-0.34630313856087669,0.052093169648465248,-0.052093169648465248,0.34630313856087669,2.4992776352765755,0.0
679640.0783812654,3940767.5119837918,-37500.0,-0.76150369090228032,-0.90239141249560284,-1.0109771666504377,-0.83347433290629658,-0.97682738531159996,-0.6803336219894951,1.40065448806949,-0.38499803366213825,-0.0131902097232727,0.0131902097232727,0.38499803366213825,2.7347065238101638,0.0
684640.0783812654,3940767.5119837918,-37500.0,-0.65454072816651043,-0.9199095559748659,-1.2154304302226724,-0.84322831498099637,-1.1374061719485746,-0.77968105157842271,1.5220575525788265,-0.41099948594263669,-0.10976004521142957,0.10976004521142957,0.41099948594263669,2.9686610764351995,0.0
689640.0783812654,3940767.5119837918,-37500.0,-0.51779651689213901,-0.89830485494876833,-1.4296077842563908,-0.82501293733352743,-1.3029177507204792,-0.88173894113565698,1.6379532729773114,-0.417072599536084,-0.24274148205866664,0.24274148205866664,0.417072599536084,3.191799640541956,0.0
694640.0783812654,3940767.5119837918,-37500.0,-0.35641058548974835,-0.82704922814954129,-1.6409775483857065,-0.77207939382406221,-1.4642024871362835,-0.98126634614407671,1.7425578258976742,-0.39524348096217776,-0.41505784805869494,0.41505784805869494,0.39524348096217776,3.3926252011583236,0.0
699640.0783812654,3940767.5119837918,-37500.0,-0.18031700155551705,-0.69760725906910126,-1.8320747233885306,-0.67908501130356658,-1.6088750837964689,-1.0712221229563434,1.8294892440223072,-0.33780155969163794,-0.62571076585275276,0.62571076585275276,0.33780155969163794,3.5579952530197829,0.0
704640.0783812654,3940767.5119837918,-37500.0,-0.0044164908914924063,-0.50580158198181202,-1.9810071522588242,-0.54356912454056805,-1.7217273687221923,-1.1429819126612024,1.8925097273715248,-0.23881545556765982,-0.86793701285241864,0.86793701285241864,0.23881545556765982,3.6741947933277652,0.0
709640.0783812654,3940767.5119837918,-37500.0,0.15235575909796667,-0.25437593534346864,-2.0631954707580751,-0.36752824962007341,-1.7859198303017292,-1.1869817354452308,1.926579050533888,-0.096035491494960157,-1.1277071346613192,1.1277071346613192,0.096035491494960157,3.7286730422799517,0.0
714640.0783812654,3940767.5119837918,-37500.0,0.26936598044773302,0.044893197264233901,-2.0545392864142777,-0.15869674231187972,-1.7850679306536472,-1.1938473969599839,1.9289446280335223,0.087172342031660355,-1.3832222074898572,1.3832222074898572,-0.087172342031660355,3.7124335037223837,0.0
719640.0783812654,3940767.5119837918,-37500.0,0.32795541961788488,0.37039725950388908,-1.9357995888607737,0.068981544981886148,-1.7060792955174893,-1.1559370761919081,1.8999260968592935,0.30044347474458033,-1.6060947542992488,1.6060947542992488,-0.30044347474458033,3.622890012968667,0.0
724640.0783812654,3940767.5119837918,-37500.0,0.31583284778787835,0.6920193924949205,-1.6974318232691916,0.29617116966897039,-1.5422590802388727,-1.0690448998363695,1.8434642771919207,0.5262664894295348,-1.7646332070779938,1.7646332070779938,-0.5262664894295348,3.4667721852323221,0.0
729640.0783812654,3940767.5119837918,-37500.0,0.23101764680290462,0.97494461242534192,-1.3435947647730666,0.50046812096023863,-1.2958939685808091,-0.93384795203043869,1.7676112805427415,0.74159238621829271,-1.8290405493441835,1.8290405493441835,-0.74159238621829271,3.2623739555559803,0.0
734640.0783812654,3940767.5119837918,-37500.0,0.083925820237310211,1.1855077930635582,-0.89389483858543206,0.65996697219965772,-0.97942526759636073,-0.75661954821299005,1.6843910232170953,0.92124603569512953,-1.7775305270839423,1.7775305270839423,-0.92124603569512953,3.0399875149645537,0.0
739640.0783812654,3940767.5119837918,-37500.0,-0.10347361415925264,1.2977354536350993,-0.38184150556803209,0.75728428765790556,-0.61457033919104109,-0.54885384650832614,1.608071753951098,1.0425087415000946,-1.6017083527676543,1.6017083527676543,-1.0425087415000946,2.8386181820536929,0.0
744640.0783812654,3940767.5119837918,-37500.0,-0.30158794161361863,1.298706695446241,0.15003578404232643,0.78292955458418323,-0.2293362138371802,-0.32574745594869819,1.5515099452469405,1.0896613042820267,-1.3094602646221194,1.3094602646221194,-1.0896613042820267,2.6966826441442229,0.0
749640.0783812654,3940767.5119837918,-37500.0,-0.47922473625246093,1.1910552966831645,0.65728685897839878,0.73701155056327883,0.14641943318936182,-0.10385966077468316,1.5216768620434307,1.057122760327087,-0.9242447780749542,0.9242447780749542,-1.057122760327087,2.6373590905991624,0.0
754640.0783812654,3940767.5119837918,-37500.0,-0.60990421552442986,0.99186421595259655,1.1009221226927237,0.62879271737585773,0.48571502468977268,0.10144728952652345,1.5170182202596458,0.95023683562507355,-0.48086895134470475,0.48086895134470475,-0.95023683562507355,2.6572976501078815,0.0
759640.0783812654,3940767.5119837918,-37500.0,-0.67659472385788333,0.72845072740938244,1.4530950988646969,0.47432909915736238,0.76823283683901522,0.2781335285425986,1.528744157259649,0.78357751147912946,-0.01902314245287412,0.01902314245287412,-0.78357751147912946,2.7296960414745883,0.0
764640.0783812654,3940767.5119837918,-37500.0,-0.67371045217213221,0.43251183436127877,1.699825486111332,0.29301992834040547,0.98234221442626546,0.41871016095157837,1.545059831823115,0.57747328648318219,0.4235196318361929,-0.4235196318361929,-0.57747328648318219,2.8192066678168852,0.0
769640.0783812654,3940767.5119837918,-37500.0,-0.60627512119378413,0.13438935340168204,1.8405911243426858,0.10409759749091615,1.1251761950611032,0.52043757939483948,1.5553479528362582,0.35391199131880635,0.81628958427028675,-0.81628958427028675,-0.35391199131880635,2.8955958785465494,0.0
774640.0783812654,3940767.5119837918,-37500.0,-0.48705219124176485,-0.14118361388492054,1.8855541367434214,-0.076105725649536091,1.2011596706406418,0.58466990927390006,1.5524217146628876,0.13294575155598953,1.139091561577168,-1.139091561577168,-0.13294575155598953,2.9394902205728402,0.0
779640.0783812654,3940767.5119837918,-37500.0,-0.33284023943734131,-0.37725503787786974,1.8516397390277639,-0.23570232749299899,1.2196973096085524,0.61569997387849018,1.5328928838336024,-0.069698393558906169,1.3824737396144142,-1.3824737396144142,0.069698393558906169,2.9421471141673505,0.0
784640.0783812654,3940767.5119837918,-37500.0,-0.16101538458066683,-0.56487692932005595,1.7586185546829884,-0.36762148939255973,1.1927294383049736,0.61947727539531661,1.4964887399597937,-0.2436213643181947,1.5462851815841323,-1.5462851815841323,0.2436213643181947,2.9028276054280062,0.0
789640.0783812654,3940767.5119837918,-37500.0,0.013012049146910638,-0.70195706880703523,1.6259631258450602,-0.46910897005057423,1.1326634314068387,0.60247919538369821,1.4450392127666887,-0.38359449470754425,1.6371982126056341,-1.6371982126056341,0.38359449470754425,2.825862917294931,0.0
794640.0783812654,3940767.5119837918,-37500.0,0.17722116245383918,-0.79143488179768695,1.4707902342227035,-0.54074726106823057,1.0509204407022195,0.5708808608317758,1.381528627020856,-0.48866359480612487,1.6660050434841873,-1.6660050434841873,0.48866359480612487,2.7182153201014794,0.0
799640.0783812654,3940767.5119837918,-37500.0,0.32341517995714458,-0.83936011896644713,1.3068459872705476,-0.58534418236896635,0.95711661858170871,0.53005189291533739,1.3093657622313555,-0.56094186381725253,1.6452444431011473,-1.6452444431011473,0.56094186381725253,2.587720677082388,0.0
669640.0783812654,3945767.5119837918,-37500.0,-1.0340864987065239,-0.81599180443486119,-0.57246788433021156,-0.86765287327950902,-0.70477105850931687,-0.56756827828539946,1.247183893672589,-0.25406235849257597,0.11223485545971376,-0.11223485545971376,0.25406235849257597,2.4416135311743483,0.0
674640.0783812654,3945767.5119837918,-37500.0,-0.99895968949838565,-0.90194909566498249,-0.74245314063212642,-0.93406529247661552,-0.85859911328050265,-0.67269260220703719,1.3879237950926049,-0.30359397115396347,0.080741088409923209,-0.080741088409923209,0.30359397115396347,2.712582517567018,0.0
679640.0783812654,3945767.5119837918,-37500.0,-0.92896010508145588,-0.97138827611676193,-0.9406714260621355,-0.98617992928595666,-1.0330800314236175,-0.79060676264020691,1.5349284397254754,-0.34793658445898207,0.022354539579903021,-0.022354539579903021,0.34793658445898207,2.9951795045531364,0.0
684640.0783812654,3945767.5119837918,-37500.0,-0.82018931463506528,-1.0127341048288045,-1.1642620527078449,-1.0156458324276381,-1.2252204341513364,-0.91934402123092007,1.6841623921293019,-0.38047970152883809,-0.070879386979383285,0.070879386979383285,0.38047970152883809,3.2816302476593595,0.0
689640.0783812654,3945767.5119837918,-37500.0,-0.67186278989695314,-1.0124110362956869,-1.4059885003310137,-1.0128885466360378,-1.428751977257642,-1.0549564409733514,1.8300391025064073,-0.39278231378129791,-0.20657062661025127,0.20657062661025127,0.39278231378129791,3.5610696407074514,0.0
694640.0783812654,3945767.5119837918,-37500.0,-0.48799292977172781,-0.95607130407556962,-1.6528976649532297,-0.96799147359726323,-1.633257084551464,-1.1910029772694066,1.9654341831299229,-0.37503968855730785,-0.39034611881285863,0.39034611881285863,0.37503968855730785,3.8194387078122727,0.0
699640.0783812654,3945767.5119837918,-37500.0,-0.27892636479819538,-0.83078161313725596,-1.8853958012432965,-0.87219739751405123,-1.8236212518108736,-1.3182295286522723,2.0820293048744958,-0.31719706630712102,-0.62356197088789722,0.62356197088789722,0.31719706630712102,4.0399070441951404,0.0
704640.0783812654,3945767.5119837918,-37500.0,-0.062155175993051155,-0.62817752270240323,-2.0773176813762229,-0.72002000259941801,-1.9801977369606834,-1.4246632687483036,2.1711325842950342,-0.21083562409003864,-0.90059954966687839,0.90059954966687839,0.21083562409003864,4.2040801192451402,0.0
709640.0783812654,3945767.5119837918,-37500.0,0.13832579200061243,-0.3482237125086789,-2.1976394721981936,-0.51171760421030488,-2.0801068977877031,-1.4963645186271046,2.225029665659592,-0.051746995555817299,-1.20633678166539,1.20633678166539,0.051746995555817299,4.2942105728251105,0.0
714640.0783812654,3945767.5119837918,-37500.0,0.29475152538878246,-0.0027146333215372479,-2.2143113733765944,-0.25556575458619013,-2.0999648165959726,-1.5190082695976996,2.2386685436981493,0.15723444580340218,-1.5147621541282867,1.5147621541282867,-0.15723444580340218,4.2964874234977284,0.0
719640.0783812654,3945767.5119837918,-37500.0,0.38056152498861195,0.38280563876089768,-2.1001437155570617,0.030914117675764484,-2.0199722812952023,-1.4802622907767582,2.2112211580673558,0.40397357425438751,-1.7898843441371335,1.7898843441371335,-0.40397357425438751,4.2052062901965064,0.0
724640.0783812654,3945767.5119837918,-37500.0,0.37688428467484614,0.77012205298418956,-1.8397995574136849,0.32166540304979413,-1.828719942692715,-1.3726036500985657,2.1472201853910908,0.66643689643909965,-1.9898165413371902,1.9898165413371902,-0.66643689643909965,4.0272389255164018,0.0
729640.0783812654,3945767.5119837918,-37500.0,0.27878567120027536,1.1132709019195348,-1.4360147764007598,0.58527975836569635,-1.527464833948825,-1.1958712087542753,2.0572562519067299,0.914685634796785,-2.0740141042891724,2.0740141042891724,-0.914685634796785,3.7857140881974898,0.0
734640.0783812654,3945767.5119837918,-37500.0,0.098945092994266459,1.3668641225292948,-0.91271267242507204,0.79038407377213438,-1.1323422669082193,-0.95867557982792173,1.9576710031654436,1.1156700544317213,-2.0122853424087239,2.0122853424087239,-1.1156700544317213,3.5210415112942495,0.0
739640.0783812654,3945767.5119837918,-37500.0,-0.13317814593803043,1.4958018019993755,-0.31320453693012362,0.91198021175417587,-0.67331023084540431,-0.67795829265976348,1.8679493065265749,1.2399072784615479,-1.7929675548631521,1.7929675548631521,-1.2399072784615479,3.286115171351716,0.0
744640.0783812654,3945767.5119837918,-37500.0,-0.37711809646687855,1.4833302085028859,0.3067675308950133,0.93682904169613879,-0.18962257439218311,-0.37653956316623888,1.8051679519031281,1.2681076648238263,-1.4273505020527226,1.4273505020527226,-1.2681076648238263,3.1319204779222298,0.0
749640.0783812654,3945767.5119837918,-37500.0,-0.59053013200069648,1.3346536465313186,0.88939717506891702,0.86609120146955076,0.27708588978906951,-0.079219059370628897,1.7773585560046363,1.1955341732431923,-0.94847646616188297,0.94847646616188297,-1.1955341732431923,3.0853676240862589,0.0
754640.0783812654,3945767.5119837918,-37500.0,-0.73864491203440907,1.0749026390406644,1.385454099298504,0.71439068938908323,0.69009054832939309,0.19146011526253903,1.7802379671118691,1.0326237709032962,-0.40450218291971374,0.40450218291971374,-1.0326237709032962,3.1348430453563645,0.0
759640.0783812654,3945767.5119837918,-37500.0,-0.80097593451977012,0.74241648324428366,1.7620491673368841,0.50579859540865457,1.0231596980256772,0.41859233500908943,1.8002095771060458,0.80183809609498036,0.15115947195511559,-0.15115947195511559,-0.80183809609498036,3.2391775210199731,0.0
764640.0783812654,3945767.5119837918,-37500.0,-0.77354181726544746,0.37988502143819025,2.0056993077307252,0.26825868607150738,1.2631342710053532,0.59264976063109487,1.8210965338560374,0.53208054197496091,0.66973798891303937,-0.66973798891303937,-0.53208054197496091,3.3509752993321729,0.0
769640.0783812654,3945767.5119837918,-37500.0,-0.66674569130317174,0.026200722471045369,2.1207330821002066,0.028239817712755161,1.4093907080437387,0.7114450719167621,1.8297595386340397,0.25264838213312496,1.1143313012707718,-1.1143313012707718,-0.25264838213312496,3.433856227781011,0.0
774640.0783812654,3945767.5119837918,-37500.0,-0.50048519983644146,-0.28899942332544665,2.1245329484441617,-0.19307221298675878,1.471046149746708,0.7787407268045804,1.8184486664868298,-0.011579706975008541,1.4631727381173878,-1.4631727381173878,0.011579706975008541,3.4674876985208369,0.0
779640.0783812654,3945767.5119837918,-37500.0,-0.29851864551663704,-0.54748968286036737,2.0416319669107188,-0.38154890374600203,1.4631749079184899,0.8021930259085881,1.7845998194811215,-0.24284961532861582,1.7091807891859734,-1.7091807891859734,0.24284961532861582,3.4453818322960914,0.0
784640.0783812654,3945767.5119837918,-37500.0,-0.083699304909068101,-0.74184029126592554,1.8983551742090656,-0.5300906705562769,1.4031676634104306,0.79127680329181405,1.7294816399727118,-0.43113590252759093,1.8570096386845221,-1.8570096386845221,0.43113590252759093,3.3705312220664445,0.0
789640.0783812654,3945767.5119837918,-37500.0,0.12511696462181002,-0.87311985812122894,1.718945809026625,-0.6374186843119739,1.3079242048611321,0.75561127677646123,1.6566549850578642,-0.57321394851979179,1.9190578691012805,-1.9190578691012805,0.57321394851979179,3.2512817805017611,0.0
794640.0783812654,3945767.5119837918,-37500.0,0.31442981183442992,-0.94801352556328344,1.5233950017759896,-0.70636454821237349,1.1921120229485043,0.70385571088188348,1.5706936567382095,-0.67094489900175547,1.9116125196514704,-1.9116125196514704,0.67094489900175547,3.0982062213434074,0.0
799640.0783812654,3945767.5119837918,-37500.0,0.47610766553772027,-0.97613676543351147,1.3266957266974373,-0.74217075475957284,1.0673779598158539,0.64314236820876924,1.4762688632921508,-0.72940083735988515,1.8517872948710932,-1.8517872948710932,0.72940083735988515,2.9220183584722115,0.0
804640.0783812654,3945767.5119837918,-37500.0,0.60658868659594889,-0.9679533199701631,1.1390728746152152,-0.7510987813178861,0.94226260282970864,0.57892541981619761,1.3775555911545978,-0.75523246568702895,1.7554823322882465,-1.7554823322882465,0.75523246568702895,2.7323726656256677,0.0
664640.0783812654,3950767.5119837918,-37500.0,-1.180651153627287,-0.70459959618705315,-0.32200748621908687,-0.88500488071315608,-0.55420098905974735,-0.52408162119780533,1.1812649584849928,-0.13963103568554941,0.12677246641429984,-0.12677246641429984,0.13963103568554941,2.3162668511172755,0.0
669640.0783812654,3950767.5119837918,-37500.0,-1.1955522607114193,-0.8157589334299834,-0.45804185899194511,-0.98262107541620169,-0.69846777653632708,-0.63424459315601267,1.3323700355891708,-0.18956996880416832,0.12500538198877625,-0.12500538198877625,0.18956996880416832,2.6079896083883187,0.0
674640.0783812654,3950767.5119837918,-37500.0,-1.1783915848343449,-0.92409754330182514,-0.62658009550427507,-1.0754389934002764,-0.87002501120321074,-0.76302060201930755,1.4966650085820694,-0.24101801626656144,0.10449775505091347,-0.10449775505091347,0.24101801626656144,2.9240774522939685,0.0
679640.0783812654,3950767.5119837918,-37500.0,-1.1210140900864258,-1.0198614956061673,-0.82975429320664418,-1.1555243568099409,-1.0696080432265316,-0.91069264643754166,1.6716518122061517,-0.28922826172930349,0.056590211779207894,-0.056590211779207894,0.28922826172930349,3.2597630779840832,0.0
684640.0783812654,3950767.5119837918,-37500.0,-1.016477740582836,-1.0897903696754199,-1.0667151489575921,-1.2124451730592132,-1.2953390019053579,-1.0757976355860597,1.8531082873508273,-0.32714246360061894,-0.028821218441384855,0.028821218441384855,0.32714246360061894,3.6069060150578514,0.0
689640.0783812654,3950767.5119837918,-37500.0,-0.86094994660027746,-1.1172901476169335,-1.3318242525968831,-1.2334887309796825,-1.5413740690949875,-1.2542646365325516,2.0347303300896393,-0.34520340266898047,-0.16231807251119651,0.16231807251119651,0.34520340266898047,3.9532536610476567,0.0
694640.0783812654,3950767.5119837918,-37500.0,-0.65611962669955259,-1.0835436331492403,-1.6126356160573534,-1.2045562643395329,-1.7964517569616218,-1.4384967672007172,2.2079585098503371,-0.3316715623308274,-0.35310153217908435,0.35310153217908435,0.3316715623308274,4.2819931253148464,0.0
699640.0783812654,3950767.5119837918,-37500.0,-0.41173980655575076,-0.96996768942136791,-1.8881283780604081,-1.1120024982749257,-2.0426961304728928,-1.6166184103363539,2.3621900879429063,-0.27377284754233822,-0.60608932892255196,0.60608932892255196,0.27377284754233822,4.5719328223045652,0.0
704640.0783812654,3950767.5119837918,-37500.0,-0.14752125671638078,-0.76223914303426454,-2.1279777941535825,-0.9455478478122622,-2.2552503511102717,-1.7722455104801147,2.4856177445152499,-0.15995595393802764,-0.91811402084901672,0.91811402084901672,0.15995595393802764,4.7987406053175823,0.0
709640.0783812654,3950767.5119837918,-37500.0,0.10676654915545659,-0.45562133575750452,-2.2938970166078052,-0.70205069889238991,-2.4034701041425657,-1.8852307601092968,2.5668833548948702,0.016709574882347145,-1.2739034173778048,1.2739034173778048,-0.016709574882347145,4.9376641292629779,0.0
714640.0783812654,3950767.5119837918,-37500.0,0.31419700669576339,-0.060524247443805898,-2.3440085881669153,-0.38938741830529672,-2.4543293600994089,-1.9337896344336052,2.5974877610136273,0.25446621138355185,-1.6432004760608279,1.6432004760608279,-0.25446621138355185,4.9679920811486742,0.0
719640.0783812654,3950767.5119837918,-37500.0,0.43723531470867399,0.3936538361491807,-2.2405398785139705,-0.029102413232520854,-2.3782024456717306,-1.8981172863320586,2.5744744337846495,0.53928164267570178,-1.980888179870135,1.980888179870135,-0.53928164267570178,4.8791161075999412,0.0
724640.0783812654,3950767.5119837918,-37500.0,0.44721924940538887,0.85880444503789033,-1.9597962164516749,0.34379600531896376,-2.156241222822656,-1.7650323117118569,2.502685228193172,0.84343875502614263,-2.2318224736774219,2.2318224736774219,-0.84343875502614263,4.6774146318061991,0.0
729640.0783812654,3950767.5119837918,-37500.0,0.33423264942644421,1.274276855647885,-1.5017168807666881,0.68508689226959296,-1.7874241153502843,-1.5324839724727002,2.3960528801029177,1.1279298662091106,-2.34080982949025,2.34080982949025,-1.1279298662091106,4.392285929640412,0.0
734640.0783812654,3950767.5119837918,-37500.0,0.11350842489852241,1.5787062673732155,-0.89526609232899068,0.94949614571649599,-1.2926307401097248,-1.2123012387681367,2.2770734171707723,1.3492199876916873,-2.2659022075150408,2.2659022075150408,-1.3492199876916873,4.0782601935666509,0.0
739640.0783812654,3950767.5119837918,-37500.0,-0.17514599767527159,1.7245180921280285,-0.19648291959028477,1.1007911372333365,-0.71348415194867476,-0.82976375573118843,2.1726947067540356,1.4690552783350714,-1.9908993452520956,1.9908993452520956,-1.4690552783350714,3.8077949504039705,0.0
744640.0783812654,3950767.5119837918,-37500.0,-0.47592269660132241,1.6901306191648644,0.52148125496305664,1.1204845026658605,-0.10541446176153177,-0.41957859334455522,2.1056345409887669,1.4641895658310744,-1.5321644678743722,1.5321644678743722,-1.4641895658310744,3.6484529854770944,0.0
749640.0783812654,3950767.5119837918,-37500.0,-0.73101966742387325,1.4851594229270189,1.1835921165252334,1.0119396483889005,0.47324079168462402,-0.019272169464406814,2.0844387361410082,1.332392717386615,-0.93655870857325241,0.93655870857325241,-1.332392717386615,3.6291368489646167,0.0
754640.0783812654,3950767.5119837918,-37500.0,-0.8949175509440136,1.1467044870012417,1.7282928449747239,0.79844071873085176,0.97256987269238782,0.33791088040009865,2.0998526548965546,1.0924618448689027,-0.27090109212118024,0.27090109212118024,-1.0924618448689027,3.7231872263177666,0.0
759640.0783812654,3950767.5119837918,-37500.0,-0.94381343368742288,0.72857620063236961,2.1179703442138953,0.51627801537302709,1.3592761078172155,0.62839804608868854,2.1311238857842727,0.77851287026579952,0.39313222492652544,-0.39313222492652544,-0.77851287026579952,3.8687970553203126,0.0
764640.0783812654,3950767.5119837918,-37500.0,-0.87766088006838239,0.28790197220220326,2.341956304973225,0.20569612754013678,1.6197238372089928,0.84064249241042666,2.1564732747684747,0.43108848512925735,0.99333530201637266,-0.99333530201637266,-0.43108848512925735,4.004039645764939,0.0
769640.0783812654,3950767.5119837918,-37500.0,-0.71560785019377682,-0.126284291849423,2.4126901072955125,-0.097196963412080575,1.7580221444456317,0.9744069242205019,2.1602537863026203,0.088390146986342399,1.4863782821818867,-1.4863782821818867,-0.088390146986342399,4.0870085366830669,0.0
774640.0783812654,3950767.5119837918,-37500.0,-0.48785091193834768,-0.47970415898101898,2.357858451887628,-0.36555554647834326,1.7909252368769222,1.0379490860430749,2.1349156080887255,-0.2198743138516932,1.8508213441285599,-1.8508213441285599,0.2198743138516932,4.098490514932033,0.0
779640.0783812654,3950767.5119837918,-37500.0,-0.22726236079687101,-0.75438450875660923,2.2117713709436564,-0.58350676520553435,1.7417828756063369,1.0444281708008947,2.0797327306356781,-0.47512163589628131,2.0847729062702021,-2.0847729062702021,0.47512163589628131,4.0366492792123649,0.0
784640.0783812654,3950767.5119837918,-37500.0,0.036922512231335469,-0.94643973614411769,2.0083290562959872,-0.74518043900378261,1.6352774551926068,1.0086186558482901,1.9984537177741153,-0.66949191532221231,2.2005118088733688,-2.2005118088733688,0.66949191532221231,3.9103135769391977,0.0
789640.0783812654,3950767.5119837918,-37500.0,0.28255035969611497,-1.0620054139162887,1.7765798971896274,-0.85226817606252281,1.4938054849880575,0.94452121142016032,1.8970766653755335,-0.80359908939126656,2.2183923473849245,-2.2183923473849245,0.80359908939126656,3.7334085996968551,0.0
794640.0783812654,3950767.5119837918,-37500.0,0.49544888829185252,-1.1129475960952548,1.5387711811620763,-0.91121112940388516,1.335586801090332,0.86399257149048025,1.7821764528876338,-0.8836366159583221,2.1616037917095121,-2.1616037917095121,0.8836366159583221,3.5210916694115211,0.0
799640.0783812654,3950767.5119837918,-37500.0,0.66862514415835828,-1.1133198289847521,1.3102309740428686,-0.93073061350663377,1.1741421144524107,0.77622738269722469,1.6598187166654568,-0.91868925086856301,2.0524779710839143,-2.0524779710839143,0.91868925086856301,3.2874380181996976,0.0
804640.0783812654,3950767.5119837918,-37500.0,0.80063999686716225,-1.0769187062781482,1.1003002725202897,-0.92001177396063638,1.0186362483677878,0.68781300937768264,1.5349701493621437,-0.91867069555287717,1.9103683365671857,-1.9103683365671857,0.91867069555287717,3.0442933643167613,0.0
809640.0783812654,3950767.5119837918,-37500.0,0.89381489487967269,-1.0158851055281466,0.91368473582249721,-0.88756727658126644,0.87464543939271833,0.60309437956065359,1.4113634860210482,-0.89297774662960572,1.750782443223565,-1.750782443223565,0.89297774662960572,2.8009102783258797,0.0
664640.0783812654,3955767.5119837918,-37500.0,-1.3209127963585057,-0.65563439357031916,-0.1933825118795183,-0.97227355202534216,-0.51492102186209177,-0.56884475521002309,1.2412959764523235,-0.059588437447077647,0.11667127565426877,-0.11667127565426877,0.059588437447077647,2.431028448788263,0.0
669640.0783812654,3955767.5119837918,-37500.0,-1.3626234149554675,-0.78237492079461424,-0.31620535850778186,-1.0971273547489915,-0.66746936453703243,-0.69896146235017165,1.4118616061670499,-0.10624238849365002,0.12585174705898206,-0.12585174705898206,0.10624238849365002,2.7613244994167601,0.0
674640.0783812654,3955767.5119837918,-37500.0,-1.370895333657437,-0.91224823214425732,-0.47479368351166878,-1.2216446050298788,-0.85369896439458715,-0.85434492620495006,1.600858123154991,-0.15635346344478496,0.11840090380794321,-0.11840090380794321,0.15635346344478496,3.1252493849137259,0.0
679640.0783812654,3955767.5119837918,-37500.0,-1.334534176173259,-1.0354385325302564,-0.67364080431179074,-1.3369274808008595,-1.0763299724134376,-1.0366575269789651,1.8062607001604922,-0.20545044818358635,0.084546568966396812,-0.084546568966396812,0.20545044818358635,3.5188959352720555,0.0
684640.0783812654,3955767.5119837918,-37500.0,-1.2427151969102079,-1.1374972766439013,-0.91462374060681728,-1.4304391893174002,-1.3353991087712853,-1.2455722847018746,2.023947220708159,-0.24631976088184288,0.012079896911698362,-0.012079896911698362,0.24631976088184288,3.9342891197759795,0.0
689640.0783812654,3955767.5119837918,-37500.0,-1.0872615376530588,-1.1990024715843215,-1.194766711252492,-1.485868965115648,-1.6263996463872212,-1.4774795163734256,2.2471028382668412,-0.26852443778467389,-0.11287513774750174,0.11287513774750174,0.26852443778467389,4.3581699067505628,0.0
694640.0783812654,3955767.5119837918,-37500.0,-0.86589450697129255,-1.1962799928696894,-1.5034454789060512,-1.4838445364347568,-1.9380523041867928,-1.7239526590829863,2.4657581386878027,-0.25844580306143033,-0.30394150478342624,0.30394150478342624,0.25844580306143033,4.7710020661910111,0.0
699640.0783812654,3955767.5119837918,-37500.0,-0.58612656239945038,-1.1038891680243725,-1.8194958958720879,-1.40399810950973,-2.2501118333759123,-1.9702514932864934,2.666738918428551,-0.20033170804694667,-0.57102229473623778,0.57102229473623778,0.20033170804694667,5.1466707920813262,0.0
704640.0783812654,3955767.5119837918,-37500.0,-0.26884642250217872,-0.89946954723948125,-2.1092106928237842,-1.2287927030628594,-2.5320065464208734,-2.1944018487197328,2.8344035692918159,-0.078862391383837549,-0.915209675334135,0.915209675334135,0.078862391383837549,5.4535386047837981,0.0
709640.0783812654,3955767.5119837918,-37500.0,0.050085284046749959,-0.57097624185506524,-2.3267447972590305,-0.94907914412861738,-2.7434903023522006,-2.3676436543592234,2.952557395903316,0.1165042185424191,-1.3227237870540955,1.3227237870540955,-0.1165042185424191,5.6576245876524132,0.0
714640.0783812654,3955767.5119837918,-37500.0,0.32235336555611471,-0.12515239752057863,-2.4186412769052548,-0.57048858374194056,-2.8385861856943513,-2.4571044349567268,3.007718138551942,0.38582872835020565,-1.7596582750104064,1.7596582750104064,-0.38582872835020565,5.7285280828394285,0.0
719640.0783812654,3955767.5119837918,-37500.0,0.49544586574334759,0.40549683966373956,-2.3335076347751782,-0.11863026800369171,-2.7735346823200109,-2.4311833718384697,2.9933517491601958,0.71314137686255885,-2.1704183320097252,2.1704183320097252,-0.71314137686255885,5.6481700541392534,0.0
724640.0783812654,3955767.5119837918,-37500.0,0.52630841376847348,0.96115837325415332,-2.0359475019037649,0.35976985035234516,-2.5179772659230752,-2.2671583971928548,2.9140147983864684,1.0636397445543948,-2.4829656920299983,2.4829656920299983,-1.0636397445543948,5.421387568319922,0.0
729640.0783812654,3955767.5119837918,-37500.0,0.39686245611616261,1.4620609040174384,-1.5210408723355666,0.80229980763164244,-2.0664978723450051,-1.9591385265715262,2.7879900575917569,1.3864285849194156,-2.6223431614109467,2.6223431614109467,-1.3864285849194156,5.0858306357511349,0.0
734640.0783812654,3955767.5119837918,-37500.0,0.12505004731855324,1.8251870546233728,-0.82343851826921743,1.1432216054820137,-1.4459949992292358,-1.5233714941557142,2.6466190312978153,1.624080372703228,-2.5302551415155734,2.5302551415155734,-1.624080372703228,4.7160269335845566,0.0
739640.0783812654,3955767.5119837918,-37500.0,-0.23494433349666669,1.9860129979688337,-0.015535290877215517,1.3296925080255046,-0.71465173500416856,-0.99804855191103381,2.5276190353740264,1.7271337336804953,-2.1842624049793256,2.1842624049793256,-1.7271337336804953,4.4121503862811027,0.0
744640.0783812654,3955767.5119837918,-37500.0,-0.6055626435767183,1.9170891661576486,0.80683710555142063,1.3359869871670509,0.04880084929198749,-0.43659468526818762,2.4610789230790697,1.6684284000173184,-1.6083297365728968,1.6083297365728968,-1.6684284000173184,4.2628856179420929,0.0
749640.0783812654,3955767.5119837918,-37500.0,-0.90762073413068112,1.6354837897860759,1.5468595247910142,1.1698800669500822,0.76244337150333819,0.10371373033750685,2.4544933456240319,1.4512522751509631,-0.86922156849393561,0.86922156849393561,-1.4512522751509631,4.2940900944905378,0.0
754640.0783812654,3955767.5119837918,-37500.0,-1.0819985754496015,1.1960258298480835,2.1288407943518193,0.86870673782808383,1.3588683163083788,0.57378281978414458,2.489828354798068,1.1078019634891758,-0.059632425195049188,0.059632425195049188,-1.1078019634891758,4.4530450531185046,0.0
759640.0783812654,3955767.5119837918,-37500.0,-1.1026980651898868,0.67396584613837085,2.511982487062169,0.48734222512725139,1.7970408010043224,0.94126056464362351,2.5359618602829976,0.68904432985275554,0.72496661063486134,-0.72496661063486134,-0.68904432985275554,4.6495901976749412,0.0
764640.0783812654,3955767.5119837918,-37500.0,-0.97768190248309084,0.14484248064815444,2.692353275243534,0.083487493528572321,2.0653315195861262,1.1934271772074072,2.5644031599274308,0.25074673633723876,1.4068097051044592,-1.4068097051044592,-0.25074673633723876,4.8057733528783277,0.0
769640.0783812654,3955767.5119837918,-37500.0,-0.7398446355641809,-0.33110351213186989,2.6950657251838956,-0.29438548986025581,2.1767575428323553,1.3348153966863543,2.5576391394102438,-0.15886137264106381,1.9374635042642874,-1.9374635042642874,0.15886137264106381,4.8764997133165711,0.0
774640.0783812654,3955767.5119837918,-37500.0,-0.43377582672045745,-0.71637036704538104,2.5617778905529542,-0.613521985421143,2.1599995211798046,1.3817138845426871,2.5097792545948696,-0.50636079319552718,2.2993696780353332,-2.2993696780353332,0.50636079319552718,4.8473218372773026,0.0
779640.0783812654,3955767.5119837918,-37500.0,-0.1037107173063903,-0.99599473433122476,2.3385851395572237,-0.85779021898497765,2.0500136678918857,1.3560282266675505,2.4234826905618041,-0.77481333246542128,2.5000218792041715,-2.5000218792041715,0.77481333246542128,4.7245771545687987,0.0
784640.0783812654,3955767.5119837918,-37500.0,0.21433866499182744,-1.1725725019377582,2.0673304556039152,-1.0248066010377226,1.8807507477679963,1.2802458790589553,2.3062157142260755,-0.96135863562499324,2.5629239301497901,-2.5629239301497901,0.96135863562499324,4.525677197838835,0.0
789640.0783812654,3955767.5119837918,-37500.0,0.49583473860684246,-1.2596620667403498,1.7810711997366144,-1.1214827771579752,1.6808423084489574,1.1742171874810563,2.1671920505508946,-1.0729120318455274,2.5187871289239139,-2.5187871289239139,1.0729120318455274,4.2719155742160888,0.0
794640.0783812654,3955767.5119837918,-37500.0,0.7274726919897182,-1.2757969540916578,1.5029462059225616,-1.1596703876975938,1.4719295290676437,1.0536680989689626,2.0153331452324088,-1.1217431839155316,2.3988615050471069,-2.3988615050471069,1.1217431839155316,3.9839698994856074,0.0
799640.0783812654,3955767.5119837918,-37500.0,0.9050148151592704,-1.2401340837482517,1.2471569278719949,-1.1527780710293636,1.2687965262972378,0.92997134074583965,1.8581759433442062,-1.1219350644900743,2.2308741828821761,-2.2308741828821761,1.1219350644900743,3.6795609426483784,0.0
804640.0783812654,3955767.5119837918,-37500.0,1.0305126440704711,-1.1698627541894595,1.0208926439752928,-1.1135803649998559,1.0804538328289757,0.8106421599435486,1.7015398206568557,-1.0870319693064066,2.0371942079080689,-2.0371942079080689,1.0870319693064066,3.3725927939194147,0.0
809640.0783812654,3955767.5119837918,-37500.0,1.109731193872256,-1.07903265185251,0.82640364351736184,-1.0530624765265579,0.91153609407334812,0.70013401665664787,1.5496593962115128,-1.0287635465356297,1.8345310966927908,-1.8345310966927908,1.0287635465356297,3.0731814892082325,0.0
814640.0783812654,3955767.5119837918,-37500.0,1.1501403700241417,-0.97832925253539993,0.66280146068379642,-0.98000739928035252,0.76363652257051928,0.6006643745976401,1.4054487644393252,-0.95656071827539435,1.634501351939158,-1.634501351939158,0.95656071827539435,2.7881341704857139,0.0
659640.0783812654,3960767.5119837918,-37500.0,-1.3563563957944014,-0.44642390870011667,0.022804499282511232,-0.90548657631304952,-0.32886686956593258,-0.48400623941379772,1.1279434791329712,0.067392028518181601,0.063972949907299875,-0.063972949907299875,-0.067392028518181601,2.2004611651817894,0.0
664640.0783812654,3960767.5119837918,-37500.0,-1.4513571294344219,-0.56913555214236078,-0.048831589341696777,-1.0485992961865971,-0.45051213833172082,-0.60601992986939701,1.2932932470687231,0.034898787594340099,0.089736390939759325,-0.089736390939759325,-0.034898787594340099,2.5249508315171858,0.0
669640.0783812654,3960767.5119837918,-37500.0,-1.525805253444896,-0.70674556114573484,-0.15023977410670336,-1.2033290636461862,-0.60587494553731269,-0.75670563566437143,1.4823732153521896,-0.0044530875142128265,0.10955269307207902,-0.10955269307207902,0.0044530875142128265,2.8930038792507551,0.0
674640.0783812654,3960767.5119837918,-37500.0,-1.5674885708253237,-0.85449020472440007,-0.28868358238575992,-1.3641922265757496,-0.80111549035913032,-0.94065985646261008,1.6959042342467505,-0.048923892404081841,0.11622351387089158,-0.11622351387089158,0.048923892404081841,3.3053811669037994,0.0
679640.0783812654,3960767.5119837918,-37500.0,-1.5619715585266833,-1.0033141594091086,-0.47117314874635263,-1.521817075199275,-1.0415527556094413,-1.1616664943042343,1.9328430506880463,-0.094606400081714545,0.099361313766194129,-0.099361313766194129,0.094606400081714545,3.7597379103349855,0.0
684640.0783812654,3960767.5119837918,-37500.0,-1.4938296812662868,-1.1384564406719526,-0.70287484763682284,-1.6618474282622993,-1.3300728704973008,-1.4214520115264204,2.1896400358556978,-0.13451513762061956,0.045022312027098874,-0.045022312027098874,0.13451513762061956,4.2490401218485099,0.0
689640.0783812654,3960767.5119837918,-37500.0,-1.3491555166431382,-1.238357888535808,-0.9845672650548728,-1.7641900893419205,-1.6647371702915874,-1.717850248583499,2.459370101565395,-0.15774003130576497,-0.063946817144920121,0.063946817144920121,0.15774003130576497,4.7597292463951542,0.0
694640.0783812654,3960767.5119837918,-37500.0,-1.1196449361376355,-1.274621307012721,-1.3090789407464232,-1.8032118903832557,-2.0355972833444591,-2.0423944309749298,2.7308770424708024,-0.14907051750862885,-0.24620353507938472,0.24620353507938472,0.14907051750862885,5.2699353348856173,0.0
699640.0783812654,3960767.5119837918,-37500.0,-0.80814987939230776,-1.2140911103883074,-1.6570562440301033,-1.7497378908785479,-2.4210949103843635,-2.3776282348232329,2.9882835080432244,-0.089750331397044747,-0.51809913273690933,0.51809913273690933,0.089750331397044747,5.7483445954091357,0.0
704640.0783812654,3960767.5119837918,-37500.0,-0.4347058718284334,-1.0242277256041501,-1.9931489395113928,-1.5757502688543419,-2.7850471452910464,-2.6948819844140752,3.2114227075097634,0.039806506448991419,-0.88725694451321502,0.88725694451321502,-0.039806506448991419,6.1547007966483518,0.0
709640.0783812654,3960767.5119837918,-37500.0,-0.040755857351546611,-0.68242954549171353,-2.2646653347208354,-1.2622292971365765,-3.0759891392465035,-2.953815179070685,3.3778807232140631,0.25467931350071427,-1.3439213177336771,1.3439213177336771,-0.25467931350071427,6.4432316383391548,0.0
714640.0783812654,3960767.5119837918,-37500.0,0.31189208287334252,-0.1883773038059611,-2.4054714673840039,-0.80930230276175064,-3.2311670428321659,-3.1053972583992713,3.4672143806722255,0.55767158417318718,-1.8521685694601029,1.8521685694601029,-0.55767158417318718,6.5702818556873037,0.0
719640.0783812654,3960767.5119837918,-37500.0,0.5507908587947774,0.42415249766643726,-2.3474790604533973,-0.24581112911029523,-3.1870150432408231,-3.0996636847898928,3.4672676445697825,0.93096552514610997,-2.3451995199848321,2.3451995199848321,-0.93096552514610997,6.5067629678117127,0.0
724640.0783812654,3960767.5119837918,-37500.0,0.6120799211339325,1.0821654296308321,-2.039532810784233,0.36658128166990639,-2.8957856781431479,-2.898034640340676,3.3812907867422326,1.3310424861637444,-2.7301111552552224,2.7301111552552224,-1.3310424861637444,6.2544068858479775,0.0
729640.0783812654,3960767.5119837918,-37500.0,0.46465576254938529,1.68146846069261,-1.4689280073663704,0.93979534519125585,-2.3442453991423053,-2.4872934383445697,3.233213199932897,1.6915706740641578,-2.9057376098488312,2.9057376098488312,-1.6915706740641578,5.8619982186210811,0.0
734640.0783812654,3960767.5119837918,-37500.0,0.12904006088513542,2.1100219177566748,-0.67637428545157441,1.3779857649235017,-1.5667946030505375,-1.8897473444356863,3.0672117929126959,1.936914012114493,-2.7913011058361117,2.7913011058361117,-1.936914012114493,5.4328521320204066,0.0
739640.0783812654,3960767.5119837918,-37500.0,-0.32052444463754731,2.280542727438077,0.24512494074924679,1.6037963214755737,-0.64511015872274491,-1.163802250875303,2.9366303702585652,2.0036465118057882,-2.3559056605063895,2.3559056605063895,-2.0036465118057882,5.1064362256372142,0.0
744640.0783812654,3960767.5119837918,-37500.0,-0.77558381745694049,2.15886938706692,1.1708028689671026,1.5818003615858951,0.30861842340043066,-0.3925815645771627,2.8807053348825469,1.861690095713247,-1.6348848974204522,1.6348848974204522,-1.861690095713247,4.9963792499863882,0.0
749640.0783812654,3960767.5119837918,-37500.0,-1.1275921744501232,1.7744449920351721,1.9771998515989533,1.3283591117429026,1.1795580739379972,0.33597765860135326,2.902159723041644,1.5250337435952064,-0.72346015455828683,0.72346015455828683,-1.5250337435952064,5.1138381732233471,0.0
754640.0783812654,3960767.5119837918,-37500.0,-1.3009510863056375,1.2080802461926263,2.5737292622462706,0.9036164649592543,1.877887107107395,0.94967148336606377,2.9679264047210769,1.046768347688511,0.25037767071177841,-0.25037767071177841,-1.046768347688511,5.3633318435404576,0.0
759640.0783812654,3960767.5119837918,-37500.0,-1.2705379305098976,0.56407742387008797,2.9200405012266231,0.39046965153681834,2.3555451510859857,1.4054306723790981,3.0324909250601442,0.50144512124022678,1.1612208642126891,-1.1612208642126891,-0.50144512124022678,5.61832962614334,0.0
764640.0783812654,3960767.5119837918,-37500.0,-1.0590989937837947,-0.059641252880826716,3.0250064796802607,-0.12923433211257457,2.6078899522726191,1.6921007617931174,3.0602080975276151,-0.036398144199996096,1.9148743486080197,-1.9148743486080197,0.036398144199996096,5.7859202740393565,0.0
769640.0783812654,3960767.5119837918,-37500.0,-0.72034840935976008,-0.59195838666267431,2.9322335424451276,-0.59215251199040153,2.6634400081151308,1.8243235789749306,3.0335026531173508,-0.50878453797571033,2.4614635257282531,-2.4614635257282531,0.50878453797571033,5.8229720489185528,0.0
774640.0783812654,3960767.5119837918,-37500.0,-0.31810648433568639,-0.99548776772928538,2.7010520651034442,-0.96074366148283941,2.5686276437729028,1.8321522092716485,2.9506191942696227,-0.88169881637037895,2.793162397607206,-2.793162397607206,0.88169881637037895,5.7256070098437757,0.0
779640.0783812654,3960767.5119837918,-37500.0,0.090248841922028963,-1.2626476991420639,2.3904305834073925,-1.2217972457501145,2.373817356128844,1.7508895058914533,2.819783588754782,-1.1441240979391682,2.9325191000990651,-2.9325191000990651,1.1441240979391682,5.5131676748173,0.0
784640.0783812654,3960767.5119837918,-37500.0,0.46265845548289125,-1.406346598924733,2.0491899404492866,-1.380079643668723,2.1238722737008104,1.613746107866477,2.6536732853944218,-1.3021894048840321,2.918314760054022,-2.918314760054022,1.3021894048840321,5.2149439283955896,0.0
789640.0783812654,3960767.5119837918,-37500.0,0.7743229636608584,-1.45010019001875,1.7123402870879816,-1.4508391121324231,1.853669286837119,1.447901232471698,2.4655254351186771,-1.3720173982860617,2.7936806136164689,-2.7936806136164689,1.3720173982860617,4.8613989390381764,0.0
794640.0783812654,3960767.5119837918,-37500.0,1.0152857394753452,-1.4202895031254319,1.4016192789687849,-1.4534893353662679,1.5873483562660127,1.2733153225204663,2.2669726242697164,-1.37359886758414,2.5983310597123852,-2.5983310597123852,1.37359886758414,4.4793674064435312,0.0
799640.0783812654,3960767.5119837918,-37500.0,1.1862400935594215,-1.3413208283701157,1.1281098128445988,-1.4073247333812906,1.3396896445202031,1.1032465129099398,2.0672127119258015,-1.326604333356888,2.3647313765918376,-2.3647313765918376,1.326604333356888,4.0900930385685568,0.0
804640.0783812654,3960767.5119837918,-37500.0,1.2943155020595885,-1.2333035390352616,0.89538054240779097,-1.3291716260637227,1.1183119644307202,0.94554656316939834,1.8729708754057319,-1.2480867743149771,2.1171121530242245,-2.1171121530242245,1.2480867743149771,3.7090055532930988,0.0
809640.0783812654,3960767.5119837918,-37500.0,1.349698320219697,-1.1114567679490543,0.70229052943043002,-1.2324744777644274,0.92588316671553228,0.80411910250715246,1.6887956771525008,-1.1516028787863954,1.8721365784957429,-1.8721365784957429,1.1516028787863954,3.346393381782478,0.0
814640.0783812654,3960767.5119837918,-37500.0,1.3633058006364374,-0.98648981742920683,0.54513217043372697,-1.1272686800346592,0.76196081740388533,0.68021609074678824,1.5174505829622069,-1.047215271542117,1.6402939589129455,-1.6402939589129455,1.047215271542117,3.0084176946750341,0.0
819640.0783812654,3960767.5119837918,-37500.0,1.3453966673525768,-0.86540526190211353,0.41909739839844196,-1.0206048288231493,0.62435925387854574,0.5734530776753467,1.360317716817226,-0.94194293321702216,1.4274382692661918,-1.4274382692661918,0.94194293321702216,2.6981533210815121,0.0
654640.0783812654,3965767.5119837918,-37500.0,-1.2989777748113864,-0.21935614068003087,0.17434351458711411,-0.79306334915015708,-0.1590960151590507,-0.38917202174940357,1.0058185674808262,0.17476603432632692,-0.016834517658041406,0.016834517658041406,-0.17476603432632692,1.9403918026193727,0.0
659640.0783812654,3965767.5119837918,-37500.0,-1.4320152550674574,-0.31940179158453952,0.14919943155606918,-0.93883312179758838,-0.24415075994552313,-0.49550347174041837,1.1579113981132081,0.16118978150701629,0.011724077008015407,-0.011724077008015407,-0.16118978150701629,2.241778803854745,0.0
664640.0783812654,3965767.5119837918,-37500.0,-1.5595526209861144,-0.43984853607262614,0.10433801980928027,-1.1051164662762283,-0.3581138973725399,-0.63051166428333971,1.3351429230879037,0.14072761643115694,0.042158912135345158,-0.042158912135345158,-0.14072761643115694,2.5912951814910419,0.0
669640.0783812654,3965767.5119837918,-37500.0,-1.6714816996348976,-0.5806408759562478,0.032541188345560489,-1.2905312045445603,-0.50862274326505719,-0.80078680453174478,1.5406745593742028,0.11314369304385306,0.070710374804830015,-0.070710374804830015,-0.11314369304385306,2.9936691047140243,0.0
674640.0783812654,3965767.5119837918,-37500.0,-1.7540394121577909,-0.73893295715824059,-0.074746086389972571,-1.4906443937473199,-0.70412569497822175,-1.0134161545509404,1.7768863498417238,0.079421702006257588,0.090883075441354044,-0.090883075441354044,-0.079421702006257588,3.4520040620789283,0.0
679640.0783812654,3965767.5119837918,-37500.0,-1.7897273025917333,-0.90741203783445834,-0.22682073246107093,-1.6964192471946442,-0.95302031348116689,-1.2751814568160496,2.0444188942159403,0.042644953085180445,0.092440398322629722,-0.092440398322629722,-0.042644953085180445,3.9663200893356501,0.0
684640.0783812654,3965767.5119837918,-37500.0,-1.7581531616712114,-1.0722556486381845,-0.43232308580421064,-1.8924076738771183,-1.2619668366287398,-1.5910647151603987,2.3410492609520204,0.0091384457539824757,0.060494016422893086,-0.060494016422893086,-0.0091384457539824757,4.5315241235290484,0.0
689640.0783812654,3965767.5119837918,-37500.0,-1.6384594495664253,-1.2110825680537352,-0.69663550945909902,-2.0550549313772679,-1.633043944792586,-1.961803649920308,2.6604359236806374,-0.010284026332493822,-0.024826314555805983,0.024826314555805983,0.010284026332493822,5.134834950082241,0.0
694640.0783812654,3965767.5119837918,-37500.0,-1.4140418660041394,-1.2917240488572115,-1.0177512299229703,-2.1518909279490819,-2.0595280197370904,-2.3803419488504551,2.9907639896146954,0.00060437795178494569,-0.18727979659589575,0.18727979659589575,-0.00060437795178494569,5.7529332985559893,0.0
699640.0783812654,3965767.5119837918,-37500.0,-1.0799052651832219,-1.2732587807891638,-1.380677622930323,-2.142897047289483,-2.5204946607604999,-2.8273675948428241,3.31361120299887,0.063220918611432753,-0.45081568672324801,0.45081568672324801,-0.063220918611432753,6.3495485885990979,0.0
704640.0783812654,3965767.5119837918,-37500.0,-0.65191446861001923,-1.1112623190057844,-1.7513545971741402,-1.9857206885681928,-2.9753238283048029,-3.2668476422586838,3.6037734801621353,0.20158284595075127,-0.83208007513169846,0.83208007513169846,-0.20158284595075127,6.8748315665263471,0.0
709640.0783812654,3965767.5119837918,-37500.0,-0.17518360559400437,-0.76900870296608814,-2.0725643603134958,-1.646136502375011,-3.360541694955276,-3.6435417402165107,3.8311598240103844,0.43608596670953326,-1.3288231668168495,1.3288231668168495,-0.43608596670953326,7.2685560232373643,0.0
714640.0783812654,3965767.5119837918,-37500.0,0.27361598594589037,-0.23453258688493817,-2.2659118763577699,-1.1134918521081778,-3.5927784253393367,-3.8855271463513996,3.9659586803782183,0.7733017748639236,-1.9062448385363142,1.9062448385363142,-0.7733017748639236,7.4695510473115165,0.0
719640.0783812654,3965767.5119837918,-37500.0,0.59643322733559001,0.46053557902150721,-2.2443048340117375,-0.41742126282838654,-3.5817294970770122,-3.9148270601662083,3.9876516692764028,1.1938260312957982,-2.4869895652330491,2.4869895652330491,-1.1938260312957982,7.4331226596054183,0.0
724640.0783812654,3965767.5119837918,-37500.0,0.70002327131537423,1.2294979457621522,-1.9364744478474885,0.362119681924846,-3.2541888012736817,-3.6669966335219741,3.8966455475488724,1.6436486457722204,-2.9536232096511768,2.9536232096511768,-1.6436486457722204,7.155834465998451,0.0
729640.0783812654,3965767.5119837918,-37500.0,0.53306183736465118,1.9378940732264494,-1.3180659643690642,1.1012541370325521,-2.583836143013956,-3.1155035677535152,3.7243180719704676,2.036744291590475,-3.1711711370841158,3.1711711370841158,-2.036744291590475,6.7020857035617469,0.0
734640.0783812654,3965767.5119837918,-37500.0,0.11801015650686369,2.4355197033718174,-0.4355788382832706,1.660068422323361,-1.6141709394372981,-2.2909965033851338,3.5337359740022576,2.2740788798863845,-3.0284896256376497,3.0284896256376497,-2.2740788798863845,6.2173602058557478,0.0
739640.0783812654,3965767.5119837918,-37500.0,-0.4428612338457098,2.6051312410752159,0.59293749677649499,1.925292332445274,-0.45997427137587604,-1.2838298531536669,3.4009480863627828,2.2755367035341654,-2.4834153075205649,2.4834153075205649,-2.2755367035341654,5.8962944714600942,0.0
744640.0783812654,3965767.5119837918,-37500.0,-0.99731290484610979,2.4056802041150638,1.607140101956293,1.849151679425044,0.71901896127731058,-0.22442797524951374,3.3752350570939478,2.0109479952141509,-1.5880548466539954,1.5880548466539954,-2.0109479952141509,5.8769487350361551,0.0
749640.0783812654,3965767.5119837918,-37500.0,-1.397091060225321,1.8866836646082528,2.4527696893986715,1.4643357883374539,1.763038940562486,0.75196853649891138,3.4464737926539577,1.5134511110305677,-0.47762669372285871,0.47762669372285871,-1.5134511110305677,6.1321111636590642,0.0
754640.0783812654,3965767.5119837918,-37500.0,-1.5481313636063712,1.1662537098216468,3.0259326733258214,0.86780835933348399,2.5552318187260945,1.5404709832091212,3.5568032177568902,0.86756196621027082,0.67307925615113329,-0.67307925615113329,-0.86756196621027082,6.5008774397502487,0.0
759640.0783812654,3965767.5119837918,-37500.0,-1.4327891756913338,0.38661757242688022,3.2934981988462715,0.18395823476319439,3.0442534999344621,2.0868925248875119,3.642078492058022,0.17922478277964993,1.70306597501436,-1.70306597501436,-0.17922478277964993,6.8149324200754418,0.0
764640.0783812654,3965767.5119837918,-37500.0,-1.0992428081631485,-0.32916655911054732,3.2855569962492113,-0.473387284249907,3.2413862780140033,2.3882716519507641,3.6607603704442679,-0.45608637654656681,2.5036829558649152,-2.5036829558649152,0.45608637654656681,6.9723932157585962,0.0
769640.0783812654,3965767.5119837918,-37500.0,-0.63130841691501649,-0.90218617071970841,3.0705473122919487,-1.0249908766564073,3.2002723267679403,2.4788651386807525,3.5989249848591136,-0.97385872677771679,3.0308489536066006,-3.0308489536066006,0.97385872677771679,6.941352104468538,0.0
774640.0783812654,3965767.5119837918,-37500.0,-0.11687544319338931,-1.3012659439374548,2.7279432708278013,-1.4323666794387688,2.9921686924885953,2.4112447582553118,3.4628001332540079,-1.345638893110185,3.2949796414285784,-3.2949796414285784,1.345638893110185,6.7369476875527452,0.0
779640.0783812654,3965767.5119837918,-37500.0,0.37327151843483025,-1.532299644782843,2.3285330450023514,-1.6909866986149651,2.6863148027170838,2.2402270485647153,3.2691016453489254,-1.5727133658250567,3.3403597058048886,-3.3403597058048886,1.5727133658250567,6.3975917793851265,0.0
784640.0783812654,3965767.5119837918,-37500.0,0.79372330776754929,-1.6228071081630993,1.9250092263957472,-1.8181413068058345,2.338919939653278,2.0129665835366293,3.0375402404965692,-1.6750489238562827,3.2246664042576034,-3.2246664042576034,1.6750489238562827,5.9679234968046373,0.0
789640.0783812654,3965767.5119837918,-37500.0,1.1231799341577933,-1.6083476988611598,1.5506964711475664,-1.8412767817448803,1.9897159364402854,1.7649447835098413,2.7863526512909105,-1.6807357164766206,3.0042767878597409,-3.0042767878597409,1.6807357164766206,5.4889364608049958,0.0
794640.0783812654,3965767.5119837918,-37500.0,1.3585110737591037,-1.5234593976447168,1.2227647853975887,-1.7895526168949785,1.6632457949041939,1.5199640569549293,2.5302927146023042,-1.6184274755050443,2.7263585244327095,-2.7263585244327095,1.6184274755050443,4.9935810598530335,0.0
799640.0783812654,3965767.5119837918,-37500.0,1.5079071319940136,-1.3970398118228846,0.94690455154257547,-1.6889952535970079,1.3722198391536762,1.2921484949008006,2.2801719592414358,-1.513106454770079,2.4262562153480456,-2.4262562153480456,1.513106454770079,4.5058264503822558,0.0
804640.0783812654,3965767.5119837918,-37500.0,1.5851329941748753,-1.2509179871849823,0.72169548192218169,-1.56046691651419,1.1211821277229241,1.0885213348745291,2.0431950349542576,-1.3844312449423746,2.1280698182846112,-2.1280698182846112,1.3844312449423746,4.0415418910642007,0.0
809640.0783812654,3965767.5119837918,-37500.0,1.6055237385979224,-1.1002534679275338,0.54195844663211734,-1.4194062383341892,0.90962413316983148,0.91137821914547046,1.8236179188278026,-1.2466871811092459,1.8466841832946366,-1.8466841832946366,1.2466871811092459,3.6100974406029063,0.0
814640.0783812654,3965767.5119837918,-37500.0,1.5836012739406584,-0.95473371150461128,0.40100903235959995,-1.276472443801945,0.73428403936663378,0.76015115164275338,1.6234714366930394,-1.1095293888616864,1.5901370271097515,-1.5901370271097515,1.1095293888616864,3.2160539513843127,0.0
819640.0783812654,3965767.5119837918,-37500.0,1.5319083958860715,-0.81994666543708461,0.2920099346314502,-1.1385193226870556,0.59068336572937241,0.63273089622123935,1.4432228267046212,-0.97898896534323421,1.3617592627203481,-1.3617592627203481,0.97898896534323421,2.860649652513144,0.0
654640.0783812654,3970767.5119837918,-37500.0,-1.3117214912607653,-0.07060373182527889,0.26865042355230268,-0.78545542613553487,-0.067934792205171721,-0.37974792012679781,1.0196627519274792,0.25687627360713061,-0.086059703461390108,0.086059703461390108,-0.25687627360713061,1.9423969772963696,0.0
659640.0783812654,3970767.5119837918,-37500.0,-1.4701836693816022,-0.15662853854528191,0.26924486346882376,-0.94480154023229967,-0.13818225410882112,-0.49152535618000071,1.1783485909682343,0.25747323724941584,-0.059834450811592235,0.059834450811592235,-0.25747323724941584,2.2560824177292171,0.0
664640.0783812654,3970767.5119837918,-37500.0,-1.6301514474491374,-0.26530553307997229,0.25541687291332188,-1.1312250688972936,-0.23680693351753745,-0.63631639558160624,1.3649620351663498,0.25239559440687748,-0.02877468999522402,0.02877468999522402,-0.25239559440687748,2.6244115969198485,0.0
669640.0783812654,3970767.5119837918,-37500.0,-1.7817877002734528,-0.39852125677018263,0.22010288287899285,-1.3452367927846918,-0.37273721651084601,-0.82290557379476259,1.5838419889871678,0.24092020581119303,0.0046644477027406872,-0.0046644477027406872,-0.24092020581119303,3.0544535517893543,0.0
674640.0783812654,3970767.5119837918,-37500.0,-1.9106074334254486,-0.55586828728997051,0.15425085663984348,-1.5843091328802101,-0.55655583038832346,-1.0613798969863559,1.8391049314974932,0.22327627318365212,0.035368476184044928,-0.035368476184044928,-0.22327627318365212,3.5521304549487596,0.0
679640.0783812654,3970767.5119837918,-37500.0,-1.9967553041872745,-0.7327481657428595,0.047016100836638396,-1.8408545656458177,-0.79988106304650097,-1.3624060784880823,2.1336275968102294,0.20155479424913048,0.054231342718205011,-0.054231342718205011,-0.20155479424913048,4.1206020253953728,0.0
684640.0783812654,3970767.5119837918,-37500.0,-2.0151278374515926,-0.91777223645909112,-0.11327862302544975,-2.0995871250575053,-1.1138035058327898,-1.7356039663273721,2.467475080262822,0.18101173307307802,0.04665307313495784,-0.04665307313495784,-0.18101173307307802,4.7578295938604169,0.0
689640.0783812654,3970767.5119837918,-37500.0,-1.9372604814999952,-1.0896743699285616,-0.3368561124400179,-2.3345563789287791,-1.5058210222663229,-2.1865259457617197,2.8359780298461592,0.1716859521677771,-0.0086838130621667703,0.0086838130621667703,-0.1716859521677771,5.4532077682925735,0.0
694640.0783812654,3970767.5119837918,-37500.0,-1.7361931288519381,-1.2145200131800467,-0.62822532239349838,-2.5067155401054824,-1.9747050027981454,-2.7117682147528264,3.2276419078126319,0.18994503746034747,-0.13979826899608844,0.13979826899608844,-0.18994503746034747,6.183418934928441,0.0
699640.0783812654,3970767.5119837918,-37500.0,-1.3954236174997297,-1.2449275612668582,-0.97954591549269499,-2.5637701038985092,-2.5030895020930815,-3.292093292760045,3.6221275981674221,0.25903148942440435,-0.37853151284211917,0.37853151284211917,-0.25903148942440435,6.9082377816556839,0.0
704640.0783812654,3970767.5119837918,-37500.0,-0.92194987913701409,-1.1241218676411699,-1.3621579506598784,-2.4450394857288544,-3.0486591752614967,-3.8844408908573897,3.989090094899348,0.40698244273859469,-0.75270600574938151,0.75270600574938151,-0.40698244273859469,7.5679981611090428,0.0
709640.0783812654,3970767.5119837918,-37500.0,-0.3606205899343764,-0.79814960001330693,-1.7188150720862887,-2.0943943245038432,-3.5368937045697146,-4.4155588238741412,4.2894675513435212,0.65985238471237173,-1.2717585746335951,1.2717585746335951,-0.65985238471237173,8.0857444890023089,0.0
714640.0783812654,3970767.5119837918,-37500.0,0.19736584746269661,-0.23796260401289243,-1.9619769645389369,-1.4825860989120876,-3.8610521503331503,-4.7823529188741238,4.4813938516089351,1.028918044623617,-1.9070567662023341,1.9070567662023341,-1.028918044623617,8.3782262320395606,0.0
719640.0783812654,3970767.5119837918,-37500.0,0.62273019626389203,0.53236522515028473,-1.9854553645929411,-0.63500148053679484,-3.8966592158915665,-4.8653507130831946,4.53255672972357,1.4936652574390283,-2.573796529875847,2.573796529875847,-1.4936652574390283,8.379708143897771,0.0
724640.0783812654,3970767.5119837918,-37500.0,0.78208062234257036,1.4138363908235956,-1.6942823488511614,0.34734654031901946,-3.5348096541290785,-4.558995017057061,4.4384808800871633,1.9879200209881462,-3.1279588638824238,3.1279588638824238,-1.9879200209881462,8.0793816199738924,0.0
729640.0783812654,3970767.5119837918,-37500.0,0.59369369490319412,2.2362481149773221,-1.0478322666170925,1.2916231335906854,-2.7284538814470696,-3.8135968993804839,4.2408223241270493,2.4013072639963884,-3.3928308915138246,3.3928308915138246,-2.4013072639963884,7.5647078950065971,0.0
734640.0783812654,3970767.5119837918,-37500.0,0.080509213642490515,2.8007723004195237,-0.096795891524940031,1.9941603445875347,-1.5315989958856351,-2.6714244888023364,4.0310779168037518,2.6057164156958184,-3.2173709818322767,3.2173709818322767,-2.6057164156958184,7.0439359478352896,0.0
739640.0783812654,3970767.5119837918,-37500.0,-0.61617576814396013,2.9519418020474921,1.0123552704958887,2.2898501339337547,-0.1048328231753292,-1.2736166265930056,3.918133205571785,2.5024045918131606,-2.5446149283722779,2.5446149283722779,-2.5024045918131606,6.7867589133787654,0.0
744640.0783812654,3970767.5119837918,-37500.0,-1.2826285747061121,2.643064697902576,2.078329522992481,2.1166273104686244,1.3260307691040698,0.17422951333685047,3.9586885138614445,2.0670120660456992,-1.4505782618875647,1.4505782618875647,-2.0670120660456992,6.9422485653403312,0.0
749640.0783812654,3970767.5119837918,-37500.0,-1.7183340023939657,1.9550933302729738,2.9145988320916265,1.5374661317146128,2.5421785440447153,1.465057244285666,4.1132948165284748,1.3646413205570429,-0.12488545236545423,0.12488545236545423,-1.3646413205570429,7.402445542162476,0.0
754640.0783812654,3970767.5119837918,-37500.0,-1.8115406709388913,1.0577993866970505,3.4097030735514573,0.70789083748989701,3.397502320316705,2.4502440264205574,4.2852496291632232,0.52469472589908328,1.1984678252699146,-1.1984678252699146,-0.52469472589908328,7.9159074871515926,0.0
759640.0783812654,3970767.5119837918,-37500.0,-1.5645059387734839,0.13999587691448095,3.5483267577767426,-0.1882237979616623,3.8466604850022454,3.0687117085021063,4.3890416465378213,-0.30830176792974284,2.3199519146262766,-2.3199519146262766,0.30830176792974284,8.2749241123024504,0.0
764640.0783812654,3970767.5119837918,-37500.0,-1.0663880560969805,-0.65079416961324787,3.3916139510019931,-0.99769269469081212,3.9312188940443016,3.3395587798634097,4.381988360288072,-1.0196334196855952,3.1234174965831141,-3.1234174965831141,1.0196334196855952,8.3824010194051084,0.0
769640.0783812654,3970767.5119837918,-37500.0,-0.44188063173308156,-1.2353691585532534,3.0376243594479897,-1.6282504761509862,3.7424092625159671,3.3323933490348727,4.2605960638579559,-1.5463735325945211,3.5822761324106995,-3.5822761324106995,1.5463735325945211,8.2321555432861189,0.0
774640.0783812654,3970767.5119837918,-37500.0,0.1938984805200695,-1.5980492858707542,2.5850189207709677,-2.0488933646032459,3.3832649903579122,3.134520210020852,4.0449319371648471,-1.8755429029152166,3.7357332112258375,-3.7357332112258375,1.8755429029152166,7.8694316818337535,0.0
779640.0783812654,3970767.5119837918,-37500.0,0.75958435061061891,-1.7653730233983946,2.11169920347738,-2.2728926545024941,2.943370920995025,2.8272025563223413,3.7641878726381837,-2.0287473899616879,3.6559753221534459,-3.6559753221534459,2.0287473899616879,7.3583726639463416,0.0
784640.0783812654,3970767.5119837918,-37500.0,1.2119598670904415,-1.7831219789421864,1.6684004016607468,-2.3370102048609458,2.4882033276445217,2.473942092955832,3.4472746496888451,-2.0444114433049925,3.4211329778639468,-3.4211329778639468,2.0444114433049925,6.7617902012368942,0.0
789640.0783812654,3970767.5119837918,-37500.0,1.5387787409882965,-1.6994988991793054,1.281684671895188,-2.2849054859775282,2.0588346184833153,2.1180625769036436,3.118152817038089,-1.9640739723073861,3.0992194817533094,-3.0992194817533094,1.9640739723073861,6.1314163359482148,0.0
794640.0783812654,3970767.5119837918,-37500.0,1.7479142294810093,-1.5559453523380529,0.96062807460176181,-2.1570435784875741,1.6767157418408467,1.7854188719561706,2.7944074983782943,-1.8244366310985725,2.7418064637669883,-2.7418064637669883,1.8244366310985725,5.5051147878420696,0.0
799640.0783812654,3970767.5119837918,-37500.0,1.8575520196667679,-1.3838642509769625,0.70356222668255664,-1.9861581936470936,1.3497025421414524,1.4888994358803755,2.4876083198944858,-1.6541576506112703,2.38390328878475,-2.38390328878475,1.6541576506112703,4.907848878455531,0.0
804640.0783812654,3970767.5119837918,-37500.0,1.8891937173140865,-1.2048217288486589,0.50331026999491313,-1.7963239072013581,1.0773483158420929,1.2328094675531771,2.2044309329273175,-1.4736194700828207,2.0467787619557316,-2.0467787619557316,1.4736194700828207,4.3541938703591576,0.0
809640.0783812654,3970767.5119837918,-37500.0,1.8634871346624708,-1.0322943324695946,0.35065200467349333,-1.6038885107334446,0.85480807994643804,1.0163479198195242,1.9479386316760117,-1.2961391135965417,1.7415746025849681,-1.7415746025849681,1.2961391135965417,3.8511158652276003,0.0
814640.0783812654,3970767.5119837918,-37500.0,1.7982038333235515,-0.87378014725613784,0.23632826872046786,-1.4190885085797824,0.67539651836585946,0.83604709447329761,1.7187305162903557,-1.129624451465653,1.4726098522243118,-1.4726098522243118,1.129624451465653,3.4004154104343449,0.0
819640.0783812654,3970767.5119837918,-37500.0,1.7075937593680459,-0.73269856251828014,0.15203231301822787,-1.2477013965738728,0.53210028724122116,0.68733324660710393,1.5158515819587537,-0.97815261793630448,1.2399739695521359,-1.2399739695521359,0.97815261793630448,3.0006391037607223,0.0
824640.0783812654,3970767.5119837918,-37500.0,1.6025000707844463,-0.60987844202024255,0.090779103265040045,-1.0924498563788201,0.4183739642832392,0.56544197821843611,1.3374575453171358,-0.84325931045190183,1.0413756010281587,-1.0413756010281587,0.84325931045190183,2.648462353541464,0.0
649640.0783812654,3975767.5119837918,-37500.0,-1.1132921755544913,0.14636110128835633,0.31582094658651289,-0.60982196809689615,0.067004498958149167,-0.26957961288897631,0.88916899624831269,0.31441033302255944,-0.18171781434903106,0.18171781434903106,-0.31441033302255944,1.655849187736719,0.0
654640.0783812654,3975767.5119837918,-37500.0,-1.2780834990562531,0.10171323533724259,0.34561694472729931,-0.74775648678594386,0.035822457114458042,-0.35480073064381218,1.0265128472105087,0.33304148615515933,-0.16917557885764617,0.16917557885764617,-0.33304148615515933,1.9240647970902878,0.0
659640.0783812654,3975767.5119837918,-37500.0,-1.4571656900268235,0.038446264472110157,0.37193693745534201,-0.91489783340972097,-0.01361479642991581,-0.46767124480837641,1.1891675785277875,0.34923996509558097,-0.14993177460274545,0.14993177460274545,-0.34923996509558097,2.2429742218506932,0.0
664640.0783812654,3975767.5119837918,-37500.0,-1.6457943426589539,-0.047512685417603895,0.39065123385512679,-1.1152850379332047,-0.088642665865297815,-0.61693209475551414,1.3818595454635503,0.36185103131526902,-0.12364334229330604,0.12364334229330604,-0.36185103131526902,2.621521164830507,0.0
669640.0783812654,3975767.5119837918,-37500.0,-1.8353234601271633,-0.15986836166576252,0.39570302751541897,-1.3518098921097257,-0.19887110571774416,-0.8135911177197076,1.6098903400577151,0.36986110036413267,-0.091186457614736843,0.091186457614736843,-0.36986110036413267,3.0691036201735669,0.0
674640.0783812654,3975767.5119837918,-37500.0,-2.0117188968892528,-0.30083407433345122,0.37863367673843901,-1.6246949762683169,-0.35641903125108837,-1.0709958147597258,1.8788600792325003,0.37287661805153349,-0.055701554237940432,0.055701554237940432,-0.37287661805153349,3.5946618476776262,0.0
679640.0783812654,3975767.5119837918,-37500.0,-2.154072773281464,-0.46922485872991576,0.32830889178349448,-1.9290929869957183,-0.57570467569098238,-1.4043645412606702,2.1938990191735712,0.3719727396576768,-0.024127122832242553,0.024127122832242553,-0.3719727396576768,4.2050257998387632,0.0
684640.0783812654,3975767.5119837918,-37500.0,-2.2336980493826668,-0.65753035812235194,0.23122846551978454,-2.2516158492808813,-0.8722880775632933,-1.8292472288175115,2.5580391904057844,0.3710388680860604,-0.0092160206824715152,0.0092160206824715152,-0.3710388680860604,4.9021955716875665,0.0
689640.0783812654,3975767.5119837918,-37500.0,-2.2149120951064512,-0.84793100548640155,0.073073800630481106,-2.5658742939152295,-1.2599851189697164,-2.3581269830572373,2.9696030660977804,0.37865223548366678,-0.03173249462784189,0.03173249462784189,-0.37865223548366678,5.6792468474005169,0.0
694640.0783812654,3975767.5119837918,-37500.0,-2.0592631249272171,-1.0078012328747701,-0.15757082813744849,-2.8277965577404864,-1.7452472041922014,-2.9941916384405074,3.4189588917534612,0.41020898943088974,-0.12191527680472297,0.12191527680472297,-0.41020898943088974,6.5147850901873721,0.0
699640.0783812654,3975767.5119837918,-37500.0,-1.7353465609222216,-1.0864281508107532,-0.46233718343076491,-2.9728014998659171,-2.3179304281040571,-3.7215106462132495,3.8851716849159841,0.48939576279591723,-0.31828964106860336,0.31828964106860336,-0.48939576279591723,7.3665348174513285,0.0
704640.0783812654,3975767.5119837918,-37500.0,-1.2356145755137495,-1.0164877611169358,-0.82275276026203459,-2.9187816865370815,-2.9386550299689329,-4.4920278737208008,4.3333732588470051,0.64705236384121356,-0.66075289976478535,0.66075289976478535,-0.64705236384121356,8.1660157368645638,0.0
709640.0783812654,3975767.5119837918,-37500.0,-0.59830400910033121,-0.72554143079244282,-1.1884224056151,-2.580450384488969,-3.5257340572163347,-5.2126238984249929,4.7148031507407531,0.91443337133455227,-1.1745255357537605,1.1745255357537605,-0.91443337133455227,8.8184464787903636,0.0
714640.0783812654,3975767.5119837918,-37500.0,0.074177415573945638,-0.16226208843439932,-1.4697626590106507,-1.8995944225446404,-3.9493076529610636,-5.7400862318771608,4.972965742895509,1.3080819325741702,-1.8441151262321249,1.8441151262321249,-1.3080819325741702,9.2145534208776194,0.0
719640.0783812654,3975767.5119837918,-37500.0,0.61731146597819908,0.66422492297287128,-1.5457868231651313,-0.88865746177308425,-4.0447960317355678,-5.8960171692600225,5.0598810879080913,1.8071469775808042,-2.5841658828832506,2.5841658828832506,-1.8071469775808042,9.2621444279722933,0.0
724640.0783812654,3975767.5119837918,-37500.0,0.84543036798804871,1.6472871551760133,-1.2970899726835097,0.32947148790394626,-3.6562688677840725,-5.5118339576438364,4.9639341093678073,2.3323040861068094,-3.2259405910890919,3.2259405910890919,-2.3323040861068094,8.9418040901644051,0.0
729640.0783812654,3975767.5119837918,-37500.0,0.63294677355467988,2.5778640629735676,-0.66212097855544871,1.5171051021775044,-2.7056969226074594,-4.4994031131301115,4.7421110607127419,2.7446856100534123,-3.5448052706476703,3.5448052706476703,-2.7446856100534123,8.3770421735127165,0.0
734640.0783812654,3975767.5119837918,-37500.0,0.00058725336374382286,3.1983741279651521,0.30840788383807205,2.3803191042634118,-1.2579433155054176,-2.917445043232874,4.5301731520769453,2.881978898256647,-3.3394169979819024,3.3394169979819024,-2.881978898256647,7.8703055228217353,0.0
739640.0783812654,3975767.5119837918,-37500.0,-0.85673616010614251,3.3068897014990863,1.4401159587960215,2.6810611891146707,0.46551028114589871,-0.98762502323422785,4.4836514573398798,2.6268890411628196,-2.5332995203360338,2.5332995203360338,-2.6268890411628196,7.7855134173504208,0.0
744640.0783812654,3975767.5119837918,-37500.0,-1.6406260000157429,2.8545572031083921,2.4902255148090453,2.3436621332368524,2.1508154508632686,0.96640843135887777,4.6533754931857647,1.9710752288733651,-1.2341284994820705,1.2341284994820705,-1.9710752288733651,8.2397244496787785,0.0
749640.0783812654,3975767.5119837918,-37500.0,-2.0848204729511899,1.9688409244204823,3.2444343371577529,1.4853981034670409,3.5064356458896677,2.6318636031288043,4.9387427277699816,1.0289798332753568,0.29873559791799764,-0.29873559791799764,-1.0289798332753568,8.9802646595224882,0.0
754640.0783812654,3975767.5119837918,-37500.0,-2.0666338281207439,0.88681776157131975,3.5952413474112528,0.3522759571799553,4.3608867627229726,3.8072253568542633,5.1871006770493411,-0.010683021152676719,1.7619214667375833,-1.7619214667375833,0.010683021152676719,9.6480892964800944,0.0
759640.0783812654,3975767.5119837918,-37500.0,-1.6290847764170291,-0.15099997341334612,3.5585228506732238,-0.79101023204832077,4.6924626827765268,4.4392712761083422,5.2948406487865585,-0.96195281976413405,2.920523191260552,-2.920523191260552,0.96195281976413405,10.012945648317737,0.0
764640.0783812654,3975767.5119837918,-37500.0,-0.92266266864896473,-0.97980542018901706,3.2343911305039947,-1.7487831727592433,4.592938351105837,4.5949512032056736,5.2300117672141226,-1.6999211405792189,3.6645882048057121,-3.6645882048057121,1.6999211405792189,10.006406610323797,0.0
769640.0783812654,3975767.5119837918,-37500.0,-0.12278275779066103,-1.5331831030788423,2.7498233876024565,-2.4261982288597017,4.2041400334729788,4.4027818791830757,5.0113850162742954,-2.1777665369749415,4.0003462617827452,-4.0003462617827452,2.1777665369749415,9.6678892032050516,0.0
774640.0783812654,3975767.5119837918,-37500.0,0.62956719974448339,-1.8224670767734297,2.215453865964041,-2.8145840427669895,3.6645528825612654,3.9994966719446254,4.6811673812276879,-2.4108823903543692,4.0057012862966213,-4.0057012862966213,2.4108823903543692,9.0853611472556679,0.0
779640.0783812654,3975767.5119837918,-37500.0,1.2501244173515129,-1.9010654947419514,1.7068804402330342,-2.9574132514607112,3.0810290834055776,3.4985047197661645,4.2852862694119924,-2.4487971367641039,3.7833901585699516,-3.7833901585699516,2.4487971367641039,8.354407753269129,0.0
784640.0783812654,3975767.5119837918,-37500.0,1.706629149244397,-1.8340796484950799,1.2647021411833526,-2.9183283084115494,2.5223543075663382,2.9793167023019507,3.862948157951692,-2.350630000664494,3.4292985501295208,-3.4292985501295208,2.350630000664494,7.5568344343035738,0.0
789640.0783812654,3975767.5119837918,-37500.0,2.0026951548463421,-1.6802064237318459,0.90328049339209004,-2.760087855387209,2.0249798927647316,2.4899140383369764,3.4430391780944207,-2.1700101840890089,3.0179842089118227,-3.0179842089118227,2.1700101840890089,6.7532893398564653,0.0
794640.0783812654,3975767.5119837918,-37500.0,2.1612118046093278,-1.4844436078210463,0.62087333115218102,-2.5344037933358412,1.6026550897251941,2.0543542327124147,3.0443793639814398,-1.9486948724392146,2.6001974500542726,-2.6001974500542726,1.9486948724392146,5.9837530506868992,0.0
799640.0783812654,3975767.5119837918,-37500.0,2.212006295458167,-1.277471672216975,0.40772143013118767,-2.2792299976547912,1.2553912525057314,1.680881436274793,2.6776265127421661,-1.7157869729254271,2.206419205864826,-2.206419205864826,1.7157869729254271,5.2714066721748649,0.0
804640.0783812654,3975767.5119837918,-37500.0,2.1844164151271159,-1.078076700955751,0.25133188434254583,-2.0199602841152964,0.97611096908332395,1.3684812261602592,2.3475246720531677,-1.4896414734453038,1.8522335655247095,-1.8522335655247095,1.4896414734453038,4.6272171964770656,0.0
809640.0783812654,3975767.5119837918,-37500.0,2.1036990532109781,-0.8963571824492258,0.1394175741696764,-1.7720933950313267,0.75492833102870016,1.1114460300634155,2.0548958048669279,-1.2805677695479725,1.5433748382863963,-1.5433748382863963,1.2805677695479725,4.0540063526903731,0.0
814640.0783812654,3975767.5119837918,-37500.0,1.9898824617903597,-0.73662788664507506,0.061248201523596897,-1.5440301867227204,0.58159461429859616,0.90223131776950027,1.7981788363476114,-1.093365383743867,1.2796579235170771,-1.2796579235170771,1.093365383743867,3.5495972067565078,0.0
819640.0783812654,3975767.5119837918,-37500.0,1.8579364251146733,-0.59965739114703054,0.0080687359555925899,-1.3394338756794764,0.44671861897156223,0.73307542817946036,1.5745218647537753,-0.92933670769889121,1.0577182291411737,-1.0577182291411737,0.92933670769889121,3.1090460872472949,0.0
824640.0783812654,3975767.5119837918,-37500.0,1.7185188461377481,-0.48423195524658202,-0.026960229710581294,-1.1590083293959097,0.34225027056027857,0.59681544704041067,1.3805081730153403,-0.78773524511929049,0.87277123014903935,-0.87277123014903935,0.78773524511929049,2.7261244162193581,0.0
649640.0783812654,3980767.5119837918,-37500.0,-1.0177006098963657,0.306721726673437,0.34994903586032444,-0.54016113978755409,0.15709369424892028,-0.23187091939791346,0.89070769666730421,0.36487290387247939,-0.26310692781816081,0.26310692781816081,-0.36487290387247939,1.6262983330682865,0.0
654640.0783812654,3980767.5119837918,-37500.0,-1.1885741549100104,0.28979651468099343,0.39653073398524835,-0.6746756381947957,0.14733160864387554,-0.31182405776752115,1.0284536671350082,0.3963792184263959,-0.26237681698467619,0.26237681698467619,-0.3963792184263959,1.8905382553971917,0.0
659640.0783812654,3980767.5119837918,-37500.0,-1.3798946905103016,0.25759206005630192,0.44553253357882383,-0.84127437002313388,0.1240277579244035,-0.41994219171706737,1.1921880775095173,0.42802543767043599,-0.25505495103910425,0.25505495103910425,-0.42802543767043599,2.2067639848086213,0.0
664640.0783812654,3980767.5119837918,-37500.0,-1.5889118517611305,0.20543819472733557,0.49445813236358194,-1.045881868055941,0.080409674778670809,-0.56608046311095506,1.3870782499237813,0.4588290212388581,-0.2397669829751316,0.2397669829751316,-0.4588290212388581,2.5852072789551221,0.0
669640.0783812654,3980767.5119837918,-37500.0,-1.8090866284829243,0.12832585184561451,0.53906139982776158,-1.2939859128050597,0.0071022956991558485,-0.76314100286855735,1.6190915600295468,0.48773909987752523,-0.21578263506373957,0.21578263506373957,-0.48773909987752523,3.0371892901623307,0.0
674640.0783812654,3980767.5119837918,-37500.0,-2.0281995211044035,0.021742785290980948,0.57265611458905441,-1.589162185747562,-0.10846027685250129,-1.0275247629206394,1.8948760661051551,0.51397821969897817,-0.183938032662912,0.183938032662912,-0.51397821969897817,3.5743821737465935,0.0
679640.0783812654,3980767.5119837918,-37500.0,-2.2261099373852025,-0.11667304682151723,0.58540894020809153,-1.9304943691814065,-0.28235292549554269,-1.3791117493198943,2.2213027314827984,0.53773975652397576,-0.14816372573120262,0.14816372573120262,-0.53773975652397576,4.2072705862722115,0.0
684640.0783812654,3980767.5119837918,-37500.0,-2.3726444223655916,-0.28425418962350912,0.56390951413594104,-2.3084527291605719,-0.53368903973081361,-1.8401163509761138,2.60422055231912,0.56142741397117146,-0.117780599257019,0.117780599257019,-0.56142741397117146,4.9423550134639989,0.0
689640.0783812654,3980767.5119837918,-37500.0,-2.4267612676928438,-0.46885032091383949,0.49163406669533644,-2.6989590818409543,-0.88243043568101021,-2.4317081491400567,3.045774972037921,0.59158832772992964,-0.11051513565509596,0.11051513565509596,-0.59158832772992964,5.7775553154614574,0.0
694640.0783812654,3980767.5119837918,-37500.0,-2.3391660810571748,-0.64290362787859201,0.35137879147439971,-3.0560492578750593,-1.3440445732003041,-3.1667803325193131,3.5400325806363937,0.64145082786568508,-0.15558957538579798,0.15558957538579798,-0.64145082786568508,6.6953987341439731,0.0
699640.0783812654,3980767.5119837918,-37500.0,-2.0616656229276007,-0.75740057459152321,0.13116663827866779,-3.3051933155616386,-1.9192806495822325,-4.0370576438605941,4.0676382545483278,0.73331062173836448,-0.29501129569240597,0.29501129569240597,-0.73331062173836448,7.6542263097351091,0.0
704640.0783812654,3980767.5119837918,-37500.0,-1.5667093146376803,-0.73946725112806178,-0.16502713935106661,-3.3422954036029715,-2.5780309131794903,-4.993771913873073,4.590925337846862,0.89870271475542363,-0.57927711198687293,0.57927711198687293,-0.89870271475542363,8.5793417490953505,0.0
709640.0783812654,3980767.5119837918,-37500.0,-0.87752963360932201,-0.5006411746996956,-0.5022574190979906,-3.0470588978547886,-3.2393182104555942,-5.9249044093880316,5.0518591070805794,1.1725333345883513,-1.0519642356024539,1.0519642356024539,-1.1725333345883513,9.3592807851830369,0.0
714640.0783812654,3980767.5119837918,-37500.0,-0.10021874061826755,0.035477284175678352,-0.80072224223290256,-2.3206394502404635,-3.7562137660383779,-6.6397482543246547,5.3775894222066531,1.576531835315262,-1.718844521863176,1.718844521863176,-1.576531835315262,9.8571036287943539,0.0
719640.0783812654,3980767.5119837918,-37500.0,0.56569388821688771,0.88309685000000293,-0.93585571250331911,-1.1496688119522902,-3.9235369201020345,-6.8813138303732639,5.5008629930733512,2.0908491647663463,-2.5058831979187359,2.5058831979187359,-2.0908491647663463,9.9507660438246361,0.0
724640.0783812654,3980767.5119837918,-37500.0,0.87126765798366956,1.9373782315043728,-0.76921801104909782,0.32439724900127792,-3.5291824220993231,-6.3893284057438935,5.4013113331176008,2.6239428580742041,-3.2289257917334711,3.2289257917334711,-2.6239428580742041,9.6144648476294101,0.0
729640.0783812654,3980767.5119837918,-37500.0,0.63110307893024475,2.9533600594929044,-0.21531349798547428,1.7824667948394954,-2.4519207590577463,-5.0151705715061814,5.1612047832103034,3.0068303074341873,-3.6151568217419534,3.6151568217419534,-3.0068303074341873,9.0306170506224817,0.0
734640.0783812654,3980767.5119837918,-37500.0,-0.14077855383430443,3.608866365736938,0.6838263863885925,2.8076371822888841,-0.76445151726130889,-2.8408250958977899,4.9884335768585792,3.0404292848860273,-3.4037185960813217,3.4037185960813217,-3.0404292848860273,8.641185318013429,0.0
739640.0783812654,3980767.5119837918,-37500.0,-1.1782221259526815,3.6496380006996079,1.7356920623425944,3.0632699114197592,1.2374523488869544,-0.21316124903145339,5.1002244512557073,2.5922170250101297,-2.491258863571808,2.491258863571808,-2.5922170250101297,8.9058654277650806,0.0
744640.0783812654,3980767.5119837918,-37500.0,-2.070597537903105,3.0303532131511091,2.6666844664370943,2.4665325281984103,3.131625564716253,2.3639431219424809,5.4979930349267265,1.6840949099815217,-1.021126333018167,1.021126333018167,-1.6840949099815217,9.8143276869671148,0.0
749640.0783812654,3980767.5119837918,-37500.0,-2.4747775933615928,1.9409671783804638,3.2493053636962186,1.2271411171165199,4.5463526269126397,4.4299762210021285,5.9655607872831888,0.49891939472198255,0.66726816323278326,-0.66726816323278326,-0.49891939472198255,10.897018888488804,0.0
754640.0783812654,3980767.5119837918,-37500.0,-2.2741017027466368,0.6974523076644461,3.3967785410716305,-0.27598703866481961,5.2993232068051697,5.731152029279527,6.2858547519914536,-0.70537051820019658,2.1991000049132357,-2.1991000049132357,0.70537051820019658,11.695402509945151,0.0
759640.0783812654,3980767.5119837918,-37500.0,-1.5829508167292021,-0.41195069474345575,3.1671623177759969,-1.6775848707152281,5.4189429255809056,6.2562686134064558,6.3574492771654327,-1.7085701568298188,3.3165550814512863,-3.3165550814512863,1.7085701568298188,11.992771460226626,0.0
764640.0783812654,3980767.5119837918,-37500.0,-0.63525517294768674,-1.2214277410627103,2.6985524032632564,-2.7471539545023411,5.0685915625121032,6.162099887359223,6.1822326728518453,-2.3946806534611622,3.9350476444161031,-3.9350476444161031,2.3946806534611622,11.783264317864864,0.0
769640.0783812654,3980767.5119837918,-37500.0,0.33879534943733863,-1.6946090450522069,2.1353524931375736,-3.4092557577982014,4.4481144107044921,5.6662131807483069,5.8171587706053103,-2.7524971372548124,4.1077283073132076,-4.1077283073132076,2.7524971372548124,11.174941928383449,0.0
774640.0783812654,3980767.5119837918,-37500.0,1.1816689110031875,-1.8798800101561819,1.5847761364344042,-3.6990090803282309,3.7267863711230378,4.9679137760235479,5.3341658222956978,-2.8377145513359596,3.9548302777216979,-3.9548302777216979,2.8377145513359596,10.309633553406162,0.0
779640.0783812654,3980767.5119837918,-37500.0,1.8195966386983611,-1.859097653336518,1.1069138286928908,-3.7036380654795118,3.0185373684616166,4.2132462616610287,4.7974381422691161,-2.7308325422524913,3.6047140061407088,-3.6047140061407088,2.7308325422524913,9.316524501828793,0.0
784640.0783812654,3980767.5119837918,-37500.0,2.2422435172374611,-1.7128121503932698,0.72395074350948996,-3.5189719230637664,2.3852780248322958,3.4920650517655205,4.254768106934109,-2.5086730889188549,3.1623304988216963,-3.1623304988216963,2.5086730889188549,8.2936229815460969,0.0
789640.0783812654,3980767.5119837918,-37500.0,2.4754694607388648,-1.5044636325633718,0.43452173361799751,-3.2266929669046873,1.8512949232923654,2.8499235853336145,3.7371519133653512,-2.2314646147055317,2.7002571076259034,-2.7002571076259034,2.2314646147055317,7.305934468836047,0.0
794640.0783812654,3980767.5119837918,-37500.0,2.5595618422400817,-1.2773190992607724,0.22582505912063858,-2.8870362629859727,1.4181420428361162,2.3029406370307508,3.2619207733732867,-1.9405132202457782,2.2620001332404156,-2.2620001332404156,1.9405132202457782,6.3911065885570686,0.0
799640.0783812654,3980767.5119837918,-37500.0,2.5358297307949966,-1.0574665416441207,0.081498195810392041,-2.5398599907535497,1.0758941233897532,1.8502202138779218,2.8366544580370179,-1.6610010427930488,1.86953661196981,-1.86953661196981,1.6610010427930488,5.5669657720762062,0.0
804640.0783812654,3980767.5119837918,-37500.0,2.4400759549298523,-0.8585297178736242,-0.014174111695841322,-2.2089422129302361,0.81028937621423658,1.4824711613817469,2.4626302170348233,-1.4062822319512249,1.5308009391380604,-1.5308009391380604,1.4062822319512249,4.8383212223891112,0.0
809640.0783812654,3980767.5119837918,-37500.0,2.3004609590060943,-0.68602206963189649,-0.074485705579288269,-1.906698854381345,0.60667530177470219,1.1872870971966381,2.1374335872149817,-1.1818838513542778,1.2455196476268844,-1.2455196476268844,1.1818838513542778,4.2021832807894981,0.0
814640.0783812654,3980767.5119837918,-37500.0,2.1376897305333151,-0.54065640866131437,-0.10989465004838288,-1.6381514382761311,0.45186954156571774,0.95203926771117164,1.8567584488903486,-0.98859433259823937,1.0091977407503643,-1.0091977407503643,0.98859433259823937,3.6513914902950662,0.0
819640.0783812654,3980767.5119837918,-37500.0,1.966177979951254,-0.42059480300212992,-0.12825070269855762,-1.4038593804737147,0.33481726381692584,0.76525929785080382,1.6155599983796287,-0.82460369635100716,0.81559765422343544,-0.81559765422343544,0.82460369635100716,3.1769592223101952,0.0
824640.0783812654,3980767.5119837918,-37500.0,1.7954561401548161,-0.32285841326280079,-0.13525453845578672,-1.2019166301960214,0.24662870169959425,0.61715199592239034,1.4087392469020537,-0.68687596522375671,0.6581548566115748,-0.6581548566115748,0.68687596522375671,2.7694910289204282,0.0
829640.0783812654,3980767.5119837918,-37500.0,1.6314636961971876,-0.24414818503586191,-0.1349438653388865,-1.0292289487046649,0.18034203283995154,0.49965138921909308,1.2315110670305562,-0.57197124007769573,0.53070850385267354,-0.53070850385267354,0.57197124007769573,2.4199761147878678,0.0
644640.0783812654,3985767.5119837918,-37500.0,-0.72719934906015693,0.44571596955818149,0.30586698944592577,-0.34365383512896458,0.22835184519341606,-0.12952986681409187,0.77776658090634987,0.35855553599219986,-0.32773395481845197,0.32773395481845197,-0.35855553599219986,1.3833721095445344,0.0
649640.0783812654,3985767.5119837918,-37500.0,-0.86990209728233692,0.46702328467842302,0.35615386810832217,-0.44004002013701637,0.24588352411846101,-0.17973680806677209,0.89291532644774585,0.39761928602538499,-0.34524349940112053,0.34524349940112053,-0.39761928602538499,1.5968638364996812,0.0
654640.0783812654,3985767.5119837918,-37500.0,-1.0364024147896957,0.48207116995774579,0.41391470926780594,-0.56266877714606633,0.25966847545755389,-0.24920619198583807,1.0294274736100493,0.43982108066691217,-0.35941225764622409,0.35941225764622409,-0.43982108066691217,1.8522048860973921,0.0
659640.0783812654,3985767.5119837918,-37500.0,-1.2280736807797235,0.48734289842596235,0.47928035131300523,-0.71806074025609223,0.26614899334589148,-0.34543418663553743,1.191723569453375,0.48477704946310257,-0.36844536100155861,0.36844536100155861,-0.48477704946310257,2.1584672826619751,0.0
664640.0783812654,3985767.5119837918,-37500.0,-1.4444612636019631,0.47832559862470919,0.55162383695906481,-0.91366582926772044,0.25990189155128962,-0.47873777004515622,1.3850741375212934,0.53185222865137605,-0.37027626587602569,0.37027626587602569,-0.53185222865137605,2.5264006363298943,0.0
669640.0783812654,3985767.5119837918,-37500.0,-1.6818330506000334,0.44957521959949087,0.62902319037740839,-1.1573374555837714,0.23288934542348208,-0.66311835365477345,1.6156597223845959,0.58019325532618871,-0.3628550976098468,0.3628550976098468,-0.58019325532618871,2.9683478433609749,0.0
674640.0783812654,3985767.5119837918,-37500.0,-1.9310706948997334,0.39515327640974091,0.70749865350264585,-1.4560901171149137,0.17357198033775284,-0.9171451436194159,1.8905402340383952,0.62891106802687757,-0.34480510952600107,0.34480510952600107,-0.62891106802687757,3.497741509720774,0.0
679640.0783812654,3985767.5119837918,-37500.0,-2.1748564585206891,0.30978005343169868,0.78002818748880232,-1.8136316104696761,0.066049238435595611,-1.2645383046576302,2.2174129250933583,0.67755925225328939,-0.31669886174925044,0.31669886174925044,-0.67755925225328939,4.1278196038989305,0.0
684640.0783812654,3985767.5119837918,-37500.0,-2.3844216993739971,0.19121968516280305,0.83547800154919849,-2.2259792781369034,-0.11033774442192884,-1.7337423116332937,2.6038449173252523,0.72712488065994618,-0.2832700773986212,0.2832700773986212,-0.72712488065994618,4.86900244210773,0.0
689640.0783812654,3985767.5119837918,-37500.0,-2.5168369346423702,0.04452765409298802,0.85787833396227275,-2.6744392789288658,-0.3800121470279163,-2.3551214966106651,3.0552371475020292,0.78178441616118621,-0.25681762403201897,0.25681762403201897,-0.78178441616118621,5.7241736233968687,0.0
694640.0783812654,3985767.5119837918,-37500.0,-2.5151444602733721,-0.11139641671810406,0.82700556941040482,-3.1157229066670222,-0.76709012305698621,-3.1534791683534542,3.5703730028883784,0.85154624970030679,-0.26163602666757152,0.26163602666757152,-0.85154624970030679,6.6810586985184788,0.0
699640.0783812654,3985767.5119837918,-37500.0,-2.3155395595461501,-0.23551966205598826,0.72197953170454976,-3.4707120154091218,-1.28570352935929,-4.1327289908725016,4.1341478637585922,0.9553299412422015,-0.33810530855610799,0.33810530855610799,-0.9553299412422015,7.7013948191669082,0.0
704640.0783812654,3985767.5119837918,-37500.0,-1.8673831077742613,-0.25783355675960928,0.53015474112648042,-3.6173102667513635,-1.9220609308723575,-5.2498923849266044,4.7092816659719006,1.1226224391866368,-0.54264755082571381,0.54264755082571381,-1.1226224391866368,8.7084120570819348,0.0
709640.0783812654,3985767.5119837918,-37500.0,-1.1701883343511541,-0.081787437026265092,0.26276093171910958,-3.399129110017554,-2.6081198098921075,-6.379706140267464,5.2308225002250843,1.3894363775256264,-0.93636919785706962,0.93636919785706962,-1.3894363775256264,9.5784427016287594,0.0
714640.0783812654,3985767.5119837918,-37500.0,-0.32160427710467721,0.39136627170134114,-0.025674157465998763,-2.6672490828829769,-3.1948527442061798,-7.2824517563516027,5.6098778637198814,1.7820654942464162,-1.5535827845078203,1.5535827845078203,-1.7820654942464162,10.150088893706769,0.0
719640.0783812654,3985767.5119837918,-37500.0,0.45186897652418717,1.2059677062470129,-0.22661897085465402,-1.3666596033566971,-3.447631186579255,-7.6062452431927179,5.7580679143977473,2.2843635413745509,-2.3485469720529264,2.3485469720529264,-2.2843635413745509,10.273804039008974,0.0
724640.0783812654,3985767.5119837918,-37500.0,0.83345026874950745,2.2741579071672171,-0.19801267856631513,0.35305712594173605,-3.0980312436766821,-6.9677269981270102,5.6474548284328492,2.7977504082340103,-3.1426736695640423,3.1426736695640423,-2.7977504082340103,9.9276573564869608,0.0
729640.0783812654,3985767.5119837918,-37500.0,0.56283544082299064,3.3299742849838267,0.16787680599334068,2.0802148343809472,-1.9700031829088869,-5.1293434361819417,5.4067482280934644,3.1276595846837343,-3.6276541871772099,3.6276541871772099,-3.1276595846837343,9.3914600889366149,0.0
734640.0783812654,3985767.5119837918,-37500.0,-0.3598491541732825,3.9928208627592352,0.85293814017570135,3.2415150820755478,-0.13247717545962864,-2.2036310503021048,5.3656222537978344,3.0411002836648482,-3.4794143910689161,3.4794143910689161,-3.0411002836648482,9.3010357473392009,0.0
739640.0783812654,3985767.5119837918,-37500.0,-1.5805343147580091,3.9566641608778124,1.6734201688106227,3.3752301148563837,2.0445472419798274,1.2781197065194945,5.7949689068066119,2.396278916235755,-2.5542369824642557,2.5542369824642557,-2.396278916235755,10.155826979113126,0.0
744640.0783812654,3985767.5119837918,-37500.0,-2.5499037106706743,3.1845628783407811,2.3554978689669048,2.4063472250442288,4.0254586465773201,4.5520341604456105,6.5346228745588277,1.2580575013091768,-1.0205940488424563,1.0205940488424563,-1.2580575013091768,11.664965664669127,0.0
749640.0783812654,3985767.5119837918,-37500.0,-2.8451189401483723,1.9365197020452196,2.6858418120202541,0.68917088100289725,5.3667743356016908,6.9680906554639161,7.2028018831590082,-0.11100490876826763,0.70938749197854856,-0.70938749197854856,0.11100490876826763,13.103286907109394,0.0
754640.0783812654,3985767.5119837918,-37500.0,-2.3854231853122037,0.60412693363799375,2.6142289365024096,-1.2180879834355731,5.901823037189069,8.2432123736766911,7.5496502007382773,-1.387967506636463,2.2031831107863757,-2.2031831107863757,1.387967506636463,13.959427044451834,0.0
759640.0783812654,3985767.5119837918,-37500.0,-1.3930143881413735,-0.49576217231614272,2.2382037250149569,-2.8419959157727863,5.7364993560638764,8.4695499610034606,7.5168185546776716,-2.340121596810369,3.2006782467277057,-3.2006782467277057,2.340121596810369,14.083083311413837,0.0
764640.0783812654,3985767.5119837918,-37500.0,-0.20097131156824094,-1.2200542277373909,1.7144836871218569,-3.943152730944294,5.1162438114668838,7.9499455272300565,7.1669244635172031,-2.8865232649600019,3.6585796368083328,-3.6585796368083328,2.8865232649600019,13.569543408378506,0.0
769640.0783812654,3985767.5119837918,-37500.0,0.91406740733598901,-1.5770617721628053,1.1792274516214063,-4.4995647365974065,4.2904114693901683,7.0196767759184864,6.6074900329041384,-3.0681639565248862,3.6791030590816529,-3.6791030590816529,3.0681639565248862,12.615558792475808,0.0
774640.0783812654,3985767.5119837918,-37500.0,1.7971217942977142,-1.653648520098612,0.714795954720715,-4.6138291401133911,3.4411637561600674,5.9440313819238417,5.9423597832852453,-2.9839164279760517,3.4145206940600339,-3.4145206940600339,2.9839164279760517,11.421354474348448,0.0
779640.0783812654,3985767.5119837918,-37500.0,2.4019951268856188,-1.5526719906375415,0.3533651753329537,-4.426315436506199,2.6721285813555755,4.8919358008441796,5.2508675802852407,-2.7385851911321542,3.0034288659413884,-3.0034288659413884,2.7385851911321542,10.145326298758208,0.0
784640.0783812654,3985767.5119837918,-37500.0,2.7501273112356688,-1.3600171527476159,0.094646834665966337,-4.0644449033261543,2.0263157080331218,3.9507835771881146,4.5846840946108331,-2.4166398614965341,2.5458498403518441,-2.5458498403518441,2.4166398614965341,8.8942348987089321,0.0
789640.0783812654,3985767.5119837918,-37500.0,2.8928012981770399,-1.1351591148188822,-0.077187106387294979,-3.6237791447627905,1.5095906744680481,3.1528960309751941,3.9725906087224603,-2.0757071794048665,2.1027406753817433,-2.1027406753817433,2.0757071794048665,7.7303709655500885,0.0
794640.0783812654,3985767.5119837918,-37500.0,2.8867871757522563,-0.913774262854676,-0.18235089471224547,-3.1672991866612143,1.1092614207728255,2.4989840979556508,3.4271879221075121,-1.7500108632233007,1.7052026860194436,-1.7052026860194436,1.7500108632233007,6.6836714353340447,0.0
799640.0783812654,3985767.5119837918,-37500.0,2.7822303225282492,-0.7141861275004795,-0.23970939442699121,-2.7319650815395584,0.80582418001336564,1.9744840300966915,2.9508534155206148,-1.4568261435092444,1.3648876031680159,-1.3648876031680159,1.4568261435092444,5.7630509320329235,0.0
804640.0783812654,3985767.5119837918,-37500.0,2.6184928110953911,-0.54362039499398362,-0.26459700470614289,-2.3365405206952645,0.57926187767852877,1.5593763834938832,2.5401713304082967,-1.2025560504396857,1.0822802157709033,-1.0822802157709033,1.2025560504396857,4.9650653461898973,0.0
809640.0783812654,3985767.5119837918,-37500.0,2.4241586375992732,-0.40293749993041733,-0.26851847622321945,-1.9882083041096836,0.41185955775487543,1.2333924815436188,2.1888990945433999,-0.98731900847983034,0.85229288993045593,-0.85229288993045593,0.98731900847983034,4.2798321059908773,0.0
814640.0783812654,3985767.5119837918,-37500.0,2.2187555749112513,-0.28977108690029996,-0.25965241995914379,-1.6873814396805622,0.28908816587549252,0.97838129073739144,1.8897936424964501,-0.80801479070614157,0.66765120009757106,-0.66765120009757106,0.80801479070614157,3.694762121117193,0.0
819640.0783812654,3985767.5119837918,-37500.0,2.0148806259300631,-0.20042442520346912,-0.24357971905466216,-1.4308952479766157,0.19955091824340832,0.77910147593453183,1.6356414495413845,-0.66020216411214838,0.52075391617139133,-0.52075391617139133,0.66020216411214838,3.1967468185053898,0.0
824640.0783812654,3985767.5119837918,-37500.0,1.8201396812394572,-0.13092289210421282,-0.22397610918022581,-1.2139837942509304,0.13455226810995893,0.62322728050779264,1.4197759454148304,-0.53916039150344897,0.4045819938787743,-0.4045819938787743,0.53916039150344897,2.7733348931001189,0.0
829640.0783812654,3985767.5119837918,-37500.0,1.6387046439037094,-0.077541184160899487,-0.2031776868889193,-1.0314273303363779,0.08757369774498,0.50101675141083313,1.23628940025223,-0.44043480889565034,0.31306038169459394,-0.31306038169459394,0.44043480889565034,2.4132860192483463,0.0
644640.0783812654,3990767.5119837918,-37500.0,-0.54398044320691419,0.56685107133182377,0.28000929002174446,-0.23194129524211451,0.29119471689404602,-0.076075316134630422,0.78620222355706937,0.36376994573793275,-0.3895390277500409,0.3895390277500409,-0.36376994573793275,1.3755286480262934,0.0
649640.0783812654,3990767.5119837918,-37500.0,-0.66930111128029035,0.61539519258220121,0.33164459727988332,-0.30955428118699091,0.3268111344927796,-0.11333468627803467,0.9002901070569902,0.40800780503559136,-0.42101088456879582,0.42101088456879582,-0.40800780503559136,1.5806709369929208,0.0
654640.0783812654,3990767.5119837918,-37500.0,-0.81922160225505658,0.66374959876567308,0.39305678606920436,-0.41092678717487546,0.36418819146895243,-0.16670636048839102,1.0350407970536124,0.4571394942762671,-0.45175698511579088,0.45175698511579088,-0.4571394942762671,1.8249759135793053,0.0
659640.0783812654,3990767.5119837918,-37500.0,-0.99664255623401798,0.70944402162741771,0.46559237241313645,-0.54285776320487145,0.40141255459216008,-0.24310800264777774,1.1946322165553869,0.51119280728036054,-0.48009366868499254,0.48009366868499254,-0.51119280728036054,2.1169584302589586,0.0
664640.0783812654,3990767.5119837918,-37500.0,-1.2033428210802799,0.74891976802461613,0.5503324786092344,-0.71357797140091916,0.43508900524868371,-0.35236713918009621,1.3840291593782319,0.56994596523805696,-0.50376403794368652,0.50376403794368652,-0.56994596523805696,2.4668465663730998,0.0
669640.0783812654,3990767.5119837918,-37500.0,-1.4386810414167617,0.77734258753991758,0.64768216499641551,-0.93252723921150338,0.45956397435827795,-0.50829747097664224,1.6090351620348953,0.63287543314560346,-0.51998157927375521,0.51998157927375521,-0.63287543314560346,2.8866260163744739,0.0
674640.0783812654,3990767.5119837918,-37500.0,-1.6975349081694093,0.78861454194375258,0.75669589451239905,-1.2095078184777914,0.46587591388103289,-0.72996654318541065,1.8762658804177752,0.69918551574074284,-0.52573104476673083,0.52573104476673083,-0.69918551574074284,3.3897475667490999,0.0
679640.0783812654,3990767.5119837918,-37500.0,-1.9672674562414079,0.77587737894575159,0.87404904457487975,-1.5526492883568295,0.44047454804719821,-1.0429132393431289,2.1929702625174232,0.76804150976069407,-0.51858452767337382,0.51858452767337382,-0.76804150976069407,3.9901500383886059,0.0
684640.0783812654,3990767.5119837918,-37500.0,-2.2237125070641373,0.73301976102208655,0.99261488715489288,-1.9643092367882098,0.36396495311183896,-1.4796569471041785,2.5665406641324391,0.83921860866313669,-0.49843574816055936,0.49843574816055936,-0.83921860866313669,4.7000161709735728,0.0
689640.0783812654,3990767.5119837918,-37500.0,-2.4267949092996091,0.6579653155490407,1.0997884836670171,-2.43375745522405,0.21060337690689537,-2.0780365853513283,3.0032689889550959,0.91447621572392701,-0.47067173435045945,0.47067173435045945,-0.91447621572392701,5.5253814304301807,0.0
694640.0783812654,3990767.5119837918,-37500.0,-2.5178071807266349,0.55865139028318256,1.1761420771767095,-2.9256224178663532,-0.049851739323903743,-2.8745793113479388,3.5051521659089633,0.99997134717527569,-0.45118271882549543,0.45118271882549543,-0.99997134717527569,6.4584808532196831,0.0
699640.0783812654,3990767.5119837918,-37500.0,-2.4228643037800213,0.46210506423332776,1.1958365326531053,-3.3645123384388045,-0.44501623624973247,-3.8883652164204316,4.0627182896218725,1.1096619300378363,-0.47277544865416021,0.47277544865416021,-1.1096619300378363,7.465954024515943,0.0
704640.0783812654,3990767.5119837918,-37500.0,-2.0702084195843988,0.42485646421301304,1.1313751716349754,-3.6205478227161594,-0.98335804818921402,-5.0898828742689686,4.6434483842758878,1.2683924678830589,-0.59018567292293578,0.59018567292293578,-1.2683924678830589,8.4737181506628225,0.0
709640.0783812654,3990767.5119837918,-37500.0,-1.429944076527383,0.53780462596763856,0.96591709805053672,-3.5093104654148517,-1.6250829493270977,-6.3526011168338758,5.180725948290946,1.5106142107650438,-0.87632564602322494,0.87632564602322494,-1.5106142107650438,9.3542969289353906,0.0
714640.0783812654,3990767.5119837918,-37500.0,-0.57606416028339169,0.91091506189168903,0.71403707373759384,-2.8310212264679331,-2.2446783579497942,-7.3988561825167602,5.5736832827165932,1.8669895977599396,-1.3971972476015488,1.3971972476015488,-1.8669895977599396,9.933077553107573,0.0
719640.0783812654,3990767.5119837918,-37500.0,0.25740321003739375,1.6196176200045957,0.44293509939857373,-1.4748809086258599,-2.6078939264013359,-7.7811865435490866,5.7154179162220684,2.3308409953654707,-2.1548054682085271,2.1548054682085271,-2.3308409953654707,10.047059223288969,0.0
724640.0783812654,3990767.5119837918,-37500.0,0.69659003271861297,2.6129445940258855,0.27127474189466028,0.4221289074280174,-2.4095885295892518,-6.9721187396274535,5.5801410615958789,2.8095712447248791,-3.011299315901327,3.011299315901327,-2.8095712447248791,9.7038000635576935,0.0
729640.0783812654,3990767.5119837918,-37500.0,0.40002823780237245,3.6375222273506149,0.31814923814211926,2.3631104540011041,-1.413984710425976,-4.6153643651625265,5.3909032124631757,3.0988827122915605,-3.6574647753621807,3.6574647753621807,-3.0988827122915605,9.3378716527921259,0.0
734640.0783812654,3990767.5119837918,-37500.0,-0.65729910204963471,4.2843468502434892,0.60983624116398505,3.6008866035526479,0.342700347517021,-0.85337761978533011,5.6576475046421262,2.9426824458128902,-3.7157061881773972,3.7157061881773972,-2.9426824458128902,9.8087157243993932,0.0
739640.0783812654,3990767.5119837918,-37500.0,-2.0295325661582151,4.2083782008639625,1.020543240452163,3.530624466781215,2.4538860605571755,3.5426646495160807,6.5859289126873684,2.1921649412574578,-2.9775632500939526,2.9775632500939526,-2.1921649412574578,11.486890760108338,0.0
744640.0783812654,3990767.5119837918,-37500.0,-3.0177811422277778,3.3761505232132847,1.3324464779677347,2.1051379425261958,4.3063955795393696,7.4730191150105538,7.7190094190726652,0.94996734130134652,-1.5926944768185345,1.5926944768185345,-0.94996734130134652,13.655369799005456,0.0
749640.0783812654,3990767.5119837918,-37500.0,-3.13204001252927,2.0977303995406262,1.3830595768005609,-0.12596938398618424,5.4195943191010993,10.075628983218289,8.5434713850735786,-0.45692279549030879,-0.0013837441385939897,0.0013837441385939897,0.45692279549030879,15.380498523766013,0.0
754640.0783812654,3990767.5119837918,-37500.0,-2.3644564034313054,0.80707824954596286,1.1601625947423799,-2.3954853989899365,5.6692715554404778,11.091867460813896,8.839223435920923,-1.6684154840909786,1.3409262821589298,-1.3409262821589298,1.6684154840909786,16.17585462920637,0.0
759640.0783812654,3990767.5119837918,-37500.0,-1.0723549448377696,-0.1854440981362874,0.77078297634992765,-4.1405679422518284,5.242747689933176,10.797658619577231,8.6291022691128987,-2.4699905307110979,2.1887204699496841,-2.1887204699496841,2.4699905307110979,16.012857162450459,0.0
764640.0783812654,3990767.5119837918,-37500.0,0.31604315363839786,-0.77953422770953862,0.34799291136739374,-5.157492112561326,4.4453860445810731,9.6935636078763086,8.0542201386136654,-2.8331553892363055,2.5338835774934032,-2.5338835774934032,2.8331553892363055,15.117733557515662,0.0
769640.0783812654,3990767.5119837918,-37500.0,1.5024340894532238,-1.0269710672247414,-0.015070341467638229,-5.513928883519168,3.5416536075239278,8.2419981632130828,7.2756869835141647,-2.8488672395758097,2.5038534463702713,-2.5038534463702713,2.8488672395758097,13.782453942963764,0.0
774640.0783812654,3990767.5119837918,-37500.0,2.359253368623345,-1.037838019377004,-0.2793374490536743,-5.3943059806972986,2.6962080533931294,6.7582306933635046,6.4240912591283088,-2.6437125318432426,2.2539783015129848,-2.2539783015129848,2.6437125318432426,12.257887749854596,0.0
779640.0783812654,3990767.5119837918,-37500.0,2.8819341482678524,-0.91764242313582511,-0.44446305053650198,-4.9896518525480218,1.9836437591261795,5.4120535390535442,5.5863886411432118,-2.328248914899171,1.9094632436995331,-1.9094632436995331,2.328248914899171,10.719291575401684,0.0
784640.0783812654,3990767.5119837918,-37500.0,3.1270280106920039,-0.74309842554173322,-0.52871585459187653,-4.449394376820381,1.4204487246623982,4.2705917347704281,4.8115516145854222,-1.9796140707431871,1.5510372911986812,-1.5510372911986812,1.9796140707431871,9.2711227895118036,0.0
789640.0783812654,3990767.5119837918,-37500.0,3.1683076933983476,-0.56097270836434265,-0.55494046348768833,-3.8730085354591797,0.99367187508115529,3.3416844806273001,4.1216060658607194,-1.6434464706336138,1.2219344797751099,-1.2219344797751099,1.6434464706336138,7.9652350262494993,0.0
794640.0783812654,3990767.5119837918,-37500.0,3.0739226091252925,-0.39544125908902211,-0.54355228011628087,-3.31864878170629,0.67945418619105824,2.604737551492478,3.5218083272092477,-1.3423553529633918,0.94019747041808888,-0.94019747041808888,1.3423553529633918,6.8193385734053775,0.0
799640.0783812654,3990767.5119837918,-37500.0,2.8979442325568439,-0.2562673877222213,-0.51021349778590086,-2.8155685163550523,0.45281627735560948,2.029044546967766,3.0081375659575733,-1.0844343865190302,0.70931157970564707,-0.70931157970564707,1.0844343865190302,5.8312608820213896,0.0
804640.0783812654,3990767.5119837918,-37500.0,2.6794960586650487,-0.14511059257795619,-0.46585622871529148,-2.3748924813875352,0.29186813568884717,1.5832473344924805,2.5721759886003195,-0.86966600309129005,0.52548990240132853,-0.52548990240132853,0.86966600309129005,4.988585873516092,0.0
809640.0783812654,3990767.5119837918,-37500.0,2.4450131535392403,-0.059652990072929617,-0.41758037420484617,-1.9973912305580372,0.17902528317144242,1.2394753299606585,2.2040068461340367,-0.69408995478163749,0.382036373209444,-0.382036373209444,0.69408995478163749,4.2746156734123355,0.0
814640.0783812654,3990767.5119837918,-37500.0,2.2112827840916314,0.0039808137121962869,-0.36969305819740172,-1.6785360475787676,0.10084715645792848,0.97463517046714798,1.8937818182744834,-0.55225757699214328,0.27168961673368031,-0.27168961673368031,0.55225757699214328,3.6717820985412488,0.0
819640.0783812654,3990767.5119837918,-37500.0,1.9882416656140767,0.049935787529117773,-0.3246004118255868,-1.4115448752786319,0.047370052255896612,0.77034105279868004,1.6324717066548562,-0.43855005801201602,0.18773525128352048,-0.18773525128352048,0.43855005801201602,3.1634313511390251,0.0
824640.0783812654,3990767.5119837918,-37500.0,1.7811992957685239,0.082018562550133303,-0.28348022505017623,-1.1890923365426473,0.011350295426037344,0.61229930269313171,1.4121525836473245,-0.34780847574858709,0.12443122383829566,-0.12443122383829566,0.34780847574858709,2.7346323730645055,0.0
829640.0783812654,3990767.5119837918,-37500.0,1.5924709047447205,0.10346716590492328,-0.24675359188365617,-1.0041912808817401,-0.012412231192708142,0.48955358889869655,1.2260475155042636,-0.27557634831316846,0.077081924482188244,-0.077081924482188244,0.27557634831316846,2.3724332970683797,0.0
644640.0783812654,3995767.5119837918,-37500.0,-0.32209106590935627,0.6657953445332776,0.23049935742575633,-0.099486341160204952,0.34145717636722173,-0.013505751365178649,0.80329373168487117,0.34787178888190573,-0.43778154332386288,0.43778154332386288,-0.34787178888190573,1.3926168572985038,0.0
649640.0783812654,3995767.5119837918,-37500.0,-0.41995134869825979,0.73895554739623659,0.2768838953874983,-0.15141885012395459,0.39285632883173155,-0.034041620888909205,0.9174875386375414,0.39307939533100983,-0.48234768645260789,0.48234768645260789,-0.39307939533100983,1.5923402177160135,0.0
654640.0783812654,3995767.5119837918,-37500.0,-0.54063997849347867,0.8181918914802927,0.33344358634152044,-0.22220712934686634,0.45131804631244093,-0.065850792877454642,1.051576170389076,0.44412699238618775,-0.52930454132300586,0.52930454132300586,-0.44412699238618775,1.828099368419585,0.0
659640.0783812654,3995767.5119837918,-37500.0,-0.68808535803040405,0.90246578504473751,0.40223741312824546,-0.31809732332495222,0.51675060170716702,-0.11448219092129079,1.2093034789049923,0.50135461109658341,-0.5774593472964975,0.5774593472964975,-0.50135461109658341,2.1072248332486483,0.0
664640.0783812654,3995767.5119837918,-37500.0,-0.8658565312693951,0.9897833128377661,0.48548054729325169,-0.44704106970517971,0.58815052837227144,-0.18811802235145844,1.3949998828816659,0.56488153442239897,-0.62491427076458583,0.62491427076458583,-0.56488153442239897,2.438421931269787,0.0
669640.0783812654,3995767.5119837918,-37500.0,-1.0761757571753163,1.0768357449600356,0.58531170076817762,-0.61878037710332945,0.66292155185177393,-0.29871642275400856,1.6135478629353432,0.63449598124052664,-0.66889995024068338,0.66889995024068338,-0.63449598124052664,2.8317896705518701,0.0
674640.0783812654,3995767.5119837918,-37500.0,-1.31819052998421,1.1586545767233036,0.70332501350367727,-0.84448662194007273,0.73583847973666572,-0.46349292545163484,1.8702370744041086,0.70956379660378388,-0.70572139235298892,0.70572139235298892,-0.70956379660378388,3.2985659987923128,0.0
679640.0783812654,3995767.5119837918,-37500.0,-1.5851765933969879,1.2284646229772123,0.83972381217387126,-1.1354240619933031,0.79756853034907704,-0.70662180539030228,2.1704411242061075,0.78904258380917636,-0.73102422808779477,0.73102422808779477,-0.78904258380917636,3.8503089101918651,0.0
684640.0783812654,3995767.5119837918,-37500.0,-1.860406778851607,1.2781285319788414,0.9919212800963817,-1.4997193252470737,0.83277069868687981,-1.0606674639695188,2.5190336934769686,0.87178201811358735,-0.74077435570272465,0.74077435570272465,-0.87178201811358735,4.4970070431405968,0.0
689640.0783812654,3995767.5119837918,-37500.0,-2.1118372860900156,1.2999056076708575,1.1524467644024876,-1.9358291681902933,0.81812409174475131,-1.5664385439447879,2.9194197162998767,0.95743009329509088,-0.73359827009575584,0.73359827009575584,-0.95743009329509088,5.2433026133707861,0.0
694640.0783812654,3995767.5119837918,-37500.0,-2.2869770512559238,1.2906382196108253,1.306241875898329,-2.4209902928110782,0.72140916985995829,-2.2683946074554795,3.3717587514459715,1.0483991291572916,-0.71534702554136176,0.71534702554136176,-1.0483991291572916,6.081686721904684,0.0
699640.0783812654,3995767.5119837918,-37500.0,-2.311928079184995,1.2595879566382453,1.4280676330589162,-2.8936892348589534,0.5042348284266257,-3.2002644442784476,3.8687081813455788,1.1532612898185379,-0.70652694846036324,0.70652694846036324,-1.1532612898185379,6.9815356142875578,0.0
704640.0783812654,3995767.5119837918,-37500.0,-2.1028388416850508,1.2400126447469273,1.4820311980990091,-3.2329878001241434,0.13310794268061618,-4.3529381386138422,4.3850705101098653,1.2910956371404518,-0.75163959381297607,0.75163959381297607,-1.2910956371404518,7.8742130528799814,0.0
709640.0783812654,3995767.5119837918,-37500.0,-1.6018463960803655,1.3003982985840905,1.4270171444835293,-3.2473548107498345,-0.3951406458812427,-5.6175983462789123,4.8611736111803783,1.4937697563116572,-0.92498684896400618,0.92498684896400618,-1.4937697563116572,8.6394964053727819,0.0
714640.0783812654,3995767.5119837918,-37500.0,-0.84503192714452902,1.5424964944351611,1.2324562030021351,-2.7022910118698107,-1.0116286992988857,-6.7104448354892225,5.1942603629057711,1.7984285883533562,-1.3195445424511845,1.3195445424511845,-1.7984285883533562,9.1115062164297953,0.0
719640.0783812654,3995767.5119837918,-37500.0,-0.041661475016179783,2.0637521574259967,0.90417880879008317,-1.4278447971454427,-1.5329544370886909,-7.1233916737189444,5.2699758497996161,2.2187078928582604,-1.9995250274632268,1.9995250274632268,-2.2187078928582604,9.1480594262000086,0.0
724640.0783812654,3995767.5119837918,-37500.0,0.41449029926319614,2.8694101484018342,0.5057587222912916,0.48377928595554465,-1.666447792175775,-6.2017616306925296,5.1016527507462479,2.6919176105827631,-2.9116540002362159,2.9116540002362159,-2.6919176105827631,8.8385966153934401,0.0
729640.0783812654,3995767.5119837918,-37500.0,0.11734615080577929,3.7724510839663181,0.14449035912528044,2.4984700263703559,-1.1287352878287111,-3.4544083168516209,5.1022288418648465,3.0352844457225632,-3.8065406602765575,3.8065406602765575,-3.0352844457225632,8.8373337745810296,0.0
734640.0783812654,3995767.5119837918,-37500.0,-0.99971602347237798,4.3995982976941406,-0.095012332106986966,3.7284940967831459,0.12953562757760972,0.97720405221020623,5.840977889996374,2.9879234771577106,-4.2875307268695337,4.2875307268695337,-2.9879234771577106,10.137204423986834,0.0
739640.0783812654,3995767.5119837918,-37500.0,-2.4320732604748807,4.397483071444217,-0.22228588732371193,3.434230083083575,1.7707224029024009,6.0904771244468039,7.3352370093288304,2.3781482766992261,-4.0480383861357137,4.0480383861357137,-2.3781482766992261,12.70770456992245,0.0
744640.0783812654,3995767.5119837918,-37500.0,-3.3632554720286207,3.7083430546227563,-0.32974538451701657,1.5999539692870592,3.212623486901879,10.44139454432959,8.819496973042714,1.2956349639570202,-3.125622364292592,3.125622364292592,-1.2956349639570202,15.420500387328003,0.0
749640.0783812654,3995767.5119837918,-37500.0,-3.2667735817703956,2.6216388369071466,-0.49707770839865467,-1.0279540224480448,3.999624702526718,12.97903983829624,9.7189897181307021,0.06805270249446127,-1.8904495701447204,1.8904495701447204,-0.06805270249446127,17.2737297302867,0.0
754640.0783812654,3995767.5119837918,-37500.0,-2.2269670956257257,1.5409892178923565,-0.72232698827107678,-3.4986891207832178,4.045298565487383,13.530700088293804,9.8949361543941858,-0.95579132005689027,-0.76912514502619478,0.76912514502619478,0.95579132005689027,17.882900780941778,0.0
759640.0783812654,3995767.5119837918,-37500.0,-0.72528307886584964,0.73148575405320371,-0.94464771684992155,-5.2107340139434015,3.5611987630100006,12.605185368677184,9.4719995725402839,-1.5937643122381715,-0.00083898641660740125,0.00083898641660740125,1.5937643122381715,17.37183393504646,0.0
764640.0783812654,3995767.5119837918,-37500.0,0.75063917826618431,0.25454033165950701,-1.105128961562873,-6.0384358462473582,2.8390643975531109,10.903320870497408,8.670898023977788,-1.8502221424457197,0.39391080254106203,-0.39391080254106203,1.8502221424457197,16.097366208801368,0.0
769640.0783812654,3995767.5119837918,-37500.0,1.9158151521219806,0.044766265619977132,-1.1793495376352174,-6.1516497944193222,2.1005740949382501,8.9835202815157267,7.6965905968004371,-1.8293617017855435,0.51240862117511965,-0.51240862117511965,1.8293617017855435,14.428438717582068,0.0
774640.0783812654,3995767.5119837918,-37500.0,2.6877113572540332,0.0024645025535768058,-1.1741543477510992,-5.8050688727809492,1.462251582647691,7.1743386626167753,6.6942290608426811,-1.6500806930087912,0.47127094227750355,-0.47127094227750355,1.6500806930087912,12.644430179720148,0.0
779640.0783812654,3995767.5119837918,-37500.0,3.1040895203662715,0.044000998234713207,-1.1113565070314886,-5.2204600573942042,0.96149749435706444,5.6202102100601854,5.7487757726041488,-1.4043542394900994,0.35983706359072454,-0.35983706359072454,1.4043542394900994,10.919994033509333,0.0
784640.0783812654,3995767.5119837918,-37500.0,3.2484521358644645,0.11491146848189235,-1.014580049683306,-4.5517864418642464,0.59268781842011509,4.3544921851139717,4.9007886775561849,-1.1496411293796238,0.2324264501559134,-0.2324264501559134,1.1496411293796238,9.3467417990500756,0.0
789640.0783812654,3995767.5119837918,-37500.0,3.2070428726593274,0.1856247057631612,-0.90291805564004768,-3.8909476033027954,0.333076173941947,3.3560209611113097,4.1630426969652214,-0.91592635712172454,0.11632857448054701,-0.11632857448054701,0.91592635712172454,7.9612107111765571,0.0
794640.0783812654,3995767.5119837918,-37500.0,3.0510574368094159,0.24307545009938361,-0.78943912655282711,-3.2852305082535649,0.15685461167702136,2.5831715399579123,3.5330116145534425,-0.71541230160976965,0.022054512184328412,-0.022054512184328412,0.71541230160976965,6.7676216276312244,0.0
799640.0783812654,3995767.5119837918,-37500.0,2.8327875753093976,0.28356435791622059,-0.68196313274984643,-2.7538297877603704,0.041210468210897473,1.9913075324060099,3.000875326468516,-0.55029603326724441,-0.048832621388549602,0.048832621388549602,0.55029603326724441,5.7533490480741758,0.0
804640.0783812654,3995767.5119837918,-37500.0,2.58774169308567,0.30799539057095154,-0.58448449641181588,-2.2999613474520793,-0.031900422973549496,1.5403571697361624,2.5541679528517007,-0.41787919340439034,-0.098827942226702714,0.098827942226702714,0.41787919340439034,4.8984278818575504,0.0
809640.0783812654,3995767.5119837918,-37500.0,2.338503504746468,0.31910680080609582,-0.49850443824457058,-1.9186989606236302,-0.075896869471415371,1.1972214750377435,2.1802421811438788,-0.31354486172349733,-0.13179606684617551,0.13179606684617551,0.31354486172349733,4.1809446440125351,0.0
814640.0783812654,3995767.5119837918,-37500.0,2.0984775209707665,0.32003102375471737,-0.42404332568676151,-1.6016355408833893,-0.10038427077495705,0.93578008954837477,1.8674374222762857,-0.23232609830653592,-0.15165498584480905,0.15165498584480905,0.23232609830653592,3.5798391054844787,0.0
819640.0783812654,3995767.5119837918,-37500.0,1.874901134868332,0.31363739206746538,-0.36032885622050909,-1.3394563411920877,-0.11206558205481507,0.73595822320487458,1.6055295373358169,-0.16963905473803509,-0.16182714505529527,0.16182714505529527,0.16963905473803509,3.0761755330011367,0.0
824640.0783812654,3995767.5119837918,-37500.0,1.6710540157692055,0.30229598034554178,-0.30622970498669422,-1.1232416142840054,-0.11553387811898909,0.58256346585912377,1.3858112145055992,-0.12155923240199425,-0.16508227993624397,0.16508227993624397,0.12155923240199425,2.6535666427344302,0.0
829640.0783812654,3995767.5119837918,-37500.0,1.4877866119416332,0.28784731626095955,-0.26051077988768973,-0.94503750451294566,-0.11389183268365957,0.4641948193332881,1.2009951666767844,-0.084866823309953238,-0.16356019290119697,0.16356019290119697,0.084866823309953238,2.2981538248684559,0.0
834640.0783812654,3995767.5119837918,-37500.0,1.3245369171453494,0.27166025319335507,-0.22197283565256087,-0.79803147843624378,-0.10920896787890481,0.37232946467928463,1.0450468386678398,-0.056988137706020223,-0.15886253092627689,0.15886253092627689,0.056988137706020223,1.9983827794798259,0.0
644640.0783812654,4000767.5119837918,-37500.0,-0.069431922361322548,0.73325210238718075,0.16110445502577322,0.049213904517221158,0.37437546528748117,0.056127449186344533,0.83131861170601062,0.31069672894458605,-0.46627964009187656,0.46627964009187656,-0.31069672894458605,1.4424559277861551,0.0
649640.0783812654,4000767.5119837918,-37500.0,-0.13100112703120145,0.82537157800206007,0.19612187977281773,0.028823731423568307,0.43737617940580864,0.055457055570946018,0.94794753379131302,0.3523015319596654,-0.52120361742670096,0.52120361742670096,-0.3523015319596654,1.6434361164459672,0.0
654640.0783812654,4000767.5119837918,-37500.0,-0.21106378808922741,0.92900000537249416,0.23970084362363211,-0.0032685897567099722,0.51174163832249131,0.049866331352850991,1.0841547144982642,0.39968281815646534,-0.58159042888168078,0.58159042888168078,-0.39968281815646534,1.8784165686568099,0.0
659640.0783812654,4000767.5119837918,-37500.0,-0.31392309427503123,1.0445856055345479,0.29394859838861059,-0.051880039083606777,0.5990345903967067,0.035948906109668249,1.2432712742100231,0.45331152091178012,-0.6469989640896614,0.6469989640896614,-0.45331152091178012,2.1534438290832258,0.0
664640.0783812654,4000767.5119837918,-37500.0,-0.44422924329817254,1.1719062669236369,0.36136301164255741,-0.12349776219686036,0.70052246598158074,0.0083453087184092375,1.4289498157089571,0.51347305927709741,-0.71633793656689082,0.71633793656689082,-0.51347305927709741,2.475329314589878,0.0
669640.0783812654,4000767.5119837918,-37500.0,-0.60641564186427255,1.3096365102478549,0.44476563989420986,-0.2266131562821477,0.81667369132726053,-0.041267795173834249,1.6449764382508276,0.58013281352373192,-0.78757498870972842,0.78757498870972842,-0.58013281352373192,2.8514335038559881,0.0
674640.0783812654,4000767.5119837918,-37500.0,-0.80354558654966557,1.45477644868513,0.54707462484523639,-0.37184243392992505,0.94628026215332828,-0.1256038367931244,1.8948869813929616,0.65277984504222086,-0.85742411225989157,0.85742411225989157,-0.65277984504222086,3.2891337886598992,0.0
679640.0783812654,4000767.5119837918,-37500.0,-1.0352082826714928,1.6019968606830954,0.67077763359060749,-0.5714354796224328,1.0850149870903401,-0.26362829538771415,2.18127785955273,0.73030411978389875,-0.92113511341198462,0.92113511341198462,-0.73030411978389875,3.7947317356233561,0.0
684640.0783812654,4000767.5119837918,-37500.0,-1.2940380669431031,1.7431028710711811,0.81688643476064227,-0.83739637343110385,1.2232153121103924,-0.48262690227507188,2.5046920419930325,0.81105071090748071,-0.9726822403550528,0.9726822403550528,-0.81105071090748071,4.3714128879628689,0.0
689640.0783812654,4000767.5119837918,-37500.0,-1.560585835918656,1.8671141766680115,0.98307450114551365,-1.1768606497648713,1.3427994123484794,-0.81959717366917462,2.8620271369806032,0.89335448895437308,-1.0059568251456259,1.0059568251456259,-0.89335448895437308,5.0156882315397846,0.0
694640.0783812654,4000767.5119837918,-37500.0,-1.7970538728728052,1.9619526932853648,1.1606935081528953,-1.5827214549459463,1.4136836434166333,-1.3196409889196266,3.2446470773258795,0.97709313394993025,-1.0180183331596981,1.0180183331596981,-0.97709313394993025,5.711604588856563,0.0
699640.0783812654,4000767.5119837918,-37500.0,-1.942540503686031,2.0193186432179688,1.3306267669435938,-2.017413356559167,1.3912673447876611,-2.0263635475163415,3.6366134249268129,1.066990190766262,-1.0158580615204338,1.0158580615204338,-1.066990190766262,6.4222040534397813,0.0
704640.0783812654,4000767.5119837918,-37500.0,-1.9167215663945305,2.044434682946211,1.4588348447791575,-2.3900951230905356,1.2189166651209997,-2.9555053348264559,4.0120195067536377,1.1781066662330826,-1.0277322109003757,1.0277322109003757,-1.1781066662330826,7.07912446085105,0.0
709640.0783812654,4000767.5119837918,-37500.0,-1.6446624118219255,2.0703060395265589,1.4944065474111201,-2.5358811456222585,0.84264089015532062,-4.0408539566143995,4.3247468331054417,1.3421195842659197,-1.1171324558986246,1.1171324558986246,-1.3421195842659197,7.5761474513200433,0.0
714640.0783812654,4000767.5119837918,-37500.0,-1.1164951574797317,2.1692435989390901,1.3757044851675235,-2.2239732599130377,0.24625350566624157,-5.0501066367741929,4.4884426741538768,1.6081382252894503,-1.3893147612737236,1.3893147612737236,-1.6081382252894503,7.7861832996698146,0.0
719640.0783812654,4000767.5119837918,-37500.0,-0.47511366101141528,2.4419739687443807,1.0511129037875635,-1.2433371074667514,-0.49444940052827346,-5.5054060440561905,4.3982375341123827,2.0246504287351312,-1.9675953458099475,1.9675953458099475,-2.0246504287351312,7.6531945982877305,0.0
724640.0783812654,4000767.5119837918,-37500.0,-0.063947834533810935,2.9583006606837139,0.51357268439451842,0.39778609769673512,-1.1714461338634001,-4.717029322690756,4.2372714327270664,2.5893099466904212,-2.9137914395133269,2.9137914395133269,-2.5893099466904212,7.4510492677250708,0.0
729640.0783812654,4000767.5119837918,-37500.0,-0.29870716633493538,3.6552338694973061,-0.17141479592383338,2.2389288675639425,-1.4913872356870788,-2.0848347398002174,4.6328409573414397,3.1822267860812703,-4.1086407299693883,4.1086407299693883,-3.1822267860812703,8.0763317461237385,0.0
734640.0783812654,4000767.5119837918,-37500.0,-1.3077870376891114,4.283687014092445,-0.87913260675932514,3.383742725243494,-1.2568729278756048,2.3447956216408525,5.6886166138049044,3.5581747861352886,-5.2027764996757417,5.2027764996757417,-3.5581747861352886,10.300372101513709,0.0
739640.0783812654,4000767.5119837918,-37500.0,-2.6286626215015345,4.529704533835706,-1.4865369418576595,3.0172474595066334,-0.56695777904362588,7.5207694515719243,7.7548470600457282,3.4785348942345511,-5.7762602097392062,5.7762602097392062,-3.4785348942345511,13.511248462909821,0.0
744640.0783812654,4000767.5119837918,-37500.0,-3.4361387018302927,4.2598368788393577,-1.9271574026535887,1.0978233492703768,0.20820984687701599,11.82614066536471,9.4798917625354555,2.9101675541815046,-5.6369627605498094,5.6369627605498094,-2.9101675541815046,16.44287185798887,0.0
749640.0783812654,4000767.5119837918,-37500.0,-3.2066020171261842,3.6238486312659228,-2.190471079537061,-1.5608322356018083,0.7095241255826209,14.104717523237321,10.371446252483628,2.0694560591552387,-4.9482010943858397,4.9482010943858397,-2.0694560591552387,18.202731688399375,0.0
754640.0783812654,4000767.5119837918,-37500.0,-2.0732480514315705,2.8991059359422278,-2.2914759664711628,-3.9466030328982873,0.82236785360552545,14.253056911419291,10.411144683173063,1.2496189270839624,-4.0507489999640658,4.0507489999640658,-1.2496189270839624,18.550715659954424,0.0
759640.0783812654,4000767.5119837918,-37500.0,-0.56028838805758741,2.2859467664358393,-2.2554140092624815,-5.4797930308145544,0.65173389791464986,12.927595121883142,9.8156855589739571,0.63474837198344125,-3.2154351533932353,3.2154351533932353,-0.63474837198344125,17.739657083005401,0.0
764640.0783812654,4000767.5119837918,-37500.0,0.8503061630232106,1.8462465205600287,-2.1164271793084994,-6.10547331077436,0.36468918805246214,10.92768928340368,8.8611757919175478,0.26009086722356956,-2.5543100141606292,2.5543100141606292,-0.26009086722356956,16.208249507196527,0.0
769640.0783812654,4000767.5119837918,-37500.0,1.9116720350725871,1.5545658081430469,-1.913247592869546,-6.0510058291327331,0.083279971236265293,8.8314406605147209,7.7733675154803858,0.074818342575015961,-2.0677375988154321,2.0677375988154321,-0.074818342575015961,14.356030533371916,0.0
774640.0783812654,4000767.5119837918,-37500.0,2.5790922079971956,1.360863502982113,-1.6812711662546749,-5.5933619752994108,-0.13597207904782563,6.9421742591785058,6.6969240096829559,0.0088265056067264869,-1.714424158921432,1.714424158921432,-0.0088265056067264869,12.459691177391992,0.0
779640.0783812654,4000767.5119837918,-37500.0,2.9122621676642915,1.2227881454056504,-1.4471206607824365,-4.9510145940516423,-0.28173447897721382,5.3692869007028117,5.7079847302066717,0.0055533278949020382,-1.4516608221967531,1.4516608221967531,-0.0055533278949020382,10.677719449447094,0.0
784640.0783812654,4000767.5119837918,-37500.0,3.0014831712346277,1.1133063084420178,-1.2275772153822742,-4.2642994660049798,-0.36410846387489643,4.1177185552112441,4.8374037275871462,0.028727958454855762,-1.2481185241024,1.2481185241024,-0.028727958454855762,9.0840732916223672,0.0
789640.0783812654,4000767.5119837918,-37500.0,2.9308653303782792,1.0179789816264968,-1.0312615264505478,-3.6107455441439438,-0.39946912614067659,3.1477705157832241,4.0902194841065693,0.058418081977390623,-1.0838687991931826,1.0838687991931826,-0.058418081977390623,7.7009689956863854,0.0
794640.0783812654,4000767.5119837918,-37500.0,2.7659125697629037,0.93027546191103305,-0.86113804076574052,-3.0262953060290583,-0.4033041953742566,2.4072740036118452,3.4585451734539907,0.085218098218126703,-0.9470114516226058,0.9470114516226058,-0.085218098218126703,6.5224924290604669,0.0
799640.0783812654,4000767.5119837918,-37500.0,2.5527848559763107,0.84786449595689561,-0.71675719169150842,-2.5224059553288147,-0.38779464066777702,1.8462949764673469,2.9291162192994622,0.10565680357703966,-0.83052297210795079,0.83052297210795079,-0.10565680357703966,5.5294219277379817,0.0
804640.0783812654,4000767.5119837918,-37500.0,2.3217746500249472,0.77031036916062223,-0.59589082509416413,-2.0975274733817137,-0.36161235821067028,1.4225259663006629,2.4873461916660027,0.11924782531733891,-0.7301210322631061,0.7301210322631061,-0.11924782531733891,4.6977656789103088,0.0
809640.0783812654,4000767.5119837918,-37500.0,2.0915271380145732,0.69783767962049337,-0.49558314437090006,-1.7440677685534571,-0.33052477337802794,1.1022637308565877,2.1193184471670246,0.12680316471821684,-0.64300540276754647,0.64300540276754647,-0.12680316471821684,4.0033033200078147,0.0
814640.0783812654,4000767.5119837918,-37500.0,1.8726961579667623,0.63075416595289602,-0.41276058318678477,-1.4523086959901137,-0.29815345973682988,0.85956974045952128,1.812632974045131,0.1295524164056038,-0.56717352892648842,0.56717352892648842,-0.1295524164056038,3.4237584039485056,0.0
819640.0783812654,4000767.5119837918,-37500.0,1.6707172577696507,0.56923010697459664,-0.34454799398363406,-1.2124406322897805,-0.26663791452947111,0.67487346726124031,1.5566526950824211,0.12872620092358888,-0.50106816952608069,0.50106816952608069,-0.12872620092358888,2.9396432504246239,0.0
824640.0783812654,4000767.5119837918,-37500.0,1.4877634846827534,0.51325013699992783,-0.28840623117216424,-1.0155071713815218,-0.23714142463835189,0.53357092766682945,1.3424556688595104,0.12538753887528797,-0.44340268367909264,0.44340268367909264,-0.12538753887528797,2.5344040903397054,0.0
829640.0783812654,4000767.5119837918,-37500.0,1.3240612305205359,0.4626369769981713,-0.24216885719442874,-0.85375357953382613,-0.21020925392742801,0.4248227241317703,1.1626595097546983,0.12038651033440878,-0.39307588658582676,0.39307588658582676,-0.12038651033440878,2.1942288865947042,0.0
834640.0783812654,4000767.5119837918,-37500.0,1.1787445355903878,0.41709701039326996,-0.20402703879989989,-0.72066997041713254,-0.18601066329198393,0.34059653081766084,1.011204726602585,0.11437027595894461,-0.34912967739720074,0.34912967739720074,-0.11437027595894461,1.9077178345629917,0.0
644640.0783812654,4005767.5119837918,-37500.0,0.20261465163624204,0.76185884817617944,0.078240472712143239,0.20785122487515162,0.38621990755164215,0.12998528786874003,0.87055051983328624,0.25425669991423194,-0.46991509572682988,0.46991509572682988,-0.25425669991423194,1.5264669347964459,0.0
649640.0783812654,4005767.5119837918,-37500.0,0.18361860784174386,0.86464644600019658,0.097313368821061771,0.22300599960176087,0.45504743856274382,0.15126710277662345,0.99255848290151383,0.28801265726779107,-0.53071422280878466,0.53071422280878466,-0.28801265726779107,1.7375105988540238,0.0
654640.0783812654,4005767.5119837918,-37500.0,0.15251566876396563,0.98254165485461886,0.12166284206408542,0.23530191469044254,0.53780327651011195,0.17507729672408656,1.1346935449492053,0.3265065684551306,-0.59939776487072272,0.59939776487072272,-0.3265065684551306,1.9829572336256938,0.0
659640.0783812654,4005767.5119837918,-37500.0,0.10525143828334126,1.1171521342936577,0.1528114886597941,0.2420822259290461,0.63717614963215363,0.20076113534715234,1.300138229784249,0.37015540828211591,-0.67634415793988212,0.67634415793988212,-0.37015540828211591,2.2681975305083806,0.0
664640.0783812654,4005767.5119837918,-37500.0,0.036838841674152849,1.269723291623591,0.19267879228950049,0.23935650597385838,0.75604463310541181,0.22674056417378821,1.4922025357848505,0.41923400678891509,-0.76148797435972737,0.76148797435972737,-0.41923400678891509,2.5988519126400567,0.0
669640.0783812654,4005767.5119837918,-37500.0,-0.0585565630113744,1.4407123511022299,0.24362207722659632,0.22130863676386706,0.89715487470882305,0.2498312271669717,1.7139878019626322,0.47376070052299657,-0.85401460712911226,0.85401460712911226,-0.47376070052299657,2.9802308867369436,0.0
674640.0783812654,4005767.5119837918,-37500.0,-0.18719522468241725,1.6291329423419831,0.30840965393233843,0.17976705769901247,1.0624503691489224,0.26415954117393187,1.9677510845665624,0.53335772100268608,-0.95195157236037975,0.95195157236037975,-0.53335772100268608,3.4163174726173255,0.0
679640.0783812654,4005767.5119837918,-37500.0,-0.3547040828451104,1.8316186622378023,0.39003757605138184,0.10382674428800769,1.2518032749740828,0.25953138505733592,2.2537896226191636,0.59712964511400535,-1.0516976945898415,1.0516976945898415,-0.59712964511400535,3.9079833258313368,0.0
684640.0783812654,4005767.5119837918,-37500.0,-0.56392684134576976,2.041224942257982,0.49122880372303429,-0.019916479050859952,1.4607786523875934,0.2191739120260526,2.5686079169712617,0.66368384454584772,-1.147655612024886,1.147655612024886,-0.66368384454584772,4.4500469268974863,0.0
689640.0783812654,4005767.5119837918,-37500.0,-0.8111387895146811,2.2461919681830111,0.61334712946025072,-0.20556174745631337,1.6769697014374318,0.11708944362249021,2.9021370239016644,0.73158128878682271,-1.2324024408406682,1.2324024408406682,-0.73158128878682271,5.0267388878785884,0.0
694640.0783812654,4005767.5119837918,-37500.0,-1.0803015527957742,2.4293406873402996,0.75433638128139935,-0.46280856371661411,1.8745343685580742,-0.083837656405145372,3.2340356333405715,0.80078930673563464,-1.2983320857378522,1.2983320857378522,-0.80078930673563464,5.6053534503966862,0.0
699640.0783812654,4005767.5119837918,-37500.0,-1.3361580605146934,2.5695763823646436,0.90525376902399124,-0.78606492436706099,2.0072291248131915,-0.42979225912529062,3.5301111671744185,0.87608103325854103,-1.3424436098708954,1.3424436098708954,-0.87608103325854103,6.1288380428328155,0.0
704640.0783812654,4005767.5119837918,-37500.0,-1.5199792334608988,2.647995078978048,1.0452683833726282,-1.1355629173323121,2.0022024577667525,-0.96312299638094467,3.7426022796342284,0.97348590029379423,-1.3765670988262195,1.3765670988262195,-0.97348590029379423,6.5109674663259582,0.0
709640.0783812654,4005767.5119837918,-37500.0,-1.5573691178789655,2.6613509962217843,1.136166904774627,-1.4126808759854534,1.7609102526075353,-1.6870794144141266,3.8214041849149281,1.1298674098143717,-1.4444053328699904,1.4444053328699904,-1.1298674098143717,6.6452332030710899,0.0
714640.0783812654,4005767.5119837918,-37500.0,-1.3932150204075824,2.6424264712024113,1.1200567439856031,-1.4451869026802986,1.1791886132076506,-2.4970609948420837,3.7279801466527225,1.4115088388032926,-1.6411235323222217,1.6411235323222217,-1.4115088388032926,6.4570644794273235,0.0
719640.0783812654,4005767.5119837918,-37500.0,-1.0627086497625589,2.6761376247283519,0.92766149376653295,-1.022388379547567,0.19985737499807779,-3.0887155223247498,3.3976935880889592,1.9085620535977845,-2.1171941759567963,2.1171941759567963,-1.9085620535977845,6.06956187974379,0.0
724640.0783812654,4005767.5119837918,-37500.0,-0.76584463037340655,2.8834823768999236,0.50537024964902155,-0.033677832784308054,-1.1068819774629128,-2.9173051722062704,3.3422102304024097,2.6933451529927734,-3.0306277662498053,3.0306277662498053,-2.6933451529927734,6.1320564224288017,0.0
729640.0783812654,4005767.5119837918,-37500.0,-0.83420833595411714,3.345470353070215,-0.14159166558077049,1.3021605184470968,-2.4896924539070677,-1.366372341216634,4.350413951028,3.7337838258732745,-4.4215222579718869,4.4215222579718869,-3.7337838258732745,7.6413735207972557,0.0
734640.0783812654,4005767.5119837918,-37500.0,-1.4754332590347639,3.9969223921238983,-0.91765260928568115,2.3274029134847996,-3.5850254242372017,1.777335376140625,5.7278944471335063,4.8157636409939482,-6.0679243462813997,6.0679243462813997,-4.8157636409939482,10.574076428358268,0.0
739640.0783812654,4005767.5119837918,-37500.0,-2.4443983000660849,4.6095096583769646,-1.6584066006590106,2.2761088755400611,-4.1260976638105626,5.8486817729586669,7.9032936913412319,5.5940664967240439,-7.4982051015041611,7.4982051015041611,-5.5940664967240439,13.900844091460009,0.0
744640.0783812654,4005767.5119837918,-37500.0,-3.1018950508165148,4.9394844895276799,-2.207827635103234,0.92926073899662431,-4.1141118750610843,9.4918076550111099,9.5662066269068013,5.8053630493885784,-8.2580152521252508,8.2580152521252508,-5.8053630493885784,16.574224939516199,0.0
749640.0783812654,4005767.5119837918,-37500.0,-2.9562915587361087,4.9017561601946689,-2.4907904719428866,-1.1449712588292615,-3.7613707911922405,11.570963608867439,10.339934304118382,5.4499960787001607,-8.2082654732063141,8.2082654732063141,-5.4499960787001607,17.970910647404164,0.0
754640.0783812654,4005767.5119837918,-37500.0,-2.0534065608493788,4.5822014289321364,-2.5244729045798113,-3.0954572309348665,-3.2949419474525086,11.853503037960886,10.266260375664359,4.745765625491587,-7.5445748250052249,7.5445748250052249,-4.745765625491587,18.013337244102999,0.0
759640.0783812654,4005767.5119837918,-37500.0,-0.80557757804713015,4.1236070127224238,-2.3791318795355139,-4.3899614813384797,-2.8419548978133577,10.841887759767024,9.5929021064520246,3.9422725958577738,-6.5822734098411102,6.5822734098411102,-3.9422725958577738,17.015441629640776,0.0
764640.0783812654,4005767.5119837918,-37500.0,0.38330168375208318,3.6350049476140356,-2.133343052789479,-4.9474695841624188,-2.4412223586559336,9.2155731828251159,8.6014496253997326,3.1992189636607007,-5.5700796684977361,5.5700796684977361,-3.1992189636607007,15.411718227456847,0.0
769640.0783812654,4005767.5119837918,-37500.0,1.2986963030401379,3.1729362643833712,-1.8492592425443766,-4.9409993302806461,-2.0928468387308019,7.4786764994322423,7.5087000224709222,2.5783036486403721,-4.6410886161013032,4.6410886161013032,-2.5783036486403721,13.569786391310112,0.0
774640.0783812654,4005767.5119837918,-37500.0,1.8950782161713187,2.7581107927879396,-1.5669467911705237,-4.5946002623831825,-1.7890379128850897,5.8992927975215377,6.4469368038440331,2.0832621638731785,-3.8430738340160113,3.8430738340160113,-2.0832621638731785,11.731862285704292,0.0
779640.0783812654,4005767.5119837918,-37500.0,2.2157410412520235,2.3938907657490653,-1.3080861987512469,-4.0878304442675715,-1.5237651228943896,4.5771024231320032,5.4822159868105018,1.6952947255012023,-3.179327214354839,3.179327214354839,-1.6952947255012023,10.030115065226822,0.0
784640.0783812654,4005767.5119837918,-37500.0,2.331500426769308,2.0771075054375805,-1.0818737254180777,-3.5372613128203709,-1.2932433693531737,3.520672013226922,4.6388870751297322,1.3916483956593948,-2.635370981417676,2.635370981417676,-1.3916483956593948,8.5218281202262851,0.0
789640.0783812654,4005767.5119837918,-37500.0,2.3098914780991402,1.8028043951465722,-0.89007719987191636,-3.0082139077068364,-1.0945911978812854,2.6991447566039839,3.9184068866094277,1.1524990851276091,-2.1921274532966817,2.1921274532966817,-1.1524990851276091,7.2200879101514479,0.0
794640.0783812654,4005767.5119837918,-37500.0,2.2044005406225082,1.5659149150727472,-0.7305622857883346,-2.5317764996830321,-0.92495100789301099,2.0700505790604549,3.3111930562049796,0.96238703648099,-1.8312913805008506,1.8312913805008506,-0.96238703648099,6.1147602536372139,0.0
799640.0783812654,4005767.5119837918,-37500.0,2.0533498927280025,1.3617317666918103,-0.59948645421995883,-2.1186662303603168,-0.78124391191948739,1.5921253391903563,2.8033576380409215,0.80974612647256206,-1.5370711296032218,1.5370711296032218,-0.80974612647256206,5.1852600381021263,0.0
804640.0783812654,4005767.5119837918,-37500.0,1.882372711393268,1.1859923364059508,-0.49254634571237244,-1.7686119455555402,-0.66026032629129183,1.2301279524413293,2.3802467640549754,0.6860184422910558,-1.2964492317064782,1.2964492317064782,-0.6860184422910558,4.4077391538974524,0.0
809640.0783812654,4005767.5119837918,-37500.0,1.7076368782869986,1.0348726310268406,-0.4056201453896246,-1.4761033513214137,-0.55884193133719884,0.95583677239554066,2.0281388825595474,0.58485032286761895,-1.0989175766285573,1.0989175766285573,-0.58485032286761895,3.7588232340075898,0.0
814640.0783812654,4005767.5119837918,-37500.0,1.5387143791298876,0.90496855812594934,-0.3350513862916214,-1.2336619238499169,-0.47403674564592552,0.74744696587590753,1.7349347981050307,0.50147754011764611,-0.93607452657741597,0.93607452657741597,-0.50147754011764611,3.2173365509413232,0.0
819640.0783812654,4005767.5119837918,-37500.0,1.3807970855977072,0.79327627334269413,-0.27773495015018279,-1.033567757227293,-0.40319349525067133,0.58845461985435465,1.4903236950064538,0.43228364561904964,-0.8012283273963422,0.8012283273963422,-0.43228364561904964,2.7649147150727487,0.0
824640.0783812654,4005767.5119837918,-37500.0,1.2362833932939543,0.6971693338305186,-0.23110290706441486,-0.86868265271900058,-0.3440000589842781,0.46651040234784624,1.2856963915012314,0.37448922510914562,-0.68905295182928339,0.68905295182928339,-0.37448922510914562,2.3860407972242887,0.0
829640.0783812654,4005767.5119837918,-37500.0,1.1058609275708193,0.61437092453085274,-0.19306626979669397,-0.73277256211392361,-0.29448231721064949,0.37242555650906889,1.1139526025543458,0.32593330368199253,-0.59530478194109304,0.59530478194109304,-0.32593330368199253,2.0678107853812508,0.0
834640.0783812654,4005767.5119837918,-37500.0,0.98922026939639418,0.54292187137165226,-0.16194274518812773,-0.6205696905513608,-0.25297981010850729,0.29937505011674787,0.96927869802458111,0.28491825065335707,-0.51659529614437505,0.51659529614437505,-0.28491825065335707,1.7995964717650912,0.0
644640.0783812654,4010767.5119837918,-37500.0,0.48009560389645056,0.74733011429467977,-0.0096568899841495831,0.36879339372053677,0.37486326242525536,0.20465545635677468,0.91899393082960068,0.18269585157042895,-0.44545668739120287,0.44545668739120287,-0.18269585157042895,1.6388798853075526,0.0
649640.0783812654,4010767.5119837918,-37500.0,0.50635531895089669,0.85078236212996716,-0.0086864312745070834,0.42099284268354198,0.44273556004880599,0.24859166635593902,1.0490948998878922,0.20540437789478094,-0.50637419625833791,0.50637419625833791,-0.20540437789478094,1.868205608223886,0.0
654640.0783812654,4010767.5119837918,-37500.0,0.52798306228614278,0.97038518677820274,-0.0066397562724534384,0.47996976537702246,0.52484928524225472,0.30297706019775344,1.2008205812030646,0.23113568619622965,-0.57643338320219617,0.57643338320219617,-0.23113568619622965,2.1350904879915706,0.0
659640.0783812654,4010767.5119837918,-37500.0,0.54157423957906337,1.1082669184925908,-0.0029747179893268015,0.54562949748618417,0.62421503898303887,0.37021596257076417,1.3775864275480776,0.26016280545574033,-0.65669639663251833,0.65669639663251833,-0.26016280545574033,2.4452850208731385,0.0
664640.0783812654,4010767.5119837918,-37500.0,0.54231907093109288,1.2663980012583473,0.0030866944723323686,0.61707319895499035,0.74423499944685811,0.4530194808668247,1.5829132345323051,0.29270331755557799,-0.74807055972204428,0.74807055972204428,-0.29270331755557799,2.804617556285331,0.0
669640.0783812654,4010767.5119837918,-37500.0,0.52360195937594978,1.446216064719587,0.012648043550793204,0.69202390162764538,0.88848586715483635,0.55417790217749197,1.8200277184832985,0.32888623464072608,-0.85109203987397841,0.85109203987397841,-0.32888623464072608,3.2182552815636418,0.0
674640.0783812654,4010767.5119837918,-37500.0,0.4766283828364043,1.6480021653691057,0.027249571049980516,0.76596770820438476,1.0601918145504419,0.6760201198414959,2.0911048888476618,0.36873858988312658,-0.96559949737560724,0.96559949737560724,-0.36873858988312658,3.6893324403288132,0.0
679640.0783812654,4010767.5119837918,-37500.0,0.39025925706748688,1.8699095087653661,0.048990223512747205,0.83094931098783431,1.2611279789865137,0.81930524046576869,2.3959262124810952,0.41224898172030944,-1.0902903504831516,1.0902903504831516,-0.41224898172030944,4.2165639376858923,0.0
684640.0783812654,4010767.5119837918,-37500.0,0.25142169118342261,2.1065674836597941,0.080626694846782046,0.87405495436495784,1.4895333086017393,0.98115123247580882,2.7296341665162567,0.45964080582879019,-1.2222183549407202,1.2222183549407202,-0.45964080582879019,4.7903271913545096,0.0
689640.0783812654,4010767.5119837918,-37500.0,0.046762374617204353,2.3473084227883554,0.12556741556576215,0.87589212272835104,1.7364125240663306,1.1514744243728583,3.0791998882925906,0.51213311556336949,-1.3564613900741995,1.3564613900741995,-0.51213311556336949,5.3866556375261538,0.0
694640.0783812654,4010767.5119837918,-37500.0,-0.23342643229121607,2.5744202470608544,0.18759246175861272,0.81001181103552999,1.979473640921283,1.3074613414783194,3.4183219622567789,0.57371278689407701,-1.4865529588560569,1.4865529588560569,-0.57371278689407701,5.9589489918038643,0.0
699640.0783812654,4010767.5119837918,-37500.0,-0.58780532478043057,2.7626051391303443,0.2699959120179552,0.64543625041195518,2.1742038849651575,1.4062810429416244,3.701095213894614,0.65476736067787522,-1.6069216723146513,1.6069216723146513,-0.65476736067787522,6.4287546675659861,0.0
704640.0783812654,4010767.5119837918,-37500.0,-0.99269915810390275,2.8821538740684498,0.37369698069374929,0.35625784935853994,2.2429998752860274,1.3785479595312562,3.8568472926931818,0.77860509313956938,-1.7194449158164453,1.7194449158164453,-0.77860509313956938,6.6816259655905528,0.0
709640.0783812654,4010767.5119837918,-37500.0,-1.3899015114946693,2.9098047716785174,0.49384647305160539,-0.056400327181012247,2.0671593492022486,1.1304554192485057,3.7952802557897889,0.9911472925953787,-1.8465728263326744,1.8465728263326744,-0.9911472925953787,6.5865670863168919,0.0
714640.0783812654,4010767.5119837918,-37500.0,-1.6846162234921935,2.850764209209959,0.61494970949253802,-0.5279585492384794,1.4939852585951536,0.57159679225482718,3.465770936680987,1.3707653461937876,-2.05111233724109,2.05111233724109,-1.3707653461937876,6.0912196103391256,0.0
719640.0783812654,4010767.5119837918,-37500.0,-1.7758564748906953,2.7680859981937616,0.70618209216019734,-0.89402358217595224,0.37951056724464027,-0.30787148255103858,3.1689509010170713,2.0274449252923534,-2.4536946259623966,2.4536946259623966,-2.0274449252923534,5.5216591354251348,0.0
724640.0783812654,4010767.5119837918,-37500.0,-1.6393589298601074,2.7969279444992359,0.721752491456916,-0.90625845863915933,-1.3172989956135213,-1.3082331116082997,3.3227085584790848,3.0700991363264181,-3.2211825187515077,3.2211825187515077,-3.0700991363264181,6.0034013186925757,0.0
729640.0783812654,4010767.5119837918,-37500.0,-1.4265414889232821,3.101455238320753,0.61391837952650974,-0.38109401557362171,-3.4158346512481126,-1.9292656169411619,4.7249947347413919,4.5225610775492289,-4.4861230951439435,4.4861230951439435,-4.5225610775492289,8.3509608583569079,0.0
734640.0783812654,4010767.5119837918,-37500.0,-1.4313999763079333,3.7550183262479839,0.36159020476192183,0.53595374808727403,-5.477230000252459,-1.5356897037649573,6.7467136361770859,6.2125242721866645,-6.1932215139871776,6.1932215139871776,-6.2125242721866645,11.686532983422437,0.0
739640.0783812654,4010767.5119837918,-37500.0,-1.8119237920741658,4.6244925790633715,-0.001195790403328738,1.282803621656512,-6.9699734787629533,0.12608919694508738,8.5193841180939494,7.744163732270545,-7.9881975300225481,7.9881975300225481,-7.744163732270545,14.777061851919072,0.0
744640.0783812654,4010767.5119837918,-37500.0,-2.3313760956606573,5.4095881293820725,-0.38894146902254934,1.2778755044049472,-7.57341528055629,2.5256324981520573,9.6970727703522357,8.6713944128926475,-9.3393966493090179,9.3393966493090179,-8.6713944128926475,16.813353286089363,0.0
749640.0783812654,4010767.5119837918,-37500.0,-2.5448460289115906,5.8428371658150846,-0.70930457913730938,0.45382230169625526,-7.3411087069957386,4.6823847007630413,10.116681486440228,8.7767641956812703,-9.8688274464404131,9.8688274464404131,-8.7767641956812703,17.522726057592163,0.0
754640.0783812654,4010767.5119837918,-37500.0,-2.2323941923727881,5.8460445957452309,-0.90993396244968094,-0.74789165902009147,-6.57788595985844,5.9168231695336351,9.8439170930934452,8.1765385481992041,-9.5654841411949185,9.5654841411949185,-8.1765385481992041,17.070270002408726,0.0
759640.0783812654,4010767.5119837918,-37500.0,-1.5214507270447435,5.5101176689069709,-0.98889785263153218,-1.8268221611319679,-5.6078678461028328,6.1603802721122607,9.095586381539329,7.1720708878543098,-8.6916605744736355,8.6916605744736355,-7.1720708878543098,15.831731807454634,0.0
764640.0783812654,4010767.5119837918,-37500.0,-0.68043809092006735,4.9832571013803442,-0.97469804630292711,-2.5285596759866693,-4.6454577583315642,5.716790550538299,8.1077742416111409,6.0491597277017748,-7.5608120154720266,7.5608120154720266,-6.0491597277017748,14.188509467200062,0.0
769640.0783812654,4010767.5119837918,-37500.0,0.080288966509556664,4.3895348569164829,-0.90288011509814636,-2.8370630676707527,-3.7906668052719841,4.9399303497351923,7.0586743873216431,4.9866460821283036,-6.4017859770781884,6.4017859770781884,-4.9866460821283036,12.426539292503305,0.0
774640.0783812654,4010767.5119837918,-37500.0,0.66331745076687221,3.8059570513171961,-0.80305817016969794,-2.8488176541545713,-3.0719331763975872,4.0826194503193944,6.055381615487601,4.0634465021809447,-5.3379191368732108,5.3379191368732108,-4.0634465021809447,10.722378390479534,0.0
779640.0783812654,4010767.5119837918,-37500.0,1.0549279260765683,3.2708549086464593,-0.69540485606521796,-2.6777737530936907,-2.4841188491431572,3.2826387176519987,5.1502475289583209,3.2970610831365699,-4.4171002852056196,4.4171002852056196,-3.2970610831365699,9.1676074924319604,0.0
784640.0783812654,4010767.5119837918,-37500.0,1.2827191440279671,2.798556111508177,-0.59176649683375648,-2.4150530189703368,-2.0100611818764316,2.5968341282966292,4.3613427358386465,2.6759545948383492,-3.6454754963658598,3.6454754963658598,-2.6759545948383492,7.7985969458538502,0.0
789640.0783812654,4010767.5119837918,-37500.0,1.3866638351741771,2.3906373876935878,-0.49805637472777753,-2.1214697140138563,-1.6303335685986926,2.0364513242555691,3.6879413275940065,2.1784459672547261,-3.0101917245258178,3.0101917245258178,-2.1784459672547261,6.6196953781002126,0.0
794640.0783812654,4010767.5119837918,-37500.0,1.4046582433261763,2.042697850239338,-0.41646474762267421,-1.8327308848293962,-1.3269954816632055,1.5912632274536307,3.1202841953219966,1.7817220477189726,-2.4918614321687662,2.4918614321687662,-1.7817220477189726,5.6185801614720594,0.0
799640.0783812654,4010767.5119837918,-37500.0,1.3672536384405591,1.7479989243938605,-0.34707891916454409,-1.5671654153618504,-1.0847330503914028,1.2432979489347413,2.6451650412902876,1.4654146033688369,-2.0705445826695388,2.0705445826695388,-1.4654146033688369,4.775590043649574,0.0
804640.0783812654,4010767.5119837918,-37500.0,1.2969677531109902,1.4992935848477535,-0.28893508127834877,-1.3322984682605394,-0.89096439660674953,0.97367750004779241,2.2488933390927555,1.212597817749034,-1.7282418356923626,1.7282418356923626,-1.212597817749034,4.0690356982378448,0.0
809640.0783812654,4010767.5119837918,-37500.0,1.2094251352397509,1.2896877992651412,-0.24064428082797337,-1.1295008401041955,-0.73556851748708363,0.76553015255037982,1.9187253540108422,1.0097020983622838,-1.4496744798452454,1.4496744798452454,-1.0097020983622838,3.4779949629910045,0.0
814640.0783812654,4010767.5119837918,-37500.0,1.1149572191521278,1.11300161662789,-0.20073641279774473,-0.95696392434394084,-0.61050576037440918,0.60488908599469404,1.6434447397561618,0.84604860427650452,-1.2222907016191504,1.2222907016191504,-0.84604860427650452,2.9836111245682679,0.0
819640.0783812654,4010767.5119837918,-37500.0,1.0200851892174585,0.96387595382810753,-0.16783131852372668,-0.81147209649131358,-0.50943740519103287,0.48066527700125877,1.4134937381429777,0.71330942622159998,-1.0359637530030767,1.0359637530030767,-0.71330942622159998,2.5695416936513977,0.0
824640.0783812654,4010767.5119837918,-37500.0,0.92870519797424289,0.83775598878870472,-0.14071080894839608,-0.68939359574696435,-0.42738651922773946,0.38426310417034865,1.2208866223229144,0.6050133500597823,-0.88260374378859274,0.88260374378859274,-0.6050133500597823,2.2219600108213435,0.0
829640.0783812654,4010767.5119837918,-37500.0,0.84296478659838525,0.73081842289480081,-0.11833724894949081,-0.58719369725219794,-0.36045216751975623,0.30910974111314959,1.0590304839909308,0.51613274817760857,-0.75577895630520042,0.75577895630520042,-0.51613274817760857,1.9293419039767401,0.0
834640.0783812654,4010767.5119837918,-37500.0,0.76388141632588735,0.63987880052164969,-0.099845735647795614,-0.5016709572941096,-0.30557664649254779,0.25021500649767386,0.92252061457718915,0.44275380209150694,-0.65038416372179286,0.65038416372179286,-0.44275380209150694,1.6821704120897032,0.0
644640.0783812654,4015767.5119837918,-37500.0,0.74788457294698429,0.68922776776219985,-0.093177713265431963,0.52381643795320598,0.3401607905965901,0.27647195348106995,0.97283430759480982,0.1018835914688849,-0.39217453531418001,0.39217453531418001,-0.1018835914688849,1.7687600378667614,0.0
649640.0783812654,4015767.5119837918,-37500.0,0.81793253189476289,0.78293368196910651,-0.10956944795855979,0.61172992723096487,0.40009260583915979,0.34221531444796172,1.1127358873474902,0.11197528292445125,-0.44694210121033773,0.44694210121033773,-0.11197528292445125,2.0216716783423458,0.0
654640.0783812654,4015767.5119837918,-37500.0,0.8906828359803225,0.89103930835077594,-0.12899426488085541,0.71576350319563931,0.47217911278343072,0.42606353454165868,1.2764199959362026,0.12320747621843045,-0.51066780499287534,0.51066780499287534,-0.12320747621843045,2.3172215024121234,0.0
659640.0783812654,4015767.5119837918,-37500.0,0.96343060738003006,1.0154282072284948,-0.15191101003585583,0.83834229442256292,0.55884873008038416,0.53340289675152963,1.4678374948801074,0.13579052764150601,-0.5848205291788936,0.5848205291788936,-0.13579052764150601,2.6623214310895089,0.0
664640.0783812654,4015767.5119837918,-37500.0,1.0316419397732812,1.1578643197507512,-0.17873268453850932,0.98163184037720697,0.66277477476935953,0.67114461039225703,1.6911825624086185,0.15006668332005801,-0.67101822096769925,0.67101822096769925,-0.15006668332005801,3.0641788461589767,0.0
669640.0783812654,4015767.5119837918,-37500.0,1.0880903739468128,1.3196876197569356,-0.20970718146969006,1.1469028912850447,0.78664717877247103,0.84796292844507315,1.9505255237231807,0.16663515156051717,-0.77097750224063799,0.77097750224063799,-0.16663515156051717,3.5295366823583096,0.0
674640.0783812654,4015767.5119837918,-37500.0,1.1217144021213146,1.5013135687861443,-0.24469547371674344,1.3333767732318988,0.93266456393279384,1.0743232294896068,2.2490918411357317,0.18658945408554295,-0.88641991492845318,0.88641991492845318,-0.18658945408554295,4.0632085629234709,0.0
679640.0783812654,4015767.5119837918,-37500.0,1.1162418606523969,1.7014650669645888,-0.28277752234287656,1.5362390319448949,1.1015256255227077,1.3619504070428878,2.5879585702343038,0.21195783197345142,-1.0189268299506522,1.0189268299506522,-0.21195783197345142,4.6654577766708671,0.0
684640.0783812654,4015767.5119837918,-37500.0,1.0488393057030938,1.9160910482514584,-0.32158093224601603,1.7434132304084353,1.2905698306664386,1.7220395787152789,2.9638401009982398,0.24649813515048369,-1.1697552946630041,1.1697552946630041,-0.24649813515048369,5.3275897711281965,0.0
689640.0783812654,4015767.5119837918,-37500.0,0.88951844771002742,2.1370371297641273,-0.35619116804715528,1.9307044536652134,1.4905675368131197,2.1609155389013659,3.3655438828977884,0.2970791985875485,-1.3396795513427697,1.3396795513427697,-0.2970791985875485,6.0250353925769957,0.0
694640.0783812654,4015767.5119837918,-37500.0,0.60295145247387216,2.3508292519662417,-0.37749820453513344,2.0553506333723326,1.6805842539849656,2.6709710616773794,3.7686758148076915,0.3759489979123809,-1.5290310982207072,1.5290310982207072,-0.3759489979123809,6.7075524037274592,0.0
699640.0783812654,4015767.5119837918,-37500.0,0.15583288263985456,2.5385399442667924,-0.36995527139726947,2.04952751537156,1.8206196750588337,3.2138237668293939,4.1284364077322699,0.5041295768293198,-1.7382845534728095,1.7382845534728095,-0.5041295768293198,7.2879235088683503,0.0
704640.0783812654,4015767.5119837918,-37500.0,-0.46545046172114746,2.6786711068734173,-0.30917539771121888,1.8191397195579062,1.8429661041406005,3.6930031838328499,4.3712334033461433,0.71570745072900233,-1.9697271641020708,1.9697271641020708,-0.71570745072900233,7.6361320605041891,0.0
709640.0783812654,4015767.5119837918,-37500.0,-1.2226515899988075,2.7558516747545867,-0.16091616824719165,1.2605061151480061,1.6464047564649371,3.918840234350959,4.3881917660423833,1.0614437043837124,-2.2307759745305016,2.2307759745305016,-1.0614437043837124,7.6017132621633214,0.0
714640.0783812654,4015767.5119837918,-37500.0,-1.98412853183603,2.7772032909219271,0.11493367498195609,0.31624313460685011,1.1029683721244525,3.5862198148202187,4.040534675483114,1.6077084442955691,-2.5391313290005666,2.5391313290005666,-1.6077084442955691,7.1295551309679661,0.0
719640.0783812654,4015767.5119837918,-37500.0,-2.5073924523264592,2.792230996550467,0.54956704871960527,-0.91325539994613991,0.092268031635199102,2.3233244285197743,3.491730980783033,2.4246924402915204,-2.9292966123054751,2.9292966123054751,-2.4246924402915204,6.6204855840060217,0.0
724640.0783812654,4015767.5119837918,-37500.0,-2.5210096477633184,2.8996210810324308,1.1356406174712534,-2.0435547257738089,-1.4269643989688481,-0.096508122152963491,4.2265830314336297,3.5601286650834645,-3.4590782930852866,3.4590782930852866,-3.5601286650834645,7.3650649585333801,0.0
729640.0783812654,4015767.5119837918,-37500.0,-1.9609664874304282,3.2152721757841412,1.7923433984527251,-2.4381914147865538,-3.32894827416454,-3.3677433324684127,5.450707019835237,5.002189604852342,-4.2084391954276725,4.2084391954276725,-5.002189604852342,10.170564049532191,0.0
734640.0783812654,4015767.5119837918,-37500.0,-1.2020472542215952,3.7948876839491787,2.3599475867678406,-1.6163041478386317,-5.2857567928012719,-6.4064162686471162,7.9130015468689301,6.6377867364640677,-5.2421890258349526,5.2421890258349526,-6.6377867364640677,13.898550614355431,0.0
739640.0783812654,4015767.5119837918,-37500.0,-0.87758783229951554,4.5587656378283459,2.6625689325545174,0.15922144236197278,-6.8617652954668982,-7.8234571200093397,9.812794542117981,8.2179428435434421,-6.5074017675659981,6.5074017675659981,-8.2179428435434421,17.001230307352731,0.0
744640.0783812654,4015767.5119837918,-37500.0,-1.2615138446394385,5.2998182311697768,2.6152782670303028,1.8909604977513248,-7.7192834988165648,-7.0228290670797264,10.696524115795521,9.3906046709890987,-7.7448680361404731,7.7448680361404731,-9.3906046709890987,18.555622313585115,0.0
749640.0783812654,4015767.5119837918,-37500.0,-1.9809380225805029,5.7952221829186987,2.276751015872613,2.6887180738862941,-7.7847564700054868,-4.6977279579409501,10.623900030830935,9.8644448340234749,-8.588054864579183,8.588054864579183,-9.8644448340234749,18.474978354823257,0.0
754640.0783812654,4015767.5119837918,-37500.0,-2.4662208232658642,5.9302278697989417,1.794009148263066,2.4342305377892295,-7.2363858319262313,-2.0980153234657801,9.913676009948535,9.5883308641282898,-8.8088921807279963,8.8088921807279963,-9.5883308641282898,17.236344653565954,0.0
759640.0783812654,4015767.5119837918,-37500.0,-2.4615320626371386,5.729161185805312,1.3064514888077456,1.5824684622058269,-6.3523645790986585,-0.083613429260846625,8.8895552475416153,8.7511899010254446,-8.4375183859684029,8.4375183859684029,-8.7511899010254446,15.425055234633216,0.0
764640.0783812654,4015767.5119837918,-37500.0,-2.0588513044609753,5.2970456895760245,0.8942882094687219,0.63255894293622417,-5.3702196428821534,1.1189901638985678,7.772815357914288,7.6292422930376045,-7.6701344276032319,7.6701344276032319,-7.6292422930376045,13.46585863497635,0.0
769640.0783812654,4015767.5119837918,-37500.0,-1.4739476967985043,4.748328328985715,0.58156508162466314,-0.1354022697641388,-4.4354749296346645,1.6573036490797721,6.6895142021586675,6.4509983031728728,-6.7231171070414772,6.7231171070414772,-6.4509983031728728,11.589163958508287,0.0
774640.0783812654,4015767.5119837918,-37500.0,-0.88282885934838973,4.1696291708791184,0.36028303278423079,-0.64512267497564424,-3.6146435513150914,1.7720037716307209,5.701950504211605,5.3533921108466958,-5.7548602225784284,5.7548602225784284,-5.3533921108466958,9.8942470928370234,0.0
779640.0783812654,4015767.5119837918,-37500.0,-0.37953284757535005,3.6138576401983493,0.21094814678012055,-0.92664510192955707,-2.9256142768550744,1.6624383425107208,4.8340792338442533,4.3968361498350683,-4.8553215787345403,4.8553215787345403,-4.3968361498350683,8.4110724776055807,0.0
784640.0783812654,4015767.5119837918,-37500.0,0.0056805569478032558,3.1078106946801971,0.11362192588229757,-1.0424737598120595,-2.3620289274364064,1.4580209862971063,4.088514376781653,3.5946757119456301,-4.0637538577085213,4.0637538577085213,-3.5946757119456301,7.1370466561093844,0.0
789640.0783812654,4015767.5119837918,-37500.0,0.27776619356392068,2.6615934271232073,0.052034348386730822,-1.0520393784755144,-1.9078231817455371,1.2311034429452345,3.4570589972325534,2.9367251043373943,-3.3891055913413131,3.3891055913413131,-2.9367251043373943,6.0553259621003743,0.0
794640.0783812654,4015767.5119837918,-37500.0,0.45604779268762863,2.2758444314223261,0.014222501131349406,-1.0004621123148485,-1.544663072287529,1.0170166353144863,2.9268648164301689,2.4035893495910341,-2.8248521469541266,2.8248521469541266,-2.4035893495910341,5.1436246768607887,0.0
799640.0783812654,4015767.5119837918,-37500.0,0.56269336935985548,1.9464038552208385,-0.008124603636152597,-0.91822521428474269,-1.2553078054126416,0.82994166142487968,2.4838529863768555,1.9741179288368782,-2.3579665367635263,2.3579665367635263,-1.9741179288368782,4.3785927568752347,0.0
804640.0783812654,4015767.5119837918,-37500.0,0.61757864809283025,1.6670730098482978,-0.020591147015435001,-0.82434515899750849,-1.02486993364413,0.67311704832751496,2.1144903241459794,1.6287696490644705,-1.9737612334537415,1.9737612334537415,-1.6287696490644705,3.7380336217632664,0.0
809640.0783812654,4015767.5119837918,-37500.0,0.63665140385446528,1.4311390644268895,-0.026851839812563144,-0.72987463861102098,-0.84106314498060197,0.54471650362825175,1.8066029435381219,1.3508133736052197,-1.6582304762050262,1.6582304762050262,-1.3508133736052197,3.2019492729761785,0.0
814640.0783812654,4015767.5119837918,-37500.0,0.63192757670235722,1.2321660555364475,-0.029291403050148528,-0.64072385396642095,-0.69401325474463993,0.44098026886184022,1.5496629923339351,1.1264995186751712,-1.3990216951170096,1.3990216951170096,-1.1264995186751712,2.7529361342277689,0.0
819640.0783812654,4015767.5119837918,-37500.0,0.61209617996686227,1.0643468590164344,-0.029441204067366087,-0.55965031469652238,-0.57590383598130257,0.35775544803669435,1.334776717680866,0.9447800649583481,-1.1856828840252804,1.1856828840252804,-0.9447800649583481,2.3761763724994323,0.0
824640.0783812654,4015767.5119837918,-37500.0,0.58325669886354092,0.92262690952674475,-0.02827522329995882,-0.48757229197719365,-0.48060299639568277,0.2911827008578356,1.1545469628077456,0.79689273169130193,-1.0095844836580175,1.0095844836580175,-0.79689273169130193,2.0592486788669886,0.0
829640.0783812654,4015767.5119837918,-37500.0,0.54958660818331484,0.80270093924035502,-0.026406371039551301,-0.42439313981754151,-0.4033216418678055,0.23794447931610627,1.0028790297738857,0.67593387458513898,-0.86370155300572715,0.86370155300572715,-0.67593387458513898,1.7918440489291427,0.0
834640.0783812654,4015767.5119837918,-37500.0,0.51388027390945634,0.7009514292939496,-0.02421494645776592,-0.36950092268409823,-0.34032504298234817,0.1953051585137498,0.87477945768234688,0.57647895058594689,-0.74236100880346756,0.74236100880346756,-0.57647895058594689,1.5654608721819829,0.0
644640.0783812654,4020767.5119837918,-37500.0,0.99134582083550737,0.59116973477841217,-0.163217931772657,0.66497037259007319,0.28405043393124285,0.3418920557715564,1.027316744300397,0.018695441174061855,-0.31209647197979551,0.31209647197979551,-0.018695441174061855,1.9031625201032913,0.0
649640.0783812654,4020767.5119837918,-37500.0,1.0996646826883558,0.66574531458146191,-0.19339624189078022,0.78451229131775124,0.32972892074900506,0.42708823212867397,1.1772909347770106,0.016526701484080475,-0.35484121564822152,0.35484121564822152,-0.016526701484080475,2.181026334181309,0.0
654640.0783812654,4020767.5119837918,-37500.0,1.2166609340510492,0.75050202616308925,-0.22962324356084471,0.92815298577425598,0.38334032362739823,0.53705539237582478,1.3533547971497255,0.014043266282861011,-0.40496479748156833,0.40496479748156833,-0.014043266282861011,2.5071322367856728,0.0
659640.0783812654,4020767.5119837918,-37500.0,1.340020079393782,0.84642221689246899,-0.27299481928033636,1.1003495329575446,0.44594131434737316,0.67970107098761268,1.560087892517662,0.01166014746577626,-0.46403759290596458,0.46403759290596458,-0.01166014746577626,2.8897965009811752,0.0
664640.0783812654,4020767.5119837918,-37500.0,1.4651503177971346,0.9542750479761346,-0.32463146035405105,1.3056750054867048,0.51839042025672699,0.86544758238913155,1.802513918520394,0.010260058139541173,-0.53406084130178222,0.53406084130178222,-0.010260058139541173,3.3379777262568298,0.0
669640.0783812654,4020767.5119837918,-37500.0,1.5839051695836115,1.074408569446101,-0.38550109324834886,1.5480818592429881,0.60101513936744178,1.1078230328072591,2.0858086406276106,0.011551351676538257,-0.61762852718618455,0.61762852718618455,-0.011551351676538257,3.8605708556566398,0.0
674640.0783812654,4020767.5119837918,-37500.0,1.6827797241368327,1.2064658943382518,-0.45606688645809074,1.8294280541939123,0.69302971408973102,1.4238990037583694,2.4146849775518047,0.018658716382402574,-0.71816526762691602,0.71816526762691602,-0.018658716382402574,4.4649691300792291,0.0
679640.0783812654,4020767.5119837918,-37500.0,1.7405374944895176,1.3490484262282489,-0.53563467184743596,2.1467446111746971,0.79156800975650743,1.8341288344645155,2.7922321934881955,0.037065956810964085,-0.84027030576049921,0.84027030576049921,-0.037065956810964085,5.1543982248896745,0.0
684640.0783812654,4020767.5119837918,-37500.0,1.7254815931950394,1.4994240946424096,-0.62120931301590132,2.4874865322262725,0.8901688921259957,2.3606174648999017,3.2178665851023971,0.076047354405788692,-0.99018758675495411,0.99018758675495411,-0.076047354405788692,5.9233108072671596,0.0
689640.0783812654,4020767.5119837918,-37500.0,1.5932424382017061,1.6535313349762712,-0.70560340396631371,2.8218567483703763,0.97659096591413119,3.0218890307658293,3.6838932245978886,0.15066600047943357,-1.1763595355302057,1.1763595355302057,-0.15066600047943357,6.74998336798489,0.0
694640.0783812654,4020767.5119837918,-37500.0,1.2873721921488861,1.8067862571919713,-0.77453626435186784,3.091640926299672,1.0300690245196611,3.8206456097825119,4.1700331293020243,0.28414275723111104,-1.4098196758908814,1.4098196758908814,-0.28414275723111104,7.5857501770620592,0.0
699640.0783812654,4020767.5119837918,-37500.0,0.74758693309640367,1.9564990322474878,-0.80268149365280894,3.196891588737568,1.0187964497365565,4.7190202866504443,4.6354092427539522,0.5096351402235948,-1.7036646310140124,1.7036646310140124,-0.5096351402235948,8.3420773379067317,0.0
704640.0783812654,4020767.5119837918,-37500.0,-0.066135845554711442,2.1066908393709074,-0.74941252832467886,2.9873518401566614,0.89981585503154338,5.5950524829560599,5.008884929303222,0.86886601315623135,-2.0698073829511006,2.0698073829511006,-0.86886601315623135,8.8825861068358414,0.0
709640.0783812654,4020767.5119837918,-37500.0,-1.1244098019703075,2.2747904943589554,-0.55686577406997906,2.2773962931283021,0.62548278215685116,6.1800893790596501,5.1842353042714437,1.4027449992851584,-2.5098193603022723,2.5098193603022723,-1.4027449992851584,9.0437543510503122,0.0
714640.0783812654,4020767.5119837918,-37500.0,-2.2566908961072669,2.4955639503481599,-0.15606338281863752,0.92004520434699133,0.16127466985522171,6.0020370231042026,5.0486460889890763,2.128547218547554,-2.996930056097169,2.996930056097169,-2.128547218547554,8.7505261603892119,0.0
719640.0783812654,4020767.5119837918,-37500.0,-3.1016854518599022,2.8111565068339663,0.51058288885648007,-1.0234419387510076,-0.48654403494963711,4.4180859636968286,4.7299393792773134,3.0067043194990055,-3.4544444013765934,3.4544444013765934,-3.0067043194990055,8.366139534533815,0.0
724640.0783812654,4020767.5119837918,-37500.0,-3.1963569002545014,3.2367248624333338,1.4462119076219724,-3.0564726670002167,-1.25323043180981,0.88771295125090333,5.2714502788462818,3.9259730634285082,-3.7594143413834611,3.7594143413834611,-3.9259730634285082,9.1345221511219936,0.0
729640.0783812654,4020767.5119837918,-37500.0,-2.3175293817515312,3.718170273079394,2.5509722485442401,-4.2013690852954024,-2.0429192729608214,-4.4411791338934767,6.9017975217228535,4.7586884325591896,-3.8211726422736074,3.8211726422736074,-4.7586884325591896,12.062363916472233,0.0
734640.0783812654,4020767.5119837918,-37500.0,-0.90207085865006587,4.1419076553643404,3.6114562020902121,-3.501942347904722,-2.7983254382319078,-10.207519132769223,9.3084163018399906,5.4801191749712048,-3.7237278443068531,3.7237278443068531,-5.4801191749712048,16.146595931759354,0.0
739640.0783812654,4020767.5119837918,-37500.0,0.053375298926222031,4.4256809247623714,4.370347520405983,-0.94930115363887435,-3.5217842358135099,-14.23736128180883,11.28842509984565,6.1967840123664502,-3.754453725714153,3.754453725714153,-6.1967840123664502,19.576171219615329,0.0
744640.0783812654,4020767.5119837918,-37500.0,-0.15328263272567588,4.5857296113045116,4.6534120582179215,2.2171496589627679,-4.187776014644232,-15.044060437882168,12.107820083546429,6.9648619670249179,-4.1579209958260908,4.1579209958260908,-6.9648619670249179,21.139096716646687,0.0
749640.0783812654,4020767.5119837918,-37500.0,-1.2706344715146329,4.6761337858521408,4.4570442408758932,4.4845768472930496,-4.6792541878850322,-12.933216817218776,11.748305178078665,7.6271015850870425,-4.8582093455109794,4.8582093455109794,-7.6271015850870425,20.669806103290036,0.0
754640.0783812654,4020767.5119837918,-37500.0,-2.4808211662428032,4.7006751152425243,3.92404690484716,5.2119416927881552,-4.8700649680664672,-9.4424459233632998,10.625602903421063,7.9339606327447978,-5.5288387951741065,5.5288387951741065,-7.9339606327447978,18.788546751162723,0.0
759640.0783812654,4020767.5119837918,-37500.0,-3.1840163124127816,4.6224637122376624,3.2435246005190992,4.717269993400345,-4.7347475715209963,-6.0246686539689698,9.2161743205723994,7.7709721476019666,-5.8897087341093268,5.8897087341093268,-7.7709721476019666,16.30196066860087,0.0
764640.0783812654,4020767.5119837918,-37500.0,-3.2709977858004167,4.4210532638144331,2.5650968588896532,3.6517940452822444,-4.3513284740601232,-3.3922853846855241,7.8281041038138914,7.2115459651075486,-5.863763624908664,5.863763624908664,-7.2115459651075486,13.792341022798583,0.0
769640.0783812654,4020767.5119837918,-37500.0,-2.9255505171120486,4.1133801918162796,1.9708501394064282,2.519049505779082,-3.8344830315064562,-1.6410688522485677,6.589687912996764,6.4190748020875183,-5.5282568799537302,5.5282568799537302,-6.4190748020875183,11.543032403623906,0.0
774640.0783812654,4020767.5119837918,-37500.0,-2.3800611136141279,3.7383451756985577,1.4882334936459791,1.5657081699496858,-3.2815494224675721,-0.59109009961755121,5.5297329280870224,5.547985137401434,-5.0096175084899324,5.0096175084899324,-5.547985137401434,9.6348094711898344,0.0
779640.0783812654,4020767.5119837918,-37500.0,-1.8023488313991791,3.3364943750235749,1.1135879487217719,0.85700260071457512,-2.7547473826817508,-0.015771887906900726,4.6388963072161733,4.7030095675535213,-4.4180111632189414,4.4180111632189414,-4.7030095675535213,8.053002111287288,0.0
784640.0783812654,4020767.5119837918,-37500.0,-1.2821477161136432,2.9392190387884862,0.83038145821582188,0.37087323782482939,-2.2852564363514438,0.26788596437388973,3.8966366881897416,3.9397081267845016,-3.827502258233376,3.827502258233376,-3.9397081267845016,6.7518701143466116,0.0
789640.0783812654,4020767.5119837918,-37500.0,-0.85357520685639932,2.5665073812422987,0.61944041896227675,0.057632308245497074,-1.8834756268903166,0.38435713447175801,3.2807824106087313,3.2790985663568906,-3.2794261014733443,3.2794261014733443,-3.2790985663568906,5.6826089085185032,0.0
794640.0783812654,4020767.5119837918,-37500.0,-0.51973013783517574,2.2287864164924525,0.46345437969060399,-0.13227926253341862,-1.5481259657898341,0.41086155445806766,2.7707151427470142,2.7221192315085818,-2.792206069671439,2.792206069671439,-2.7221192315085818,4.8023693577272715,0.0
799640.0783812654,4020767.5119837918,-37500.0,-0.26969724286380642,1.9297935973557552,0.34836833949251256,-0.23885598380938175,-1.272425025091769,0.39255627415505068,2.3483326719378912,2.2598310555080627,-2.3703947007638102,2.3703947007638102,-2.2598310555080627,4.0757737352389096,0.0
804640.0783812654,4020767.5119837918,-37500.0,-0.088142427839273091,1.6691320902437818,0.26337593348560789,-0.29134312797070949,-1.0477089737138361,0.35466067576721616,1.9982022302395037,1.8795412245197207,-2.0111014219138657,2.0111014219138657,-1.8795412245197207,3.4741498046336807,0.0
809640.0783812654,4020767.5119837918,-37500.0,0.040041655967279349,1.4441429293805144,0.20041321146816363,-0.30996084626020132,-0.86532258480216384,0.31062833755092356,1.7074007184852524,1.5680745696478324,-1.7080133685632461,1.7080133685632461,-1.5680745696478324,2.9743511710000123,0.0
814640.0783812654,4020767.5119837918,-37500.0,0.12788303198950246,1.2511351000066104,0.15356045536714963,-0.30819346620817867,-0.71747361619127137,0.26722091319576519,1.4652360230559189,1.3133129202638862,-1.4536976096306944,1.4536976096306944,-1.3133129202638862,2.5576881085229521,0.0
819640.0783812654,4020767.5119837918,-37500.0,0.18587710204908195,1.0861282931052616,0.11850787043224109,-0.29479882872623137,-0.59752089321974988,0.22751304110976547,1.2629332067842913,1.1047728362181504,-1.24080995168381,1.24080995168381,-1.1047728362181504,2.2090527053515445,0.0
824640.0783812654,4020767.5119837918,-37500.0,0.22214956400777136,0.94526654893386652,0.092127895418807199,-0.27533789071944342,-0.49998061033344143,0.19261756446177095,1.0933293296738682,0.93369442860606855,-1.0626602034679951,1.0626602034679951,-0.93369442860606855,1.9162200326079017,0.0
829640.0783812654,4020767.5119837918,-37500.0,0.24283627660743709,0.82502320973251986,0.07215080837200924,-0.25326064704236478,-0.42040904527773526,0.16265237809833652,0.95059582124226893,0.79290611024140478,-0.91341923053317542,0.91341923053317542,-0.79290611024140478,1.6692875163529821,0.0
834640.0783812654,4020767.5119837918,-37500.0,0.25249436965512045,0.72228163584149863,0.056925777836974376,-0.23064721829856308,-0.35524487869453547,0.13726984314185614,0.82999678066225191,0.67660666413002168,-0.78813992962201329,0.78813992962201329,-0.67660666413002168,1.4602235928401928,0.0
644640.0783812654,4025767.5119837918,-37500.0,1.1979655476454596,0.46040870992027111,-0.21223836670855931,0.78542772643760395,0.21034007454767642,0.39786609280655971,1.0776538767883164,-0.059886219297494631,-0.20983196931729278,0.20983196931729278,0.059886219297494631,2.0297483480399512,0.0
649640.0783812654,4025767.5119837918,-37500.0,1.3357361063404771,0.50876066195702485,-0.25039649322123869,0.93023300419067778,0.2368998113011683,0.49890189579395555,1.2365083198345277,-0.07209890269416952,-0.23593374429629399,0.23593374429629399,0.07209890269416952,2.3301620585406444,0.0
654640.0783812654,4025767.5119837918,-37500.0,1.4858720274548955,0.56142063870562819,-0.29578679713094846,1.1049071926478959,0.26566135120031442,0.62980123011390943,1.4233786658951271,-0.085136636675877522,-0.26679587583631403,0.26679587583631403,0.085136636675877522,2.6835994971466284,0.0
659640.0783812654,4025767.5119837918,-37500.0,1.6458989518807414,0.61812051498764131,-0.34952050967651582,1.3151222793783302,0.2958180346462862,0.80023623828822477,1.6433440909643791,-0.097987511979604744,-0.30387307651453926,0.30387307651453926,0.097987511979604744,3.0994799704579123,0.0
664640.0783812654,4025767.5119837918,-37500.0,1.8105642840466067,0.67826517318565305,-0.41259991031415333,1.5667511277078006,0.3257753138524821,1.0229976390786932,1.9020839907871738,-0.10868511219091292,-0.34931233184840665,0.34931233184840665,0.10868511219091292,3.5881021695216511,0.0
669640.0783812654,4025767.5119837918,-37500.0,1.9702320005118317,0.7408745729334677,-0.48563874626279951,1.8649605718536153,0.35269338553346857,1.3147438535344569,2.2056429379525806,-0.11367711044977413,-0.40634776733184841,0.40634776733184841,0.11367711044977413,4.1599601855586181,0.0
674640.0783812654,4025767.5119837918,-37500.0,2.108611730582441,0.80462550979239866,-0.5683567440147721,2.2123828393772489,0.37183846661439163,1.696572681371276,2.5598880010209326,-0.10685310778273466,-0.4799123162363586,0.4799123162363586,0.10685310778273466,4.8243022811306249,0.0
679640.0783812654,4025767.5119837918,-37500.0,2.1997765686512198,0.86814612748624731,-0.65871551262371308,2.6057165877846287,0.3757352077717897,2.1938732659233096,2.969418650079644,-0.078120807252075902,-0.57754670134284125,0.57754670134284125,0.078120807252075902,5.5864101197680993,0.0
684640.0783812654,4025767.5119837918,-37500.0,2.2047630815148107,0.93084884643585886,-0.75152309324738065,3.0298265720864981,0.35322576841136555,2.834284384617817,3.4355316103123723,-0.011489377569295856,-0.71064842387865856,0.71064842387865856,0.011489377569295856,6.4428457508416912,0.0
689640.0783812654,4025767.5119837918,-37500.0,2.0688991473523437,0.99477008178832815,-0.83633694843063155,3.4482566500930742,0.28882791770208716,3.6414349772172643,3.9526348882346238,0.11710965566360065,-0.895925296115619,0.895925296115619,-0.11710965566360065,7.3737536291236392,0.0
694640.0783812654,4025767.5119837918,-37500.0,1.7227971064242273,1.0680309157655241,-0.89464031729178417,3.7895774233220689,0.16339249396373626,4.6203153181646579,4.5023895815385622,0.34131313498694577,-1.156398948451737,1.156398948451737,-0.34131313498694577,8.3315974237924841,0.0
699640.0783812654,4025767.5119837918,-37500.0,1.0930572830529355,1.170315868191534,-0.89675428740570173,3.9314450236861189,-0.041877260535599641,5.7279369367041841,5.0453159186765788,0.70263899954149767,-1.5200974216376262,1.5200974216376262,-0.70263899954149767,9.2275107902376146,0.0
704640.0783812654,4025767.5119837918,-37500.0,0.13252914595358589,1.339363663576139,-0.80006087500406353,3.6910651387017142,-0.33469418935128731,6.8224582714177648,5.5117903682041103,1.2405830792006713,-2.0123488161430783,2.0123488161430783,-1.2405830792006713,9.922372107502504,0.0
709640.0783812654,4025767.5119837918,-37500.0,-1.1197836771523169,1.6334757309325865,-0.55194128747235649,2.8445826130660694,-0.69094416084673949,7.5916154835646639,5.8010554849853895,1.9671076466271722,-2.6349249181353103,2.6349249181353103,-1.9671076466271722,10.24578497327148,0.0
714640.0783812654,4025767.5119837918,-37500.0,-2.4545985473388501,2.1178769890135674,-0.10238465863680422,1.2157128655335949,-1.0265257435774342,7.4903738667938553,5.8168361194084284,2.8214291688056581,-3.326306104817681,3.326306104817681,-2.8214291688056581,10.104159128968352,0.0
719640.0783812654,4025767.5119837918,-37500.0,-3.4392550701643763,2.8180841724682044,0.57095274264912887,-1.1293026536924449,-1.1828889972941408,5.7803305337843538,5.6397868032533927,3.621993174535088,-3.9132401974370468,3.9132401974370468,-3.621993174535088,9.7958419235228291,0.0
724640.0783812654,4025767.5119837918,-37500.0,-3.5266701601578379,3.6415416669428922,1.4331745955081148,-3.630003024679672,-0.97483919687987253,1.8265274765663071,5.9899488149974029,4.0781401130048538,-4.1064794896166559,4.1064794896166559,-4.0781401130048538,10.434075575090539,0.0
729640.0783812654,4025767.5119837918,-37500.0,-2.4417572110534258,4.3318039131513162,2.3815978917931715,-5.1815286685043906,-0.34053675770785713,-4.2852352675573151,7.5799556349331159,3.9492396392859828,-3.6340280848354798,3.6340280848354798,-3.9492396392859828,13.143101018687325,0.0
734640.0783812654,4025767.5119837918,-37500.0,-0.64967157347921756,4.575550355434733,3.2741737659707706,-4.6583090942459071,0.48672347530977095,-11.189678250782334,9.9072000544243757,3.318149647168537,-2.5218307512343512,2.5218307512343512,-3.318149647168537,17.218097233034701,0.0
739640.0783812654,4025767.5119837918,-37500.0,0.71681866646476577,4.264070537842894,3.9780739068975897,-1.8907740602788516,1.0241745505959681,-16.576598621280876,11.90265625818815,2.6797692802466062,-1.2620736847508338,1.2620736847508338,-2.6797692802466062,20.845025493206702,0.0
744640.0783812654,4025767.5119837918,-37500.0,0.74072327482242406,3.6357343550151384,4.3984029094148767,1.9217306813170827,0.89881121619403792,-18.635870159996927,12.800754785814284,2.5788447896646556,-0.53026821244335065,0.53026821244335065,-2.5788447896646556,22.646474091660281,0.0
749640.0783812654,4025767.5119837918,-37500.0,-0.48716037411139068,3.0709373530356237,4.4898112846171401,5.0823381372019512,0.16475186047504065,-17.290961014017075,12.470879751800739,3.1243143030004381,-0.64208770702545892,0.64208770702545892,-3.1243143030004381,22.285284010063393,0.0
754640.0783812654,4025767.5119837918,-37500.0,-2.1170359634566371,2.7764799396957893,4.2723686367850711,6.629728311432749,-0.79488236362503784,-13.908122667027449,11.265412644784085,3.9633038456354637,-1.3711782684125116,1.3711782684125116,-3.9633038456354637,20.299610078895679,0.0
759640.0783812654,4025767.5119837918,-37500.0,-3.3605814074868174,2.7139382901263653,3.8300119336332288,6.6493701081240317,-1.6058057938660482,-10.067684965829226,9.6812360896221534,4.6603478771320033,-2.2561891129125824,2.2561891129125824,-4.6603478771320033,17.532612848621064,0.0
764640.0783812654,4025767.5119837918,-37500.0,-3.9204643654308313,2.7413023615942542,3.2745322445069176,5.752847501472333,-2.0968589557599979,-6.7476408504728438,8.0976825334123053,4.987725094895211,-2.950589276986082,2.950589276986082,-4.987725094895211,14.667067184677791,0.0
769640.0783812654,4025767.5119837918,-37500.0,-3.8883918147200038,2.7452946147864634,2.7031430203657898,4.5330073000297935,-2.2762552778138638,-4.2693254267992637,6.7007093836699383,4.9411172210672838,-3.3276577118856481,3.3276577118856481,-4.9411172210672838,12.079022578605441,0.0
774640.0783812654,4025767.5119837918,-37500.0,-3.4930414005156898,2.678663693456679,2.1779913753879785,3.3536969196915107,-2.2317186012332377,-2.5765694032065389,5.5353460269801369,4.6271256690173885,-3.4128322731780085,3.4128322731780085,-4.6271256690173885,9.9001243079535435,0.0
779640.0783812654,4025767.5119837918,-37500.0,-2.940937162496863,2.5416498907529959,1.7277120971185218,2.3705923243141034,-2.0576973616033953,-1.4844141238949877,4.5835899166211203,4.1676864053940319,-3.2902587809221622,3.2902587809221622,-4.1676864053940319,8.1276799744538195,0.0
784640.0783812654,4025767.5119837918,-37500.0,-2.3675921309320493,2.354969913013504,1.3581894220949822,1.6151098818287237,-1.8259246061434817,-0.80687481665538907,3.8109708336271342,3.6573206693952196,-3.0456817281925535,3.0456817281925535,-3.6573206693952196,6.7058024578447846,0.0
789640.0783812654,4025767.5119837918,-37500.0,-1.8442697344432999,2.1424032092141334,1.0631764838992335,1.0626734031298877,-1.5818005746585233,-0.39920465748709211,3.1837484836065268,3.1557832167980835,-2.7448223578421262,2.7448223578421262,-3.1557832167980835,5.5681043082560597,0.0
794640.0783812654,4025767.5119837918,-37500.0,-1.3993275387010478,1.9232792084634955,0.83156945658294357,0.67170033822799535,-1.3502238392606505,-0.16089898385493642,2.6732611894378726,2.6948998590225575,-2.4308949150035559,2.4308949150035559,-2.6948998590225575,4.6548540438685411,0.0
799640.0783812654,4025767.5119837918,-37500.0,-1.0370727700453899,1.7107617897001866,0.65146757534720667,0.40140913468306672,-1.1426629023504289,-0.026299313922648272,2.2562552236647253,2.2879489757002149,-2.1291253973531719,2.1291253973531719,-2.2879489757002149,3.9174788864325736,0.0
804640.0783812654,4025767.5119837918,-37500.0,-0.75033761685283373,1.5126084093863861,0.51205953693584905,0.21805979243822263,-0.96271613327157957,0.045996300480343498,1.9141746681812977,1.9373300439343746,-1.8523706716728965,1.8523706716728965,-1.9373300439343746,3.3180678851615077,0.0
809640.0783812654,4025767.5119837918,-37500.0,-0.52771447675051986,1.3326050000750012,0.40427950832338461,0.095906928590761373,-0.80980914315672914,0.081529557371269573,1.6322943381932427,1.6397677816282505,-1.6057488747559581,1.6057488747559581,-1.6397677816282505,2.8274466443478277,0.0
814640.0783812654,4025767.5119837918,-37500.0,-0.3572639885741043,1.1719168995672928,0.32085571840358973,0.016163309684159667,-0.6814264448195404,0.095827716978672206,1.3989397469886962,1.3894876426534597,-1.3899025374328411,1.3899025374328411,-1.3894876426534597,2.423193230293665,0.0
819640.0783812654,4025767.5119837918,-37500.0,-0.2281718563794666,1.0301270342265902,0.25610491343936487,-0.034522937335420036,-0.57436255839996553,0.098222747928547127,1.204844318839998,1.1800007884751156,-1.2031064064264005,1.2031064064264005,-1.1800007884751156,2.0879965919182997,0.0
824640.0783812654,4025767.5119837918,-37500.0,-0.13131663292481099,0.90595480125613681,0.20565235562859679,-0.065487657291650875,-0.48537251543145526,0.094261576336590686,1.0426367047801268,1.0050239861896775,-1.0425480386820714,1.0425480386820714,-1.0050239861896775,1.8083994051271814,0.0
829640.0783812654,4025767.5119837918,-37500.0,-0.059309720191323315,0.79772004339730362,0.16615892337453989,-0.083191570121051037,-0.41147613801262811,0.087197609520957536,0.90643685031988197,0.85889578120599064,-0.90506421711003837,0.90506421711003837,-0.85889578120599064,1.5738614454203192,0.0
834640.0783812654,4025767.5119837918,-37500.0,-0.0063115138482265094,0.70362545229228901,0.1350862965201575,-0.09207518275032113,-0.35007325250188159,0.078903435543337924,0.7915395829329781,0.73671652246862251,-0.78753876464368489,0.78753876464368489,-0.73671652246862251,1.3760666468779772,0.0
644640.0783812654,4030767.5119837918,-37500.0,1.3586503518851423,0.30685942865082422,-0.23524511613431037,0.88016357659971933,0.12422004305359034,0.44213509823600794,1.119716500031791,-0.12767200240428916,-0.091990275300672997,0.091990275300672997,0.12767200240428916,2.1383445028445021,0.0
649640.0783812654,4030767.5119837918,-37500.0,1.5149862629877231,0.32501959336404995,-0.27434709767779158,1.0423690348397614,0.12876851587695115,0.55454594786153721,1.2850633515991892,-0.1462618310311688,-0.098705025009747566,0.098705025009747566,0.1462618310311688,2.4559862361911216,0.0
654640.0783812654,4030767.5119837918,-37500.0,1.6846466941905054,0.34105038150183747,-0.31973590060292428,1.2375364806079514,0.12912222844396062,0.69998987975807847,1.4795682031644832,-0.16494061219351847,-0.10708943556078447,0.10708943556078447,0.16494061219351847,2.8296506865928075,0.0
659640.0783812654,4030767.5119837918,-37500.0,1.8644025097444559,0.35347873441175837,-0.37186950006856251,1.4716012268805014,0.12251164214497887,0.88899878404902843,1.7085255440257043,-0.1816991960058934,-0.11842561475577429,0.11842561475577429,0.1816991960058934,3.2692134141455864,0.0
664640.0783812654,4030767.5119837918,-37500.0,2.0477358484529939,0.36050031491596551,-0.43077819194347589,1.7504748715110734,0.10483080593457725,1.1353824832590838,1.9778725926675322,-0.19299584299233577,-0.13495262307921949,0.13495262307921949,0.19299584299233577,3.7854295183168252,0.0
669640.0783812654,4030767.5119837918,-37500.0,2.2230410664882059,0.36014445128999362,-0.49566902951257208,2.0789204885434485,0.070119001715481577,1.456927123836677,2.2939570685644193,-0.19287422080456038,-0.16049255830261397,0.16049255830261397,0.19287422080456038,4.3891988724931101,0.0
674640.0783812654,4030767.5119837918,-37500.0,2.3711586310857631,0.35074095354396917,-0.56430006344342765,2.4583858942481402,0.0099592136303632492,1.8758206019828148,2.6629781561192272,-0.17169210960430153,-0.20142098571594363,0.20142098571594363,0.17169210960430153,5.0900463660465114,0.0
679640.0783812654,4030767.5119837918,-37500.0,2.4622864188893661,0.33196029846557051,-0.6320456492598433,2.8831260372447103,-0.087062658863186218,2.4181887100978816,3.0898312814243143,-0.11441745460085298,-0.26809435325897701,0.26809435325897701,0.11441745460085298,5.8932980987172217,0.0
684640.0783812654,4030767.5119837918,-37500.0,2.4527540062729725,0.30685188326836199,-0.69061018630767701,3.3337217183909353,-0.23544947587498527,3.1114730737439857,3.575929526906612,0.0013598791801076315,-0.37676826196372681,0.37676826196372681,-0.0013598791801076315,6.7952283460959766,0.0
689640.0783812654,4030767.5119837918,-37500.0,2.2831507211194313,0.28543752252170018,-0.72649109788473776,3.7671049072685214,-0.4515662211188442,3.9772652529683938,4.1154415970796325,0.20704300375739682,-0.55173902149888654,0.55173902149888654,-0.20704300375739682,7.7753484750210538,0.0
694640.0783812654,4030767.5119837918,-37500.0,1.8812290765085118,0.29031305926160766,-0.7196568890685624,4.1030359791254458,-0.74940703540726561,5.0155901815475001,4.689479652890137,0.5424988923299584,-0.82664103648787146,0.82664103648787146,-0.5424988923299584,8.7854045792521429,0.0
699640.0783812654,4030767.5119837918,-37500.0,1.1759937862843797,0.36381843351045218,-0.64362990295585887,4.2099330579150491,-1.1305943634891227,6.1750594505977432,5.2585159474713485,1.0496063091860788,-1.2421207391585694,1.2421207391585694,-1.0496063091860788,9.7365567657019891,0.0
704640.0783812654,4030767.5119837918,-37500.0,0.13223473157624555,0.57360241121270195,-0.46922378429223971,3.900085680674843,-1.5653281516666522,7.3041221203843953,5.7556608769692481,1.7534671017077459,-1.8342406352637468,1.8342406352637468,-1.7534671017077459,10.491955709226325,0.0
709640.0783812654,4030767.5119837918,-37500.0,-1.1875273463073368,1.007691877857336,-0.1748649667116253,2.9569204872385257,-1.9636512157126316,8.0878815701975437,6.0895969642557191,2.624067082535174,-2.6051423007905261,2.6051423007905261,-2.624067082535174,10.886233570655939,0.0
714640.0783812654,4030767.5119837918,-37500.0,-2.5456299696707867,1.742805603139929,0.23557962067479313,1.2295948106152825,-2.1474797055770471,8.0028803433685631,6.1807395519957877,3.5196118769411764,-3.4703125412033828,3.4703125412033828,-3.5196118769411764,10.823650499102564,0.0
719640.0783812654,4030767.5119837918,-37500.0,-3.4963891450108409,2.7708451319563245,0.71490639752231211,-1.1823414728998849,-1.8576090187448433,6.373171885413746,6.0870511527251852,4.1424257458837834,-4.1978964090628432,4.1978964090628432,-4.1424257458837834,10.543162846920804,0.0
724640.0783812654,4030767.5119837918,-37500.0,-3.5151067529841895,3.9017394020966449,1.1759639860082003,-3.7174159593204994,-0.85257860744540848,2.6469674879487153,6.284395574961918,4.0875770552468103,-4.4043838915599389,4.4043838915599389,-4.0875770552468103,10.97175936853036,0.0
729640.0783812654,4030767.5119837918,-37500.0,-2.3643488782083928,4.7367355929599455,1.5387019741522103,-5.3429178076101493,0.87846853182934137,-3.0881946368002149,7.5124741632866359,3.0713023834099631,-3.7102435649394399,3.7102435649394399,-3.0713023834099631,13.185157968606617,0.0
734640.0783812654,4030767.5119837918,-37500.0,-0.49509641489028167,4.8436600600890927,1.8002133317448104,-5.0257007221974934,2.9181927909135625,-9.6764478609963867,9.5288665103678056,1.2683338521810437,-2.0662820636247106,2.0662820636247106,-1.2683338521810437,16.803076675021689,0.0
739640.0783812654,4030767.5119837918,-37500.0,1.0308739707300423,4.0972114125823502,2.0443542679845428,-2.5450514493075649,4.5141332917344537,-15.163135034675912,11.391896574359791,-0.58943052286136965,0.013038875077473311,-0.013038875077473311,0.58943052286136965,20.263535276064783,0.0
744640.0783812654,4030767.5119837918,-37500.0,1.2924215534464147,2.8513285746098771,2.3455737900662386,1.1385136634294237,5.041553605241619,-17.898350037305484,12.372841807555011,-1.6409156340032378,1.6779006639836898,-1.6779006639836898,1.6409156340032378,22.229176776825295,0.0
749640.0783812654,4030767.5119837918,-37500.0,0.22925934273542872,1.6861642785559177,2.6714149920858068,4.5189225120559957,4.4320070319322928,-17.549526400653086,12.254259645791143,-1.5207835093924376,2.3308022694823238,-2.3308022694823238,1.5207835093924376,22.230326126550647,0.0
754640.0783812654,4030767.5119837918,-37500.0,-1.4579224320915358,0.98687376512921843,2.9089444362109789,6.5654682285957344,3.1281689328999969,-15.042261941621694,11.258908916767597,-0.52519725860548294,1.9747426352894009,-1.9747426352894009,0.52519725860548294,20.603859094181445,0.0
759640.0783812654,4030767.5119837918,-37500.0,-2.9752946140508172,0.78519454151103818,2.9686757367634158,7.1286735845895812,1.6917711432054674,-11.693146320975263,9.7974540696819421,0.7573060920005924,1.035523169211678,-1.035523169211678,-0.7573060920005924,18.056583160108634,0.0
764640.0783812654,4030767.5119837918,-37500.0,-3.9016649362894378,0.89931753794386404,2.8409406285613987,6.6327614314786247,0.49536421058579966,-8.4812432441407637,8.2384459253752507,1.8607146974915141,-0.018113818508577073,0.018113818508577073,-1.8607146974915141,15.246527581399238,0.0
769640.0783812654,4030767.5119837918,-37500.0,-4.2044854317052369,1.1257553251278039,2.5766917458816851,5.6140407427555301,-0.33241320316416434,-5.8630586622144367,6.8072730713912151,2.5848233899878714,-0.89383341292798169,0.89383341292798169,-2.5848233899878714,12.596354201351462,0.0
774640.0783812654,4030767.5119837918,-37500.0,-4.0485072320287134,1.332531389010863,2.243679054555122,4.4699215990115704,-0.8189017879923608,-3.921132208995298,5.5923578875484559,2.9298541769459456,-1.4894733291499449,1.4894733291499449,-2.9298541769459456,10.299790420952345,0.0
779640.0783812654,4030767.5119837918,-37500.0,-3.6313619055047166,1.4640095878810315,1.8975473119400568,3.4173776521689434,-1.0504039880238001,-2.56171155797057,4.5980108573263028,2.9854497943946279,-1.8196556664680545,1.8196556664680545,-2.9854497943946279,8.4008581241337481,0.0
784640.0783812654,4030767.5119837918,-37500.0,-3.1079497115982946,1.513130335773728,1.5732546687485134,2.5414315878247087,-1.1153493982865597,-1.643810434075597,3.7952354477951387,2.8552527913484802,-1.9453700316109206,1.9453700316109206,-2.8552527913484802,6.8688259332913759,0.0
789640.0783812654,4030767.5119837918,-37500.0,-2.5761517651354926,1.4947990292621236,1.2878122462015629,1.8533654893684883,-1.082862425473071,-1.0380188029003314,3.1491373273760939,2.6240493867918175,-1.9328949950747301,1.9328949950747301,-2.6240493867918175,5.6461240601313269,0.0
794640.0783812654,4030767.5119837918,-37500.0,-2.087822788005389,1.4295914159654572,1.0462265166310862,1.331666323097596,-1.0000970119151948,-0.64408779754037548,2.6283436031642164,2.3506231491303784,-1.8368971589295335,1.8368971589295335,-2.3506231491303784,4.6726525294940826,0.0
799640.0783812654,4030767.5119837918,-37500.0,-1.6645502532489609,1.3361858164590565,0.84678594894759096,0.94485200355370313,-0.89645458824108182,-0.39054324868053858,2.2069786676190621,2.0713696864791502,-1.6968093695863442,1.6968093695863442,-2.0713696864791502,3.8956064324108266,0.0
804640.0783812654,4030767.5119837918,-37500.0,-1.3105272743295215,1.2289124060968544,0.68468301123713315,0.66215355036778634,-0.78893367610594389,-0.22869855745065809,1.8643908077805724,1.8065548433101866,-1.5387069388880306,1.5387069388880306,-1.8065548433101866,3.2720039406163686,0.0
809640.0783812654,4030767.5119837918,-37500.0,-1.0211666019350878,1.1176991751750061,0.55414857432649067,0.45750795657573967,-0.68656799267046065,-0.12624406178019221,1.584327232788409,1.565950953337869,-1.3786412733630709,1.3786412733630709,-1.565950953337869,2.7681295044817538,0.0
814640.0783812654,4030767.5119837918,-37500.0,-0.78823339928307201,1.0088831750116045,0.44955936647328809,0.31034519467085736,-0.59357437391251378,-0.062055563202922111,1.3540663000284821,1.3530003773612296,-1.2257630326106632,1.2257630326106632,-1.3530003773612296,2.3579816204855106,0.0
819640.0783812654,4030767.5119837918,-37500.0,-0.60263261309926919,0.90616892270502492,0.36592594810132972,0.20506034532505873,-0.51140714077525273,-0.022434550583563195,1.1636577701686814,1.1675952540683088,-1.0847426698213296,1.0847426698213296,-1.1675952540683088,2.0216248548115394,0.0
824640.0783812654,4030767.5119837918,-37500.0,-0.4557733945009772,0.81145862741809038,0.29904246620936842,0.13008810818566813,-0.44002893160070161,0.0014656038488706029,1.005304117974869,1.0078160922892039,-0.95747961998221787,0.95747961998221787,-1.0078160922892039,1.7437670941805252,0.0
829640.0783812654,4030767.5119837918,-37500.0,-0.34013201636289625,0.72548487773328429,0.24546926411574843,0.076975315214040108,-0.37866498489327094,0.015348127367545782,0.87287318164365146,0.87096335442119976,-0.8442422422303667,0.8442422422303667,-0.87096335442119976,1.5126292996633928,0.0
834640.0783812654,4030767.5119837918,-37500.0,-0.24939451168387053,0.64825994697332179,0.20244463868900545,0.039593167500994564,-0.32623406604119298,0.022887643166757912,0.76152119008712338,0.75413853813543164,-0.74439836854244879,0.74439836854244879,-0.75413853813543164,1.3190830841821664,0.0
644640.0783812654,4035767.5119837918,-37500.0,1.4684728809422924,0.14177893153166882,-0.230305906921905,0.9463553412119069,0.031600167128609337,0.47340801397978066,1.1504430164583777,-0.17998993658581142,0.033685461009636569,-0.033685461009636569,0.17998993658581142,2.2216374984463636,0.0
649640.0783812654,4035767.5119837918,-37500.0,1.6318733573089292,0.12916817788541995,-0.26324581265201397,1.1175286392410935,0.013409430902476281,0.59236593362193302,1.3191226963720022,-0.20048678645722329,0.046954913552682817,-0.046954913552682817,0.20048678645722329,2.5493656814835619,0.0
654640.0783812654,4035767.5119837918,-37500.0,1.806926506048907,0.10852430603448432,-0.29958349150920133,1.3220402048097382,-0.015161759875292894,0.74552608300226608,1.5171048803624718,-0.21907580404471372,0.061494568746121581,-0.061494568746121581,0.21907580404471372,2.933853736399306,0.0
659640.0783812654,4035767.5119837918,-37500.0,1.9892051653342024,0.077563868793125948,-0.33861821057007246,1.5652104428510623,-0.058570593956119611,0.94339073240516447,1.7495521303444415,-0.23246884969586334,0.076088255988472686,-0.076088255988472686,0.23246884969586334,3.3846727182379714,0.0
664640.0783812654,4035767.5119837918,-37500.0,2.170571597341409,0.033860549147638509,-0.37882504217817703,1.8518819197400416,-0.12296140919244149,1.199499400702561,2.0221774930451257,-0.23528403085144042,0.088276762648361845,-0.088276762648361845,0.23528403085144042,3.9120268801012181,0.0
669640.0783812654,4035767.5119837918,-37500.0,2.3373595295112883,-0.024708507519843031,-0.41738860741750827,2.1850878280708361,-0.21663020409963063,1.5309169724957088,2.3409542748771579,-0.21900666426684728,0.093527473979319889,-0.093527473979319889,0.21900666426684728,4.5259125798413331,0.0
674640.0783812654,4035767.5119837918,-37500.0,2.4680238469641083,-0.099031123312650432,-0.44956936320965274,2.5636529037098197,-0.35041842203349521,1.958325415015292,2.7114595379663919,-0.17060304975992055,0.083976442285436464,-0.083976442285436464,0.17060304975992055,5.2344817585934358,0.0
679640.0783812654,4035767.5119837918,-37500.0,2.5304517697201181,-0.18701053314131197,-0.4679286989140401,2.9781434571998866,-0.53775097720729281,2.5050770508584725,3.1375840718600658,-0.070865982282301926,0.04663807646914183,-0.04663807646914183,0.070865982282301926,6.0411347248326885,0.0
684640.0783812654,4035767.5119837918,-37500.0,2.4796522767688831,-0.28055333555147705,-0.46156833853780965,3.4044897404827306,-0.79371219617590716,3.1939837892281506,3.6192528010183294,0.10711506178237667,-0.038885468105291199,0.038885468105291199,-0.10711506178237667,6.9397243202237267,0.0
689640.0783812654,4035767.5119837918,-37500.0,2.2575857650328386,-0.36086336539156266,-0.41581782725203587,3.7948388308699221,-1.1320104967785123,4.039711467619397,4.1487954632249435,0.39827777153347205,-0.2027420860608628,0.2027420860608628,-0.39827777153347205,7.907263477271349,0.0
694640.0783812654,4035767.5119837918,-37500.0,1.7986604831701929,-0.39205726445061406,-0.31330330885839575,4.0663421170213709,-1.5579236635017126,5.0335332496940266,4.7058357139911902,0.84233723839692742,-0.48576989281313371,0.48576989281313371,-0.84233723839692742,8.8940793108034431,0.0
699640.0783812654,4035767.5119837918,-37500.0,1.0466743195131856,-0.31462381690333857,-0.13802130735380561,4.0916863170983113,-2.054670915456728,6.116597558231553,5.2513830695139401,1.4726652853053233,-0.93569253440424682,0.93569253440424682,-1.4726652853053233,9.8133385841834571,0.0
704640.0783812654,4035767.5119837918,-37500.0,-0.0099650098962965478,-0.043697221522848523,0.11550800934116992,3.7014867909356717,-2.5613178222765467,7.1399757033852245,5.7240240492272481,2.2912766946033241,-1.5924623239353992,1.5924623239353992,-2.2912766946033241,10.537080227719041,0.0
709640.0783812654,4035767.5119837918,-37500.0,-1.2829048834935675,0.51725319842367401,0.42710162330607188,2.7178326073999881,-2.9450598022276093,7.8191595668792253,6.0461254612853343,3.225645458480126,-2.4548259860418229,2.4548259860418229,-3.225645458480126,10.917405216078558,0.0
714640.0783812654,4035767.5119837918,-37500.0,-2.5260601154362132,1.4322270495272282,0.73424933060738795,1.0433804036609247,-2.9834927156173903,7.7130579154429064,6.1574488747113048,4.0754530580722319,-3.4252645044751153,3.4252645044751153,-4.0754530580722319,10.872437620692697,0.0
719640.0783812654,4035767.5119837918,-37500.0,-3.33111671901665,2.6511927779153899,0.92955653317771014,-1.1889420626513125,-2.3929450149585429,6.2900859481155136,6.105884673622203,4.4878646578380419,-4.2529772869687044,4.2529772869687044,-4.4878646578380419,10.594048004520564,0.0
724640.0783812654,4035767.5119837918,-37500.0,-3.2624519796676639,3.9234982650138441,0.89766423699782771,-3.4718145077726681,-0.94812936232965894,3.1527642288523055,6.2040322332325983,4.0371419095963992,-4.5374929147049707,4.5374929147049707,-4.0371419095963992,10.807977269346862,0.0
729640.0783812654,4035767.5119837918,-37500.0,-2.1590653442043806,4.8021846241334769,0.60099818460536403,-4.9561473050046105,1.3105906170547823,-1.5979032911715843,6.9996776830643661,2.4670905632444993,-3.8797232052901172,3.8797232052901172,-2.4670905632444993,12.426185003151341,0.0
734640.0783812654,4035767.5119837918,-37500.0,-0.42230249484693178,4.8405404610819032,0.16199818749190092,-4.8243968520708425,3.9169912521396899,-7.095114768832917,8.5385469634727702,0.00086706132392966317,-2.178977110383526,2.178977110383526,-0.00086706132392966317,15.326843508335021,0.0
739640.0783812654,4035767.5119837918,-37500.0,1.0683382021737013,3.9155614536311023,-0.16437894059052141,-2.8699273421475895,6.0890671089911095,-11.906653062076019,10.126892505877688,-2.5870791919239537,0.14256871316768516,-0.14256871316768516,2.5870791919239537,18.325120021851447,0.0
744640.0783812654,4035767.5119837918,-37500.0,1.5148257895602129,2.3839454027310465,-0.15844323949017616,0.23510256513407565,7.148055567559255,-14.756721693940509,11.110899088254305,-4.3597152980324454,2.2873083941652137,-2.2873083941652137,4.3597152980324454,20.269087601105362,0.0
749640.0783812654,4035767.5119837918,-37500.0,0.75701964708654912,0.85971785473519002,0.20152478641733265,3.3396413295493024,6.9178512977445443,-15.220184308618819,11.223842364353375,-4.8009960766411544,3.5650779357267326,-3.5650779357267326,4.8009960766411544,20.638588198557802,0.0
754640.0783812654,4035767.5119837918,-37500.0,-0.72257788620114549,-0.18468420802211813,0.7466609187765616,5.527800421397,5.7430000804406616,-13.786927866127085,10.559115200819107,-4.052157422330124,3.7726222252488237,-3.7726222252488237,4.052157422330124,19.563965857020229,0.0
759640.0783812654,4035767.5119837918,-37500.0,-2.2524649711718552,-0.62181644610959663,1.262259169386073,6.501410537147418,4.1764141212503203,-11.364767723144016,9.40221429508426,-2.6578691641618533,3.1648031384694595,-3.1648031384694595,2.6578691641618533,17.541575368772836,0.0
764640.0783812654,4035767.5119837918,-37500.0,-3.3772346032585867,-0.58898146811211061,1.6118683247663592,6.4643949675338259,2.6688759866346627,-8.7558631826386257,8.0553929266492421,-1.1693151711155314,2.1684441419623925,-2.1684441419623925,1.1693151711155314,15.113898455056798,0.0
769640.0783812654,4035767.5119837918,-37500.0,-3.9573811257135754,-0.30628551034577645,1.763284734578825,5.8099713401627904,1.4535241975250135,-6.434337317622953,6.7390415550967946,0.073734572701120049,1.1382922953615522,-1.1382922953615522,-0.073734572701120049,12.685349807029509,0.0
774640.0783812654,4035767.5119837918,-37500.0,-4.0653046481946662,0.046044852045968268,1.7511517872080711,4.8924883872853471,0.58433304750663817,-4.5782640210723313,5.5713236395713004,0.95185977456545023,0.27239407657324272,-0.27239407657324272,-0.95185977456545023,10.484174846130063,0.0
779640.0783812654,4035767.5119837918,-37500.0,-3.8513901689108971,0.36309606675237649,1.6321710773270424,3.9459221036497674,0.019092183599057923,-3.1882299837328416,4.5899182946326524,1.4835768558467266,-0.36345713791096779,0.36345713791096779,-1.4835768558467266,8.6011777926438597,0.0
784640.0783812654,4035767.5119837918,-37500.0,-3.4603675962884886,0.60219128494513541,1.4580603380229016,3.091934823262851,-0.31601811323605683,-2.1890324697074872,3.7865168675215601,1.7444009254227502,-0.78029240239921049,0.78029240239921049,-1.7444009254227502,7.0442845184755232,0.0
789640.0783812654,4035767.5119837918,-37500.0,-2.9995528059371814,0.75799688403597021,1.2659847574054512,2.3762661330952115,-0.49235895931099022,-1.4890116347486564,3.1356357203234655,1.8176774434544869,-1.0207269725277548,1.0207269725277548,-1.8176774434544869,5.781360332691114,0.0
794640.0783812654,4035767.5119837918,-37500.0,-2.5366079403207231,0.84243024442376635,1.0786720157890368,1.8025725409249516,-0.56644970236784653,-1.0062928826803588,2.6097377505017763,1.7732779175401823,-1.1327254673832785,1.1327254673832785,-1.7732779175401823,4.7664516387200546,0.0
799640.0783812654,4035767.5119837918,-37500.0,-2.1083632179377387,0.87256653013302454,0.9079612735760908,1.355298458231305,-0.578612695631322,-0.67653445674468016,2.1843873390021087,1.6624303118129351,-1.1579590632230845,1.1579590632230845,-1.6624303118129351,3.9532876970010835,0.0
804640.0783812654,4035767.5119837918,-37500.0,-1.7311175120995195,0.86473322693541566,0.75861190231904851,1.0126677783814555,-0.55577322248704186,-0.45244870323927772,1.839295359589818,1.5196137232446649,-1.1284688445840756,1.1284688445840756,-1.5196137232446649,3.3010055299816754,0.0
809640.0783812654,4035767.5119837918,-37500.0,-1.4089198265822136,0.83229327115465801,0.63126779666375021,0.75307972627515474,-0.51505749418499258,-0.3005849035240864,1.5580957010904564,1.3665258931338031,-1.0671360790908127,1.0671360790908127,-1.3665258931338031,2.7757767929424983,0.0
814640.0783812654,4035767.5119837918,-37500.0,-1.1392505359244482,0.78527746488797134,0.52444595555407603,0.55772769038142289,-0.46690774721091804,-0.19780315308481677,1.3277813955347924,1.2159447423995542,-0.98945971916198594,0.98945971916198594,-1.2159447423995542,2.350552623602705,0.0
819640.0783812654,4035767.5119837918,-37500.0,-0.91655671826859864,0.73078646418324766,0.4357483496005719,0.41128885212774702,-0.41741077476149469,-0.1282993068611894,1.1380936311426666,1.0747826425632909,-0.90547960503304514,0.90547960503304514,-1.0747826425632909,2.0041037009113802,0.0
824640.0783812654,4035767.5119837918,-37500.0,-0.73428788142030099,0.67361404078640896,0.36254302966871299,0.30174354092553163,-0.36991036182957993,-0.081351777166205119,0.98096597313804135,0.94627210069056966,-0.82140899530256029,0.82140899530256029,-0.94627210069056966,1.7199183847840656,0.0
829640.0783812654,4035767.5119837918,-37500.0,-0.58597619193766015,0.61685032253197469,0.30231352866312228,0.21987545852860826,-0.32607318949849168,-0.049707372836338158,0.85005587952815098,0.83143887937274352,-0.74087893000824045,0.74087893000824045,-0.83143887937274352,1.4851937861171438,0.0
644640.0783812654,4040767.5119837918,-37500.0,1.5267793024631695,-0.023631317829673228,-0.19853778824868712,0.98345673373241249,-0.061597217898129525,0.4913982833588999,1.1680004025761561,-0.21411077313404472,0.15928842244791494,-0.15928842244791494,0.21411077313404472,2.2753003672572358,0.0
649640.0783812654,4040767.5119837918,-37500.0,1.6865061056391719,-0.064502216828425343,-0.21919762811195873,1.1554974336756025,-0.10123410940541915,0.61219211288335351,1.3365384376382268,-0.23196780969181433,0.19109695330161333,-0.19109695330161333,0.23196780969181433,2.6052413878543921,0.0
654640.0783812654,4040767.5119837918,-37500.0,1.8541308233852332,-0.11791042048021208,-0.23899319582013917,1.358875693197507,-0.15648924173203962,0.76652873771199415,1.5334977459093884,-0.24491718696661927,0.22643831202962725,-0.22643831202962725,0.24491718696661927,2.9903787563569271,0.0
659640.0783812654,4040767.5119837918,-37500.0,2.0238634805201841,-0.18635263915731365,-0.25585702327113796,1.5976513539562534,-0.23296617004349127,0.96414239885470632,1.7635765453040304,-0.24831716328968717,0.26394919885377138,-0.26394919885377138,0.24831716328968717,3.4392931893154639,0.0
664640.0783812654,4040767.5119837918,-37500.0,2.1859778858364272,-0.27208625261712527,-0.26656382731508071,1.874860142784786,-0.33803068080702831,1.2172814937949983,2.0318117154623669,-0.23500706850089087,0.30072302617435037,-0.30072302617435037,0.23500706850089087,3.960776934004298,0.0
669640.0783812654,4040767.5119837918,-37500.0,2.3251606557566302,-0.37639270338509317,-0.26628884112529799,2.1910512229097834,-0.48110739662661406,1.5409105845356026,2.3431921705069714,-0.19425301663003108,0.33133026147237882,-0.33133026147237882,0.19425301663003108,4.5628760648957956,0.0
674640.0783812654,4040767.5119837918,-37500.0,2.418559712496354,-0.49823885942357216,-0.24812552553092193,2.5418370699416277,-0.67373773362640921,1.9524146931407251,2.7018896942998576,-0.1104781798307497,0.34639253495194833,-0.34639253495194833,0.1104781798307497,5.2511655706643481,0.0
679640.0783812654,4040767.5119837918,-37500.0,2.4338812590364176,-0.63202161029014325,-0.20271110434793049,2.914032805646102,-0.92901923716997525,2.4702004031422438,3.1099005391813783,0.037999119241114876,0.33065659809936632,-0.33065659809936632,-0.037999119241114876,6.0258644942233204,0.0
684640.0783812654,4040767.5119837918,-37500.0,2.3284257906655368,-0.76406389239475059,-0.11830471525554108,3.2800173071765184,-1.2597239530647186,3.1101371088473901,3.5648733375677781,0.27960158833592147,0.26071488054111674,-0.26071488054111674,-0.27960158833592147,6.8773421099643928,0.0
689640.0783812654,4040767.5119837918,-37500.0,2.0508933048574893,-0.86773307350280016,0.018004430462493295,3.5903808432016571,-1.6739292187315089,3.878174830389495,4.0569578352171547,0.64814436735498948,0.1030267209698047,-0.1030267209698047,-0.64814436735498948,7.7797016767380276,0.0
694640.0783812654,4040767.5119837918,-37500.0,1.5491207900949591,-0.89780384911150157,0.21682936031558148,3.7662039544975485,-2.1665113161376883,4.756932382221347,4.5647872883137746,1.1769690000527087,-0.18605868009551851,0.18605868009551851,-1.1769690000527087,8.6828072269799996,0.0
699640.0783812654,4040767.5119837918,-37500.0,0.78811242368492906,-0.78649613333204815,0.47927642215133037,3.6950993949039246,-2.704834542457454,5.684299472448628,5.0515239942102701,1.8846659196376625,-0.65482543596287046,0.65482543596287046,-1.8846659196376625,9.5050272460069962,0.0
704640.0783812654,4040767.5119837918,-37500.0,-0.21801387541483613,-0.44690716502871253,0.78497671084539267,3.2398284702328057,-3.2086361997401798,6.5248392495034722,5.4637852876288484,2.7481847528346051,-1.3397498473514502,1.3397498473514502,-2.7481847528346051,10.133297713499946,0.0
709640.0783812654,4040767.5119837918,-37500.0,-1.3630204153212091,0.20643431271838578,1.0770870439007278,2.273388386292559,-3.5295777589224584,7.0427611738441955,5.7398247494698555,3.6630836994520113,-2.2323158138630372,2.2323158138630372,-3.6630836994520113,10.445418387552609,0.0
714640.0783812654,4040767.5119837918,-37500.0,-2.4141111435518039,1.2096968946351492,1.2527022080540342,0.7535124441979838,-3.4469225779311383,6.9002866600737915,5.8384318577606145,4.4039822020168469,-3.2299516256902403,3.2299516256902403,-4.4039822020168469,10.382034332793619,0.0
719640.0783812654,4040767.5119837918,-37500.0,-3.0303855467822305,2.4770765214853614,1.1765500810349514,-1.1707192656779384,-2.708579210987446,5.7214586925560758,5.8020121785110792,4.622783565103096,-4.092159619056873,4.092159619056873,-4.622783565103096,10.09966923865373,0.0
724640.0783812654,4040767.5119837918,-37500.0,-2.8864638025603497,3.7405460662330592,0.73766151584038586,-3.0772912226428133,-1.1438233636343822,3.2549108562047788,5.8411917052368167,3.9418073665509046,-4.4537264852407672,4.4537264852407672,-3.9418073665509046,10.144105171057047,0.0
729640.0783812654,4040767.5119837918,-37500.0,-1.8956671279397486,4.579721282910576,-0.05693948197330654,-4.3254036459673939,1.1731880536401562,-0.39687837766395445,6.309957463892844,2.1671840993027089,-3.9549829816577731,3.9549829816577731,-2.1671840993027089,11.227173490246209,0.0
734640.0783812654,4040767.5119837918,-37500.0,-0.39173634815458624,4.6015943796923144,-1.0138552871829687,-4.3240660955499095,3.8190780417051777,-4.633122342536744,7.3530378336646347,-0.47343719700229414,-2.4761106678093148,2.4761106678093148,0.47343719700229414,13.383215874385664,0.0
739640.0783812654,4040767.5119837918,-37500.0,0.9511170754236804,3.6981619250381561,-1.8021276782767441,-2.9061323209510324,6.1226378458533182,-8.4916252023079011,8.5896737439069675,-3.2922634953237129,-0.3166668393953227,0.3166668393953227,3.2922634953237129,15.79790050630745,0.0
744640.0783812654,4040767.5119837918,-37500.0,1.5006750202822339,2.1660767694645848,-2.1301227621752226,-0.50206978241148315,7.4799731805154517,-11.077615253649165,9.4878460594784126,-5.4426183686897618,1.8856436177473546,-1.8856436177473546,5.4426183686897618,17.561569820925595,0.0
749640.0783812654,4040767.5119837918,-37500.0,1.0560803860170247,0.54434046985072948,-1.9172149131237139,2.0878920766479578,7.6620022740634814,-11.991441807921987,9.7632573565735044,-6.3755356982879841,3.493274715410819,-3.493274715410819,6.3755356982879841,18.176078237297286,0.0
754640.0783812654,4040767.5119837918,-37500.0,-0.09769336488278571,-0.69870237574152527,-1.3118156363320481,4.1422878404016226,6.8689326261405954,-11.426337305098453,9.4114025848934304,-6.0771845826258462,4.1913513874338237,-4.1913513874338237,6.0771845826258462,17.622281760778709,0.0
759640.0783812654,4040767.5119837918,-37500.0,-1.459196936670532,-1.364843472284397,-0.564227290230081,5.3183118635455058,5.5329387785910606,-9.9258691986462964,8.6009227309725542,-4.9408799714789753,4.0518465305927256,-4.0518465305927256,4.9408799714789753,16.197063791588771,0.0
764640.0783812654,4040767.5119837918,-37500.0,-2.6131036206413469,-1.509971133930208,0.11460352703675358,5.6505230214318098,4.0731385305434271,-8.0605027080703078,7.5505700569653245,-3.4676325509142156,3.371144740512408,-3.371144740512408,3.4676325509142156,14.295806892873996,0.0
769640.0783812654,4040767.5119837918,-37500.0,-3.3607379770838439,-1.312354802896285,0.61566542951599568,5.3758946159054428,2.7627301009878851,-6.2366776350282196,6.4461793743075537,-2.0434986080524964,2.4701131401995373,-2.4701131401995373,2.0434986080524964,12.259049563645357,0.0
774640.0783812654,4040767.5119837918,-37500.0,-3.6901682142567118,-0.9542362514928262,0.92016814072343567,4.7634245328401734,1.7195266574252379,-4.6645236526866265,5.4094421277433753,-0.87323890195031728,1.5810127294581897,-1.5810127294581897,0.87323890195031728,10.313550902326696,0.0
779640.0783812654,4040767.5119837918,-37500.0,-3.6885653131875151,-0.56613707117130629,1.0597990609638268,4.024334123100207,0.95553601041788161,-3.4087403683710118,4.5006865800679252,-0.015404155792781982,0.82690855975626498,-0.82690855975626498,0.015404155792781982,8.5780552332805051,0.0
784640.0783812654,4040767.5119837918,-37500.0,-3.468826625585629,-0.22037396093832523,1.0822876657648977,3.2916461907981009,0.43085970554392417,-2.453150298331003,3.7354909464107031,0.55515454628340577,0.2481037027838702,-0.2481037027838702,-0.55515454628340577,7.0943074988384582,0.0
789640.0783812654,4040767.5119837918,-37500.0,-3.1300891744738681,0.054118200779954689,1.0320462113958835,2.6337695289456362,0.090239036619573998,-1.7483800706150967,3.1042588635310362,0.89695965412022405,-0.16271653127773372,0.16271653127773372,-0.89695965412022405,5.8587602825863252,0.0
794640.0783812654,4040767.5119837918,-37500.0,-2.7446405013536466,0.25408358257496122,0.9429977055768286,2.0763503654837567,-0.11832015372140486,-1.2388651741964969,2.5880660890875822,1.072549132653108,-0.43355400500666313,0.43355400500666313,-1.072549132653108,4.8458897172218682,0.0
799640.0783812654,4040767.5119837918,-37500.0,-2.3587569559897181,0.38855393283434236,0.8380833069792758,1.6208766718382683,-0.23671628440557332,-0.8750194309239645,2.1671315249139864,1.1354427365642892,-0.5971256624855148,0.5971256624855148,-1.1354427365642892,4.0225293883848376,0.0
804640.0783812654,4040767.5119837918,-37500.0,-1.9985847346003174,0.47068678285440096,0.73138326813480325,1.2572774092625012,-0.29596587617666814,-0.61703362987392085,1.8237913317700924,1.1265767625362209,-0.68319304261923719,0.68319304261923719,-1.1265767625362209,3.3555153754158122,0.0
809640.0783812654,4040767.5119837918,-37500.0,-1.6765370186742461,0.51355570908133741,0.63070808553756286,0.97134703510973097,-0.31783462543327939,-0.4347548968271534,1.543151969325584,1.0751407156306521,-0.71585680119226081,0.71585680119226081,-1.0751407156306521,2.8151602480376514,0.0
814640.0783812654,4040767.5119837918,-37500.0,-1.3964805153668156,0.52837429634199529,0.53979590415751699,0.74861903746139369,-0.31703743399715112,-0.30611483613488183,1.3129862007204387,1.0009123890643603,-0.71334347535037779,0.71334347535037779,-1.0009123890643603,2.3763800450301549,0.0
819640.0783812654,4040767.5119837918,-37500.0,-1.1574199966236944,0.52402653318350834,0.45992118079819078,0.57611486787692523,-0.30324011021857794,-0.21529405457126227,1.1234122884163837,0.91672967512046855,-0.68881934237922171,0.68881934237922171,-0.91672967512046855,2.0186765053414217,0.0
824640.0783812654,4040767.5119837918,-37500.0,-0.9558945767473549,0.50720336775064401,0.39097200216383798,0.44292878726055468,-0.28263298676566984,-0.15109056256173212,0.9665178144567983,0.83057401640081396,-0.65147222501547719,0.65147222501547719,-0.83057401640081396,1.7256196479834136,0.0
829640.0783812654,4040767.5119837918,-37500.0,-0.78743669411439687,0.48276404395328321,0.33212930233125587,0.34023958305975754,-0.25907881173869546,-0.10562505325426462,0.83599937831741022,0.74715414766839128,-0.60752738891689562,0.60752738891689562,-0.74715414766839128,1.4841832046759365,0.0
649640.0783812654,4045767.5119837918,-37500.0,1.6838584976434663,-0.24370125541346682,-0.14763468617286971,1.1588387069997415,-0.20823754540912959,0.61516303928347371,1.33676516900325,-0.24057375067851827,0.32490921293464914,-0.32490921293464914,0.24057375067851827,2.6222413686901569,0.0
654640.0783812654,4045767.5119837918,-37500.0,1.8338745907917395,-0.32310974592941799,-0.14591395272386176,1.3522619985091184,-0.28583689265142403,0.76500330862233534,1.5283978515595797,-0.2433484912210912,0.37697352222835817,-0.37697352222835817,0.2433484912210912,2.9983420127016003,0.0
659640.0783812654,4045767.5119837918,-37500.0,1.9797514151804501,-0.41976212469025626,-0.13514688864513549,1.5757038757111925,-0.38895496913784794,0.95470942808960513,1.750618073574786,-0.23181523127840079,0.43208694374941403,-0.43208694374941403,0.23181523127840079,3.4331666272980952,0.0
664640.0783812654,4045767.5119837918,-37500.0,2.1105793635291548,-0.53500839192659921,-0.11069737656378613,1.8301039522757319,-0.525258863345204,1.1945936140701539,2.0074403801368068,-0.19741389094504086,0.48668186851827527,-0.48668186851827527,0.19741389094504086,3.9335323053242512,0.0
669640.0783812654,4045767.5119837918,-37500.0,2.2102236390064265,-0.66848538616147268,-0.066304492661878267,2.1134031902299744,-0.70404642785718807,1.4967449136751192,2.3024601680777148,-0.12794356994173525,0.53431699708876645,-0.53431699708876645,0.12794356994173525,4.5049372051013616,0.0
674640.0783812654,4045767.5119837918,-37500.0,2.2559617524277726,-0.81652123482667005,0.0061061155426680256,2.4182468144315155,-0.93592577127860599,1.8744082925698982,2.6380410802185894,-0.00661404006393701,0.56422979699730069,-0.56422979699730069,0.00661404006393701,5.1498289410855609,0.0
679640.0783812654,4045767.5119837918,-37500.0,2.2175453907049496,-0.96969015669981662,0.11624384802072545,2.7286323147170184,-1.2317076470407975,2.3403056238858779,3.014029388662967,0.18858388653864844,0.5595171527311964,-0.5595171527311964,-0.18858388653864844,5.8648960455913315,0.0
684640.0783812654,4045767.5119837918,-37500.0,2.0576293933435719,-1.1093839710752826,0.27445118394736068,3.0154380857971299,-1.5998429710295974,2.9030864442474762,3.4258752620127888,0.4844357562106032,0.49521881428052628,-0.49521881428052628,-0.4844357562106032,6.6371239457360689,0.0
689640.0783812654,4045767.5119837918,-37500.0,1.7352243514582033,-1.203629770604735,0.48913857830602842,3.2312967898032512,-2.041441583285811,3.5607814097363111,3.8621356125118935,0.90958003857874992,0.33711161155638247,-0.33711161155638247,-0.90958003857874992,7.4385919988140907,0.0
694640.0783812654,4045767.5119837918,-37500.0,1.2146099228447762,-1.2032789025658743,0.76166542461880804,3.3064672982197258,-2.5417674290336594,4.2900416379660129,4.3016441503642673,1.4868512709589528,0.04297676314918375,-0.04297676314918375,-1.4868512709589528,8.2207056967415788,0.0
699640.0783812654,4045767.5119837918,-37500.0,0.48234508221372374,-1.041403971481679,1.0777968402262263,3.1494921578494375,-3.0576187389947438,5.0306784983418584,4.7113718614144977,2.2180520529417769,-0.43054935137763595,0.43054935137763595,-2.2180520529417769,8.9102274293870671,0.0
704640.0783812654,4045767.5119837918,-37500.0,-0.42688838661539646,-0.64119526484239731,1.3960913509380064,2.6592814731368444,-3.5021125544100573,5.6676427064147772,5.0474121992862875,3.0592695034022133,-1.1113186714181054,1.1113186714181054,-3.0592695034022133,9.4127287578737633,0.0
709640.0783812654,4045767.5119837918,-37500.0,-1.4012319730276619,0.060501096359875217,1.6369567500961184,1.7570344907541127,-3.7332575805180643,6.0183323047244821,5.2637037474067538,3.8897829583917511,-1.9820731575984694,1.9820731575984694,-3.8897829583917511,9.6344494658709667,0.0
714640.0783812654,4045767.5119837918,-37500.0,-2.2371473871004275,1.0694977804437604,1.6820033877070093,0.44236098464133411,-3.5602195889248063,5.8416661633302684,5.3352269539208104,4.4890479409874278,-2.9416718030338855,2.9416718030338855,-4.4890479409874278,9.5398584678187852,0.0
719640.0783812654,4045767.5119837918,-37500.0,-2.6699882805083823,2.2790641087414945,1.3986732974393885,-1.1387078041856182,-2.7866467397051959,4.891093695180678,5.3002266493819867,4.5521125497361288,-3.776551026498796,3.776551026498796,-4.5521125497361288,9.2589983333883605,0.0
724640.0783812654,4045767.5119837918,-37500.0,-2.4754278547333688,3.4369070506009107,0.70054277423730549,-2.6560840091804097,-1.3015502725083647,3.022776475568179,5.3049050226211856,3.7791357748353214,-4.1804215516530538,4.1804215516530538,-3.7791357748353214,9.1944734041268585,0.0
729640.0783812654,4045767.5119837918,-37500.0,-1.621401562569758,4.1874838248439419,-0.37213342877933236,-3.6520279182156936,0.80789912340154135,0.3286720472739596,5.5749899415670807,2.0412128942107008,-3.8578121240510495,3.8578121240510495,-2.0412128942107008,9.8743294563042703,0.0
734640.0783812654,4045767.5119837918,-37500.0,-0.37247482873367971,4.2166683563229901,-1.6068764862282139,-3.7216035478597562,3.1982926054948195,-2.7930607604357123,6.233342377843746,-0.45704808965200638,-2.6934360377300228,2.6934360377300228,0.45704808965200638,11.400618850467746,0.0
739640.0783812654,4045767.5119837918,-37500.0,0.77757113522082832,3.436350769943719,-2.67264525289113,-2.7402914787487735,5.3506473253201436,-5.7259250515492859,7.1162307846242925,-3.1631475789752135,-0.88142176367351732,0.88142176367351732,3.1631475789752135,13.251504784746768,0.0
744640.0783812654,4045767.5119837918,-37500.0,1.3541448950020158,2.0678455006233003,-3.270439086913377,-0.969922376893952,6.7838789011981433,-7.8767342086496814,7.8663105025820341,-5.3888611971954852,1.11413102785207,-1.11413102785207,5.3888611971954852,14.751954871256345,0.0
749640.0783812654,4045767.5119837918,-37500.0,1.158876532789644,0.53564212195416994,-3.2808089332395993,1.0637189042405799,7.267324517668551,-8.9237490539895603,8.2152630435100793,-6.6324535507392195,2.7748094820408689,-2.7748094820408689,6.6324535507392195,15.469444320623742,0.0
754640.0783812654,4045767.5119837918,-37500.0,0.33547184682301046,-0.75223554981260388,-2.7978355041844383,2.8350242494655364,6.8833217790146888,-8.9031501824676429,8.0955317450992776,-6.7782284960250347,3.7659416673681125,-3.7659416673681125,6.7782284960250347,15.302690228556822,0.0
759640.0783812654,4045767.5119837918,-37500.0,-0.77435225907593741,-1.5704458816567455,-2.0417960712813885,4.0280998274157209,5.9217272076154739,-8.1060706121341983,7.5864569992053532,-6.0561749689172828,4.0327202697536073,-4.0327202697536073,6.0561749689172828,14.399451086448055,0.0
764640.0783812654,4045767.5119837918,-37500.0,-1.8339033099070043,-1.9010733982544388,-1.2371360223816958,4.5816844043105238,4.7143346470900758,-6.8988885898995829,6.830337132575548,-4.8502550911748514,3.7330481413465058,-3.7330481413465058,4.8502550911748514,13.020192557789581,0.0
769640.0783812654,4045767.5119837918,-37500.0,-2.6336039847930532,-1.8571701804867169,-0.53627521330416428,4.6086405737668139,3.5182851180494623,-5.5874120768208844,5.9682496578087383,-3.5156480723894425,3.1043638479860558,-3.1043638479860558,3.5156480723894425,11.424526882333121,0.0
774640.0783812654,4045767.5119837918,-37500.0,-3.1056371255458264,-1.5897791780750494,-0.0060763418152436841,4.286650356207895,2.4801024489995953,-4.3656107162636539,5.1075265532444156,-2.2893594081510997,2.3594380193476727,-2.3594380193476727,2.2893594081510997,9.811279582120175,0.0
779640.0783812654,4045767.5119837918,-37500.0,-3.2790871761345275,-1.2284429117930069,0.34917720444757799,3.7819663315405618,1.6535730708803613,-3.3252693975029359,4.3146058340826432,-1.2851947776172874,1.642062598980661,-1.642062598980661,1.2851947776172874,8.3050546166369799,0.0
784640.0783812654,4045767.5119837918,-37500.0,-3.2266040150521094,-0.86030965627243061,0.55756459930121649,3.2170997854747174,1.034829799226552,-2.4888505770221108,3.6209373627892107,-0.52860618164687534,1.0271605803814494,-1.0271605803814494,0.52860618164687534,6.9681158267562147,0.0
789640.0783812654,4045767.5119837918,-37500.0,-3.0269955451672672,-0.53283089561514563,0.65695251462322035,2.6680130694062938,0.59292637670616755,-1.8413447879665616,3.0330322569905932,0.0036244241125801269,0.5397749398816114,-0.5397749398816114,-0.0036244241125801269,5.8198503235755341,0.0
794640.0783812654,4045767.5119837918,-37500.0,-2.74663829303937,-0.2650703129971449,0.68266640766440645,2.1741034600645381,0.28945470464336559,-1.3524833355667167,2.5431244695291833,0.35402500871284082,0.17583608124109595,-0.17583608124109595,-0.35402500871284082,4.854393173441526,0.0
799640.0783812654,4045767.5119837918,-37500.0,-2.4339676490120672,-0.059127754194608757,0.66272824657857232,1.7505038142630525,0.088563980154825417,-0.989373779985803,2.1380041649859614,0.5673704586335987,-0.082217161445782172,0.082217161445782172,-0.5673704586335987,4.0533589567328621,0.0
804640.0783812654,4045767.5119837918,-37500.0,-2.1206970239203353,0.091384158177174032,0.61728593968344525,1.3982248012038887,-0.039213802917198858,-0.72241320657507091,1.803967068680741,0.68278022909111413,-0.25584717329896767,0.25584717329896767,-0.68278022909111413,3.3938230974639638,0.0
809640.0783812654,4045767.5119837918,-37500.0,-1.825493239582084,0.19603575191900235,0.55982465076409371,1.1111525668821927,-0.11641310598024081,-0.52730214707295042,1.5286434227942371,0.73125815322310106,-0.36545287720308739,0.36545287720308739,-0.73125815322310106,2.8527827248347211,0.0
814640.0783812654,4045767.5119837918,-37500.0,-1.5578588867226286,0.26468611065784931,0.49882263824971351,0.88033139366481827,-0.15949331921032786,-0.38511304419529363,1.3014267934859598,0.73592328641746696,-0.42831656850312855,0.42831656850312855,-0.73592328641746696,2.4093043922827309,0.0
819640.0783812654,4045767.5119837918,-37500.0,-1.3213593626498601,0.30613517718297251,0.43926669209912855,0.69634060073631676,-0.18010456731501986,-0.28156803500723321,1.1134528173567517,0.71329601296946199,-0.45813958825083578,0.45813958825083578,-0.71329601296946199,2.0453425896615314,0.0
824640.0783812654,4045767.5119837918,-37500.0,-1.1159897294448531,0.32765845561411211,0.3838369232088813,0.55046196339959597,-0.18630543595721488,-0.20610909408816114,0.95742731334849851,0.67479657581473829,-0.46532377417632237,0.46532377417632237,-0.67479657581473829,1.7458333217759467,0.0
829640.0783812654,4045767.5119837918,-37500.0,-0.93978379853310678,0.33499150227592711,0.33375837398330932,0.43514793145470554,-0.18356944733914335,-0.15102374310704458,0.82740920697740084,0.62809389239906255,-0.45752589040832509,0.45752589040832509,-0.62809389239906255,1.4984475994042807,0.0
649640.0783812654,4050767.5119837918,-37500.0,1.6324428001541167,-0.3992191946855343,-0.056129293345547816,1.1321893179335245,-0.30229405102729207,0.60340680933655233,1.3205831342368,-0.22843535682524302,0.4415635825257736,-0.4415635825257736,0.22843535682524302,2.6020031243344657,0.0
654640.0783812654,4050767.5119837918,-37500.0,1.7579910240381298,-0.49635862268685882,-0.030794428617699359,1.3090658910259538,-0.39664337311798359,0.7443056213442385,1.5031437317536169,-0.21803777727108531,0.5051424753961189,-0.5051424753961189,0.21803777727108531,2.960760012862262,0.0
659640.0783812654,4050767.5119837918,-37500.0,1.8731332171239141,-0.61048702081129169,0.0091608107293595451,1.5094671672780511,-0.51855694739500335,0.92036860373157037,1.7128475638036813,-0.18886326265610587,0.57138217069551989,-0.57138217069551989,0.18886326265610587,3.3714221197090923,0.0
664640.0783812654,4050767.5119837918,-37500.0,1.9664278873233942,-0.74155051322003507,0.069195822213118,1.7323479905538433,-0.67519002684133667,1.1397068304865972,1.95250617161065,-0.13155124299190896,0.63594503309281825,-0.63594503309281825,0.13155124299190896,3.8386065708670705,0.0
669640.0783812654,4050767.5119837918,-37500.0,2.0219325187804991,-0.88714085759590133,0.15611806806632245,1.9734221048101273,-0.87470162753086445,1.4113268855575982,2.2241986069364468,-0.033402742084714776,0.69142418007079454,-0.69142418007079454,0.033402742084714776,4.3651318326238124,0.0
674640.0783812654,4050767.5119837918,-37500.0,2.0184932818641044,-1.0408424640049749,0.27790681543576734,2.2231874121768831,-1.1256052266033783,1.7443114794071073,2.5285072222039569,0.12212546087471937,0.72601698173665308,-0.72601698173665308,-0.12212546087471937,4.9503825170685634,0.0
679640.0783812654,4050767.5119837918,-37500.0,1.9297335802986735,-1.1899270390875916,0.44297227386749261,2.4642820579096871,-1.4352854146791783,2.1460796332133123,2.8634047302520704,0.35534431549513901,0.72201173380604899,-0.72201173380604899,-0.35534431549513901,5.5879235552949114,0.0
684640.0783812654,4050767.5119837918,-37500.0,1.7256051063943818,-1.3124745221817544,0.65838723561965617,2.6683343962901964,-1.8071439577687145,2.6191743337908271,3.222750792379617,0.68890532950248329,0.65446381408248933,-0.65446381408248933,-0.68890532950248329,6.2622802806811011,0.0
689640.0783812654,4050767.5119837918,-37500.0,1.3768037434598559,-1.3744371531484836,0.92646573932717857,2.7929816251311275,-2.2357241962537051,3.1559300417057252,3.5944803577141156,1.1437790873711555,0.4909282481064231,-0.4909282481064231,-1.1437790873711555,6.9450818910431975,0.0
694640.0783812654,4050767.5119837918,-37500.0,0.86362338248503334,-1.3280167494990622,1.23906440269212,2.7806747327636696,-2.6993003364041437,3.7305504678788988,3.9588640478839849,1.7309585701019921,0.19386835872082864,-0.19386835872082864,-1.7309585701019921,7.5914341945573867,0.0
699640.0783812654,4050767.5119837918,-37500.0,0.19033365395098437,-1.1140435490527121,1.5694901209945646,2.5622699734235876,-3.1502009148133872,4.2889728759535375,4.2877969250891228,2.4373025734388465,-0.27179285606115289,0.27179285606115289,-2.4373025734388465,8.138704441886194,0.0
704640.0783812654,4050767.5119837918,-37500.0,-0.59610643354557002,-0.67243829542015721,1.86345833448553,2.0697502967313692,-3.5051299381637211,4.7389570615770777,4.5470044231365474,3.2055978280101844,-0.92325172806652622,0.92325172806652622,-3.2055978280101844,8.5121297830480689,0.0
709640.0783812654,4050767.5119837918,-37500.0,-1.3893109808575901,0.035093641538476335,2.0336145860007204,1.26219107121601,-3.641302165630341,4.9464122575331206,4.7041991660217102,3.9135818150606427,-1.7356538503958585,1.7356538503958585,-3.9135818150606427,8.6447335013049802,0.0
714640.0783812654,4050767.5119837918,-37500.0,-2.022453588430114,0.98999204006365282,1.9660861338190436,0.16445384672020877,-3.4083456198736521,4.748025377390837,4.7466958239505166,4.364879015319862,-2.6143288720594469,2.6143288720594469,-4.364879015319862,8.52146453161434,0.0
719640.0783812654,4050767.5119837918,-37500.0,-2.3013643323730024,2.0800341729292029,1.5490416167599614,-1.0934956516276326,-2.6666879172471831,3.990835301736174,4.7087574989454559,4.3130438839711713,-3.3792401846427618,3.3792401846427618,-4.3130438839711713,8.2516893634163022,0.0
724640.0783812654,4050767.5119837918,-37500.0,-2.0809899090963779,3.0866878796214157,0.72587646023687202,-2.2644527474618159,-1.3535840282987328,2.5997686184331465,4.6943488259054948,3.5372934981024819,-3.7868642787493911,3.7868642787493911,-3.5372934981024819,8.1309574844851795,0.0
729640.0783812654,4050767.5119837918,-37500.0,-1.3627658567066165,3.7285387149900098,-0.44482536856537913,-3.032233025013531,0.44572741857858167,0.65081169237345227,4.8512427325684566,1.9610407371418295,-3.6079575155351917,3.6079575155351917,-1.9610407371418295,8.5401462472325296,0.0
734640.0783812654,4050767.5119837918,-37500.0,-0.35006497065816072,3.7686098887069268,-1.7638904543978593,-3.1276499119949697,2.4698119710355368,-1.5975883852015198,5.2639036134062618,-0.24486488869930301,-2.7436382033540898,2.7436382033540898,0.24486488869930301,9.5940186411044142,0.0
739640.0783812654,4050767.5119837918,-37500.0,0.60420473850801715,3.1385887749169732,-2.9399574066019243,-2.4626604544004329,4.3398560050841484,-3.7588883646390188,5.8593232550472507,-2.6611993685601183,-1.3128764836004121,1.3128764836004121,2.6611993685601183,10.971942207079753,0.0
744640.0783812654,4050767.5119837918,-37500.0,1.1547258860872411,1.9938567307659592,-3.7039908890279909,-1.1928340795473416,5.6962343737716719,-5.4515217905358462,6.436282350897546,-4.7618647336130158,0.36446634410899659,-0.36446634410899659,4.7618647336130158,12.193767350329599,0.0
749640.0783812654,4050767.5119837918,-37500.0,1.1281102317243585,0.64807164058488187,-3.9226420668691597,0.34657958626511431,6.3367403815986583,-6.4386094047117401,6.7860248493200954,-6.1282610410956639,1.8979413250509887,-1.8979413250509887,6.1282610410956639,12.908559060399442,0.0
754640.0783812654,4050767.5119837918,-37500.0,0.58154010881212792,-0.57114827066776808,-3.6365109982110635,1.7909135155396483,6.271352872413166,-6.6909445938552814,6.8098448724243159,-6.6003053659086373,2.9881002363700673,-2.9881002363700673,6.6003053659086373,12.984437684927224,0.0
759640.0783812654,4050767.5119837918,-37500.0,-0.26761957270180231,-1.447184491903998,-3.0096017847579515,2.8823539376252088,5.6734519700081849,-6.3495692489398081,6.5258756985028947,-6.2817956136819335,3.51802626183333,-3.51802626183333,6.2817956136819335,12.474096110848308,0.0
764640.0783812654,4050767.5119837918,-37500.0,-1.1681851260910383,-1.915249227798016,-2.2395211890813127,3.5223442514225436,4.7789396250759681,-5.6330508255457188,6.0164680293766573,-5.4321866665520968,3.5409862825661182,-3.5409862825661182,5.4321866665520968,11.534273828225645,0.0
769640.0783812654,4050767.5119837918,-37500.0,-1.9315557268072165,-2.0276079151033435,-1.4866244454675599,3.7437493144184479,3.7989836122475822,-4.7515641995567259,5.3800961460046901,-4.3363958936494003,3.2052878062543888,-3.2052878062543888,4.3363958936494003,10.348067908205605,0.0
774640.0783812654,4050767.5119837918,-37500.0,-2.4646035929750134,-1.8910006099404133,-0.84606807509500448,3.6489894969589671,2.8778420425354772,-3.8604349120511139,4.7023915706932877,-3.219554187756299,2.6761706349206227,-2.6761706349206227,3.219554187756299,9.0744780727784402,0.0
779640.0783812654,4050767.5119837918,-37500.0,-2.7547699273133261,-1.6154017473935696,-0.35367874057571391,3.3550425252860383,2.0903996167646182,-3.0514074641838347,4.0447098509413983,-2.219619736009725,2.0879202223565603,-2.0879202223565603,2.219619736009725,7.8276623343073313,0.0
784640.0783812654,4050767.5119837918,-37500.0,-2.8374772660101137,-1.2873583140387392,-0.0059879283049761069,2.9615374263068106,1.4596673708115011,-2.36488808388154,3.4439272702435009,-1.3980885477741176,1.5283618154981418,-1.5283618154981418,1.3980885477741176,6.6767068037280302,0.0
789640.0783812654,4050767.5119837918,-37500.0,-2.7666621000805858,-0.96344671579212282,0.21994183939641057,2.5397036728866458,0.97782484232055089,-1.8078982969280224,2.91705650363942,-0.76468479822268032,1.0434004531474748,-1.0434004531474748,0.76468479822268032,5.6549960740501808,0.0
794640.0783812654,4050767.5119837918,-37500.0,-2.5959049730791106,-0.67446979430783782,0.35271032628354199,2.1336878633256573,0.62283339888927924,-1.369555912280628,2.4669135233027344,-0.30094496659258174,0.64905979482079246,-0.64905979482079246,0.30094496659258174,4.7716451180336037,0.0
799640.0783812654,4050767.5119837918,-37500.0,-2.3694885160541768,-0.43304377083982831,0.41905845602991654,1.7668069637264827,0.36890148584799487,-1.0316407342446565,2.0878645742240347,0.022946535992661804,0.34348712312063856,-0.34348712312063856,-0.022946535992661804,4.0212990070531873,0.0
804640.0783812654,4050767.5119837918,-37500.0,-2.1200066470635393,-0.24069762499695274,0.44081766485089291,1.4483828321282888,0.19193402106793683,-0.77470409031752574,1.7708694744123563,0.23823930451887393,0.11599240854603832,-0.11599240854603832,-0.23823930451887393,3.3912147030323632,0.0
809640.0783812654,4050767.5119837918,-37500.0,-1.8693433660516805,-0.093144039911046375,0.43439784136641363,1.1793245533542227,0.071730810195393027,-0.58105292015769938,1.506525645726285,0.37279234172188069,-0.04719120403795371,0.04719120403795371,-0.37279234172188069,2.8658176157508737,0.0
814640.0783812654,4050767.5119837918,-37500.0,-1.6309052006331051,0.016318792635959981,0.4114364215114652,0.95606351058603944,-0.0076027387392616193,-0.43585839065252713,1.2862504930390548,0.44937081623635389,-0.15971709265197406,0.15971709265197406,-0.44937081623635389,2.4293511400917422,0.0
819640.0783812654,4050767.5119837918,-37500.0,-1.4119762158702407,0.094849484425125433,0.37981197681139844,0.77306118691624948,-0.058072569108419694,-0.3272780467438472,1.1025795624117269,0.4855872592424938,-0.23363450716424017,0.23363450716424017,-0.4855872592424938,2.0672452717469678,0.0
824640.0783812654,4050767.5119837918,-37500.0,-1.2157172013067881,0.14907130646720584,0.34463670112808137,0.62427488267594344,-0.08849741157782251,-0.2461362124221575,0.94917167691615967,0.49456286487916007,-0.27889282092542361,0.27889282092542361,-0.49456286487916007,1.7666979485302694,0.0
654640.0783812654,4055767.5119837918,-37500.0,1.6403724167616913,-0.63174360265633034,0.095252811937070539,1.2375566624635805,-0.4850691218025503,0.70853451528247502,1.4601762475857216,-0.1744131428904028,0.60621926045698349,-0.60621926045698349,0.1744131428904028,2.8833541290391111,0.0
659640.0783812654,4055767.5119837918,-37500.0,1.7221562006104625,-0.75285248038039188,0.16251265291404624,1.4105062751110347,-0.61771333173273268,0.86725151084434082,1.6537843612202825,-0.1271598626742535,0.67703586953710493,-0.67703586953710493,0.1271598626742535,3.2624618234999523,0.0
664640.0783812654,4055767.5119837918,-37500.0,1.7768778482267049,-0.8870527793800167,0.2542662530261211,1.5976321168740291,-0.78397703312360678,1.0617656303856562,1.872146921689841,-0.048029944007059899,0.74400393774906237,-0.74400393774906237,0.048029944007059899,3.6881738580774517,0.0
669640.0783812654,4055767.5119837918,-37500.0,1.7897440837684686,-1.0299324077757286,0.37694676427375434,1.7930922014727306,-0.99025873494491723,1.2982198739070157,2.1159723224452494,0.075211565749683129,0.79897250888184945,-0.79897250888184945,-0.075211565749683129,4.1608684835985361,0.0
674640.0783812654,4055767.5119837918,-37500.0,1.7423032281075617,-1.1727820118262504,0.53730802474427497,1.9862915883176206,-1.2424225758323395,1.5820638119227539,2.3843851647711611,0.25759510845512046,0.82961634287520769,-0.82961634287520769,-0.25759510845512046,4.6773667502990008,0.0
679640.0783812654,4055767.5119837918,-37500.0,1.613161742738777,-1.3006833986977493,0.74124213499324032,2.16000178404098,-1.5441602202577753,1.9164413823427979,2.6740265237486409,0.51624714952165163,0.81834663592078472,-0.81834663592078472,-0.51624714952165163,5.2289678901456531,0.0
684640.0783812654,4055767.5119837918,-37500.0,1.3802225003342263,-1.3904492134005464,0.99155737821737122,2.2884419025182203,-1.8942169152133299,2.2995216973409005,2.9779395267477606,0.86826955050090415,0.74165405875545876,-0.74165405875545876,-0.86826955050090415,5.7990163269141517,0.0
689640.0783812654,4055767.5119837918,-37500.0,1.0253227418683641,-1.4090789937942017,1.2843095243915341,2.3360279547723031,-2.2821453563397687,2.7204829002869304,3.2843853818874695,1.3262527202906071,0.57070629481669299,-0.57070629481669299,-1.3262527202906071,6.3603278981511506,0.0
694640.0783812654,4055767.5119837918,-37500.0,0.54205890256330247,-1.3140717285228185,1.6034825003654816,2.2581379846976675,-2.682540402360833,3.1541352147872161,3.5759774523557226,1.8903923315035398,0.2745296269019899,-0.2745296269019899,-1.8903923315035398,6.8733563348341606,0.0
699640.0783812654,4055767.5119837918,-37500.0,-0.05321521879866685,-1.0577575146712921,1.9145112077069111,2.0059799945998771,-3.04850925222429,3.5549039958306428,3.8299252937184716,2.5367017132085854,-0.1725054468145566,0.1725054468145566,-2.5367017132085854,7.2869284411447213,0.0
704640.0783812654,4055767.5119837918,-37500.0,-0.70928655305956034,-0.59829405263413848,2.1586144403778116,1.5380024351524322,-3.3066834499607309,3.8522861841898672,4.0207323091644707,3.2026086713191972,-0.77748577563675925,0.77748577563675925,-3.2026086713191972,7.5447565280246787,0.0
709640.0783812654,4055767.5119837918,-37500.0,-1.3324693310691069,0.080986158645251993,2.2521458237755452,0.83921665313792781,-3.3582695258868021,3.9518286311653754,4.1271811868575128,3.7748943491887665,-1.5106419135805895,1.5106419135805895,-3.7748943491887665,7.6024699194252214,0.0
714640.0783812654,4055767.5119837918,-37500.0,-1.7928630330769344,0.94613352873934908,2.0971693184473916,-0.054066065812114456,-3.092356804576236,3.7471688194743722,4.1451501124264292,4.0899589903370597,-2.2871263475764541,2.2871263475764541,-4.0899589903370597,7.4602740358345736,0.0
719640.0783812654,4055767.5119837918,-37500.0,-1.9541412500049054,1.8908223769105372,1.608587742627533,-1.0336532962839031,-2.4163288832070724,3.1474411807718727,4.1048147716868026,3.9595112594028175,-2.9605690828268099,2.9605690828268099,-3.9595112594028175,7.210444268407886,0.0
724640.0783812654,4055767.5119837918,-37500.0,-1.7276949145713554,2.7359649760562292,0.75591063641147982,-1.9197827075782139,-1.3005335866704901,2.1176231738229472,4.081416272458509,3.2293688720863973,-3.3438414968540342,3.3438414968540342,-3.2293688720863973,7.0704941268568007,0.0
729640.0783812654,4055767.5119837918,-37500.0,-1.1323350284429399,3.2678608969001548,-0.39615771618679796,-2.4982007711557226,0.17951712687432372,0.71730167083609475,4.1741673588773534,1.8596019610969323,-3.2652289373129975,3.2652289373129975,-1.8596019610969323,7.311490776885039,0.0
734640.0783812654,4055767.5119837918,-37500.0,-0.32156168217556697,3.3138129088403847,-1.6761108196454664,-2.5927595818823952,1.8315523324314689,-0.88671064079094053,4.4399789637644087,-0.013004583132798286,-2.6455424927509661,2.6455424927509661,0.013004583132798286,8.0351540899248413,0.0
739640.0783812654,4055767.5119837918,-37500.0,0.45512671244211028,2.822787131501058,-2.8449276315486918,-2.1433399518138625,3.3873287751401748,-2.4534535341355923,4.8391636558293154,-2.0799274544425383,-1.5553130604242815,1.5553130604242815,2.0799274544425383,9.047641325539832,0.0
744640.0783812654,4055767.5119837918,-37500.0,0.95060637967809813,1.9005998602277523,-3.6778816135844901,-1.2420784264414799,4.5875794642581633,-3.7408072736881754,5.2578552098574125,-3.9527194960562175,-0.20860554116626573,0.20860554116626573,3.9527194960562175,10.016031318130468,0.0
749640.0783812654,4055767.5119837918,-37500.0,1.023642317753916,0.77082588355569737,-4.0462896013857614,-0.10014729433822994,5.2690573889448746,-4.5832803458505911,5.5629228960902619,-5.3012406162448773,1.1136142831528306,-1.1136142831528306,5.3012406162448773,10.668485300826394,0.0
754640.0783812654,4055767.5119837918,-37500.0,0.68464594390691824,-0.31662647652283454,-3.9525340486993117,1.0365211985120295,5.406512762174148,-4.9336755024785974,5.6586861954899472,-5.960934860958611,2.1679283328522394,-2.1679283328522394,5.960934860958611,10.873400234516781,0.0
759640.0783812654,4055767.5119837918,-37500.0,0.064489382281993815,-1.1735777749433214,-3.5049625961709463,1.9721604364209995,5.0937381795339558,-4.8528178300965257,5.5255888283612382,-5.9556750526370621,2.8215328663361117,-2.8215328663361117,5.9556750526370621,10.630494643096682,0.0
764640.0783812654,4055767.5119837918,-37500.0,-0.66013602551229311,-1.7149202138817152,-2.8582861968847606,2.6054399361839868,4.4863160705067031,-4.4641474387852629,5.2027367296806766,-5.443151807966121,3.0643248953029563,-3.0643248953029563,5.443151807966121,10.025441642382381,0.0
769640.0783812654,4055767.5119837918,-37500.0,-1.3354837170232152,-1.9489051875919747,-2.1570048236092574,2.9262130774376578,3.7426071536669712,-3.903316512830477,4.7535267102606742,-4.6307781036035669,2.9730543901444082,-2.9730543901444082,4.6307781036035669,9.1795055144739681,0.0
774640.0783812654,4055767.5119837918,-37500.0,-1.8657130205296255,-1.9400961275166,-1.5038946893934759,2.9843475548733096,2.9866903189146679,-3.2838673674404197,4.2413832484033263,-3.7074243988107964,2.6604597075811611,-2.6604597075811611,3.7074243988107964,8.2113979087391886,0.0
779640.0783812654,4055767.5119837918,-37500.0,-2.2147201606375444,-1.7711587128726773,-0.95429520892480657,2.8543837482044938,2.2967427598345123,-2.6837075294670303,3.7175098204219457,-2.8093583001160791,2.235078416133665,-2.235078416133665,2.8093583001160791,7.2165334345435843,0.0
784640.0783812654,4055767.5119837918,-37500.0,-2.3898234283787811,-1.5173355066516991,-0.52571243399110523,2.6098844524247724,1.7103695945253707,-2.1465798555473565,3.2173467652558378,-2.0155900096433577,1.7804775016483934,-1.7804775016483934,2.0155900096433577,6.2608424633259876,0.0
789640.0783812654,4055767.5119837918,-37500.0,-2.4217430145901289,-1.2351963455293815,-0.21192101673306171,2.3103732479546419,1.2366383595299146,-1.690411014805254,2.7618743658968801,-1.359167385449326,1.3505861875148879,-1.3505861875148879,1.359167385449326,5.3833514823634081,0.0
794640.0783812654,4055767.5119837918,-37500.0,-2.3487542128149053,-0.96131107242849834,0.0048053728990115844,1.9978337881800292,0.86802190632511389,-1.3166920978550485,2.3606680292810962,-0.84287459263729381,0.97398953980906344,-0.97398953980906344,0.84287459263729381,4.6024056544385967,0.0
799640.0783812654,4055767.5119837918,-37500.0,-2.2070551738843638,-0.71577805395119121,0.14544929788426073,1.6984751898253949,0.5893773657799023,-1.0180905910003506,2.0150354487581104,-0.45297588461479388,0.66123287765833194,-0.66123287765833194,0.45297588461479388,3.9222997320229673,0.0
804640.0783812654,4055767.5119837918,-37500.0,-2.0263422446193409,-0.50707147640993377,0.22970601724329684,1.4264616728085444,0.38359526402839544,-0.78361269746398643,1.7210792220561426,-0.16890227769371607,0.41175937616836261,-0.41175937616836261,0.16890227769371607,3.3388099362942398,0.0
809640.0783812654,4055767.5119837918,-37500.0,-1.8287418646661893,-0.33640604880642572,0.27404115512255722,1.187732084365192,0.23461984908507166,-0.60164916428452053,1.4726245175200812,0.030920039058104531,0.21918351822260429,-0.21918351822260429,-0.030920039058104531,2.8432221601624401,0.0
814640.0783812654,4055767.5119837918,-37500.0,-1.6294878683105292,-0.20100787899950678,0.29127078895441777,0.98311978741424089,0.12874158512601241,-0.46152617109210103,1.2631895175162877,0.16608936528569962,0.074775712338175732,-0.074775712338175732,-0.16608936528569962,2.4249917614374734,0.0
819640.0783812654,4055767.5119837918,-37500.0,-1.4382715405392459,-0.096292231609853687,0.29088678390052308,0.81060248308478389,0.054900464580195325,-0.35412991396384513,1.086803009704665,0.25305282526424761,-0.030490952703163321,0.030490952703163321,-0.25305282526424761,2.0733516296992685,0.0
824640.0783812654,4055767.5119837918,-37500.0,-1.2606723488023868,-0.017178921449812003,0.27965726790754269,0.6667888050038816,0.0044995668098180303,-0.27201934555926155,0.93821396901670695,0.30493672789162118,-0.10488791938810156,0.10488791938810156,-0.30493672789162118,1.7781919477821517,0.0
654640.0783812654,4060767.5119837918,-37500.0,1.4950520468114425,-0.72773977648384303,0.22197160331227606,1.1462725777173726,-0.54981361034947107,0.66197180155055757,1.4025056600508987,-0.11860773760422871,0.67856554454530482,-0.67856554454530482,0.11860773760422871,2.7733916735730206,0.0
659640.0783812654,4060767.5119837918,-37500.0,1.5443508156217933,-0.84679919473684129,0.31213815414417395,1.2902663033179167,-0.68583089092088856,0.80150496756288669,1.5776471467577986,-0.054758136684861958,0.74817182606735622,-0.74817182606735622,0.054758136684861958,3.1163254001239671,0.0
664640.0783812654,4060767.5119837918,-37500.0,1.5634157075726454,-0.97388844160153376,0.4289094649757435,1.4411237683277978,-0.85243323176394781,0.96954450098560474,1.772330575241813,0.042885736895399484,0.81123853603159302,-0.81123853603159302,-0.042885736895399484,3.4959767324958912,0.0
669640.0783812654,4060767.5119837918,-37500.0,1.539324089523604,-1.1029783759334444,0.57761163866349452,1.5921951193631154,-1.0540354409230839,1.1698376074389256,1.9861870468669711,0.18531524895150653,0.85921834689308507,-0.85921834689308507,-0.18531524895150653,3.9107522637217262,0.0
674640.0783812654,4060767.5119837918,-37500.0,1.4569898569707813,-1.2238600350956079,0.76302352871616475,1.7327936858928343,-1.2938383189372624,1.4049941088203439,2.2173192661450498,0.3851785938164306,0.8798523076718251,-0.8798523076718251,-0.3851785938164306,4.3556267449039066,0.0
679640.0783812654,4060767.5119837918,-37500.0,1.3003370017704861,-1.320759011040493,0.98794607676536494,1.8470136790663576,-1.5722375159531738,1.6751199717174134,2.4616240330600911,0.65564118944914973,0.8565324749876323,-0.8565324749876323,-0.65564118944914973,4.820634114996305,0.0
684640.0783812654,4060767.5119837918,-37500.0,1.0547817156426793,-1.3711449447425947,1.2508724143166692,1.9128014250777567,-1.884395584612155,1.9757602926939231,2.7120347747417357,1.0079340495943008,0.76825185837528942,-0.76825185837528942,-1.0079340495943008,5.2891815227491854,0.0
689640.0783812654,4060767.5119837918,-37500.0,0.71150870073992001,-1.3454084814793155,1.54258678280492,1.9018966919391245,-2.2168866233434223,2.2950862913299166,2.9578456762943337,1.446977835143423,0.59084036059347445,-0.59084036059347445,-1.446977835143423,5.7365578586755666,0.0
694640.0783812654,4060767.5119837918,-37500.0,0.27374578736097149,-1.2085255550858212,1.8418296796004694,1.7816320952752878,-2.5436485889038845,2.6105285350807246,3.1844597124738745,1.9646183059130575,0.30046508470361633,-0.30046508470361633,-1.9646183059130575,6.1294253049457117,0.0
699640.0783812654,4060767.5119837918,-37500.0,-0.23558059617947397,-0.92521184736567796,2.1108577548761067,1.519869315211835,-2.8221427322437505,2.8855954765923553,3.37416461627953,2.5306889937988482,-0.11956753089133443,0.11956753089133443,-2.5306889937988482,6.4277051637386506,0.0
704640.0783812654,4060767.5119837918,-37500.0,-0.7669864572928986,-0.46996372175344214,2.292873854380562,1.0941931584086131,-2.9916572063582652,3.0684457075331948,3.5088298210801274,3.083669292482127,-0.66825309425934054,0.66825309425934054,-3.083669292482127,6.5910401745667961,0.0
709640.0783812654,4060767.5119837918,-37500.0,-1.2426377087346276,0.15791985459663205,2.3146457601139279,0.5052952814836833,-2.9768250919892068,3.0946808059291797,3.5755368655619542,3.5252055222928549,-1.3138857901724608,1.3138857901724608,-3.5252055222928549,6.5926303563016848,0.0
714640.0783812654,4060767.5119837918,-37500.0,-1.5653674178775452,0.91738529121621537,2.0982263116817581,-0.20824336558921303,-2.6997840245980966,2.8971083131367474,3.5755977510379937,3.7253761119109199,-1.9830827198781624,1.9830827198781624,-3.7253761119109199,6.4426931568004928,0.0
719640.0783812654,4060767.5119837918,-37500.0,-1.6427673904589224,1.7144077879467365,1.5838392695287662,-0.96043683384939826,-2.1025159606060213,2.4237472312928015,3.5350611690125087,3.5459285040855972,-2.5598339026903387,2.5598339026903387,-3.5459285040855972,6.2187705830884665,0.0
724640.0783812654,4060767.5119837918,-37500.0,-1.4238235032945341,2.4075635966209288,0.76023983573851539,-1.6230419121050843,-1.1756061779822355,1.6612059886913648,3.5090430801721064,2.8833435203030722,-2.9033887623751506,2.9033887623751506,-2.8833435203030722,6.0817490937929115,0.0
729640.0783812654,4060767.5119837918,-37500.0,-0.93433278094398664,2.8386608840381409,-0.30961402899217633,-2.052280669105083,0.017841628948832032,0.65467367521898245,3.5653543984987355,1.7210711367612028,-2.8877870646301753,2.8877870646301753,-1.7210711367612028,6.2235875952582838,0.0
734640.0783812654,4060767.5119837918,-37500.0,-0.28901803689939931,2.8843600725600624,-1.4850151055967715,-2.1336570952025009,1.3388692330731482,-0.48787274937114167,3.742661099807846,0.16610541189298988,-2.4522205210991492,2.4522205210991492,-0.16610541189298988,6.7250213297700174,0.0
739640.0783812654,4060767.5119837918,-37500.0,0.3361655978583033,2.5075703867826693,-2.5775350331605944,-1.8270610194770773,2.6001883499391822,-1.6157095454742181,4.0170443380954213,-1.5577448803156047,-1.637735742225958,1.637735742225958,1.5577448803156047,7.4681597540308111,0.0
744640.0783812654,4060767.5119837918,-37500.0,0.76561078112817949,1.7795619759927328,-3.4075386532273013,-1.1876320457036718,3.6184683469491041,-2.5756824765850688,4.3166702220690638,-3.1688120891870737,-0.58569982418428412,0.58569982418428412,3.1688120891870737,8.2248144299930406,0.0
749640.0783812654,4060767.5119837918,-37500.0,0.88899769110815197,0.85682115181713248,-3.861060201756676,-0.34831658426409334,4.2683432545126774,-3.2555417509184386,4.5603879223835291,-4.4154770798708869,0.50682979265681527,-0.50682979265681527,4.4154770798708869,8.7906835960264811,0.0
754640.0783812654,4060767.5119837918,-37500.0,0.69461804500291957,-0.075866647295024764,-3.9184929737417478,0.52736284229377706,4.5123079492807738,-3.6101344168655389,4.6790617916044246,-5.1495752538636808,1.4528564868974772,-1.4528564868974772,5.1495752538636808,9.0491854356429045,0.0
759640.0783812654,4060767.5119837918,-37500.0,0.25747194432541942,-0.86508264708132454,-3.6443937156066597,1.2970359240156852,4.3956043200364423,-3.6609385199164848,4.6377599584881555,-5.3520693916828268,2.1287143615599557,-2.1287143615599557,5.3520693916828268,8.9747093268176723,0.0
764640.0783812654,4060767.5119837918,-37500.0,-0.30323869374914297,-1.4237564833594425,-3.1506168257813241,1.872241273062216,4.0153342575390267,-3.474690457845433,4.4462015672262094,-5.1088646784224112,2.4934055086904499,-2.4934055086904499,5.1088646784224112,8.6082044262191157,0.0
769640.0783812654,4060767.5119837918,-37500.0,-0.87009967770897956,-1.733870974917141,-2.5552610130829447,2.2243772507193036,3.4830949585473649,-3.1352088200144963,4.1410550169033922,-4.560226928958504,2.5753320464329592,-2.5753320464329592,4.560226928958504,8.0256933289334782,0.0
774640.0783812654,4060767.5119837918,-37500.0,-1.3572541244798746,-1.82715641051889,-1.9542267397456501,2.3710076981020776,2.8967415973152701,-2.7206175773154935,3.7663647998196725,-3.8516597292397319,2.4426541591580428,-2.4426541591580428,3.8516597292397319,7.311300524915981,0.0
779640.0783812654,4060767.5119837918,-37500.0,-1.7193997120635349,-1.7594670651367263,-1.4100373630530147,2.3550927194046127,2.32683943145754,-2.29104645424946,3.3619989149786011,-3.1024186181113089,2.1741337015653306,-2.1741337015653306,3.1024186181113089,6.5397579825281955,0.0
784640.0783812654,4060767.5119837918,-37500.0,-1.9460468398717157,-1.5899380247960415,-0.95373026491551527,2.2267692330422624,1.8153303728643388,-1.8857278335953349,2.9587013468753209,-2.3937549626590768,1.8395883057655626,-1.8395883057655626,2.3937549626590768,5.7683585642206099,0.0
789640.0783812654,4060767.5119837918,-37500.0,-2.0496881340270043,-1.3688229776264151,-0.59302036231492894,2.0316918821685541,1.3809576939428758,-1.525783170570773,2.5773052559618508,-1.7709599523873427,1.4911668125566901,-1.4911668125566901,1.7709599523873427,5.0357401773716477,0.0
794640.0783812654,4060767.5119837918,-37500.0,-2.0541843049588473,-1.13298411193152,-0.32143135304549025,1.8057411702163171,1.0267012850200548,-1.2191674247529853,2.2300541607353783,-1.2518509089365053,1.1624460473077978,-1.1624460473077978,1.2518509089365053,4.364426321936806,0.0
799640.0783812654,4060767.5119837918,-37500.0,-1.9862418078694142,-0.906216098090877,-0.12567786663656336,1.5741165902008687,0.74646147685822517,-0.96553845120661808,1.9225446468617002,-0.83637067474669469,0.87158059157620682,-0.87158059157620682,0.83637067474669469,3.7647411383613831,0.0
804640.0783812654,4060767.5119837918,-37500.0,-1.8703946012734465,-0.70178898219875196,0.0094215685674646273,1.3527284361383018,0.52996122734581641,-0.76007545206050053,1.6554777493651385,-0.51460334341844194,0.62568132395404186,-0.62568132395404186,0.51460334341844194,3.2386793998507595,0.0
809640.0783812654,4060767.5119837918,-37500.0,-1.7267480559893948,-0.52549424111739451,0.098186422166007301,1.1503936507214814,0.36585249511048606,-0.59607165663516803,1.4262455097802047,-0.2724178856217177,0.42486384480687794,-0.42486384480687794,0.2724178856217177,2.7830914495463617,0.0
814640.0783812654,4060767.5119837918,-37500.0,-1.5704884108603805,-0.37833403179833591,0.1528314947580475,0.97099924959517958,0.24342556745398314,-0.46649686988637096,1.2306144086865392,-0.09494653606259934,0.26536656010944459,-0.26536656010944459,0.09494653606259934,2.3920273387050663,0.0
819640.0783812654,4060767.5119837918,-37500.0,-1.4123260410668173,-0.25856256224767993,0.18313969226568594,0.81527745254250816,0.15338358330089621,-0.36482455071385056,1.0640601888897736,0.031550179820503996,0.14168117851293921,-0.14168117851293921,-0.031550179820503996,2.0583228331815571,0.0
659640.0783812654,4065767.5119837918,-37500.0,1.3549330382017657,-0.89641489593887924,0.44821599412314583,1.1589489360129244,-0.72495706752920208,0.72868355116287697,1.4889192915134235,0.021034859984938259,0.78696543266526098,-0.78696543266526098,-0.021034859984938259,2.9433566364640407,0.0
664640.0783812654,4065767.5119837918,-37500.0,1.343745576395097,-1.0091887271870135,0.58200249616423183,1.2757239949855101,-0.88465246615730886,0.87062890225095468,1.6591849065542617,0.13256607752405553,0.84156579808711784,-0.84156579808711784,-0.13256607752405553,3.2755654943819561,0.0
669640.0783812654,4065767.5119837918,-37500.0,1.2905721564911663,-1.1175497183054015,0.74611446008744198,1.3866854293607116,-1.0732506641877397,1.0363920840512424,1.8430620005899967,0.28726167676025705,0.87834864254441591,-0.87834864254441591,-0.28726167676025705,3.6323124753911338,0.0
674640.0783812654,4065767.5119837918,-37500.0,1.1838745882128114,-1.2106839001122645,0.94305620677934898,1.481829406198349,-1.2916448776281382,1.2265749016621701,2.0380598223503354,0.49497030543909004,0.88567057306044161,-0.88567057306044161,-0.49497030543909004,4.0074756374656966,0.0
679640.0783812654,4065767.5119837918,-37500.0,1.0125881608792378,-1.2731887492271965,1.1725751588022433,1.5473186106611518,-1.5376954948236832,1.4393945815508671,2.239840889171159,0.76478022953496216,0.84856243449656832,-0.84856243449656832,-0.76478022953496216,4.3907416012409328,0.0
684640.0783812654,4065767.5119837918,-37500.0,0.76849924140509918,-1.2846407527721353,1.4295063987019572,1.565251077547154,-1.8042814412775414,1.6692017526951819,2.4417528226433522,1.1025631381083438,0.74914395103309195,-0.74914395103309195,-1.1025631381083438,4.7665561599163055,0.0
689640.0783812654,4065767.5119837918,-37500.0,0.44981794950628262,-1.2201577937419819,1.7009596823153024,1.5142909884628113,-2.0768698735119067,1.904642946890551,2.6345188535854653,1.5071090590739957,0.56822081971465599,-0.56822081971465599,-1.5071090590739957,5.113455903109001,0.0
694640.0783812654,4065767.5119837918,-37500.0,0.065796582138788237,-1.0527764242259197,1.9631911561820905,1.3718070261371873,-2.3309554100271646,2.1267288239342745,2.8063673299123897,1.9647898084164936,0.2887066719293403,-0.2887066719293403,-1.9647898084164936,5.4044226094494121,0.0
699640.0783812654,4065767.5119837918,-37500.0,-0.35843714113919756,-0.75854111937390967,2.1790689568671966,1.1181972265143687,-2.5301956978384816,2.3074158428802272,2.9440352874114968,2.4433376301443652,-0.098619726686854037,0.098619726686854037,-2.4433376301443652,5.6092790032288917,0.0
704640.0783812654,4065767.5119837918,-37500.0,-0.77869409833800052,-0.32481545942057177,2.2978002791104664,0.7437394250961078,-2.6266733045236648,2.4097457120449648,3.0351987553697239,2.8864814154775784,-0.58714209310853227,0.58714209310853227,-2.8864814154775784,5.7005216534002745,0.0
709640.0783812654,4065767.5119837918,-37500.0,-1.1331059910566765,0.23889282375105869,2.2592231413055566,0.25732456959875039,-2.5651738811461886,2.3909216376656386,3.0728167187144582,3.2126826412220861,-1.1456988933768566,1.1456988933768566,-3.2126826412220861,5.6641163785473392,0.0
714640.0783812654,4065767.5119837918,-37500.0,-1.3512374540872343,0.89048907386826248,2.004781121736797,-0.30527605130958507,-2.2931211852236917,2.2095290982603779,3.0612989572621903,3.3222971486659247,-1.7125969574745232,1.7125969574745232,-3.3222971486659247,5.5159430302218393,0.0
719640.0783812654,4065767.5119837918,-37500.0,-1.3722715555653116,1.5506491751428235,1.4953804045860772,-0.87787503763613717,-1.7761482056512874,1.8369358361654979,3.0227021591369416,3.1166797256687953,-2.1974945231893881,2.1974945231893881,-3.1166797256687953,5.3206380880316173,0.0
724640.0783812654,4065767.5119837918,-37500.0,-1.1689961628740513,2.1104054605495222,0.73230165360709876,-1.3700429849008173,-1.0159736377161572,1.2705538796673608,2.9977253457292976,2.528492823586967,-2.4958665002735292,2.4958665002735292,-2.528492823586967,5.1977996201009384,0.0
729640.0783812654,4065767.5119837918,-37500.0,-0.76827022582519189,2.4544119057970231,-0.22740871146217997,-1.6856290071263074,-0.063457286485374964,0.54391971755183555,3.0332996418941081,1.5549501460409174,-2.5163666986461819,2.5163666986461819,-1.5549501460409174,5.2832934733826482,0.0
734640.0783812654,4065767.5119837918,-37500.0,-0.25546838499304575,2.4955428798300718,-1.2715031947496134,-1.7502782224719855,0.98170855514377087,-0.27256363592829713,3.1558028966788889,0.27872824309058197,-2.2134706791973815,2.2134706791973815,-0.27872824309058197,5.637386720576127,0.0
739640.0783812654,4065767.5119837918,-37500.0,0.24499152871797317,2.2073784005327317,-2.2546998231667423,-1.5376223522359698,1.9893297604869415,-1.0838028002784055,3.3502101421905763,-1.1385656813188347,-1.6108430715994217,1.6108430715994217,1.1385656813188347,6.1867018614455569,0.0
744640.0783812654,4065767.5119837918,-37500.0,0.6084269914506133,1.6379810096448686,-3.0370858191599375,-1.0812882258542966,2.8308945015355307,-1.7925771140502287,3.568355267135725,-2.4942471806813797,-0.80156470256710177,0.80156470256710177,2.4942471806813797,6.7749599426478575,0.0
749640.0783812654,4065767.5119837918,-37500.0,0.75075045560313214,0.89613479349639646,-3.5229433552623717,-0.46554729090790076,3.4129527720054162,-2.3238675703397185,3.7562088441900974,-3.6002938038590631,0.077894022198801594,-0.077894022198801594,3.6002938038590631,7.2513360274237231,0.0
754640.0783812654,4065767.5119837918,-37500.0,0.6518436824328252,0.11609239895418905,-3.6827811245311963,0.20136169432733819,3.6975454284979388,-2.640904378535557,3.869968089605845,-4.3325542208848775,0.88857786569009622,-0.88857786569009622,4.3325542208848775,7.5190380435619995,0.0
759640.0783812654,4065767.5119837918,-37500.0,0.35244167268761328,-0.58196100671311124,-3.5508351217326242,0.81844144560873278,3.7026967759114542,-2.7474844875266222,3.8783409689581001,-4.6532620930647486,1.5259850981273844,-1.5259850981273844,4.6532620930647486,7.5432557539678342,0.0
764640.0783812654,4065767.5119837918,-37500.0,-0.069436801238945356,-1.1189166354967135,-3.2034077454697862,1.3145944521107558,3.486399719833956,-2.6782625357825545,3.7740362524455739,-4.6025199813959325,1.938812286269801,-1.938812286269801,4.6025199813959325,7.3387403274259997,0.0
769640.0783812654,4065767.5119837918,-37500.0,-0.52799717082022091,-1.4642036401126477,-2.7308832127483558,1.6566111552585012,3.1239544936464951,-2.4834704642268082,3.5742207313622569,-4.2695349083741272,2.1269754116482451,-2.1269754116482451,4.2695349083741272,6.9506065479927788,0.0
774640.0783812654,4065767.5119837918,-37500.0,-0.95237193533095432,-1.6273095171076972,-2.2149642378668672,1.8444288178708739,2.6881744563168968,-2.2147227684279662,3.3073745613946808,-3.7596858428485209,2.1260712675435123,-2.1260712675435123,3.7596858428485209,6.4360579559265165,0.0
779640.0783812654,4065767.5119837918,-37500.0,-1.2972496473049795,-1.6420152261078438,-1.7163614884236926,1.8998405409107872,2.2373719910445113,-1.9156871918895668,3.0028740249005352,-3.1692921817758539,1.9882378282299515,-1.9882378282299515,3.1692921817758539,5.8509187110996468,0.0
784640.0783812654,4065767.5119837918,-37500.0,-1.5429568704253427,-1.5510740433053851,-1.2722006129031231,1.8546119654927273,1.8112732956469593,-1.618155366019786,2.6856891985673728,-2.5722830933001073,1.766581101476604,-1.766581101476604,2.5722830933001073,5.2419181387761569,0.0
789640.0783812654,4065767.5119837918,-37500.0,-1.6895468714666979,-1.3953824731567364,-0.89951426514384225,1.7414520071001545,1.4323982469444054,-1.3421053369715676,2.3745045029799048,-2.0171241127537214,1.5058872577967153,-1.5058872577967153,2.0171241127537214,4.6438037458241421,0.0
794640.0783812654,4065767.5119837918,-37500.0,-1.7492072793189242,-1.2083119421056909,-0.60109281244893675,1.588745708331972,1.1100215688753861,-1.0978743355597189,2.0818091922602391,-1.5300151807029883,1.2390654558697252,-1.2390654558697252,1.5300151807029883,4.079636299086526,0.0
799640.0783812654,4065767.5119837918,-37500.0,-1.7396359181573209,-1.0140331536734239,-0.37120302750994555,1.418437767095424,0.84459224891805051,-0.88895024381536869,1.8149168710992916,-1.120617586369832,0.98739557163224234,-0.98739557163224234,1.120617586369832,3.5627045126948156,0.0
804640.0783812654,4065767.5119837918,-37500.0,-1.6794045101478861,-0.82821415587873226,-0.2000340416302207,1.2459608957062978,0.63148963654606094,-0.71452229840378145,1.5772062020263138,-0.78786462425159232,0.76265167212692098,-0.76265167212692098,0.78786462425159232,3.0989555698794464,0.0
809640.0783812654,4065767.5119837918,-37500.0,-1.5852778466610447,-0.65974648843547501,-0.076648498339263127,1.0811913618600217,0.46374372189715135,-0.57143984210675258,1.3691362703462644,-0.5246831234037026,0.56973136952349579,-0.56973136952349579,0.5246831234037026,2.6892786264479751,0.0
814640.0783812654,4065767.5119837918,-37500.0,-1.471029342970879,-0.51265744134002689,0.0093231939175826822,0.92974560463042244,0.33378054855664629,-0.45555158691503195,1.1890352010033043,-0.3213380593000556,0.40905404950803653,-0.40905404950803653,0.3213380593000556,2.3313806258185839,0.0
819640.0783812654,4065767.5119837918,-37500.0,-1.34720913929204,-0.38778120868657251,0.066880596586504207,0.79422612605912379,0.23441027319799393,-0.36252936212409687,1.0340026701963643,-0.16754447242574583,0.27843414765530117,-0.27843414765530117,0.16754447242574583,2.0211806506540633,0.0
659640.0783812654,4070767.5119837918,-37500.0,1.1659369550847196,-0.9083291252749861,0.56426092339504452,1.0248874267523882,-0.73884360433075436,0.65339830770026919,1.3920059999781431,0.094320419838182401,0.79759980003496245,-0.79759980003496245,-0.094320419838182401,2.7532463419973681,0.0
664640.0783812654,4070767.5119837918,-37500.0,1.1310427063048023,-1.0025923379497457,0.70704358687512481,1.1114330285493574,-0.88659503790193506,0.77101725967219981,1.5384530947038517,0.21463643904349528,0.84098263154159614,-0.84098263154159614,-0.21463643904349528,3.0391314065124675,0.0
669640.0783812654,4070767.5119837918,-37500.0,1.0572188129248006,-1.0870289047314783,0.87665831438160324,1.1881840867758278,-1.05695245412415,0.9055148834502339,1.6938933633157216,0.37474798827115618,0.86452148519396665,-0.86452148519396665,-0.37474798827115618,3.3406451025093293,0.0
674640.0783812654,4070767.5119837918,-37500.0,0.93627143222552811,-1.151023122857441,1.0734205420175205,1.2463090938878569,-1.2490395939417613,1.0562165936046557,1.8556027357833169,0.58168282377362757,0.85761719664867897,-0.85761719664867897,-0.58168282377362757,3.6512282632329081,0.0
679640.0783812654,4070767.5119837918,-37500.0,0.76142955703176218,-1.1804701261919135,1.29449123784696,1.274356010943108,-1.4590395178460489,1.2203646255797345,2.0193836385481614,0.8408198586752027,0.80733956931211903,-0.80733956931211903,-0.8408198586752027,3.9609346475239753,0.0
684640.0783812654,4070767.5119837918,-37500.0,0.52940292822528034,-1.1579074694177747,1.5320706007720508,1.2584485120014575,-1.6787458531597328,1.3921151526279096,2.1793072376137927,1.1536606724871508,0.69913785609154799,-0.69913785609154799,-1.1536606724871508,4.255877253794349,0.0
689640.0783812654,4070767.5119837918,-37500.0,0.24313340443299009,-1.0635997927471821,1.7712942321318264,1.183220307867856,-1.8939461093083167,1.561421116100943,2.3276461380102473,1.5146744547993989,0.51854844444306625,-0.51854844444306625,-1.5146744547993989,4.5181259841421877,0.0
694640.0783812654,4070767.5119837918,-37500.0,-0.08507212543172657,-0.87810633776585767,1.9882498028360773,1.0338632997283275,-2.082993096868857,1.7130401683827328,2.4552166036214729,1.9073867034105469,0.25426833936263982,-0.25426833936263982,-1.9073867034105469,4.7265440762578796,0.0
699640.0783812654,4070767.5119837918,-37500.0,-0.43083055502687262,-0.58676731221517475,2.1489349429839986,0.79958033549405882,-2.216221109729366,1.8261070909091586,2.552421289275185,2.3004063324184298,-0.097248069750602628,0.097248069750602628,-2.3004063324184298,4.8592560632911832,0.0
704640.0783812654,4070767.5119837918,-37500.0,-0.75679583933678229,-0.18609375051140442,2.2104026585238974,0.47838982480803449,-2.2571638800598572,1.8749102801567534,2.6113013834373668,2.6448511293890204,-0.52606344189698162,0.52606344189698162,-2.6448511293890204,4.8985894959909446,0.0
709640.0783812654,4070767.5119837918,-37500.0,-1.0154198124047831,0.30890883673941855,2.1255234333576372,0.082533186220035609,-2.1666290949691733,1.8315804566895892,2.628773069128326,2.8754190970168443,-1.0032463034639576,1.0032463034639576,-2.8754190970168443,4.8392378360294552,0.0
714640.0783812654,4070767.5119837918,-37500.0,-1.1568964787009599,0.85882359572738554,1.8522948155586425,-0.35723954170375083,-1.9102609522826972,1.671129371789978,2.6107333158519128,2.9176086082014243,-1.4780533184305793,1.4780533184305793,-2.9176086082014243,4.6995506786188388,0.0
719640.0783812654,4070767.5119837918,-37500.0,-1.1422622874283308,1.3988683285327499,1.3670426089695678,-0.79107282350971297,-1.4689983116936491,1.3784833496992785,2.5755450705809384,2.7025027223114098,-1.8809550034286702,1.8809550034286702,-2.7025027223114098,4.5329024716670983,0.0
724640.0783812654,4070767.5119837918,-37500.0,-0.9587297604577858,1.8464100675505746,0.67827352646875549,-1.1555963203717929,-0.84990563493455595,0.9558951555802403,2.5534216695740137,2.1875335914411105,-2.1348515441893765,2.1348515441893765,-2.1875335914411105,4.4285707394421943,0.0
729640.0783812654,4070767.5119837918,-37500.0,-0.63124178993456004,2.1180268114374012,-0.16453545701290792,-1.386460890382883,-0.093045173040770673,0.42791237949533173,2.5771473601818222,1.3773197529387677,-2.1738311638839858,2.1738311638839858,-1.3773197529387677,4.4828801828358182,0.0
734640.0783812654,4070767.5119837918,-37500.0,-0.22329348008077196,2.152478692777426,-1.0732592255765847,-1.4352386202106118,0.73015767197051917,-0.15912687255029462,2.6647178237211029,0.33538552642951103,-1.9643002622312036,1.9643002622312036,-0.33538552642951103,4.7391679098414166,0.0
739640.0783812654,4070767.5119837918,-37500.0,0.17663549182934837,1.9312141187984975,-1.9371695907331006,-1.2847433471064509,1.529064686907063,-0.74454027150847424,2.8063261503264711,-0.82143246917840651,-1.5198460360000059,1.5198460360000059,0.82143246917840651,5.1501580049094073,0.0
744640.0783812654,4070767.5119837918,-37500.0,0.47973351695033162,1.4869281252858515,-2.648873859282538,-0.95596693546752509,2.2137561902049807,-1.2661338491187271,2.9689956941378304,-1.9474347661266538,-0.90197706641136199,0.90197706641136199,1.9474347661266538,5.6080956623927287,0.0
749640.0783812654,4070767.5119837918,-37500.0,0.6227554310921869,0.89527843186674971,-3.1305977010346453,-0.50293240685170548,2.7157248187842935,-1.6740273139593624,3.1142691943422851,-2.903537638078983,-0.20481883069061135,0.20481883069061135,2.903537638078983,6.0025920489255302,0.0
754640.0783812654,4070767.5119837918,-37500.0,0.58409978074556435,0.25298841698318325,-3.350466605105519,0.0025738094017331006,3.0015270825165379,-1.9403831746984166,3.212575056728709,-3.5899541747685939,0.47027781293016502,-0.47027781293016502,3.5899541747685939,6.2562452662088583,0.0
759640.0783812654,4070767.5119837918,-37500.0,0.38431178209012118,-0.34807088095281996,-3.32348830842054,0.48981948756169152,3.0750748074657013,-2.0619895180292764,3.2432237414792113,-3.9639679458624686,1.0396586105543169,-1.0396586105543169,3.9639679458624686,6.3335029802136944,0.0
764640.0783812654,4070767.5119837918,-37500.0,0.073294654710256008,-0.84068651143836304,-3.0993446808565324,0.90424780080996459,2.9696312366908981,-2.0560268378969426,3.1937565314317196,-4.0387389514679688,1.4528058996853737,-1.4528058996853737,4.0387389514679688,6.2348587778789639,0.0
769640.0783812654,4070767.5119837918,-37500.0,-0.28812662295270752,-1.1905960899137531,-2.7440965755323488,1.2147141694392194,2.7344490961758416,-1.9519360382000768,3.0680308595664014,-3.8677511071000068,1.6951445182172518,-1.6951445182172518,3.8677511071000068,5.9853628557144987,0.0
774640.0783812654,4070767.5119837918,-37500.0,-0.64444675175563493,-1.3939389455019793,-2.32325524017633,1.4128601118004387,2.4215934095420066,-1.7828998320869331,2.8825455158135083,-3.5237951438831661,1.7809145992339501,-1.7809145992339501,3.5237951438831661,5.6225697882110737,0.0
779640.0783812654,4070767.5119837918,-37500.0,-0.95514456422261018,-1.4683060396063257,-1.8906525491715978,1.5074566300010606,2.0765484572761053,-1.5793847929402387,2.6578355436552989,-3.0803897501178472,1.7415578541786649,-1.7415578541786649,3.0803897501178472,5.186720946093403,0.0
784640.0783812654,4070767.5119837918,-37500.0,-1.1973926295268573,-1.4423102146894466,-1.4838932517418626,1.5171390881004476,1.7336012578745976,-1.3655944340098067,2.4132083280487442,-2.5997302482300491,1.6145183206888041,-1.6145183206888041,2.5997302482300491,4.7142564418953006,0.0
789640.0783812654,4070767.5119837918,-37500.0,-1.3638819032732008,-1.3469826533572289,-1.1247995798220864,1.4640101197932298,1.4151428650200133,-1.1584673202983777,2.164398579859856,-2.1275212731329587,1.4351683460397293,-1.4351683460397293,2.1275212731329587,4.2345243175208118,0.0
794640.0783812654,4070767.5119837918,-37500.0,-1.4583941533838762,-1.2102625021169782,-0.82254978023889103,1.3692209516027227,1.1333315928378014,-0.96832716411999897,1.9229413010580327,-1.6929169367213626,1.2324325113075063,-1.2324325113075063,1.6929169367213626,3.7689100408774028,0.0
799640.0783812654,4070767.5119837918,-37500.0,-1.4911464099418388,-1.0543926721303081,-0.57759574838667838,1.2505847047832397,0.8926935934315402,-0.80029729711668429,1.6964716164157572,-1.3112714939967425,1.0274007836677985,-1.0274007836677985,1.3112714939967425,3.3314479182126995,0.0
804640.0783812654,4070767.5119837918,-37500.0,-1.475015732857736,-0.89540092154627637,-0.38521281506868621,1.1217597904384535,0.6927272344680967,-0.65585963071007047,1.4894523756947482,-0.98785454068970457,0.83382735186930912,-0.83382735186930912,0.98785454068970457,2.9301612560463011,0.0
809640.0783812654,4070767.5119837918,-37500.0,-1.4229631225607438,-0.74375323695962192,-0.23819303436819181,0.99239446375030904,0.53003378047725713,-0.53420648598891529,1.3039659818922085,-0.72136992959732049,0.65950881274711126,-0.65950881274711126,0.72136992959732049,2.5685502944433289,0.0
814640.0783812654,4070767.5119837918,-37500.0,-1.3465696420229447,-0.60550319610591374,-0.12864461999556753,0.86875576494806905,0.39986116980071795,-0.43327387077715934,1.1403576549157879,-0.50678505044173627,0.50788319586727682,-0.50788319586727682,0.50678505044173627,2.2469765724105644,0.0
664640.0783812654,4075767.5119837918,-37500.0,0.93407365598843239,-0.96440929870981307,0.80155733462336665,0.95530461931695687,-0.86489494240536569,0.67505686218582617,1.4151033908994142,0.28505321715855703,0.81629884059951874,-0.81629884059951874,-0.28505321715855703,2.7968791071098096,0.0
669640.0783812654,4075767.5119837918,-37500.0,0.84745359514791296,-1.0246569338673088,0.96842747261846773,1.0042473505328475,-1.0144224446605117,0.78235889348623455,1.5446432772925898,0.44454582892727257,0.82630427712291743,-0.82630427712291743,-0.44454582892727257,3.047820395937777,0.0
674640.0783812654,4075767.5119837918,-37500.0,0.72087050997951008,-1.0612152670808745,1.1560015201078397,1.0337423138649637,-1.1785946220109595,0.89971500154211603,1.6768502142440047,0.64380946719680066,0.80601312222898946,-0.80601312222898946,-0.64380946719680066,3.300782097723022,0.0
679640.0783812654,4075767.5119837918,-37500.0,0.55094774925790357,-1.0618387393760926,1.359534610772229,1.0347092374406477,-1.3526946073387571,1.0240361365635438,1.8078916285701956,0.88515557306484771,0.74468389361161136,-0.74468389361161136,-0.88515557306484771,3.5466624488568415,0.0
684640.0783812654,4075767.5119837918,-37500.0,0.33787740039273856,-1.0123370337852748,1.5696799713904848,0.99683278445645529,-1.5283626545760438,1.14988588535281,1.9326855048265821,1.1668653106372404,0.63096851895170458,-0.63096851895170458,-1.1668653106372404,3.7735452874249882,0.0
689640.0783812654,4075767.5119837918,-37500.0,0.087390358600884663,-0.89787683319242961,1.7710669842411058,0.90954803938880069,-1.6926178435552799,1.2688555622813156,2.0449885669017087,1.4807799622669793,0.45454647713568952,-0.45454647713568952,-1.4807799622669793,3.9669469978026037,0.0
694640.0783812654,4075767.5119837918,-37500.0,-0.18729663867470006,-0.7053928997104435,1.9412493850754364,0.76378784373173059,-1.8272063714140592,1.369139432520506,2.1378398747770238,1.809626863996687,0.20871301196637293,-0.20871301196637293,-1.809626863996687,4.1108585501288495,0.0
699640.0783812654,4075767.5119837918,-37500.0,-0.46421899521529492,-0.42724307616651441,2.0506774362313807,0.55456305079533086,-1.9087478250869714,1.4356007373892614,2.2045334637570617,2.1247276916872435,-0.10612428260842965,0.10612428260842965,-2.1247276916872435,4.1900303651667459,0.0
704640.0783812654,4075767.5119837918,-37500.0,-0.71305058066698279,-0.065840408519959634,2.0645390711963545,0.28417019947000871,-1.9102686586702806,1.4506925354143678,2.2402690762233735,2.3851923156062802,-0.47851342536023678,0.47851342536023678,-2.3851923156062802,4.1939766436982211,0.0
709640.0783812654,4075767.5119837918,-37500.0,-0.89818111716255888,0.36167105984450071,1.9472586528707836,-0.034625044153356405,-1.8046495890524994,1.3965631743244875,2.2444914956955748,2.5400452974942338,-0.88267485552400782,0.88267485552400782,-2.5400452974942338,4.1229985622823868,0.0
714640.0783812654,4075767.5119837918,-37500.0,-0.98509506530106494,0.82041383552037817,1.6698993875303836,-0.37659368587613556,-1.5701139790750274,1.2584387868958309,2.2235488247340958,2.5346117914002781,-1.2775481982617944,1.2775481982617944,-2.5346117914002781,3.995791345568787,0.0
719640.0783812654,4075767.5119837918,-37500.0,-0.94950692287371019,1.2586525543412634,1.2195541824152982,-0.70471111548030119,-1.1970683106010185,1.0288857440411878,2.1925154101742472,2.3215086232561895,-1.6100130459427804,1.6100130459427804,-2.3215086232561895,3.8560340617550928,0.0
724640.0783812654,4075767.5119837918,-37500.0,-0.78699147100119848,1.6143351603719194,0.60825350867063888,-0.97466786193223087,-0.6945365563725473,0.71190740998737889,2.1739042214800244,1.8746176930145293,-1.8233436465340451,1.8233436465340451,-1.8746176930145293,3.770594741906967,0.0
729640.0783812654,4075767.5119837918,-37500.0,-0.51935054328613917,1.8273333964318734,-0.12227771403491329,-1.1432408345086289,-0.093623671242606288,0.32532423486358369,2.1907891656934297,1.2020243937422253,-1.8700114405013135,1.8700114405013135,-1.2020243937422253,3.8079498324262788,0.0
734640.0783812654,4075767.5119837918,-37500.0,-0.19389475517053145,1.854641093534422,-0.90343955398451736,-1.1787150278649086,0.55438036126942236,-0.10004558001245661,2.2554302470369865,0.35245323877647405,-1.7254020911186954,1.7254020911186954,-0.35245323877647405,3.9985062894054897,0.0
739640.0783812654,4075767.5119837918,-37500.0,0.12597779127279402,1.6833589863172886,-1.6512524248101157,-1.0699350460625836,1.1860581427087993,-0.52497923092690413,2.3611390294077177,-0.58922959530770203,-1.3973031137492085,1.3973031137492085,0.58922959530770203,4.3105648108996597,0.0
744640.0783812654,4075767.5119837918,-37500.0,0.37663490529832766,1.336016606214248,-2.2838818436748438,-0.83033795918528408,1.7383280331372579,-0.90927621430774763,2.4850303208669065,-1.5179564971334696,-0.926673986948779,0.926673986948779,1.5179564971334696,4.6689705777286408,0.0
749640.0783812654,4075767.5119837918,-37500.0,0.51079203842701781,0.86549838866388262,-2.7394022105296854,-0.49503587513872849,2.1613679038193769,-1.2197309574710946,2.5992082728162034,-2.3312221788134373,-0.37853195815768892,0.37853195815768892,2.3312221788134373,4.9930866394117546,0.0
754640.0783812654,4075767.5119837918,-37500.0,0.5084761373327058,0.34133650009620575,-2.9875658989040899,-0.11193588763368113,2.427645594988364,-1.4360260367984226,2.6816024210910503,-2.9507472869658846,0.17387289962478136,-0.17387289962478136,2.9507472869658846,5.222341183447627,0.0
759640.0783812654,4075767.5119837918,-37500.0,0.37875376512597314,-0.16723139777879617,-3.0320526365566325,0.2696677300352765,2.5344282451572173,-1.5528481044029185,2.7190386945816511,-3.3357770102954083,0.66564674904482435,-0.66564674904482435,3.3357770102954083,5.3243221854677127,0.0
764640.0783812654,4075767.5119837918,-37500.0,0.15293825081799808,-0.60536340024265067,-2.9038591397842075,0.60900304846940101,2.499952057285542,-1.5781544851832974,2.7017987409077455,-3.4848743259969437,1.052024414736608,-1.052024414736608,3.4848743259969437,5.2924873295930954,0.0
769640.0783812654,4075767.5119837918,-37500.0,-0.12673667735418184,-0.94005457536356107,-2.6496732529807221,0.8795375976830857,2.3556882414152787,-1.5288961685302338,2.6264942377266984,-3.4279631615872139,1.3126376527062142,-1.3126376527062142,3.4279631615872139,5.1393938340631395,0.0
774640.0783812654,4075767.5119837918,-37500.0,-0.41828859575841565,-1.1604863993221524,-2.3198653923408434,1.0699726658511173,2.1378524443278382,-1.4260190370441717,2.5006576246731198,-3.2133934888336779,1.4489794521177308,-1.4489794521177308,3.2133934888336779,4.8888841179181339,0.0
779640.0783812654,4075767.5119837918,-37500.0,-0.68780506063517266,-1.2733927205355708,-1.9594071558155572,1.1817072886756372,1.8805636213040411,-1.2902207071373943,2.3377323566732677,-2.894990032127787,1.4778516142970815,-1.4778516142970815,2.894990032127787,4.5691668292084708,0.0
784640.0783812654,4075767.5119837918,-37500.0,-0.91293754244033343,-1.2963835485795712,-1.6029478079720103,1.2246336233226462,1.6117150871338106,-1.1391948272460042,2.1520353879014449,-2.5223225898297494,1.4238742490925,-1.4238742490925,2.5223225898297494,4.2077400931835225,0.0
789640.0783812654,4075767.5119837918,-37500.0,-1.0828051888540198,-1.2516162354399234,-1.2735925806500918,1.2128786766181152,1.3514443863381942,-0.98639815109407525,1.9562307113167325,-2.135247742678418,1.3132112719249156,-1.3132112719249156,2.135247742678418,3.828334734086507,0.0
794640.0783812654,4075767.5119837918,-37500.0,-1.1957632008092611,-1.161095416056831,-0.98412720362399519,1.1614417669063735,1.1124614324007511,-0.84097178779825477,1.7603430379065441,-1.7621853478284901,1.1694247884899411,-1.1694247884899411,1.7621853478284901,3.4495738943543937,0.0
799640.0783812654,4075767.5119837918,-37500.0,-1.2564167600828466,-1.0438898227876525,-0.73938566627135571,1.0840303123562098,0.90137523794987073,-0.70833757920982465,1.5716165376615718,-1.4208965605923067,1.0114183531261247,-1.0114183531261247,1.4208965605923067,3.0848424532769969,0.0
804640.0783812654,4075767.5119837918,-37500.0,-1.2728129491661242,-0.91495988142620699,-0.53880345889562475,0.99197658732591243,0.72033514204673299,-0.59106386408623435,1.3948144999124543,-1.1205184165212823,0.85294829701993458,-0.85294829701993458,1.1205184165212823,2.742862920791282,0.0
809640.0783812654,4075767.5119837918,-37500.0,-1.2542604774677499,-0.78507696011820571,-0.37862166798027053,0.89393890055517156,0.56856490969577089,-0.48973377140186225,1.2327071875877809,-0.86393132374361492,0.70308202947377663,-0.70308202947377663,0.86393132374361492,2.4285821167015258,0.0
669640.0783812654,4080767.5119837918,-37500.0,0.6650568199075787,-0.94214881595542554,1.0240755760840166,0.83905488685923968,-0.95414050955587926,0.66997210673226171,1.3998171881650499,0.49587288170472998,0.77162779766632239,-0.77162779766632239,-0.49587288170472998,2.7628388962806718,0.0
674640.0783812654,4080767.5119837918,-37500.0,0.53950448290226105,-0.9548194180337165,1.1963241753986904,0.84746516116951642,-1.0911132935341192,0.75999965934538682,1.5066460585511936,0.68251517773515291,0.73987321239545001,-0.73987321239545001,-0.68251517773515291,2.965876139799005,0.0
679640.0783812654,4080767.5119837918,-37500.0,0.38028690311251212,-0.93220438891085322,1.3769509738792696,0.83007215379721755,-1.2319102848084673,0.85266357987227992,1.6102469531054757,0.90173162287790076,0.670332076683262,-0.670332076683262,-0.90173162287790076,3.1579362552468608,0.0
684640.0783812654,4080767.5119837918,-37500.0,0.18982866624453881,-0.86329314567049731,1.5560175915706849,0.77950634845006961,-1.3686447202805969,0.94323107591456212,1.7063846864068335,1.1496730151196182,0.55451930304079178,-0.55451930304079178,-1.1496730151196182,3.3291257202361586,0.0
689640.0783812654,4080767.5119837918,-37500.0,-0.024821671230658312,-0.73752386666567193,1.718732728457429,0.68885702908774693,-1.4900287568931199,1.0249419058585596,1.7901428883494914,1.4169287037892924,0.38551889902061709,-0.38551889902061709,-1.4169287037892924,3.468085794695575,0.0
694640.0783812654,4080767.5119837918,-37500.0,-0.25090955229522771,-0.54685603936725613,1.8450738855291262,0.55305521835321247,-1.5812049853860202,1.0888977017091335,1.8563919199700512,1.6868272781641223,0.1600557703083505,-0.1600557703083505,-1.6868272781641223,3.5630616974304465,0.0
699640.0783812654,4080767.5119837918,-37500.0,-0.46961600253831487,-0.28857649957511577,1.9103558242506666,0.37070699842781019,-1.6242431397700703,1.1243309619118285,1.9006320251674962,1.9343014147690836,-0.1189520032963215,0.1189520032963215,-1.9343014147690836,3.6038842251997369,0.0
704640.0783812654,4080767.5119837918,-37500.0,-0.65703482567665783,0.031505800729133442,1.8872697303509047,0.1461452411012204,-1.5996363353746921,1.1194467564221295,1.9202698033830468,2.1260896190504459,-0.43980456559504533,0.43980456559504533,-2.1260896190504459,3.5851115268017955,0.0
709640.0783812654,4080767.5119837918,-37500.0,-0.78702549274392752,0.39624798653678489,1.749764395828231,-0.10879681439428858,-1.4890199339601702,1.0629695039190714,1.916264461262418,2.2231471990909193,-0.78020705688351144,0.78020705688351144,-2.2231471990909193,3.5103880921002091,0.0
714640.0783812654,4080767.5119837918,-37500.0,-0.83607676124596642,0.77592361078074834,1.4786746339964052,-0.37403343159804608,-1.2790245767701038,0.94635470849655401,1.8947972758097951,2.1858937051982865,-1.1073230655033963,1.1073230655033963,-2.1858937051982865,3.3974751230436615,0.0
719640.0783812654,4080767.5119837918,-37500.0,-0.78953257815464406,1.1298377194086651,1.0682164675634716,-0.62230638269288041,-0.96566543482974709,0.76634048732879678,1.8681051972926788,1.9821661169677101,-1.3807289589962246,1.3807289589962246,-1.9821661169677101,3.2818402649419753,0.0
724640.0783812654,4080767.5119837918,-37500.0,-0.64755844080288305,1.4116428147351581,0.53157780034457081,-0.82261157820261044,-0.55810230030002816,0.52719138468032012,1.8530130763222896,1.5965153056097787,-1.5586705390067619,1.5586705390067619,-1.5965153056097787,3.2137080766477508,0.0
729640.0783812654,4080767.5119837918,-37500.0,-0.42854567368922497,1.5780050163087809,-0.096690205956600522,-0.94575201133704068,-0.080277084039424712,0.24179091665046828,1.8658656743349982,1.0381944729095822,-1.6067943131760309,1.6067943131760309,-1.0381944729095822,3.2419126544500907,0.0
734640.0783812654,4080767.5119837918,-37500.0,-0.16787155092879921,1.5986663345512349,-0.76338645920140857,-0.97080760772752328,0.43081247614962365,-0.069140702352001857,1.9150010747538109,0.34460515751925636,-1.5071031585178738,1.5071031585178738,-0.34460515751925636,3.3874155382585376,0.0
739640.0783812654,4080767.5119837918,-37500.0,0.088646071976299576,1.4647155645425196,-1.4048603545080942,-0.89054482217941866,0.93047641923268198,-0.37990775413379041,1.9956517339300266,-0.42219426252391001,-1.2640526900476523,1.2640526900476523,0.42219426252391001,3.6280932154064889,0.0
744640.0783812654,4080767.5119837918,-37500.0,0.29507177127553225,1.1919106161924524,-1.9589023522973115,-0.71378204633956455,1.3742169404783697,-0.66421471749691707,2.0916992041062961,-1.1859969712605336,-0.90519685612048029,0.90519685612048029,1.1859969712605336,3.9107859533591567,0.0
749640.0783812654,4080767.5119837918,-37500.0,0.41609461430338512,0.81750888089284302,-2.3767846570885673,-0.463685652538251,1.7258815684460578,-0.89983887277322938,2.1828100855659036,-1.8712081629650104,-0.4756769038415285,0.4756769038415285,1.8712081629650104,4.1764325970168139,0.0
754640.0783812654,4080767.5119837918,-37500.0,0.4344925668770247,0.39159276592523201,-2.6316683131407657,-0.17251233899588281,1.9636213359293824,-1.0722177139602513,2.2519078854294796,-2.4172482174494809,-0.028279264168161955,0.028279264168161955,2.4172482174494809,4.3781782454523279,0.0
759640.0783812654,4080767.5119837918,-37500.0,0.35305621039796409,-0.034030943115324834,-2.7210680442729673,0.12537035610590028,2.0820647402400398,-1.17600453549939,2.2892243692293146,-2.7882229638007514,0.38755412265422318,-0.38755412265422318,2.7882229638007514,4.4881346028681888,0.0
764640.0783812654,4080767.5119837918,-37500.0,0.19107359296925477,-0.41571050428103418,-2.6634367158193064,0.3999305225092839,2.0905983909440597,-1.2144398342968055,2.2893319279710536,-2.9756159787314864,0.73434019946060447,-0.73434019946060447,2.9756159787314864,4.4968576100650264,0.0
769640.0783812654,4080767.5119837918,-37500.0,-0.022554656374143313,-0.72402138732283461,-2.4909284793475028,0.6297032578422902,2.0089509501796048,-1.1971219856277822,2.2472057137773866,-2.9945253089474901,0.9907855794945486,-0.9907855794945486,2.9945253089474901,4.4094282780693428,0.0
774640.0783812654,4080767.5119837918,-37500.0,-0.25681441561110541,-0.94530958642041363,-2.241135146431934,0.80322950751444766,1.8618293663449439,-1.1371090582898045,2.164126513217282,-2.8759250256414117,1.1515368868308538,-1.1515368868308538,2.8759250256414117,4.2404303847499039,0.0
779640.0783812654,4080767.5119837918,-37500.0,-0.48450731921260543,-1.0796059570710776,-1.9501206611317898,0.91813888906541996,1.6741487268295061,-1.0482167224531544,2.0479719632834974,-2.6579703383378805,1.2237810667091993,-1.2237810667091993,2.6579703383378805,4.0091790608634801,0.0
784640.0783812654,4080767.5119837918,-37500.0,-0.68561389199129585,-1.1365832542421037,-1.6479296623684585,0.97884454299492174,1.4677190920165917,-0.94303539493748056,1.9089135866937272,-2.3786544986583325,1.2225166510949821,-1.2225166510949821,2.3786544986583325,3.7359160990190756,0.0
789640.0783812654,4080767.5119837918,-37500.0,-0.84818747612108114,-1.1311579695160376,-1.3566584628662444,0.9938403240516086,1.2595640292311034,-0.83181753509799106,1.7567870789703095,-2.070938955064709,1.166023766864327,-1.166023766864327,2.070938955064709,3.4392368071603183,0.0
794640.0783812654,4080767.5119837918,-37500.0,-0.96750070853835579,-1.0797979997008524,-1.0904962154401652,0.97330197285406983,1.0615780207958754,-0.72211714269876626,1.5999385890695152,-1.7604164559946964,1.0724089483809038,-1.0724089483809038,1.7604164559946964,3.1346781492582969,0.0
799640.0783812654,4080767.5119837918,-37500.0,-1.0443058618351793,-0.99798090518069649,-0.85693137881291803,0.92732974177389305,0.88104817502053068,-0.61894455609676124,1.4448422162650354,-1.4649466224581686,0.95747524725968547,-0.95747524725968547,1.4649466224581686,2.8342188084054336,0.0
804640.0783812654,4080767.5119837918,-37500.0,-1.0829049293338511,-0.89879126496168305,-0.65841798091162307,0.86488107594287045,0.72158944510952228,-0.52519513695303044,1.296130142002728,-1.195513238382794,0.83375859996029222,-0.83375859996029222,1.195513238382794,2.5463891840000241,0.0
674640.0783812654,4085767.5119837918,-37500.0,0.39082880164203221,-0.84220479401059456,1.2016744315960366,0.68789411511697951,-0.99518190324171607,0.63793241572800607,1.3480290952419212,0.70057357510712548,0.66643648563663616,-0.66643648563663616,-0.70057357510712548,2.6527062961629992,0.0
679640.0783812654,4085767.5119837918,-37500.0,0.24574293873881201,-0.80217590295752705,1.3570750334138872,0.65902009077902612,-1.1065732302620739,0.70600514139396409,1.4290952783517028,0.89565566626654647,0.59166093292762079,-0.59166093292762079,-0.89565566626654647,2.8004089133334849,0.0
684640.0783812654,4085767.5119837918,-37500.0,0.079059432040812713,-0.72078827290396963,1.5047030067460581,0.60255846061403384,-1.2103616749021089,0.7700550599839755,1.5022908624002764,1.1098390408812184,0.47682441766627104,-0.47682441766627104,-1.1098390408812184,2.927043650761664,0.0
689640.0783812654,4085767.5119837918,-37500.0,-0.10186700981434399,-0.59096421597413917,1.6310358159362743,0.51425357663254911,-1.2970843284321574,0.82480651590663867,1.5638393222246816,1.3334633507825338,0.3176647743187303,-0.3176647743187303,-1.3334633507825338,3.0239395591865343,0.0
694640.0783812654,4085767.5119837918,-37500.0,-0.28550402175245743,-0.40839234811575387,1.718885463024399,0.39168756423136236,-1.3549738206427198,0.86369065860100624,1.6100739131543369,1.5512882391102405,0.11331618920657016,-0.11331618920657016,-1.5512882391102405,3.0827365155937549,0.0
699640.0783812654,4085767.5119837918,-37500.0,-0.45629143207738709,-0.17358192713039128,1.7482516370173771,0.23553069807984045,-1.3705716356664934,0.87916378628710534,1.6381294310321202,1.742094461085693,-0.13189422057053068,0.13189422057053068,-1.742094461085693,3.0970305534482954,0.0
704640.0783812654,4085767.5119837918,-37500.0,-0.5958004023814113,0.10603184400959637,1.6982649528362739,0.050801499709596735,-1.330026980599569,0.8633931475712926,1.6468989323222436,1.8793824760628812,-0.40681467588290132,0.40681467588290132,-1.8793824760628812,3.06478094503488,0.0
709640.0783812654,4085767.5119837918,-37500.0,-0.68514345053147052,0.41451557500342617,1.5503458187532557,-0.15221333576169022,-1.2211450106661677,0.80934805229526818,1.6381648962507294,1.9336600640073052,-0.69257811588374074,0.69257811588374074,-1.9336600640073052,2.9914142145879921,0.0
714640.0783812654,4085767.5119837918,-37500.0,-0.70855674204931374,0.72716913419535989,1.2923496663936169,-0.35783355571118208,-1.0360290754189843,0.7122205184181688,1.617609765724952,1.8765605320638028,-0.96313566194444933,0.96313566194444933,-1.8765605320638028,2.8930814539291236,0.0
719640.0783812654,4085767.5119837918,-37500.0,-0.65757455811836851,1.0122967634765689,0.92296534744957259,-0.54608329493979602,-0.77385760982570306,0.57093971048845937,1.5950826742004085,1.6864943538484494,-1.1877681479029243,1.1877681479029243,-1.6864943538484494,2.7984030773100494,0.0
724640.0783812654,4085767.5119837918,-37500.0,-0.53468363049816936,1.2353552846707754,0.45514776275189966,-0.69520589271350408,-0.44304714206014489,0.38939002677606765,1.5831915822875227,1.354791802669163,-1.3356623948641209,1.3356623948641209,-1.354791802669163,2.7451985799996104,0.0
729640.0783812654,4085767.5119837918,-37500.0,-0.35506531740582176,1.3650458248014534,-0.082826590844256837,-0.78534021026928547,-0.06194122594758257,0.17687619261205187,1.5935824098352314,0.89061867147083407,-1.3818780970960116,1.3818780970960116,-0.89061867147083407,2.7684108817991926,0.0
734640.0783812654,4085767.5119837918,-37500.0,-0.14529937378494751,1.3799989554325101,-0.64972374108195019,-0.80257136405272567,0.34261321551806567,-0.052516178859839599,1.6319147536888154,0.32275438778049487,-1.3132392617233695,1.3132392617233695,-0.32275438778049487,2.8822838077640944,0.0
739640.0783812654,4085767.5119837918,-37500.0,0.06119769445694228,1.274084580554887,-1.1972002597600111,-0.7422044649790247,0.73885748331123802,-0.28172197229667062,1.6946551366509754,-0.3030639863538781,-1.1322855880624747,1.1322855880624747,0.3030639863538781,3.0708041296349289,0.0
744640.0783812654,4085767.5119837918,-37500.0,0.23098224921277441,1.0584968575213041,-1.6779247306376732,-0.61016543124950973,1.095172126442129,-0.49332073346753519,1.7702674348054541,-0.93115288797982176,-0.85776746755573086,0.85776746755573086,0.93115288797982176,3.2957961043588333,0.0
749640.0783812654,4085767.5119837918,-37500.0,0.33763083254156845,0.75973423395643747,-2.0537865650616616,-0.42197711787553982,1.3852813143465188,-0.67232171089926251,1.843852743514002,-1.5055678086476569,-0.52125907198211285,0.52125907198211285,1.5055678086476569,3.5137527757121152,0.0
754640.0783812654,4085767.5119837918,-37500.0,0.36683643016803791,0.41403951740201417,-2.3018718129835931,-0.19958817854917335,1.5921937326592415,-0.80836695346710397,1.9021875252007396,-1.9797392833810408,-0.16084584640310962,0.16084584640310962,1.9797392833810408,3.6886131348523761,0.0
759640.0783812654,4085767.5119837918,-37500.0,0.31813579129590769,0.060084253909282251,-2.4167027055547212,0.032946863453421224,1.7099173655998314,-0.89682006212252718,1.9371517043936937,-2.3234013186429361,0.18616217536767321,-0.18616217536767321,2.3234013186429361,3.7971423888743678,0.0
764640.0783812654,4085767.5119837918,-37500.0,0.20316017089545985,-0.26790066028613879,-2.4085957650461691,0.25365899860246527,1.7427787905124066,-0.93860559060719806,1.9456946745975954,-2.5252730797795575,0.48939525431590192,-0.48939525431590192,2.5252730797795575,3.8292374319239495,0.0
769640.0783812654,4085767.5119837918,-37500.0,0.041478028982164301,-0.54483601701737294,-2.2992192723811904,0.44569076909647004,1.7029239513533494,-0.93905443030339508,1.9245394567259022,-2.591511846411398,0.72905494007694971,-0.72905494007694971,2.591511846411398,3.7856951372956043,0.0
774640.0783812654,4085767.5119837918,-37500.0,-0.14436311222439166,-0.75665548799946014,-2.1160266815863564,0.59868495663433741,1.6069747210334049,-0.90623566952390688,1.8715065635939512,-2.5412073352121514,0.89666603225717445,-0.89666603225717445,2.5412073352121514,3.6750112292579762,0.0
779640.0783812654,4085767.5119837918,-37500.0,-0.3331611905856704,-0.89962736716666303,-1.8871166068987368,0.70864563734754227,1.472789695396489,-0.84926604894192992,1.7901580856128214,-2.4006951967610806,0.99352270313104507,-0.99352270313104507,2.4006951967610806,3.5101268208625287,0.0
784640.0783812654,4085767.5119837918,-37500.0,-0.50792451302241171,-0.97804548687471504,-1.6374858705848632,0.77675393746006471,1.3169640660996209,-0.77694520283804691,1.6873249769199388,-2.1982533372062125,1.0278572647297421,-1.0278572647297421,2.1982533372062125,3.3056538887044349,0.0
789640.0783812654,4085767.5119837918,-37500.0,-0.65711652958527378,-1.0013092018985619,-1.3869661589668241,0.80772004500057615,1.1533102771525252,-0.69686947731849558,1.5704116886303385,-1.9601279674231598,1.0117415441988915,-1.0117415441988915,1.9601279674231598,3.0758277352700132,0.0
794640.0783812654,4085767.5119837918,-37500.0,-0.77458523749454167,-0.98118445370075391,-1.1496322762588982,0.8081493865635706,0.99224891158450101,-0.61501351727156228,1.4461459804300245,-1.7081791267786364,0.95842502485079084,-0.95842502485079084,1.7081791267786364,2.833218860854954,0.0
799640.0783812654,4085767.5119837918,-37500.0,-0.85867456294320299,-0.92968532464026354,-0.93422913924826223,0.78521133310849334,0.84087211686479657,-0.53567446575813338,1.3200763597702656,-1.4589646198816841,0.88043877024989925,-0.88043877024989925,1.4589646198816841,2.5880986002302993,0.0
679640.0783812654,4090767.5119837918,-37500.0,0.14230325146659306,-0.67865924691996071,1.3098310060048632,0.51839470751051087,-0.98353771573565452,0.58233589824945153,1.2654208064794805,0.87222488848553659,0.51384640934926806,-0.51384640934926806,-0.87222488848553659,2.4764840224132554,0.0
684640.0783812654,4090767.5119837918,-37500.0,-0.0011677220100108309,-0.5906124028907751,1.4278210242990388,0.4607172588649206,-1.0603589305282983,0.62681802664408104,1.320507020366761,1.0544303133152331,0.4024725494862762,-0.4024725494862762,-1.0544303133152331,2.5681362432254256,0.0
689640.0783812654,4090767.5119837918,-37500.0,-0.15169257323458946,-0.46219998160905129,1.5218045397762598,0.37816695761294472,-1.1199290161521096,0.66243537299789224,1.3650186956283552,1.2388741322779258,0.25470498221783267,-0.25470498221783267,-1.2388741322779258,2.6331722975525298,0.0
694640.0783812654,4090767.5119837918,-37500.0,-0.29929006565134952,-0.29173056578830459,1.5774571229033554,0.26999604944078781,-1.1531242627184728,0.68441545615673383,1.3964254912820937,1.412143427052444,0.071266033045509158,-0.071266033045509158,-1.412143427052444,2.6658564207325752,0.0
699640.0783812654,4090767.5119837918,-37500.0,-0.4314256373899949,-0.081648605375105252,1.5789616311735564,0.13793685390694665,-1.1500140034369419,0.68753546402481203,1.4130384846790083,1.5566965097234835,-0.14288883097476468,0.14288883097476468,-1.5566965097234835,2.6624916148899329,0.0
704640.0783812654,4090767.5119837918,-37500.0,-0.53413344508044469,0.16014097303442912,1.5107115589263567,-0.013057098463976943,-1.1009146055737136,0.66664618546969745,1.4147102526506508,1.6517440770718559,-0.37759294058440274,0.37759294058440274,-1.6517440770718559,2.6232308984538193,0.0
709640.0783812654,4090767.5119837918,-37500.0,-0.59394205506446573,0.41948441058300517,1.359781722347619,-0.17438575323524622,-0.9978849704973759,0.61742138000547919,1.403594816258279,1.675234809741911,-0.61712782242288655,0.61712782242288655,-1.675234809741911,2.5542561249922655,0.0
714640.0783812654,4090767.5119837918,-37500.0,-0.600451008866836,0.6762111814777082,1.1189107431507808,-0.33396129353029441,-0.83650835079710528,0.53725923429035893,1.3847288279491536,1.606991222276752,-0.84093430053709772,0.84093430053709772,-1.606991222276752,2.4698315206058781,0.0
719640.0783812654,4090767.5119837918,-37500.0,-0.54909687809087704,0.90578225335692097,0.78943096407764024,-0.47716769124171765,-0.61763015323031734,0.42617598733242057,1.3659903371899309,1.4326783477631204,-1.0256544171564601,1.0256544171564601,-1.4326783477631204,2.3929430768266338,0.0
724640.0783812654,4090767.5119837918,-37500.0,-0.44336743088530978,1.0824471264502233,0.38332879072254344,-0.58866932992362697,-0.34858061757522768,0.2874600875014387,1.3568533010167512,1.1478479772520827,-1.1484563812538029,1.1484563812538029,-1.1478479772520827,2.3521391501910087,0.0
729640.0783812654,4090767.5119837918,-37500.0,-0.29562900983730062,1.1835132718395116,-0.076421966075594872,-0.65484846615769843,-0.043390270622362823,0.12784049662731672,1.3656610355221708,0.76095687900944098,-1.1911286827318306,1.1911286827318306,-0.76095687900944098,2.372506972341053,0.0
734640.0783812654,4090767.5119837918,-37500.0,-0.1259629444321074,1.1938119661118973,-0.55781436015583497,-0.66636587785291845,0.27832641903571276,-0.04300093642375951,1.3962453249810252,0.29422875915774049,-1.1439900882182896,1.1439900882182896,-0.29422875915774049,2.4635936897225394,0.0
739640.0783812654,4090767.5119837918,-37500.0,0.041029521975936407,1.1091379643821111,-1.0239883006478103,-0.62016797503463184,0.59379368342523964,-0.21357625501376165,1.4459028621940617,-0.21834316987096181,-1.0084760358642311,1.0084760358642311,0.21834316987096181,2.6134433633139338,0.0
744640.0783812654,4090767.5119837918,-37500.0,0.18077817276947597,0.93756672768151927,-1.4388231299712453,-0.52032523699764832,0.88035301659334553,-0.37219273802128933,1.5062425050675823,-0.7357317586253963,-0.79750237655199718,0.79750237655199718,0.7357317586253963,2.7942201533410076,0.0
749640.0783812654,4090767.5119837918,-37500.0,0.27342779065244466,0.69814096475614207,-1.772576599626388,-0.37740009236337396,1.1188273581574699,-0.50864142270871227,1.5662643804889138,-1.216312178683975,-0.53334827678482977,0.53334827678482977,1.216312178683975,2.9736287691527981,0.0
754640.0783812654,4090767.5119837918,-37500.0,0.30733743508139372,0.41725828783175567,-2.0061309841594221,-0.20649859368914211,1.296142875407692,-0.61556512548670739,1.6157704142313722,-1.6243622170286844,-0.24360002228217248,0.24360002228217248,1.6243622170286844,3.1239361132243042,0.0
759640.0783812654,4090767.5119837918,-37500.0,0.28050134514022118,0.12381083155264991,-2.132867466185504,-0.024561569284134856,1.4066213943847579,-0.68920316200522524,1.6478869640090164,-1.9349948588338668,0.043702483663894731,-0.043702483663894731,1.9349948588338668,3.2261385054613307,0.0
764640.0783812654,4090767.5119837918,-37500.0,0.19973592976156254,-0.15558177179473145,-2.1579765693646857,0.15237089227183023,1.451788954406561,-0.72941274766107278,1.6601857804441822,-2.1364872684533038,0.30442792696618848,-0.30442792696618848,2.1364872684533038,3.2705964711313125,0.0
769640.0783812654,4090767.5119837918,-37500.0,0.078181456767356106,-0.40012475943857628,-2.0957659783905602,0.31128510998593134,1.4389756423226028,-0.73907707858774907,1.6516407786506182,-2.2298550141465454,0.52126269702645767,-0.52126269702645767,2.2298550141465454,3.2557993325267676,0.0
774640.0783812654,4090767.5119837918,-37500.0,-0.067947073509322942,-0.59662219456328058,-1.9659595511896575,0.44336227424142466,1.3792457465355579,-0.72314713044778722,1.6192916323370172,-2.2263002282631446,0.6847964966351856,-0.6847964966351856,2.2263002282631446,3.1863304179578935,0.0
779640.0783812654,4090767.5119837918,-37500.0,-0.22243807305731131,-0.73951725610120733,-1.7900013623251645,0.54417312159362274,1.2852352895594177,-0.68759482725757159,1.563493338490616,-2.1435669563008064,0.79298734482043631,-0.79298734482043631,2.1435669563008064,3.0706648374244483,0.0
784640.0783812654,4090767.5119837918,-37500.0,-0.37136820518871361,-0.82966926078794623,-1.588092267756368,0.61312656621503148,1.1693346981417858,-0.63849825815686445,1.4884080439375207,-2.0022229415567572,0.8495617279431894,-0.8495617279431894,2.0022229415567572,2.9191795184038898,0.0
789640.0783812654,4090767.5119837918,-37500.0,-0.50436212761057797,-0.87249221568089053,-1.3772875243493179,0.65250287289829911,1.0424396571679635,-0.58138122984257812,1.3994345251851452,-1.8225898419340978,0.8619862848590033,-0.8619862848590033,1.8225898419340978,2.7425805499948428,0.0
794640.0783812654,4090767.5119837918,-37500.0,-0.61491362754197842,-0.87600747364731324,-1.1706339392921357,0.66637910188857996,0.91329300050759588,-0.52083251332300351,1.3018571466382318,-1.6226518035847679,0.83952447289366638,-0.83952447289366638,1.6226518035847679,2.5508081122177311,0.0
689640.0783812654,4095767.5119837918,-37500.0,-0.18117912745002174,-0.35230454422284363,1.4016968438593471,0.2733717775676926,-0.96135302558493996,0.53172044801871243,1.1916277709314917,1.1396664399533518,0.19855309122460679,-0.19855309122460679,-1.1396664399533518,2.2922568177762459,0.0
694640.0783812654,4095767.5119837918,-37500.0,-0.29882166624482293,-0.19611698183520812,1.4314418415885179,0.17941724031918216,-0.97677766410191535,0.5425723664696408,1.212202126516509,1.275712439260599,0.035132871079719075,-0.035132871079719075,-1.275712439260599,2.3065479400267335,0.0
699640.0783812654,4095767.5119837918,-37500.0,-0.40025267499783018,-0.010407784694666352,1.4122695345705065,0.068715366580682058,-0.96154947525436196,0.53842334384484636,1.2208841022165675,1.3832682424678366,-0.15104512684565274,0.15104512684565274,-1.3832682424678366,2.291986223264181,0.0
704640.0783812654,4095767.5119837918,-37500.0,-0.47502804190383657,0.19714541417696543,1.3327267247078247,-0.054217327635423647,-0.90899134615434452,0.515918755056468,1.2181127082254164,1.4462086032950805,-0.35098772297393743,0.35098772297393743,-1.4462086032950805,2.2500616338093464,0.0
709640.0783812654,4095767.5119837918,-37500.0,-0.5136458629555104,0.41433879202112145,1.1840516602595283,-0.18236794871577428,-0.81404357799102933,0.47243694171301859,1.2061318938888705,1.4481666623544371,-0.55174384526372344,0.55174384526372344,-1.4481666623544371,2.1870689960092715,0.0
714640.0783812654,4095767.5119837918,-37500.0,-0.50936894565271207,0.6248924892341734,0.96228313931463694,-0.306489476027341,-0.67445099432645939,0.40665666851327054,1.1892981152939908,1.3748740074659926,-0.73713197487473336,0.73713197487473336,-1.3748740074659926,2.1153542202950981,0.0
719640.0783812654,4095767.5119837918,-37500.0,-0.46004156945253649,0.80986723058290799,0.67018583713376023,-0.41588040232382278,-0.49184070672633984,0.31908197760349338,1.1738859689424486,1.2169269836950849,-0.88935491366949071,0.88935491366949071,-1.2169269836950849,2.0533160665574264,0.0
724640.0783812654,4095767.5119837918,-37500.0,-0.36941512947199184,0.95003015459706763,0.31845399735719493,-0.4996706219510334,-0.27239781672672309,0.21238832196408533,1.1670352243530182,0.97244587971169505,-0.99140812286525648,0.99140812286525648,-0.97244587971169505,2.0225578722371771,0.0
729640.0783812654,4095767.5119837918,-37500.0,-0.24748447077956001,1.0288474927029396,-0.074322784150817195,-0.54844371284477078,-0.026858693499776737,0.091456951083305343,1.1747541690258321,0.64892443522510634,-1.0299043539726567,1.0299043539726567,-0.64892443522510634,2.0411496185586708,0.0
734640.0783812654,4095767.5119837918,-37500.0,-0.10951414382193218,1.0354879983797844,-0.48322665642106766,-0.55587245371738547,0.23034030868200375,-0.036983861969175649,1.199627423675518,0.26359848654759432,-0.99769336046179824,0.99769336046179824,-0.26359848654759432,2.1153926042018201,0.0
739640.0783812654,4095767.5119837918,-37500.0,0.026213417368273997,0.96707306416514516,-0.88001149945840218,-0.51996579004044763,0.4827104923817227,-0.16509725180254053,1.2395357884072413,-0.15804733472634136,-0.89557307228200855,0.89557307228200855,0.15804733472634136,2.2361317800754472,0.0
744640.0783812654,4095767.5119837918,-37500.0,0.14147885997773801,0.82951463082279175,-1.2369885962434564,-0.44357594345833201,0.71386697873528937,-0.28493152165950431,1.2882793746920205,-0.58551759675628912,-0.7325506674267166,0.7325506674267166,0.58551759675628912,2.3827685826418743,0.0
749640.0783812654,4095767.5119837918,-37500.0,0.22128010241161725,0.63664539523009822,-1.5309349963842511,-0.33399880703994117,0.90973226965703813,-0.38946138874554759,1.3376625920536207,-0.98763864967638471,-0.5244974446838202,0.5244974446838202,0.98763864967638471,2.5311200196126258,0.0
754640.0783812654,4095767.5119837918,-37500.0,0.25625307543177384,0.40783797121642262,-1.746117935060497,-0.20175446003705214,1.0602937509191921,-0.47344796702761144,1.379828640458987,-1.3369855242102848,-0.29150821956540673,0.29150821956540673,1.3369855242102848,2.6598119472486523,0.0
759640.0783812654,4095767.5119837918,-37500.0,0.24379102048949378,0.16474537490705138,-1.8757981464752111,-0.058865330293322422,1.1605555234580747,-0.53394330597502371,1.409049920510288,-1.6133897567014044,-0.054646474051188831,0.054646474051188831,1.6133897567014044,2.7534591938510951,0.0
764640.0783812654,4095767.5119837918,-37500.0,0.18771726838278896,-0.07201299605262404,-1.9220324992253504,0.082941053423029321,1.2105624886613504,-0.57037041804940891,1.4229043190529436,-1.8058364271036731,0.16712845478084992,-0.16712845478084992,1.8058364271036731,2.8033810994329467,0.0
769640.0783812654,4095767.5119837918,-37500.0,0.096790446622826112,-0.28548732044895675,-1.8940625305240673,0.21371269625972786,1.2146251016929703,-0.5842244009813129,1.4215532450506827,-1.9125664012883288,0.35920672546693844,-0.35920672546693844,1.9125664012883288,2.8069462330912502,0.0
774640.0783812654,4095767.5119837918,-37500.0,-0.017414432959739757,-0.46392834136010369,-1.8058755987377897,0.32619423816134041,1.1800430728390849,-0.57852218227998919,1.4030909337593185,-1.9396819165455872,0.51242826675117403,-0.51242826675117403,1.9396819165455872,2.7662822253728807,0.0
779640.0783812654,4095767.5119837918,-37500.0,-0.14266378577124336,-0.60115252059709312,-1.6735917602193724,0.41613290815521076,1.1156763156743221,-0.55715737944425103,1.3658229313394892,-1.8988485719524395,0.62307189432633003,-0.62307189432633003,1.8988485719524395,2.6867897832245853,0.0
784640.0783812654,4095767.5119837918,-37500.0,-0.26781691948091196,-0.69596960028185229,-1.5131990039597107,0.48206848736109581,1.0306547813698259,-0.52429679615965896,1.3117658059361577,-1.8047429214505328,0.69201880155851914,-0.69201880155851914,1.8047429214505328,2.5757294089611973,0.0
789640.0783812654,4095767.5119837918,-37500.0,-0.38394844149098739,-0.75104320254118007,-1.3389308519953358,0.52478977105011504,0.93340485185865796,-0.48390666020138529,1.2446979760029648,-1.6727640879940848,0.72347696327490629,-0.72347696327490629,1.6727640879940848,2.4410385390798233,0.0
699640.0783812654,4100767.5119837918,-37500.0,-0.3663984778750265,0.043203618377456759,1.2542355082731256,0.020549861885401761,-0.80242695361512872,0.42263678282248246,1.0572321253656414,1.2244763117921496,-0.15618329059868719,0.15618329059868719,-1.2244763117921496,1.9770754654246747,0.0
704640.0783812654,4100767.5119837918,-37500.0,-0.42017172416328569,0.22046113901259937,1.168758910034196,-0.079329982125150786,-0.74976180636819323,0.40053332256825608,1.0518464650290578,1.2634241976925975,-0.32635496765908095,0.32635496765908095,-1.2634241976925975,1.9352858502379506,0.0
709640.0783812654,4100767.5119837918,-37500.0,-0.44376568567605562,0.4019595558039199,1.0258573877668264,-0.1812153486575975,-0.66384189750545641,0.36287578035423379,1.0399370309788969,1.2508048537947041,-0.49475995742331702,0.49475995742331702,-1.2508048537947041,1.878907442681987,0.0
714640.0783812654,4100767.5119837918,-37500.0,-0.43291664405875518,0.57465921422634303,0.82373713933160109,-0.27806194417460217,-0.54371947755235184,0.30907066744226408,1.0252090685202542,1.176578219626399,-0.64867432433400185,0.64867432433400185,-1.176578219626399,1.818474724103146,0.0
719640.0783812654,4100767.5119837918,-37500.0,-0.38691510604089763,0.7239567184982153,0.56582328267114468,-0.3620161280189943,-0.39129908460901136,0.23979544884758122,1.0126468359236269,1.034667936789992,-0.77449504755319876,0.77449504755319876,-1.034667936789992,1.7686823612910889,0.0
724640.0783812654,4100767.5119837918,-37500.0,-0.30938754925465012,0.83544163047036546,0.2614375709512019,-0.4253238828264968,-0.21169877415446647,0.15717749443859311,1.0076478482922586,0.82471016027182531,-0.85948363781524362,0.85948363781524362,-0.82471016027182531,1.7459197270541225,0.0
729640.0783812654,4100767.5119837918,-37500.0,-0.20837868899987225,0.89699893325452795,-0.074404612976039217,-0.46141644497984985,-0.013150640947377494,0.064773230650927521,1.0145600005877475,0.55318378594298789,-0.89372758882865877,0.89372758882865877,-0.55318378594298789,1.7632416828531468,0.0
734640.0783812654,4100767.5119837918,-37500.0,-0.095566704648602466,0.90084459260058791,-0.42222824402795328,-0.46596632169626701,0.19363822478076456,-0.032690845732021911,1.0351168239189954,0.23352164243153462,-0.87191329606889079,0.87191329606889079,-0.23352164243153462,1.8247258218743485,0.0
739640.0783812654,4100767.5119837918,-37500.0,0.015335114965617449,0.84501224532013297,-0.76026315475689477,-0.43767216321231489,0.39661618952469968,-0.12979918372783372,1.0676261804660081,-0.11500371919580638,-0.79447048293228328,0.79447048293228328,0.11500371919580638,1.9232191208140585,0.0
744640.0783812654,4100767.5119837918,-37500.0,0.11069063811731483,0.73389077477252507,-1.0671698539009589,-0.3785690775569211,0.58382392489401269,-0.22107404429627867,1.1074399277775873,-0.4695208489985222,-0.66775809940174014,0.66775809940174014,0.4695208489985222,2.0432651331298284,0.0
749640.0783812654,4100767.5119837918,-37500.0,0.17909250984263092,0.57763685284569466,-1.3247731145910207,-0.29376972507245763,0.74485634187303906,-0.30162815512062086,1.1483905390688673,-0.80651342561854233,-0.50319459082046769,0.50319459082046769,0.80651342561854233,2.1665855064068302,0.0
754640.0783812654,4100767.5119837918,-37500.0,0.21305114772326988,0.39058455866643671,-1.5202267907818201,-0.19068794467143102,0.87205172654913277,-0.36771246692817416,1.1844113055992431,-1.1048659336124167,-0.31551702568487211,0.31551702568487211,1.1048659336124167,2.2766403400442119,0.0
759640.0783812654,4100767.5119837918,-37500.0,0.20985687710210044,0.18903683808092633,-1.6471930901610186,-0.077928856886082976,0.96118576088811436,-0.41705775567518411,1.2108064860203038,-1.3483655864437032,-0.12057991441536997,0.12057991441536997,1.3483655864437032,2.3610384238487545,0.0
764640.0783812654,4100767.5119837918,-37500.0,0.17149569872817572,-0.011049238705406358,-1.7058802800456021,0.035902403671807616,1.0115756432380909,-0.44896177615798405,1.2251668564460174,-1.5271923561147676,0.066809805062946426,-0.066809805062946426,1.5271923561147676,2.4122116688613415,0.0
769640.0783812654,4100767.5119837918,-37500.0,0.10376042848580762,-0.19600085940532427,-1.7020967599502592,0.14322881961463232,1.0256607654459353,-0.4641434160111837,1.2277802720025608,-1.6382424635320996,0.23458880095760404,-0.23458880095760404,1.6382424635320996,2.4270999637403099,0.0
774640.0783812654,4100767.5119837918,-37500.0,0.014871617519332294,-0.3556842536753978,-1.6456511763860162,0.23820286080533093,1.0082161421590288,-0.46442592484451278,1.2183377040808516,-1.6844047619751681,0.3744192220802991,-0.3744192220802991,1.6844047619751681,2.4063317789932412,0.0
779640.0783812654,4100767.5119837918,-37500.0,-0.086021100266101547,-0.48398173572909425,-1.5485256143375763,0.31702050776166008,0.96541357262257765,-0.45233997375280921,1.1943450614397004,-1.6731338198706376,0.48191958254908485,-0.48191958254908485,1.6731338198706376,2.3532226906695874,0.0
709640.0783812654,4105767.5119837918,-37500.0,-0.38343108359189609,0.38473926477862863,0.88580390470093573,-0.17445505585939039,-0.54171031463444153,0.27992890871775461,0.89990656057295815,1.0805075637742636,-0.44485547088018462,0.44485547088018462,-1.0805075637742636,1.6201145091957658,0.0
714640.0783812654,4105767.5119837918,-37500.0,-0.36886448763255203,0.52653862350047254,0.70293475474602996,-0.25030358335800507,-0.43867682272250685,0.23597658979133929,0.88720177791666588,1.0080110843787233,-0.57301298729788386,0.57301298729788386,-1.0080110843787233,1.5694950201835163,0.0
719640.0783812654,4105767.5119837918,-37500.0,-0.32678409318874313,0.64733316723849388,0.47576570393615303,-0.31506363616928251,-0.31128790714002502,0.18096154131989464,0.87703931803943336,0.88125163782234039,-0.67738672944832745,0.67738672944832745,-0.88125163782234039,1.5297114454649192,0.0
724640.0783812654,4105767.5119837918,-37500.0,-0.26050635708154973,0.73628180924516584,0.21229915822092996,-0.36316587916273191,-0.16372791227291714,0.11655294611115277,0.87351308907108605,0.70072025433073071,-0.74837387477685935,0.74837387477685935,-0.70072025433073071,1.5132298630052403,0.0
729640.0783812654,4105767.5119837918,-37500.0,-0.17649604843572134,0.78445265667653419,-0.075337580164526061,-0.38998706995278637,-0.0023286097667238456,0.045355762303727419,0.87978394849579633,0.47193273965230775,-0.77857917765942586,0.77857917765942586,-0.47193273965230775,1.5295074355608034,0.0
734640.0783812654,4105767.5119837918,-37500.0,-0.083747015812556017,0.78621380004262897,-0.37185376967290534,-0.39253934947383923,0.16490655607510202,-0.029274455179393512,0.89700439574977775,0.20541296110378809,-0.76402689802823653,0.76402689802823653,-0.20541296110378809,1.5811094306209368,0.0
739640.0783812654,4105767.5119837918,-37500.0,0.0073609242349958037,0.74022583758128446,-0.66036640133727109,-0.36997075368743854,0.32908516522150494,-0.10354851849617173,0.92380469433035772,-0.084138749636773036,-0.70493485843975356,0.70493485843975356,0.084138749636773036,1.6623575144218312,0.0
744640.0783812654,4105767.5119837918,-37500.0,0.086527975594838796,0.64978931682505336,-0.92433092195992239,-0.32375710934682139,0.48139560162236911,-0.17364525065885172,0.95665227638822348,-0.37941463652295271,-0.60584617872421742,0.60584617872421742,0.37941463652295271,1.7615013596028348,0.0
749640.0783812654,4105767.5119837918,-37500.0,0.14502073040345542,0.5224414403343185,-1.1494719715659667,-0.25753090471656614,0.61408973204842476,-0.23612717938324487,0.99085870929165387,-0.66253915227978566,-0.47505802254257828,0.47505802254257828,0.66253915227978566,1.8645943715476543,0.0
754640.0783812654,4105767.5119837918,-37500.0,0.17686157376889369,0.36887900410649571,-1.3253430902601071,-0.17657859208712601,0.72129583107930395,-0.28829431852095461,1.0217195318942225,-0.91718731604388104,-0.32345878939799766,0.32345878939799766,0.91718731604388104,1.9587719852559236,0.0
759640.0783812654,4105767.5119837918,-37500.0,0.17948423796952195,0.20144473320615056,-1.446234817955288,-0.087114582609428462,0.7995196548549065,-0.3284148979588028,1.0454198704365958,-1.1303737179443458,-0.16302472704325155,0.16302472704325155,1.1303737179443458,2.0340660033352984,0.0
764640.0783812654,4105767.5119837918,-37500.0,0.15376574068569171,0.032503421995676227,-1.5113242959786821,0.0045147275990871276,0.84777352403740303,-0.35580434167760777,1.0597008183459293,-1.293608298024727,-0.0052924709103003842,0.0052924709103003842,1.293608298024727,2.0840097988516972,0.0
769640.0783812654,4105767.5119837918,-37500.0,0.10350096646342695,-0.12698105143085681,-1.5241227651179583,0.0925469507979641,0.86735127920105415,-0.37075572176077093,1.0645076666657962,-1.4032768758895566,0.13990946838031904,-0.13990946838031904,1.4032768758895566,2.1054997217966984,0.0
729640.0783812654,4110767.5119837918,-37500.0,-0.15038754575893243,0.68820198056116977,-0.076349211220662627,-0.33113315035799906,0.0058871313092763566,0.031304603412295288,0.76603318799452103,0.40325768758628644,-0.68098993787384077,0.68098993787384077,-0.40325768758628644,1.3322758313564393,0.0
734640.0783812654,4110767.5119837918,-37500.0,-0.073717806644576764,0.68844340218467148,-0.3298131617950828,-0.33232023252391979,0.14193556240145769,-0.026343551422329664,0.78062338676761689,0.179917420774932,-0.67152097706496161,0.67152097706496161,-0.179917420774932,1.3760711297732342,0.0
739640.0783812654,4110767.5119837918,-37500.0,0.0015351307983507438,0.65023903106868541,-0.57666469512337926,-0.31412293709768968,0.27550199094286559,-0.083653718722789483,0.80295206843480948,-0.061889591118592602,-0.62616528947854433,0.62616528947854433,0.061889591118592602,1.4437700970942613,0.0
744640.0783812654,4110767.5119837918,-37500.0,0.067521670408871928,0.57610088849521912,-0.8039959737210105,-0.27762728481134979,0.40003334009014663,-0.13792778807972148,0.83030070411835144,-0.30895008942162794,-0.5482062055913367,0.5482062055913367,0.30895008942162794,1.5263312564821452,0.0
749640.0783812654,4110767.5119837918,-37500.0,0.11750813578074297,0.4716802603995281,-1.0005455211157777,-0.22544808263224225,0.50971503202784318,-0.18672151681029484,0.85906939901372825,-0.54757035223756967,-0.44373246847407505,0.44373246847407505,0.54757035223756967,1.6130127542162762,0.0
709640.0783812654,3920767.5119837918,-42500.0,0.14096436787534508,0.018023318944344186,-1.2246837870583944,-0.064484792287677006,-0.91919346749624176,-0.53573825749333248,1.0248475604474352,-0.032332131336872183,-0.7593599797265157,0.7593599797265157,0.032332131336872183,1.986701515560652,0.0
714640.0783812654,3920767.5119837918,-42500.0,0.16803992117402961,0.16245599333659208,-1.1739891704799166,0.027014894546359899,-0.88808062531595899,-0.52174374690584835,1.0126553575336086,0.063202167053781899,-0.86032717629192901,0.86032717629192901,-0.063202167053781899,1.9489896603532879,0.0
719640.0783812654,3920767.5119837918,-42500.0,0.17104947451764532,0.30731182094469556,-1.0790451738390108,0.11916276532990298,-0.82895134445982244,-0.49338910307987122,0.99080790544359898,0.16622891467538808,-0.94029581830360831,0.94029581830360831,-0.16622891467538808,1.8870628228755084,0.0
724640.0783812654,3920767.5119837918,-42500.0,0.14866440512701867,0.44273325554803383,-0.93998613181121882,0.2061980697461539,-0.7418204728664245,-0.45057944519629856,0.96107807841955273,0.27045731108540955,-0.99037349656348428,0.99037349656348428,-0.27045731108540955,1.8050955722098787,0.0
729640.0783812654,3920767.5119837918,-42500.0,0.10227954277352581,0.55863016774911278,-0.76060288076038207,0.28220372362080798,-0.62886391546849718,-0.39428023378303234,0.92621866898933303,0.36865405168509074,-1.0030271892886702,1.0030271892886702,-0.36865405168509074,1.7100275657084398,0.0
734640.0783812654,3920767.5119837918,-42500.0,0.03610595190497861,0.64590045858602241,-0.54833834510756518,0.34178664300758782,-0.4944259686465507,-0.32653216432240273,0.88983698269518385,0.45343100207363979,-0.97320404233146096,0.97320404233146096,-0.45343100207363979,1.6113743858518093,0.0
739640.0783812654,3920767.5119837918,-42500.0,-0.04320786128466602,0.6976265564715497,-0.31373733896654243,0.38074957566158629,-0.34471757363621036,-0.25031745182617149,0.85595097826756805,0.51815254587470017,-0.89921156122538581,0.89921156122538581,-0.51815254587470017,1.5203621618352641,0.0
744640.0783812654,3920767.5119837918,-42500.0,-0.12739261862789936,0.71001064740882558,-0.069400300935286263,0.39662609176945346,-0.18723055682271583,-0.16928736258702648,0.82825794137227637,0.55779555534604264,-0.78315687349021113,0.78315687349021113,-0.55779555534604264,1.4481007645627268,0.0
749640.0783812654,3920767.5119837918,-42500.0,-0.20766770407517085,0.6828540144828199,0.17139133206996376,0.38897160941830294,-0.029958185319621571,-0.087391880132594357,0.80927872191865058,0.56959103456305293,-0.6308291183701894,0.6308291183701894,-0.56959103456305293,1.4028607990468434,0.0
754640.0783812654,3920767.5119837918,-42500.0,-0.27592272590815503,0.61948583557717896,0.39613083049506376,0.35935540239085345,0.11944260265798519,-0.008474749514813841,0.79970271765650103,0.55332071398521543,-0.45103257043156714,0.45103257043156714,-0.55332071398521543,1.3874226688997848,0.0
759640.0783812654,3920767.5119837918,-42500.0,-0.32573652699973304,0.52617362457406913,0.59436163593403524,0.3110656023400391,0.25440156568660199,0.064096653183489782,0.79827353569801818,0.51122199150570258,-0.25450234865737786,0.25450234865737786,-0.51122199150570258,1.3981729832927634,0.0
764640.0783812654,3920767.5119837918,-42500.0,-0.3530504508898949,0.41116027360837842,0.75856566326748631,0.24860038404389087,0.36997948657186641,0.12770860199833189,0.80229221569456211,0.44754428031564175,-0.052620040901040444,0.052620040901040444,-0.44754428031564175,1.4267513336402222,0.0
699640.0783812654,3925767.5119837918,-42500.0,0.014165967818156782,-0.29610262710440099,-1.2910045588037762,-0.29379363798140934,-1.0348828772813921,-0.63783395322214442,1.149276342722825,-0.18426017459202987,-0.55782177513511333,0.55782177513511333,0.18426017459202987,2.2388669080268215,0.0
704640.0783812654,3925767.5119837918,-42500.0,0.092871912363183484,-0.16262973449335785,-1.3317063834597576,-0.20464462728385285,-1.0638534248270159,-0.65601466077606774,1.1645669563240448,-0.10958279429345452,-0.69342719358389548,0.69342719358389548,0.10958279429345452,2.2635685880555383,0.0
709640.0783812654,3925767.5119837918,-42500.0,0.15429106941700349,-0.0082775703714635818,-1.3316580406397391,-0.10205275273971449,-1.0652469613058269,-0.65933422267831809,1.1663578246669402,-0.016340295317518794,-0.82716063022743891,0.82716063022743891,0.016340295317518794,2.2575934550223691,0.0
714640.0783812654,3925767.5119837918,-42500.0,0.19154413626485969,0.15920023101905698,-1.2834367597290706,0.0091835643726730903,-1.0343220198258671,-0.64521337597637451,1.1547703637107174,0.091990782522558268,-0.94868986518796738,0.94868986518796738,-0.091990782522558268,2.2197485688760512,0.0
719640.0783812654,3925767.5119837918,-42500.0,0.19951928768909627,0.32928814324338385,-1.1824757240019901,0.12260945716936951,-0.96813607948813341,-0.61198965890430168,1.1308741086967415,0.20963075726207281,-1.0464543526429702,1.0464543526429702,-0.20963075726207281,2.1515597487937668,0.0
724640.0783812654,3925767.5119837918,-42500.0,0.17595728249593043,0.48956897363585422,-1.0282233408587496,0.2306181862914618,-0.86625066104912862,-0.55928641460394402,1.0968728830032277,0.32878716435485145,-1.1089352756342175,1.1089352756342175,-0.32878716435485145,2.0579179432101924,0.0
729640.0783812654,3925767.5119837918,-42500.0,0.12221877233713314,0.62709300596181061,-0.82488566398604135,0.32524971953064463,-0.73118758293371044,-0.48825940277116553,1.0562583685272371,0.44036647671279056,-1.1262193669561571,1.1262193669561571,-0.44036647671279056,1.9474364499298362,0.0
734640.0783812654,3925767.5119837918,-42500.0,0.04349386951768143,0.73006280976388971,-0.58150901546122213,0.3991746620316175,-0.56849356927057937,-0.40164751222726242,1.0136636334782305,0.53504278887727641,-1.0915826144951166,1.0915826144951166,-0.53504278887727641,1.8322434265377727,0.0
739640.0783812654,3925767.5119837918,-42500.0,-0.051679037517216905,0.7895178945060547,-0.31128094684340663,0.44668566865266307,-0.38633958103949834,-0.30358773897087787,0.9742709850072413,0.60450925390676979,-1.0027542638780831,1.0027542638780831,-0.60450925390676979,1.7267975439896821,0.0
744640.0783812654,3925767.5119837918,-42500.0,-0.15254764307254523,0.80065783072746899,-0.030109205045125584,0.46449143114931341,-0.19468558859197369,-0.19920613448018529,0.94279419088791017,0.64266231166862697,-0.86255004050812301,0.86255004050812301,-0.64266231166862697,1.645297592686797,0.0
749640.0783812654,3925767.5119837918,-42500.0,-0.2477160620770312,0.76350398944099551,0.24527470760706382,0.45214022281577504,-0.0041498815956441445,-0.09405101785206163,0.92228642642930991,0.64646127670206199,-0.67869339586879496,0.67869339586879496,-0.64646127670206199,1.5978286609886516,0.0
754640.0783812654,3925767.5119837918,-42500.0,-0.32681118777907342,0.68275767627852746,0.49931555625502144,0.4119858012381698,0.17520309827190755,0.0065262038480160753,0.91327980414003918,0.61627760612209859,-0.46283939516760919,0.46283939516760919,-0.61627760612209859,1.5868143217166215,0.0
759640.0783812654,3925767.5119837918,-42500.0,-0.38188591358112806,0.5669135514638185,0.71934739566781547,0.34872009679398225,0.33492727967323682,0.09792725865327355,0.91374849424831095,0.55567665144011069,-0.22901178378063369,0.22901178378063369,-0.55567665144011069,1.6062590464803648,0.0
764640.0783812654,3925767.5119837918,-42500.0,-0.40828929943168141,0.42686239881716975,0.89672176681452187,0.26859692336976326,0.46893132114264019,0.17670666980699792,0.91993422017038173,0.47071541679084211,0.0082071636958800931,-0.0082071636958800931,-0.47071541679084211,1.6445683779135949,0.0
769640.0783812654,3925767.5119837918,-42500.0,-0.40489267248193761,0.27430996306844452,1.0272185039049988,0.17852693468648659,0.57379826571593018,0.24076546169251636,0.92755212263141673,0.36894453843257152,0.23537082291515948,-0.23537082291515948,-0.36894453843257152,1.6888603949524548,0.0
774640.0783812654,3925767.5119837918,-42500.0,-0.37372752364857842,0.12032911845181349,1.1107818599008057,0.08522436128121838,0.64870086084706724,0.28933965158959291,0.93280577170359569,0.25834141941570438,0.44146012357493286,-0.44146012357493286,-0.25834141941570438,1.7282251101232662,0.0
689640.0783812654,3930767.5119837918,-42500.0,-0.22517756861552773,-0.56108518833774756,-1.1578749193467426,-0.51969565596058842,-1.0222884766921252,-0.67907500512765662,1.2083680817798053,-0.27363921556226306,-0.30487558458345382,0.30487558458345382,0.27363921556226306,2.3542557153623331,0.0
694640.0783812654,3930767.5119837918,-42500.0,-0.11770816065047077,-0.47943583373369186,-1.2735409173589545,-0.46070537753855134,-1.1087600725568163,-0.73213002241734049,1.2601022675564728,-0.23743308590732798,-0.43485015916094599,0.43485015916094599,0.23743308590732798,2.4530931204503035,0.0
699640.0783812654,3930767.5119837918,-42500.0,-0.01053525724003198,-0.36426993050713535,-1.3664807608133691,-0.3789107310437731,-1.1779712580665842,-0.77524594643654565,1.2989464156955324,-0.17893623174049805,-0.58173863710919305,0.58173863710919305,0.17893623174049805,2.5254922795150234,0.0
704640.0783812654,3930767.5119837918,-42500.0,0.087424515231276645,-0.21669654665347102,-1.4250645286280019,-0.27516786256687192,-1.2219579498365514,-0.8039122846482375,1.3225168921603609,-0.096966254932383589,-0.73907237463909903,0.73907237463909903,0.096966254932383589,2.5654502890676287,0.0
709640.0783812654,3930767.5119837918,-42500.0,0.16640607499536789,-0.041532916400490186,-1.4376783851913995,-0.1526961697665839,-1.232837281474692,-0.81364649639498632,1.3293755462947827,0.0073955083809313371,-0.89711854643325495,0.89711854643325495,-0.0073955083809313371,2.5683242583770922,0.0
714640.0783812654,3930767.5119837918,-42500.0,0.21708465230562807,0.15228969406146356,-1.3942842339467076,-0.017317393523487632,-1.2038223266875652,-0.80054627464823946,1.3193035561832116,0.13023828641550295,-1.0431929115764138,1.0431929115764138,-0.13023828641550295,2.5318657724088038,0.0
719640.0783812654,3930767.5119837918,-42500.0,0.23216696125687225,0.35196283100181114,-1.2882051657630897,0.1226982532328692,-1.130372392846281,-0.76191867991121343,1.2934622284060857,0.26460903816509479,-1.1626454644432684,1.1626454644432684,-0.26460903816509479,2.4573117206979953,0.0
724640.0783812654,3930767.5119837918,-42500.0,0.20798628173756989,0.5418386153194158,-1.1178036018937871,0.25727234633580548,-1.0112709109338325,-0.69687609702629716,1.2545886487944977,0.40082840443500645,-1.2405264381348018,1.2405264381348018,-0.40082840443500645,2.3503570694304554,0.0
729640.0783812654,3930767.5119837918,-42500.0,0.14570183505433548,0.70524528661807284,-0.88763464221989063,0.37563102898104289,-0.84937231015257619,-0.60676079772589175,1.2071551901286399,0.52741638600982022,-1.2637413989713688,1.2637413989713688,-0.52741638600982022,2.2217438914535839,0.0
734640.0783812654,3930767.5119837918,-42500.0,0.051713452610989412,0.82682254337432992,-0.60868812816426865,0.4677381472232528,-0.65177820768794503,-0.49526817203707496,1.1571763696585293,0.63255098571432855,-1.223301550368513,1.223301550368513,-0.63255098571432855,2.0870504521622699,0.0
739640.0783812654,3930767.5119837918,-42500.0,-0.062943296129420651,0.89491007540273204,-0.29750551953950621,0.52577273662698176,-0.42930740194043104,-0.36819168470718139,1.1113996024719934,0.7058072413098988,-1.1161522554833287,1.1161522554833287,-0.7058072413098988,1.9650480532695462,0.0
744640.0783812654,3930767.5119837918,-42500.0,-0.18418664451711342,0.90343392623300123,0.025761112941178846,0.54532005924444693,-0.19529425461199765,-0.23280156243945144,1.0758678646085744,0.73979891784860519,-0.94609269821601683,0.94609269821601683,-0.73979891784860519,1.8739712057569005,0.0
749640.0783812654,3930767.5119837918,-42500.0,-0.29713392106356257,0.85282390146909426,0.33998318376099484,0.52599287467942635,0.036068137273595001,-0.096965838853846423,1.0542433384015788,0.73133150868831598,-0.72350024383490019,0.72350024383490019,-0.73133150868831598,1.8260035658098936,0.0
754640.0783812654,3930767.5119837918,-42500.0,-0.38847221068082843,0.74974657556794655,0.62581757501208723,0.47134341613747255,0.25149722266437802,0.03180774577013154,1.0466880370967948,0.68179274742126617,-0.46388752548325796,0.46388752548325796,-0.68179274742126617,1.8225639999065693,0.0
759640.0783812654,3930767.5119837918,-42500.0,-0.44839867121022109,0.60576196757191192,0.86800877621303629,0.3881153141935087,0.44013854217830944,0.14721475877452536,1.0500093815435891,0.59671642706500561,-0.18563286404728174,0.18563286404728174,-0.59671642706500561,1.8540558122476469,0.0
764640.0783812654,3930767.5119837918,-42500.0,-0.47173144478080292,0.43528519172928848,1.0568024747118456,0.2850487750699191,0.59455568634108225,0.24472978294015735,1.0589959317447555,0.48467681707983462,0.092580771655229654,-0.092580771655229654,-0.48467681707983462,1.9045379346966786,0.0
769640.0783812654,3930767.5119837918,-42500.0,-0.45805741314295534,0.25336301875583289,1.1883111746086321,0.1715360132653139,0.71107531509605415,0.3218434403208203,1.0681222125953251,0.35582305808820525,0.35406799799500255,-0.35406799799500255,-0.35582305808820525,1.9576790293207429,0.0
774640.0783812654,3930767.5119837918,-42500.0,-0.41104777974661183,0.073735132653574634,1.2639449117021546,0.056409706023853652,0.78953601270793139,0.37797706302520784,1.0728245523365803,0.22040189291944029,0.58578042348161641,-0.58578042348161641,-0.22040189291944029,2.0006269002878065,0.0
779640.0783812654,3930767.5119837918,-42500.0,-0.33724662856553028,-0.092513426715479463,1.2892062999543152,-0.052941089181398462,0.83260942272817906,0.4141569373712643,1.0700792054979327,0.087550564299225253,0.77910929831075904,-0.77910929831075904,-0.087550564299225253,2.0252490584768759,0.0
784640.0783812654,3930767.5119837918,-42500.0,-0.24468573186245393,-0.23760764321412231,1.2722122329280519,-0.1510510184009777,0.84490998375470538,0.43255944469232721,1.058426975317158,-0.035484598843705195,0.92990010873380036,-0.92990010873380036,0.035484598843705195,2.0277496599774141,0.0
684640.0783812654,3935767.5119837918,-42500.0,-0.41522630126022869,-0.6851615104419484,-1.0245502099749499,-0.67202087564538504,-1.0105949928634883,-0.73023709930269454,1.2690431499769379,-0.27833783753774471,-0.17441163180921487,0.17441163180921487,0.27833783753774471,2.4709604599728561,0.0
689640.0783812654,3935767.5119837918,-42500.0,-0.30129327968652669,-0.64217768383470586,-1.1727324426627619,-0.63784074614710451,-1.1306299341704689,-0.80851074846479476,1.3471993609780306,-0.26367271678885257,-0.29151797618834235,0.29151797618834235,0.26367271678885257,2.6205605771042308,0.0
694640.0783812654,3935767.5119837918,-42500.0,-0.17562376393457918,-0.56206911701910678,-1.3112513444088907,-0.57655138688550511,-1.2415844028077656,-0.88108443958805016,1.4146889915490357,-0.22715467119327409,-0.43434790658545624,0.43434790658545624,0.22715467119327409,2.7487777713341117,0.0
699640.0783812654,3935767.5119837918,-42500.0,-0.046615524877400602,-0.44132956814937752,-1.427745898628447,-0.48591954163261419,-1.3342725432063207,-0.94241314956047395,1.4675550834109423,-0.16502692700037325,-0.59989520243388084,0.59989520243388084,0.16502692700037325,2.8471528954649754,0.0
704640.0783812654,3935767.5119837918,-42500.0,0.074748523605622189,-0.27988447778561099,-1.5079356456197663,-0.3660687611036994,-1.3982539300358903,-0.98620209987174723,1.5022981794284009,-0.075273159294932335,-0.78128008140527028,0.78128008140527028,0.075273159294932335,2.9075286385060148,0.0
709640.0783812654,3935767.5119837918,-42500.0,0.17585502234319106,-0.082339286892822286,-1.5369659441080123,-0.22028300753045041,-1.4227889253938257,-1.005958478449825,1.5164819009986494,0.041375102884700921,-0.96724431417783019,0.96724431417783019,-0.041375102884700921,2.9232006319385766,0.0
714640.0783812654,3935767.5119837918,-42500.0,0.24412017032625141,0.14122724383578061,-1.5014079575570369,-0.05550857484565537,-1.398225035571055,-0.99579289022109674,1.5092684390563749,0.1805819412682923,-1.1423331899261189,1.1423331899261189,-0.1805819412682923,2.8903509265786314,0.0
719640.0783812654,3935767.5119837918,-42500.0,0.26919491202985535,0.37532172446456724,-1.3916932358678702,0.11769531354727278,-1.3176632580636478,-0.95138669795167141,1.4817874087093952,0.33399573366833585,-1.2880291368761776,1.2880291368761776,-0.33399573366833585,2.8096235535926972,0.0
724640.0783812654,3935767.5119837918,-42500.0,0.24530567119456889,0.60024443908432568,-1.2045287488828076,0.28594342974775799,-1.1786028287914871,-0.870956056232567,1.4374109846004972,0.48956664538078942,-1.38491618817115,1.38491618817115,-0.48956664538078942,2.6875919323121606,0.0
729640.0783812654,3935767.5119837918,-42500.0,0.1731247892170191,0.79448456833769643,-0.94467119376161768,0.43457231398402141,-0.98415679463253758,-0.75598178474716804,1.3819162023701184,0.6327486305588057,-1.4156496785680674,1.4156496785680674,-0.6327486305588057,2.5377205430659804,0.0
734640.0783812654,3935767.5119837918,-42500.0,0.060538683882775397,0.93796695932639895,-0.62544729566398427,0.54974074949119545,-0.74343581109996937,-0.6114741196738479,1.3231982415481713,0.7485012000069845,-1.3681679516383847,1.3681679516383847,-0.7485012000069845,2.3801822938502144,0.0
739640.0783812654,3935767.5119837918,-42500.0,-0.078099605986187995,1.015460093512726,-0.26764880535329444,0.62065286857393798,-0.47085236713036488,-0.44562428913156221,1.270129073317162,0.82372329189919546,-1.2383554130373942,1.2383554130373942,-0.82372329189919546,2.2395429648744329,0.0
744640.0783812654,3935767.5119837918,-42500.0,-0.22421737857245561,1.0192846042491319,0.10313247180659392,0.64136335327149352,-0.18437664702614609,-0.26884921350288199,1.230491491653511,0.84954293769064426,-1.0313869811658583,1.0313869811658583,-0.84954293769064426,2.1393009511898424,0.0
749640.0783812654,3935767.5119837918,-42500.0,-0.3582652042010418,0.95058827805390866,0.46018497571178407,0.61169499004636274,0.096915089770941598,-0.092410407619507404,1.2085996033041022,0.82286181578996198,-0.76129703230215873,0.76129703230215873,-0.82286181578996198,2.0939184972944327,0.0
754640.0783812654,3935767.5119837918,-42500.0,-0.46311763565263508,0.81885972246814365,0.77950685159317334,0.53704308543863399,0.35544388012013028,0.073086016834831791,1.2038723148582018,0.7467501886774508,-0.44882653421783569,0.44882653421783569,-0.7467501886774508,2.1026627885495479,0.0
759640.0783812654,3935767.5119837918,-42500.0,-0.52676276588677395,0.63987869951998022,1.0428940291765951,0.42716524610795131,0.57729814567467441,0.21897637906390241,1.2113607097671091,0.62963278926632604,-0.11810583880948478,0.11810583880948478,-0.62963278926632604,2.1505717728380036,0.0
764640.0783812654,3935767.5119837918,-42500.0,-0.54369040931416091,0.43273017332036628,1.2396723129243352,0.29432791510653283,0.75354832219659729,0.33936447500467931,1.2238817008455418,0.4835571213971947,0.20697647275657355,-0.20697647275657355,-0.4835571213971947,2.2159692147227203,0.0
769640.0783812654,3935767.5119837918,-42500.0,-0.51483612890491592,0.21668165949893056,1.3669006145639957,0.15130282932936445,0.88055992691413987,0.43138559590721942,1.2343908160443655,0.32205271600339219,0.50588409418211944,-0.50588409418211944,-0.32205271600339219,2.2784679841990019,0.0
774640.0783812654,3935767.5119837918,-42500.0,-0.44635733320892246,0.0086144993015911282,1.4282925458614986,0.0096555427396672194,0.9594319197846235,0.49496415072801153,1.2375265973206968,0.15811099638805615,0.76346281766996671,-0.76346281766996671,-0.15811099638805615,2.3233125580961942,0.0
779640.0783812654,3935767.5119837918,-42500.0,-0.34775948639682536,-0.17859372461522469,1.4323566377052908,-0.12140171057089508,0.99486297377850852,0.53222366319930492,1.2301349458413962,0.0026712423074828906,0.97071357229949706,-0.97071357229949706,-0.0026712423074828906,2.3421935992820737,0.0
784640.0783812654,3935767.5119837918,-42500.0,-0.22991843257231853,-0.33666815043157672,1.3903066111238698,-0.23552217223359814,0.99379851955489318,0.5467436170786214,1.211099788395074,-0.13621927428060843,1.1244716363039986,-1.1244716363039986,0.13621927428060843,2.3322351365267386,0.0
789640.0783812654,3935767.5119837918,-42500.0,-0.10340881983110194,-0.46169960165693424,1.3141754288195961,-0.32919178527674986,0.96415114993281437,0.54283102253846394,1.1808581099157769,-0.25360434428788281,1.2263492412899404,-1.2263492412899404,0.25360434428788281,2.2944357030077569,0.0
794640.0783812654,3935767.5119837918,-42500.0,0.02264915791081866,-0.55337327010773896,1.2153857203102971,-0.40132588183836221,0.91377888072615165,0.52491810800147209,1.1408555939426219,-0.34733621261027009,1.2813419374653925,-1.2813419374653925,0.34733621261027009,2.2321847843920093,0.0
674640.0783812654,3940767.5119837918,-42500.0,-0.70493399571921567,-0.72555421037143308,-0.67769979184045182,-0.78470370948577639,-0.80654313628227459,-0.65606556363924906,1.1894875358976245,-0.22987984784297083,0.0089694947589733093,-0.0089694947589733093,0.22987984784297083,2.3194613375372009,0.0
679640.0783812654,3940767.5119837918,-42500.0,-0.62739838407388471,-0.75427588208878715,-0.82912372826126368,-0.80621879718780665,-0.94455439394414864,-0.7536846268361177,1.2956196713713664,-0.24852862551917371,-0.056090497045623799,0.056090497045623799,0.24852862551917371,2.5227916618080228,0.0
684640.0783812654,3940767.5119837918,-42500.0,-0.52401198699892004,-0.75673200209684455,-0.99253587533429843,-0.80625978419929545,-1.0904050028787371,-0.85618894508543952,1.3998390593362617,-0.25437541148975307,-0.14821479891890066,0.14821479891890066,0.25437541148975307,2.7219968817320708,0.0
689640.0783812654,3940767.5119837918,-42500.0,-0.39689749480653591,-0.72441484858492633,-1.1608424932512829,-0.77862895857794168,-1.2379699538079256,-0.9595431543792331,1.497946753141153,-0.24186190702226529,-0.27090409443067276,0.27090409443067276,0.24186190702226529,2.9088108162805293,0.0
694640.0783812654,3940767.5119837918,-42500.0,-0.25159572151427168,-0.64937972224506246,-1.3234344432900169,-0.71765216349814687,-1.3784880646532029,-1.0580429862167109,1.5850366394067823,-0.20525352960754106,-0.42551906144423701,0.42551906144423701,0.20525352960754106,3.0733789252790871,0.0
699640.0783812654,3940767.5119837918,-42500.0,-0.097577710598280326,-0.52575071011227659,-1.4660957881181531,-0.61924599082718967,-1.5005603322659318,-1.1443167660986402,1.6558614462944765,-0.13951448325418353,-0.60993819404180205,0.60993819404180205,0.13951448325418353,3.2047940979472642,0.0
704640.0783812654,3940767.5119837918,-42500.0,0.051850267426545263,-0.35156867421392179,-1.571594678048585,-0.48220438614387506,-1.5906510174834978,-1.2096362716492874,1.7054530436010245,-0.041510673909793461,-0.81721664456191268,0.81721664456191268,0.041510673909793461,3.2920881853299941,0.0
709640.0783812654,3940767.5119837918,-42500.0,0.18055354853189018,-0.1306722690280189,-1.6211937875473659,-0.30948994483753139,-1.6342491128438403,-1.2446332758471867,1.7299565231728096,0.088602818380771442,-1.0346214344491986,1.0346214344491986,-0.088602818380771442,3.3257349075430236,0.0
714640.0783812654,3940767.5119837918,-42500.0,0.27165246504244323,0.12589727311385374,-1.5971556159110458,-0.10918517380860164,-1.6177306062084797,-1.2404480489706415,1.7275148510868066,0.24610921503308758,-1.2435288571822243,1.2435288571822243,-0.24610921503308758,3.2996268679316518,0.0
719640.0783812654,3940767.5119837918,-42500.0,0.3105474709138113,0.399590166840536,-1.4860189574060698,0.10531266939301268,-1.5307534298902592,-1.190211040197481,1.6989976822984472,0.42100329292838196,-1.4206461402396497,1.4206461402396497,-0.42100329292838196,3.2133505956609416,0.0
724640.0783812654,3940767.5119837918,-42500.0,0.28834233371240675,0.66567522262517764,-1.2820455113930229,0.31620786804635559,-1.3687581942901237,-1.0906027725998013,1.6484942472778288,0.59826253681734309,-1.5407814847022929,1.5407814847022929,-0.59826253681734309,3.0744037947316776,0.0
729640.0783812654,3940767.5119837918,-42500.0,0.20475356793927993,0.89637173607824105,-0.98992302972930346,0.50344805023437134,-1.1349360474578238,-0.94310759738803951,1.5835144810903046,0.75940214132540573,-1.5809262797561829,1.5809262797561829,-0.75940214132540573,2.8997552892142693,0.0
734640.0783812654,3940767.5119837918,-42500.0,0.069479502653805147,1.0653700814356795,-0.62575469699316699,0.647818824857605,-0.84098721361831774,-0.75454851209148699,1.5145386721078746,0.88523528365165016,-1.5248528524991711,1.5248528524991711,-0.88523528365165016,2.7157515912374381,0.0
739640.0783812654,3940767.5119837918,-42500.0,-0.098697992914111118,1.1527204032933778,-0.21569655180423913,0.73431907630477644,-0.50621899389912639,-0.53661835025510263,1.4533495695529695,0.95930164938909568,-1.3670150859583401,1.3670150859583401,-0.95930164938909568,2.5547928218885101,0.0
744640.0783812654,3940767.5119837918,-42500.0,-0.27511745809980492,1.1487454336226346,0.20771626100176088,0.75492416179355537,-0.15499261808404044,-0.30439287234025192,1.4100007743430969,0.97107647985677692,-1.1145246840941954,1.1145246840941954,-0.97107647985677692,2.4471960334806977,0.0
749640.0783812654,3940767.5119837918,-42500.0,-0.43396826332719618,1.0558129604505799,0.61073627787697338,0.70994786796767739,0.18693813560656194,-0.074131871211095671,1.3894098683219913,0.91802997660423036,-0.78646816990615731,0.78646816990615731,-0.91802997660423036,2.4095861973093036,0.0
754640.0783812654,3940767.5119837918,-42500.0,-0.55320558563512168,0.88746709571552118,0.96372477417609981,0.60763616886432414,0.4962842683858984,0.13909522589868747,1.389612434075576,0.8059389177512748,-0.41066748458642865,0.41066748458642865,-0.8059389177512748,2.4371169268710391,0.0
759640.0783812654,3940767.5119837918,-42500.0,-0.61827857733896641,0.66528253862901499,1.2452721639070021,0.46219004389919305,0.75532661941882939,0.32338493343631564,1.4030404316387064,0.64742785676946824,-0.018807010696577475,0.018807010696577475,-0.64742785676946824,2.506976303014274,0.0
764640.0783812654,3940767.5119837918,-42500.0,-0.62380198669854869,0.41448065267026168,1.4442443823860627,0.29087134355495714,0.95362414842587995,0.47116799626866629,1.4198814734325995,0.45927308419041651,0.35871346151073441,-0.35871346151073441,-0.45927308419041651,2.5901205473785445,0.0
769640.0783812654,3940767.5119837918,-42500.0,-0.57306215996019239,0.15956345496361254,1.5596092448105319,0.11101581253558734,1.0881655919046467,0.5794432343044672,1.4313045057153315,0.25930276561567878,0.69693705167292652,-0.69693705167292652,-0.25930276561567878,2.6616364877529346,0.0
774640.0783812654,3940767.5119837918,-42500.0,-0.47590732436513522,-0.079031754983522912,1.5985362916310257,-0.062359672711970772,1.1622503269683049,0.64921920420489454,1.4312213266803264,0.063687104132235106,0.97876513931637255,-0.97876513931637255,-0.063687104132235106,2.7051979938079591,0.0
779640.0783812654,3940767.5119837918,-42500.0,-0.34589343210608631,-0.28677250978261787,1.5735962645569308,-0.21799062425109048,1.1836374031732815,0.68446881628314804,1.4166203006000175,-0.11487650004167138,1.1955121758531531,-1.1955121758531531,0.11487650004167138,2.7130398079175131,0.0
784640.0783812654,3940767.5119837918,-42500.0,-0.197510195344338,-0.45540314689058503,1.4998718516939493,-0.34881590755893793,1.1625229282140697,0.69092988878899453,1.3870733436092049,-0.26794546403204966,1.3459803965460324,-1.3459803965460324,0.26794546403204966,2.6840234191578713,0.0
789640.0783812654,3940767.5119837918,-42500.0,-0.044035234098778964,-0.58222760574775778,1.3925550093048367,-0.45166098115825548,1.1097685664821331,0.67501415697897105,1.3439537807052282,-0.39123460102082397,1.4346694625252296,-1.4346694625252296,0.39123460102082397,2.6213666108246625,0.0
794640.0783812654,3940767.5119837918,-42500.0,0.1037721174162607,-0.66879896620229951,1.2652959215124449,-0.52646487495154737,1.0356020367915293,0.64297294843524933,1.2896731790182694,-0.48394138653458968,1.4697214989874039,-1.4697214989874039,0.48394138653458968,2.5306851215253885,0.0
799640.0783812654,3940767.5119837918,-42500.0,0.2381893358655065,-0.71945468947246638,1.1293130520634693,-0.57534294963283594,0.9488334587255961,0.60036190285303181,1.2270676523157338,-0.54781010583382095,1.4610404844023952,-1.4610404844023952,0.54781010583382095,2.4185302063298399,0.0
669640.0783812654,3945767.5119837918,-42500.0,-0.88072359356270291,-0.69013364821372247,-0.45619997989818195,-0.8495060498060929,-0.68524852380204326,-0.63401462730410563,1.1613621417925246,-0.15718942663495478,0.067930483847264786,-0.067930483847264786,0.15718942663495478,2.2669105390359081,0.0
674640.0783812654,3945767.5119837918,-42500.0,-0.83614667742008419,-0.7534307977157072,-0.59354087753272511,-0.90480906499772484,-0.82759784984848861,-0.74459990835400269,1.2839487303483057,-0.18559702217985341,0.032188622049581825,-0.032188622049581825,0.18559702217985341,2.5017584704156235,0.0
679640.0783812654,3945767.5119837918,-42500.0,-0.76124312270396788,-0.79980980698260562,-0.75164245748468461,-0.94422179591587208,-0.98660333489301322,-0.86672977648702454,1.4104382124736556,-0.20681731897598982,-0.027587692545198508,0.027587692545198508,0.20681731897598982,2.7433815541950342,0.0
684640.0783812654,3945767.5119837918,-42500.0,-0.65389256167174148,-0.81968281559487965,-0.92731038002847654,-0.9600461873256505,-1.1587096546449158,-0.99776650145474644,1.5371069496636265,-0.21542930141257821,-0.1174779298806351,0.1174779298806351,0.21542930141257821,2.9845460825214043,0.0
689640.0783812654,3945767.5119837918,-42500.0,-0.51492388656797627,-0.80227344575209036,-1.1138548930357588,-0.94381140207256553,-1.3374246046346092,-1.1330575729323797,1.6590225163148784,-0.2049309974997891,-0.2428520660424543,0.2428520660424543,0.2049309974997891,3.2155823463861952,0.0
694640.0783812654,3945767.5119837918,-42500.0,-0.34937091376398599,-0.73675995556850726,-1.3002278585707028,-0.88717681264432358,-1.5127052051444594,-1.2655319159801701,1.7701310066313922,-0.16827923657352212,-0.40699554281704747,0.40699554281704747,0.16827923657352212,3.4244513078788485,0.0
699640.0783812654,3945767.5119837918,-42500.0,-0.16748122734631421,-0.61411387397347827,-1.4705651361475653,-0.78333539936738128,-1.6706915801597308,-1.3855288018352883,1.8636150825247602,-0.098903671311866392,-0.60931690190598575,0.60931690190598575,0.098903671311866392,3.5972671620273635,0.0
704640.0783812654,3945767.5119837918,-42500.0,0.014978806807553846,-0.42956595246910589,-1.6045394105535216,-0.62885552754871932,-1.7940917154395351,-1.4810572833612188,1.9326117913721661,0.0077771101331733372,-0.84337643838847431,0.84337643838847431,-0.0077771101331733372,3.7194568600762161,0.0
709640.0783812654,3945767.5119837918,-42500.0,0.17763928248097541,-0.18535088211157927,-1.6789357443540083,-0.42569903728966457,-1.8635148359446294,-1.5386805415744733,1.9713065106771994,0.15247880239000683,-1.0952248432485343,1.0952248432485343,-0.15247880239000683,3.7776890470516187,0.0
714640.0783812654,3945767.5119837918,-42500.0,0.29804365072597383,0.10695841224837624,-1.6706889183124483,-0.18291521406263395,-1.8599130703044886,-1.5451307667138139,1.9762675423994545,0.33019661580891957,-1.3427690600338744,1.3427690600338744,-0.33019661580891957,3.7625797632996729,0.0
719640.0783812654,3945767.5119837918,-42500.0,0.35573718074228405,0.42547643902413829,-1.561213344591539,0.082667318074317805,-1.7679832876847184,-1.4895627201863164,1.9477302429423626,0.528991212340714,-1.5569392099799026,1.5569392099799026,-0.528991212340714,3.6719707787488409,0.0
724640.0783812654,3945767.5119837918,-42500.0,0.33724399565441227,0.73931558888456472,-1.3412654420328849,0.34740565126784401,-1.5799467004007663,-1.3660744921939765,1.890535890228084,0.73012685865608651,-1.7051534160877115,1.7051534160877115,-0.73012685865608651,3.5142824379998507,0.0
729640.0783812654,3945767.5119837918,-42500.0,0.24057762221601586,1.0126237861542862,-1.0150160657604563,0.5837777832695622,-1.2987156529404424,-1.1758583042851234,1.8144864743724733,0.91007077234707334,-1.7568976325518897,1.7568976325518897,-0.91007077234707334,3.3110324029798948,0.0
734640.0783812654,3945767.5119837918,-42500.0,0.077619373778783279,1.2108752038000354,-0.60180897682622814,0.76495930791038458,-0.93931323762005559,-0.92824278120961767,1.7336450922586695,1.0443135926865135,-1.6903150552869621,1.6903150552869621,-1.0443135926865135,3.0969408897262367,0.0
739640.0783812654,3945767.5119837918,-42500.0,-0.12691205596647373,1.3079107769332414,-0.13451725420849389,0.86999004283939685,-0.52772670914359365,-0.6400775946720263,1.6638145233420094,1.1122251718215419,-1.4979431810235706,1.4979431810235706,-1.1122251718215419,2.9150506423227793,0.0
744640.0783812654,3945767.5119837918,-42500.0,-0.34006765693643343,1.2916179812973956,0.34553383803375398,0.88804157708263487,-0.097140922232074794,-0.3333905489184345,1.6179846964775575,1.101567432752028,-1.189630930889779,1.189630930889779,-1.101567432752028,2.8043733331117728,0.0
749640.0783812654,3945767.5119837918,-42500.0,-0.52763336882296552,1.1663872423669042,0.79584254977345625,0.82044409210676128,0.31757534442228502,-0.0318414479733014,1.6014205886524924,1.0112130310624063,-0.79144362726387707,0.79144362726387707,-1.0112130310624063,2.7829040386703103,0.0
754640.0783812654,3945767.5119837918,-42500.0,-0.66127851430750617,0.95158055715813616,1.1801221644248696,0.6798721491033981,0.68561478104939877,0.24307380937288919,1.6096962024533101,0.85118992484840794,-0.34075464082371243,0.34075464082371243,-0.85118992484840794,2.8384384041207822,0.0
759640.0783812654,3945767.5119837918,-42500.0,-0.72370508677723988,0.67668294940522911,1.4737426329182288,0.48708562635455044,0.98466078803243917,0.47506364595971312,1.6313893174498415,0.64013885486538413,0.12093489262837204,-0.12093489262837204,-0.64013885486538413,2.9369573718228219,0.0
764640.0783812654,3945767.5119837918,-42500.0,-0.71053029903219711,0.37486901666583244,1.6660030957470617,0.26639002163199843,1.2030254640035898,0.65465704219791221,1.6532728766400138,0.40115045908224761,0.55526533014571688,-0.55526533014571688,-0.40115045908224761,3.0403151510261521,0.0
769640.0783812654,3945767.5119837918,-42500.0,-0.62893265932301923,0.076952573885872191,1.7592103586464527,0.041196985457062095,1.3393749196331082,0.77925957701059201,1.6645463112291143,0.15733693694170392,0.93248107869371633,-0.93248107869371633,-0.15733693694170392,3.1189581895770067,0.0
774640.0783812654,3945767.5119837918,-42500.0,-0.49411894701606307,-0.19285345061823073,1.7654998366757704,-0.16926073175677211,1.4006440588312954,0.85198478435119307,1.6586528575492625,-0.071697019803187656,1.2341203710475157,-1.2341203710475157,0.071697019803187656,3.1558085036686712,0.0
779640.0783812654,3945767.5119837918,-42500.0,-0.3250516927132398,-0.41884296513559821,1.7027251822359259,-0.35161001276084186,1.3990782056529885,0.87983614790633213,1.6331923005648994,-0.27187421404623413,1.4530031150926814,-1.4530031150926814,0.27187421404623413,3.1448094745289468,0.0
784640.0783812654,3945767.5119837918,-42500.0,-0.1406540277923703,-0.59366433469595148,1.5905837887729757,-0.49852910990715416,1.3492776548370657,0.87180396066025634,1.5889288655802216,-0.43513936907069894,1.5912951970303251,-1.5912951970303251,0.43513936907069894,3.0877186425040208,0.0
789640.0783812654,3945767.5119837918,-42500.0,0.042828284356674885,-0.7168216949595585,1.4476830780742147,-0.60790036533811564,1.2658191108207568,0.83726805903622636,1.5286035155839195,-0.55880979206534886,1.6576553859434964,-1.6576553859434964,0.55880979206534886,2.990936588233104,0.0
794640.0783812654,3945767.5119837918,-42500.0,0.21316600176555292,-0.79260696755982085,1.2897735894427729,-0.68145599931730505,1.1616892569624959,0.78488809859853392,1.4559054052874978,-0.64430549620692867,1.6643329140365251,-1.6643329140365251,0.64430549620692867,2.8630088626607741,0.0
799640.0783812654,3945767.5119837918,-42500.0,0.36240722501349221,-0.82805695712686944,1.1290134207408269,-0.72334804356416638,1.0474866182000311,0.72198072827422144,1.3747055252455502,-0.69571675714387338,1.6247464374975937,-1.6247464374975937,0.69571675714387338,2.712884753026386,0.0
804640.0783812654,3945767.5119837918,-42500.0,0.48642675374451932,-0.8312834323167636,0.97398489923547849,-0.73891651467830399,0.93122438178791178,0.65429552082802378,1.2885617270222689,-0.71852029682701157,1.5517742968840187,-1.5517742968840187,0.71852029682701157,2.5488571777693787,0.0
664640.0783812654,3950767.5119837918,-42500.0,-1.0150893430809795,-0.59332668191656235,-0.23788311285056749,-0.86863800957244641,-0.53726592746096458,-0.5860558175100018,1.102716301855992,-0.067067665123213369,0.087349512974446777,-0.087349512974446777,0.067067665123213369,2.1541451718018254,0.0
669640.0783812654,3950767.5119837918,-42500.0,-1.0122054322774174,-0.67924722889652955,-0.34705220518561392,-0.95401581768462329,-0.67119726529714174,-0.70240482749325817,1.2347340099415764,-0.09744302369183204,0.078180447769981745,-0.078180447769981745,0.09744302369183204,2.4079922342282178,0.0
674640.0783812654,3950767.5119837918,-42500.0,-0.98000436119080447,-0.75937300320364054,-0.48082082291222084,-1.0318284383733187,-0.82807073012522014,-0.83633500003900896,1.3765269794996018,-0.12595209280208775,0.051348366854654506,-0.051348366854654506,0.12595209280208775,2.679396007525161,0.0
679640.0783812654,3950767.5119837918,-42500.0,-0.91254924406700477,-0.82518055685550795,-0.63993432367272673,-1.0943952823560898,-1.007534320747008,-0.98732332709684867,1.5255175613167424,-0.14831425012390642,-0.00016020298393561172,0.00016020298393561172,0.14831425012390642,2.9633667960317651,0.0
684640.0783812654,3950767.5119837918,-42500.0,-0.80547031330079155,-0.86562890014917271,-0.82257650937254834,-1.13205739795104,-1.2067271901897449,-1.1529467498306494,1.6776995992735126,-0.15865298537069231,-0.084123167192403564,0.084123167192403564,0.15865298537069231,3.2521165516554116,0.0
689640.0783812654,3950767.5119837918,-42500.0,-0.65752978245633598,-0.86754374084159724,-1.0230813480212462,-1.1335663581860598,-1.4192095455740026,-1.3281131832477002,1.82743050796771,-0.1495645353379309,-0.20814350740160337,0.20814350740160337,0.1495645353379309,3.5346087375127904,0.0
694640.0783812654,3950767.5119837918,-42500.0,-0.47245506872495402,-0.81675705381415586,-1.2306083960006404,-1.0870785028789094,-1.6339146643581517,-1.5043160877177708,1.9674030220210839,-0.11261771243338062,-0.37805070508864091,0.37805070508864091,0.11261771243338062,3.7964129682747019,0.0
699640.0783812654,3950767.5119837918,-42500.0,-0.26067242611934427,-0.70023680710137737,-1.4281497483010706,-0.98192172263059607,-1.8344363964867112,-1.6691353209022153,2.0889447672652692,-0.039477072567438209,-0.59560713263544462,0.59560713263544462,0.039477072567438209,4.020124224379253,0.0
704640.0783812654,3950767.5119837918,-42500.0,-0.040307852925267167,-0.50925490625949454,-1.5924276653894029,-0.81115126821660999,-1.9991092454767865,-1.8063064112268008,2.1828050770257992,0.076240367295597411,-0.85573174703925714,0.85573174703925714,-0.076240367295597411,4.1866477775820279,0.0
709640.0783812654,3950767.5119837918,-42500.0,0.16336895473667393,-0.24325789201877257,-1.6953420346624362,-0.57461472752824116,-2.1024007752656169,-1.8967228349899419,2.2405318777760188,0.23648105755243015,-1.1438349924397351,1.1438349924397351,-0.23648105755243015,4.2776168594620536,0.0
714640.0783812654,3950767.5119837918,-42500.0,0.32081185029592019,0.086440802989404569,-1.7074855937451456,-0.28183475528729685,-2.1180038215687831,-1.9206439662743906,2.2563714406632767,0.43610638307078775,-1.4342793401588283,1.4342793401588283,-0.43610638307078775,4.2790541811395277,0.0
719640.0783812654,3950767.5119837918,-42500.0,0.40360741180019383,0.45454799150370095,-1.6037240390332608,0.046365452004116021,-2.0235874594691934,-1.8610848611709949,2.2293565447166435,0.66094720194838263,-1.6912117928715662,1.6912117928715662,-0.66094720194838263,4.1860759826223548,0.0
724640.0783812654,3950767.5119837918,-42500.0,0.39164593931743313,0.8228037758796567,-1.3699465423813053,0.3786673297699697,-1.80645693489771,-1.707873834014469,2.1650361504413724,0.88766264070925072,-1.872749107340745,1.872749107340745,-0.88766264070925072,4.007959340604736,0.0
729640.0783812654,3950767.5119837918,-42500.0,0.28008019219372476,1.1450760308928678,-1.0091174038816917,0.67721555493637997,-1.4686115103665194,-1.4613337819487682,2.0762310518749261,1.086286826504347,-1.93852893708506,1.93852893708506,-1.086286826504347,3.7721937569657382,0.0
734640.0783812654,3950767.5119837918,-42500.0,0.083379945134097175,1.3760853694217234,-0.5442617746860956,0.90439866864444496,-1.0293066075444401,-1.1342650110205044,1.9820049021540731,1.2255284229684791,-1.8591390095435973,1.8591390095435973,-1.2255284229684791,3.5249692988233763,0.0
739640.0783812654,3950767.5119837918,-42500.0,-0.16575439405383402,1.4815653845846932,-0.016549257014528727,1.0308129732633842,-0.52364126750314477,-0.75117031757177521,1.9037463464301689,1.2796744371527751,-1.6245737804045304,1.6245737804045304,-1.2796744371527751,3.3238164351481165,0.0
744640.0783812654,3950767.5119837918,-42500.0,-0.42306921520774821,1.4465307843686286,0.52172457112907322,1.0419035096668394,0.0030363148105868247,-0.34451744743860863,1.8581636625861115,1.2349434750679809,-1.2485495687909061,1.2485495687909061,-1.2349434750679809,3.2184873489258501,0.0
749640.0783812654,3950767.5119837918,-42500.0,-0.64310125115357253,1.2786560934999001,1.0173883675238555,0.94097683385370667,0.50348805320501078,0.051048818370826664,1.8501788927643563,1.0930118944523755,-0.76673352729678279,0.76673352729678279,-1.0930118944523755,3.2261646253017817,0.0
754640.0783812654,3950767.5119837918,-42500.0,-0.7896207964456371,1.0056032066347638,1.4266235917457191,0.74760265044588381,0.93716736987974436,0.40482468596811561,1.8711243055099809,0.8704323826772068,-0.22927051418444278,0.22927051418444278,-0.8704323826772068,3.3221298492373452,0.0
759640.0783812654,3950767.5119837918,-42500.0,-0.84268176310918308,0.66753571524870059,1.7220284033526969,0.49220309365866582,1.2764853036354333,0.69471921810087978,1.9040168906670325,0.59430017846782723,0.30979832212100816,-0.30979832212100816,-0.59430017846782723,3.4569060920643579,0.0
764640.0783812654,3950767.5119837918,-42500.0,-0.80046835777565406,0.30771571361450634,1.894862912613229,0.20891914786808422,1.5093117097113002,0.90939584319181288,1.9313717060188789,0.29589995857144424,0.80271849894462621,-0.80271849894462621,-0.29589995857144424,3.5817411711859819,0.0
769640.0783812654,3950767.5119837918,-42500.0,-0.67634868237531276,-0.035753068508109637,1.9527751543074754,-0.070933158391988688,1.6377691762077828,1.0478146459724034,1.940456368410941,0.004510302313433634,1.2150014461529004,-1.2150014461529004,-0.004510302313433634,3.6630295432537765,0.0
774640.0783812654,3950767.5119837918,-42500.0,-0.49310808631622749,-0.33507603193786206,1.914705654487286,-0.32323995230360558,1.6745255161001797,1.1169209251914813,1.9248110181837528,-0.25698819564566178,1.5280704594038705,-1.5280704594038705,0.25698819564566178,3.6844942129610194,0.0
779640.0783812654,3950767.5119837918,-42500.0,-0.27669572487253896,-0.57438878453616182,1.8050439613131348,-0.53283531444350818,1.6381833107459931,1.1285479980667377,1.8833917982175472,-0.4740698744400057,1.738093232450761,-1.738093232450761,0.4740698744400057,3.6435477131872309,0.0
784640.0783812654,3950767.5119837918,-42500.0,-0.051206506257399295,-0.74860447183671885,1.6486353547731878,-0.69305846434084606,1.5490856752019069,1.0964630743786614,1.8188490002380457,-0.64037234940134802,1.8524589974842893,-1.8524589974842893,0.64037234940134802,3.5464018922176885,0.0
789640.0783812654,3950767.5119837918,-42500.0,0.16415411889215611,-0.8607310193571861,1.4674180779183645,-0.80399161209514991,1.4262653657391393,1.0341087671752407,1.735821570964557,-0.75613258096270941,1.8854772025394286,-1.8854772025394286,0.75613258096270941,3.4038239346948318,0.0
794640.0783812654,3950767.5119837918,-42500.0,0.35619616744543525,-0.91880256668222526,1.2787467789178251,-0.87023610917005267,1.2856956329031233,0.95320681338874713,1.6396037851732952,-0.82608020656458803,1.8544593954881587,-1.8544593954881587,0.82608020656458803,3.228051380285252,0.0
799640.0783812654,3950767.5119837918,-42500.0,0.51748007484609837,-0.93318227827660094,1.0950410688163135,-0.89883568792318946,1.1396414804579851,0.86313031219849889,1.535262081434565,-0.85740854804724931,1.7767815076267639,-1.7767815076267639,0.85740854804724931,3.0308363665413096,0.0
804640.0783812654,3950767.5119837918,-42500.0,0.6452775247933028,-0.91457479713430323,0.92426159498737537,-0.89765533482274951,0.99676037665252748,0.77082811846154009,1.4271549321367476,-0.85815802444631184,1.668045527689902,-1.668045527689902,0.85815802444631184,2.8223852805412837,0.0
809640.0783812654,3950767.5119837918,-42500.0,0.74026631135528564,-0.87278468445312807,0.77077707352163927,-0.87429235549508122,0.86261473937342048,0.68107719027356628,1.3187682014609206,-0.83611239645685709,1.541184295459106,-1.541184295459106,0.83611239645685709,2.6109334373918136,0.0
664640.0783812654,3955767.5119837918,-42500.0,-1.1293005910629861,-0.54156827097266913,-0.11966533644184182,-0.94710671611900166,-0.49278424063711906,-0.63114882854376186,1.1542611099154585,0.0030658229820884134,0.078572083586520902,-0.078572083586520902,-0.0030658229820884134,2.2503328285546758,0.0
669640.0783812654,3955767.5119837918,-42500.0,-1.1462939231591383,-0.6389968137780565,-0.21608617531861829,-1.0559625399196939,-0.63284084393563977,-0.7671573409246556,1.302136942729136,-0.023888093683187783,0.078623084865312831,-0.078623084865312831,0.023888093683187783,2.5353380954623552,0.0
674640.0783812654,3955767.5119837918,-42500.0,-1.1319996296349015,-0.73490780004632583,-0.33932131038833646,-1.1604461699444557,-0.80101034340776511,-0.92685242139556812,1.4637394339091587,-0.050160225923050486,0.062521046080375328,-0.062521046080375328,0.050160225923050486,2.8447909633378003,0.0
679640.0783812654,3955767.5119837918,-42500.0,-1.0780547769541839,-0.82051469088733953,-0.49179270645102108,-1.2517719367186846,-0.99838595039150535,-1.1107431952501838,1.6367321973484079,-0.071529097603378819,0.0222872318464616,-0.0222872318464616,0.071529097603378819,3.174081168490444,0.0
684640.0783812654,3955767.5119837918,-42500.0,-0.97718777175533023,-0.88365085365681051,-0.67355969534149396,-1.3182203890679505,-1.2233822227237248,-1.3170928181584951,1.8170121918452899,-0.081846808578079841,-0.051540072963724134,0.051540072963724134,0.081846808578079841,3.5151890175860787,0.0
689640.0783812654,3955767.5119837918,-42500.0,-0.82516087669174532,-0.9088472133283364,-0.88071235324756858,-1.3453200737634667,-1.4702502101120392,-1.540753839291414,1.99833649835056,-0.072945711967736693,-0.16904488526749606,0.16904488526749606,0.072945711967736693,3.8559022451463534,0.0
694640.0783812654,3955767.5119837918,-42500.0,-0.62329413782349596,-0.87830300140448192,-1.1035171089220999,-1.3168159865806053,-1.7274437174274047,-1.7719029063175766,2.172112295399995,-0.035028358715941121,-0.33920108774435997,0.33920108774435997,0.035028358715941121,4.1793270743751894,0.0
699640.0783812654,3955767.5119837918,-42500.0,-0.38118891908344865,-0.77417950892407261,-1.3247127065391759,-1.2167658245787234,-1.9762190854642603,-1.9949725913539056,2.3275596723413994,0.042161186408419704,-0.56708624594855306,0.56708624594855306,-0.042161186408419704,4.4640605023619759,0.0
704640.0783812654,3955767.5119837918,-42500.0,-0.11883414382718931,-0.58248066821824318,-1.5186719215112494,-1.0329521914048916,-2.1901154439025601,-2.1882764145155744,2.452505725671553,0.16714376765710792,-0.85014918804688966,0.85014918804688966,-0.16714376765710792,4.68549810531254,0.0
709640.0783812654,3955767.5119837918,-42500.0,0.13314416171176532,-0.29830431678453229,-1.6524061598445867,-0.76139297899836056,-2.3361628515859691,-2.3249714984420611,2.5350453121275662,0.34350288458381151,-1.1741786699378514,1.1741786699378514,-0.34350288458381151,4.8187672854294199,0.0
714640.0783812654,3955767.5119837918,-42500.0,0.33644422095182119,0.068572333802252652,-1.6893634780861375,-0.41105985846923243,-2.3786053729788779,-2.3759550062094834,2.5661309573497464,0.56619034100924837,-1.5103311123937895,1.5103311123937895,-0.56619034100924837,4.8436055621256147,0.0
719640.0783812654,3955767.5119837918,-42500.0,0.45203110327479368,0.48975236224620855,-1.5963739240031294,-0.0071600299732958424,-2.2853792160326907,-2.3148788364974848,2.5427800877229396,0.81851693334121989,-1.8151390869390858,1.8151390869390858,-0.81851693334121989,4.7510632441823777,0.0
724640.0783812654,3955767.5119837918,-42500.0,0.45033294279051156,0.91842153723651865,-1.352815441567311,0.40906258887432856,-2.0364736147059337,-2.1246345127163986,2.4710941364289334,1.0714989867809557,-2.0352979270623583,2.0352979270623583,-1.0714989867809557,4.5511447352254608,0.0
729640.0783812654,3955767.5119837918,-42500.0,0.32189855547880669,1.2955701623081064,-0.95944849733983328,0.78553187831363025,-1.6319263463210778,-1.8036278072756067,2.3678671019854707,1.2870580364148274,-2.1177227872825619,2.1177227872825619,-1.2870580364148274,4.2793005946425282,0.0
734640.0783812654,3955767.5119837918,-42500.0,0.084201663333127091,1.5620095829722676,-0.44330375124001564,1.0693780526305097,-1.0963210073444649,-1.3694825374734736,2.2591905423470218,1.4253721964671178,-2.0229719213426418,2.0229719213426418,-1.4253721964671178,3.9975896181002866,0.0
739640.0783812654,3955767.5119837918,-42500.0,-0.21931430808923386,1.6730251218980521,0.14443432267231512,1.219276634925208,-0.477132908750313,-0.85813211689896585,2.1742401213836393,1.4547067501758144,-1.7377049705813044,1.7377049705813044,-1.4547067501758144,3.7832107413229306,0.0
744640.0783812654,3955767.5119837918,-42500.0,-0.52898325370369892,1.6104147346603546,0.73809859255491783,1.2158413153714951,0.16362235898300434,-0.31778501917577523,2.1342343601923357,1.3603396805516808,-1.2810648762716095,1.2810648762716095,-1.3603396805516808,3.6983685112299924,0.0
749640.0783812654,3955767.5119837918,-42500.0,-0.78438529258397338,1.387072652252781,1.2719325990451642,1.0660735813302831,0.76211767384158946,0.20062289940838912,2.1421975559431594,1.1490012286614226,-0.70180109606432395,0.70180109606432395,-1.1490012286614226,3.7546124643949561,0.0
754640.0783812654,3955767.5119837918,-42500.0,-0.93963138401173441,1.0423717221650324,1.6941229730941798,0.80026717498251032,1.2655223445056223,0.65334347446391716,2.1823558735932926,0.84700252509981777,-0.066873581336402643,0.066873581336402643,-0.84700252509981777,3.9069509758813021,0.0
759640.0783812654,3955767.5119837918,-42500.0,-0.9728572485416197,0.63062725869486902,1.9757211411258588,0.46298311857147462,1.6407270515293684,1.0109394341688107,2.229935050159118,0.4930014608933776,0.55408093621242027,-0.55408093621242027,-0.4930014608933776,4.0856176847016963,0.0
764640.0783812654,3955767.5119837918,-42500.0,-0.88743879897316713,0.20747893088732697,2.1123196120787666,0.10186634174832361,1.8769016350164804,1.2608965101881886,2.2624731521701649,0.12847275514690742,1.1028087905741095,-1.1028087905741095,-0.12847275514690742,4.2305980935870311,0.0
769640.0783812654,3955767.5119837918,-42500.0,-0.70622512455059239,-0.18110802629315478,2.1194978737177443,-0.2418513127288042,1.9824461265902658,1.4059418849774328,2.2657827766021787,-0.21069319169611989,1.5409762555183619,-1.5409762555183619,0.21069319169611989,4.3060092315904006,0.0
774640.0783812654,3955767.5119837918,-42500.0,-0.46237454510458986,-0.50468152177186265,2.0249978079174804,-0.53890157182678,1.9786606518594443,1.4596602373501715,2.2345340611570834,-0.49926905741097172,1.8520961572186734,-1.8520961572186734,0.49926905741097172,4.2989617003849014,0.0
779640.0783812654,3955767.5119837918,-42500.0,-0.19046858960286803,-0.7489811677570869,1.8607449310415127,-0.77332655993605737,1.8927787080301071,1.4413444689015007,2.1701398849781515,-0.7240282081443663,2.038288921861735,-2.038288921861735,0.7240282081443663,4.2128313214511399,0.0
784640.0783812654,3955767.5119837918,-42500.0,0.079805856220376559,-0.91308814334729571,1.6567600458560485,-0.94074962848151589,1.7522515673243999,1.3715498592676214,2.0780388676213359,-0.88224714826701767,2.1144293771201292,-2.1144293771201292,0.88224714826701767,4.0602637964394539,0.0
789640.0783812654,3955767.5119837918,-42500.0,0.32678668974779435,-1.0050736497074053,1.4376502073175723,-1.0451374184695583,1.581078680043867,1.2690511306670693,1.9653800216419219,-0.978765608916779,2.1020070156094879,-2.1020070156094879,0.978765608916779,3.8577244603392566,0.0
794640.0783812654,3955767.5119837918,-42500.0,0.5373203174988832,-1.0377251497673754,1.2213814394077829,-1.0953626570847066,1.3981123635108992,1.1492507629399524,1.8394194902540433,-1.0228173429481191,2.0241401664873364,-2.0241401664873364,1.0228173429481191,3.6218826203396772,0.0
799640.0783812654,3955767.5119837918,-42500.0,0.70559650394010909,-1.0252026018101734,1.0195997974065194,-1.1023442607420613,1.2168215016215884,1.0237222393818273,1.7066066680526832,-1.0253736099244841,1.9022649341068181,-1.9022649341068181,1.0253736099244841,3.3675633558207552,0.0
804640.0783812654,3955767.5119837918,-42500.0,0.83127697641584797,-0.98085911957536676,0.83875135285749725,-1.077048364869458,1.0459116889824915,0.90046906430836304,1.5721986151572653,-0.99728317822552548,1.7543936946326406,-1.7543936946326406,0.99728317822552548,3.10684299655381,0.0
809640.0783812654,3955767.5119837918,-42500.0,0.9175752195671697,-0.9160908425247839,0.68144071825986174,-1.0293132613840705,0.89030953183507344,0.78453364903624667,1.4402040455294289,-0.94818557353291122,1.594549829357552,-1.594549829357552,0.94818557353291122,2.8488807820216571,0.0
814640.0783812654,3955767.5119837918,-42500.0,0.96963889775688106,-0.83993509492738905,0.54769569004194296,-0.96731386060342262,0.75218873503086148,0.67870161186666655,1.3134899627620311,-0.88602841196356819,1.4329391963584119,-1.4329391963584119,0.88602841196356819,2.6001627734328601,0.0
659640.0783812654,3960767.5119837918,-42500.0,-1.1704842304004985,-0.36115527180229157,0.064604421671313805,-0.88594407743143477,-0.31200654434285802,-0.53869768803217266,1.053507441354038,0.10121202810085175,0.039492756093867709,-0.039492756093867709,-0.10121202810085175,2.0450721727560297,0.0
664640.0783812654,3960767.5119837918,-42500.0,-1.2337009021047605,-0.45752647008280856,0.010038567331132559,-1.0136687998619986,-0.42422329396933095,-0.66703537430948057,1.1978849167276406,0.083046942393135745,0.055944971084948711,-0.055944971084948711,-0.083046942393135745,2.3267303957904826,0.0
669640.0783812654,3960767.5119837918,-42500.0,-1.2750297136513584,-0.562494002764798,-0.067180465408765766,-1.1479270659687493,-0.56522777551837355,-0.82289203669101707,1.3606274713242297,0.062267314975248816,0.065170763335039267,-0.065170763335039267,-0.062267314975248816,2.6416036043719533,0.0
674640.0783812654,3960767.5119837918,-42500.0,-1.2845104785518566,-0.67100175564361386,-0.17188653916555199,-1.2825520110212403,-0.73924656542343758,-1.0096547262851683,1.541558305980913,0.041119972713412743,0.060882171642718884,-0.060882171642718884,-0.041119972713412743,2.9887576231312241,0.0
679640.0783812654,3960767.5119837918,-42500.0,-1.2511256472732226,-0.77457871720335481,-0.30829070145433896,-1.4079619783128923,-0.94927271058331908,-1.2294472887091372,1.7389240161914798,0.023562980209161307,0.034491125845138526,-0.034491125845138526,-0.023562980209161307,3.3644185194468847,0.0
684640.0783812654,3960767.5119837918,-42500.0,-1.1641133612993344,-0.8605245991217616,-0.478721790509054,-1.5104928599998333,-1.195669761926083,-1.4818993117392432,1.9488348767130119,0.015761649172406317,-0.024901528129883093,0.024901528129883093,-0.015761649172406317,3.7608123674972163,0.0
689640.0783812654,3960767.5119837918,-42500.0,-1.0152224855107392,-0.91151900458440838,-0.68177441851400344,-1.5721849126031093,-1.4742376803786514,-1.7624731879380366,2.1646854727907141,0.026393974727338017,-0.12987460026589798,0.12987460026589798,-0.026393974727338017,4.1649450930473444,0.0
694640.0783812654,3960767.5119837918,-42500.0,-0.80198293933147491,-0.90619247308200057,-0.90992502424898569,-1.5715163866915245,-1.7738527434162044,-2.0604561623105355,2.3766891595484267,0.066454776467747501,-0.29298907581139083,0.29298907581139083,-0.066454776467747501,4.5576057798867797,0.0
699640.0783812654,3960767.5119837918,-42500.0,-0.53168241678488004,-0.82134226432869784,-1.1469820063318741,-1.4856856361443682,-2.0740955706526671,-2.3569770910631176,2.5717970973487749,0.14813322405560947,-0.5236216452209852,0.5236216452209852,-0.14813322405560947,4.9130849017106746,0.0
704640.0783812654,3960767.5119837918,-42500.0,-0.22509270902656789,-0.63640045880042628,-1.3662009286971071,-1.2949467965880672,-2.3437154248113883,-2.6237641508856879,2.7343919191146564,0.28233588848230934,-0.82321112952322251,0.82321112952322251,-0.28233588848230934,5.2003166426437435,0.0
709640.0783812654,3960767.5119837918,-42500.0,0.081798795491524828,-0.34023577334509653,-1.5304008771078199,-0.98900637864640861,-2.5412203847132346,-2.8237166729289807,2.84818964570362,0.47469039429768112,-1.1794962465024277,1.1794962465024277,-0.47469039429768112,5.3862809025419098,0.0
714640.0783812654,3960767.5119837918,-42500.0,0.34030393302477424,0.060771323958806654,-1.5956399199085463,-0.5744611366669663,-2.6190265493705196,-2.9144720819902354,2.8996398538299277,0.7205327775151853,-1.5614291078670821,1.5614291078670821,-0.7205327775151853,5.4423688173144198,0.0
719640.0783812654,3960767.5119837918,-42500.0,0.49756488265357007,0.53602214396092862,-1.5194477293206403,-0.080874239776958165,-2.5319993194781647,-2.8556491769853705,2.8826449559116183,1.0004079358912865,-1.9175805909722354,1.9175805909722354,-1.0004079358912865,5.353835276101039,0.0
724640.0783812654,3960767.5119837918,-42500.0,0.5107809203901974,1.0292346490922291,-1.2728933970171723,0.43795584935647253,-2.2495648632268739,-2.6190945896122231,2.8035755974539085,1.2785536972666942,-2.1811337501121231,2.1811337501121231,-1.2785536972666942,5.1312718017120709,0.0
729640.0783812654,3960767.5119837918,-42500.0,0.36335813853758786,1.4656706092568135,-0.85317995870144425,0.91056955966785647,-1.7681686967653116,-2.1995017477589363,2.6844931985649088,1.5068418493680173,-2.2829545339457509,2.2829545339457509,-1.5068418493680173,4.8209586643547837,0.0
734640.0783812654,3960767.5119837918,-42500.0,0.076155882439332773,1.7684860881369817,-0.29137820969767592,1.262645638790348,-1.1189762003233554,-1.6212189418429399,2.561451460895336,1.6349427198377664,-2.1705080194455242,2.1705080194455242,-1.6349427198377664,4.5071159135163947,0.0
739640.0783812654,3960767.5119837918,-42500.0,-0.29294834149944177,1.8797713228115935,0.34969758577052507,1.4361698340729068,-0.36610127960660727,-0.93732303385668903,2.4744769509043834,1.6242975107558311,-1.8261328188897517,1.8261328188897517,-1.6242975107558311,4.2933413327561931,0.0
744640.0783812654,3960767.5119837918,-42500.0,-0.66336629859003882,1.7780201602070889,0.98870182227788272,1.4057465504051976,0.40588684361444644,-0.21976770777802723,2.4497757282330657,1.4605767665532068,-1.2764522622171861,1.2764522622171861,-1.4605767665532068,4.2544004568341673,0.0
749640.0783812654,3960767.5119837918,-42500.0,-0.95504443473471889,1.4842123230516933,1.5457927159473213,1.1850798628888577,1.1113615251031663,0.45649931670103738,2.4852619331803867,1.1590003471721579,-0.58771369299801812,0.58771369299801812,-1.1590003471721579,4.386784241953734,0.0
754640.0783812654,3960767.5119837918,-42500.0,-1.1107920576447601,1.0539314522363508,1.9615879813017725,0.8210438438928247,1.6826463081812832,1.0296312882636185,2.5536073268080086,0.76000868137792021,0.15153516995293048,-0.15153516995293048,-0.76000868137792021,4.6144649239855484,0.0
759640.0783812654,3960767.5119837918,-42500.0,-1.1087082380682833,0.55970888666742735,2.207964037051831,0.37861572037958524,2.0818403628783306,1.4615608600300392,2.6195915765470574,0.31746359468397423,0.85303914793247115,-0.85303914793247115,-0.31746359468397423,4.8429234511869144,0.0
764640.0783812654,3960767.5119837918,-42500.0,-0.9615207114188703,0.071616243735202256,2.2881687878241972,-0.076517815120876381,2.3026352692122747,1.740649252485577,2.6555423876433633,-0.11529234074543948,1.4478083557545047,-1.4478083557545047,0.11529234074543948,5.0020326003237336,0.0
769640.0783812654,3960767.5119837918,-42500.0,-0.7060313078743724,-0.35685066446004426,2.228684921710486,-0.49138707479358829,2.3638787874277885,1.8773678899890511,2.6470563298661784,-0.49630191336104801,1.8958556931503008,-1.8958556931503008,0.49630191336104801,5.0571876509772098,0.0
774640.0783812654,3960767.5119837918,-42500.0,-0.38899596474502318,-0.69462535865906083,2.0677778502336093,-0.83219937085629003,2.2992005761885954,1.8962905671984842,2.5916306858503391,-0.80014872107168189,2.1861813082712565,-2.1861813082712565,0.80014872107168189,5.0027982583270658,0.0
779640.0783812654,3960767.5119837918,-42500.0,-0.054995686344397443,-0.93172040724920968,1.8451687916436785,-1.0843236742038518,2.1468990023211325,1.8277965999802872,2.4946811822867652,-1.0176987650487646,2.3301687817423646,-2.3301687817423646,1.0176987650487646,4.8514971953635566,0.0
784640.0783812654,3960767.5119837918,-42500.0,0.26095613526622008,-1.0737664491899168,1.5951785283767321,-1.2482369644640181,1.9425826359151264,1.7016655928484452,2.3655847334020654,-1.1524453680228337,2.3525708857951786,-2.3525708857951786,1.1524453680228337,4.6246792243170542,0.0
789640.0783812654,3960767.5119837918,-42500.0,0.53600484901880974,-1.1355142373425169,1.343615974527727,-1.3340756729424701,1.7151837058253814,1.5432732432016465,2.2147416249709861,-1.2157102826880908,2.2832775253027715,-2.2832775253027715,1.2157102826880908,4.3458441152059217,0.0
794640.0783812654,3960767.5119837918,-42500.0,0.75864504772520513,-1.1352826466327346,1.1074920183300423,-1.3566404528147467,1.4857563079086269,1.372080210853865,2.0517899518402833,-1.2222944826524305,2.1514209030893086,-2.1514209030893086,1.2222944826524305,4.0366368857367201,0.0
799640.0783812654,3960767.5119837918,-42500.0,0.92619532330762333,-1.0911375536101031,0.89633145541194259,-1.3317106002502272,1.2680425865901241,1.2016806879399629,1.8847448760144114,-1.1873144018789197,1.9820316264643112,-1.9820316264643112,1.1873144018789197,3.7149575974213462,0.0
804640.0783812654,3960767.5119837918,-42500.0,1.0418642100316939,-1.0187686446874771,0.71407288427376758,-1.2737880328896196,1.0698745551142075,1.040677095211918,1.7197487232463506,-1.1243142995758528,1.7947361523293452,-1.7947361523293452,1.1243142995758528,3.3944411380931472,0.0
809640.0783812654,3960767.5119837918,-42500.0,1.1121616041088278,-0.93065534335438116,0.56092573492565445,-1.1950086033009093,0.89476663011976465,0.89383831100980093,1.561164153924957,-1.0444099489679231,1.6037792256212857,-1.6037792256212857,1.0444099489679231,3.0847196259804148,0.0
814640.0783812654,3960767.5119837918,-42500.0,1.1449539535354576,-0.83604636044374081,0.43488875650478725,-1.10484814997751,0.74334644241829095,0.76321969412459234,1.4118293909609783,-0.95612452963951788,1.4187409615685194,-1.4187409615685194,0.95612452963951788,2.7920490810599801,0.0
819640.0783812654,3960767.5119837918,-42500.0,1.1481799419828784,-0.74136238042577784,0.33285533940107676,-1.0102886932152086,0.61448539946659375,0.64909686940631595,1.2733682713685117,-0.86561542313578355,1.245507053594906,-1.245507053594906,0.86561542313578355,2.5200405948761841,0.0
654640.0783812654,3965767.5119837918,-42500.0,-1.131766531043457,-0.16431514938454714,0.1922902026584053,-0.78019618143681824,-0.14661129202369586,-0.43499157642657799,0.9442015042949371,0.18396176309825263,-0.025875031989688199,0.025875031989688199,-0.18396176309825263,1.81318870040916,0.0
659640.0783812654,3965767.5119837918,-42500.0,-1.2299693143962587,-0.24395785470431688,0.1758527283260346,-0.91263441140521684,-0.22546996616608087,-0.54767793612575788,1.0779620396748375,0.17857890202892857,-0.0045596937455306547,0.0045596937455306547,-0.17857890202892857,2.0766410401707693,0.0
664640.0783812654,3965767.5119837918,-42500.0,-1.3181958685343702,-0.33760453943302016,0.14427656881046011,-1.0601969200306669,-0.32948481912769256,-0.68840887251819372,1.2317385802890564,0.16970561778999058,0.016524090929437935,-0.016524090929437935,-0.16970561778999058,2.3778298736966565,0.0
669640.0783812654,3965767.5119837918,-42500.0,-1.3874299180724858,-0.44394957038389199,0.092421191118751717,-1.2201548883096474,-0.46446201944039683,-0.86267554699808568,1.4073605495136086,0.15797070731472762,0.033687460294678506,-0.033687460294678506,-0.15797070731472762,2.7191084085204635,0.0
674640.0783812654,3965767.5119837918,-42500.0,-1.4261661554074252,-0.55919997927756249,0.014488580250450194,-1.3868182685786619,-0.63637797734476509,-1.0758959974496856,1.605749168667103,0.14513635126203522,0.041063718680728084,-0.041063718680728084,-0.14513635126203522,3.1010314832195154,0.0
679640.0783812654,3965767.5119837918,-42500.0,-1.4207534105281345,-0.67590447032301815,-0.095380086855413077,-1.5503534653750257,-0.85048077841778125,-1.3324844847654107,1.8261806816503767,0.13469022792653246,0.030013122378120552,-0.030013122378120552,-0.13469022792653246,3.5211784101386763,0.0
684640.0783812654,3965767.5119837918,-42500.0,-1.3565638613056457,-0.78168922407971142,-0.2419349524782603,-1.695579497408104,-1.1097489015607376,-1.6343177369389761,2.0654546644484379,0.13250759969132356,-0.011255970909619238,0.011255970909619238,-0.13250759969132356,3.9726375140336918,0.0
689640.0783812654,3965767.5119837918,-42500.0,-1.2203999634020413,-0.85825055306463083,-0.42687563907362724,-1.8011235901446232,-1.4125420963524717,-1.9784623428447905,2.3170247281722074,0.14740261526963189,-0.097462660141595825,0.097462660141595825,-0.14740261526963189,4.4422546617917433,0.0
694640.0783812654,3965767.5119837918,-42500.0,-1.0044542732779251,-0.88125358972556167,-0.64605243081498309,-1.8396035058874223,-1.7494352459205476,-2.3541805402054119,2.5701921376200438,0.19121174290363868,-0.24484363848933638,0.24484363848933638,-0.19121174290363868,4.9089484761038173,0.0
699640.0783812654,3965767.5119837918,-42500.0,-0.71172818923751158,-0.82210253359709173,-0.8860496847286996,-1.7797877654060279,-2.0995989596758675,-2.7395808741765784,2.8096517516613986,0.27784996064733009,-0.4678660221926631,0.4678660221926631,-0.27784996064733009,5.3427066880237444,0.0
704640.0783812654,3965767.5119837918,-42500.0,-0.3619429369720174,-0.65266824562292469,-1.1209941404789385,-1.5917540466897573,-2.4277325511284085,-3.0988662279017194,3.0159243113994063,0.42067089869397439,-0.77356338187271034,0.77356338187271034,-0.42067089869397439,5.7052668021321304,0.0
709640.0783812654,3965767.5119837918,-42500.0,0.0043226948734477024,-0.35360566668565541,-1.311247897349386,-1.2555627746928586,-2.683366939088633,-3.3818556689066561,3.1673880352318307,0.62767585378528246,-1.153786956903559,1.153786956903559,-0.62767585378528246,5.9538199632290958,0.0
714640.0783812654,3965767.5119837918,-42500.0,0.32674940529615565,0.074546165111668797,-1.4062944273593492,-0.77251854170780798,-2.8049227211830381,-3.5279439075238934,3.2445748311288476,0.89493643814993429,-1.5772358407822848,1.5772358407822848,-0.89493643814993429,6.0490949313691464,0.0
719640.0783812654,3965767.5119837918,-42500.0,0.53510582538624196,0.60073629783171101,-1.3538305567227542,-0.17572913072575694,-2.7304501556016949,-3.4762160115354921,3.2368753946753284,1.2001034979436207,-1.985134720163898,1.985134720163898,-1.2001034979436207,5.9685023594148747,0.0
724640.0783812654,3965767.5119837918,-42500.0,0.56858426725127842,1.1589624965338907,-1.1149841556546938,0.46562842567451501,-2.4146935530781719,-3.1813633075509657,3.1505406939699157,1.4995351040711584,-2.2955800513713855,2.2955800513713855,-1.4995351040711584,5.7232388284273004,0.0
729640.0783812654,3965767.5119837918,-42500.0,0.39990012745314885,1.6560090938512118,-0.68169300447512637,1.054088477719646,-1.8481143051713869,-2.6314542860910417,3.0147532033246316,1.7330118072577254,-2.4199076132996287,2.4199076132996287,-1.7330118072577254,5.374685715248237,0.0
734640.0783812654,3965767.5119837918,-42500.0,0.053573130809273305,1.9932696380448087,-0.088506358799078422,1.4855225250790514,-1.0697431557334445,-1.8602429352457099,2.8798647091992922,1.8376760417796125,-2.2888946564474892,2.2888946564474892,-1.8376760417796125,5.0382257622410496,0.0
739640.0783812654,3965767.5119837918,-42500.0,-0.39325206106119082,2.0966667976460269,0.58915004361225787,1.6788925891490156,-0.16561350111304105,-0.94652292623815426,2.800937040001052,1.7677587404889819,-1.8793144837363966,1.8793144837363966,-1.7677587404889819,4.8519188432958957,0.0
744640.0783812654,3965767.5119837918,-42500.0,-0.83187038743396202,1.9417949047755501,1.252715966565112,1.6018319182654595,0.74987515438266705,0.0021015429252639207,2.8084902850900368,1.511757247032004,-1.2277354626382442,1.2277354626382442,-1.511757247032004,4.8988529293602285,0.0
749640.0783812654,3965767.5119837918,-42500.0,-1.1569968965788897,1.5617275957326124,1.807919617327171,1.2798559372931504,1.5633847478002389,0.87576770788061709,2.8890413503738648,1.0982902746782275,-0.42306965249874318,0.42306965249874318,-1.0982902746782275,5.1438772386581793,0.0
754640.0783812654,3965767.5119837918,-42500.0,-1.2991567154311412,1.0337967680755009,2.1897564570217782,0.78514117395363137,2.1904963853869259,1.5883826718382734,2.9971495690400745,0.58737863400464452,0.41950030810160666,-0.41950030810160666,-0.58737863400464452,5.4668450809464408,0.0
759640.0783812654,3965767.5119837918,-42500.0,-1.24019747045808,0.45294411483287811,2.374727113592491,0.21148352863255218,2.5910542949989002,2.0931454893423314,3.0845133923398671,0.051743853866445866,1.190841062107155,-1.190841062107155,-0.051743853866445866,5.7462517926558307,0.0
764640.0783812654,3965767.5119837918,-42500.0,-1.0083872992664857,-0.095239613488345601,2.3777915609091131,-0.35233302533711897,2.7685585695770674,2.3839031073736239,3.119154543372574,-0.44285627989125675,1.8126091794050043,-1.8126091794050043,0.44285627989125675,5.9060406794433034,0.0
769640.0783812654,3965767.5119837918,-42500.0,-0.66010630840571805,-0.55163353832524742,2.2390497991762577,-0.84073547275488447,2.7579195555877232,2.4855483308248809,3.0889444457521926,-0.85069619730685297,2.247103843110942,-2.247103843110942,0.85069619730685297,5.9188067461536775,0.0
774640.0783812654,3965767.5119837918,-42500.0,-0.25890841076087862,-0.88805995049498421,2.0079398728470026,-1.2177116897120379,2.6092345902034628,2.4399623745440806,2.9968714811356132,-1.1499868626176442,2.4933764818883959,-2.4933764818883959,1.1499868626176442,5.7916583285158323,0.0
779640.0783812654,3965767.5119837918,-42500.0,0.14013128387002258,-1.1023307336546784,1.7308164626824734,-1.4736871225145742,2.3738768781021578,2.2931977230512066,2.8545195816817128,-1.3395461984235091,2.575671519049008,-2.575671519049008,1.3395461984235091,5.5504646830023985,0.0
784640.0783812654,3965767.5119837918,-42500.0,0.49809861283956669,-1.2091680967385534,1.4441160154724939,-1.6176586006163369,2.0957734157104753,2.0868148481207198,2.6766801342848043,-1.4320085862172713,2.5305527439688449,-2.5305527439688449,1.4320085862172713,5.2277656918477238,0.0
789640.0783812654,3965767.5119837918,-42500.0,0.79321304075538035,-1.2312690745085857,1.1724573616101783,-1.6687144393393041,1.8077932820126468,1.8536802500619576,2.4778344862862176,-1.4468378619711508,2.3966696587374479,-2.3966696587374479,1.4468378619711508,4.8551503255311435,0.0
794640.0783812654,3965767.5119837918,-42500.0,1.0178693128191911,-1.1926758360671139,0.92984786946826548,-1.6492715595396954,1.5317229731940287,1.6171240983176141,2.2703066805293637,-1.4049393480641348,2.2084501049032736,-2.2084501049032736,1.4049393480641348,4.4593546757970026,0.0
799640.0783812654,3965767.5119837918,-42500.0,1.174287023093848,-1.1148697302270316,0.72222429208828576,-1.5807202269430827,1.2801125988068822,1.3920296082527137,2.0635964583549695,-1.3253388301818889,1.9932797264493054,-1.9932797264493054,1.3253388301818889,4.0609239717657584,0.0
804640.0783812654,3965767.5119837918,-42500.0,1.2703801101436429,-1.0150787490454698,0.55013930578820858,-1.4812000535693604,1.0587062593788019,1.1866984508097931,1.8644172221217634,-1.2236284320791369,1.7710655922542335,-1.7710655922542335,1.2236284320791369,3.674380317557691,0.0
809640.0783812654,3965767.5119837918,-42500.0,1.3165638018367076,-0.90602538307594327,0.41100443528632197,-1.3648768317557125,0.86871882248799004,1.0047725298803272,1.6770829477049864,-1.111617162710371,1.5550981510586139,-1.5550981510586139,1.111617162710371,3.3091140077739207,0.0
814640.0783812654,3965767.5119837918,-42500.0,1.3236257503592574,-0.7964355031616539,0.30071560912661771,-1.2420994599739894,0.7086493331979371,0.84686436934232812,1.5040144340150718,-0.9976562327024795,1.3534186523520477,-1.3534186523520477,0.9976562327024795,2.970500949283335,0.0
819640.0783812654,3965767.5119837918,-42500.0,1.3015008888183932,-0.69184035467892024,0.21470877156284027,-1.1199740807814849,0.57558093740320082,0.71179293938010468,1.3462388898602737,-0.88725558201399901,1.170223289675554,-1.170223289675554,0.88725558201399901,2.6609806315128739,0.0
654640.0783812654,3970767.5119837918,-42500.0,-1.1390615883406261,-0.029668720485241513,0.27381173530200031,-0.7686880225855045,-0.054965111675432644,-0.42198148795205564,0.95500651875065168,0.25040395261054216,-0.084766310383337859,0.084766310383337859,-0.25040395261054216,1.8115241019400399,0.0
659640.0783812654,3970767.5119837918,-42500.0,-1.2574265074079787,-0.097280986433818883,0.27908366166647042,-0.91274100174749428,-0.11940891807083155,-0.5395715639066877,1.0936808314980047,0.25564896813609095,-0.064438333007838633,0.064438333007838633,-0.25564896813609095,2.084140697719457,0.0
664640.0783812654,3970767.5119837918,-42500.0,-1.3706625523481615,-0.1807312777244662,0.27342522867663743,-1.0772420710156367,-0.2084117418645669,-0.68918802410211766,1.2544388969122344,0.25808496534918834,-0.041711953034335697,0.041711953034335697,-0.25808496534918834,2.3993076928100017,0.0
669640.0783812654,3970767.5119837918,-42500.0,-1.4695612543489713,-0.28013219117114174,0.25175369025552868,-1.2607400941919484,-0.32881194881321252,-0.87818358998260604,1.4399794946395761,0.25794935176281458,-0.019302959036855236,0.019302959036855236,-0.25794935176281458,2.7609556770796804,0.0
674640.0783812654,3970767.5119837918,-42500.0,-1.5415920041486151,-0.39337706978083214,0.20783719657751917,-1.4586542029448575,-0.4882285144636534,-1.1144042929006335,1.6524268205934349,0.25645929863391248,-0.0021226748464182321,0.0021226748464182321,-0.25645929863391248,3.1714367829339269,0.0
679640.0783812654,3970767.5119837918,-42500.0,-1.5708483625088392,-0.51476228143282821,0.13463375060972957,-1.6616768930600732,-0.69428464077368257,-1.4052249539043606,1.8924730967282963,0.25645306095566256,0.0018646825176390491,-0.0018646825176390491,-0.25645306095566256,3.6301758893952134,0.0
684640.0783812654,3970767.5119837918,-42500.0,-1.5388572078286784,-0.63329735880672577,0.025203098345766565,-1.853919049339096,-0.95306504977045647,-1.7557675356088771,2.1582081285321397,0.26318701171115455,-0.019161400930715861,0.019161400930715861,-0.26318701171115455,4.1318081624310983,0.0
689640.0783812654,3970767.5119837918,-42500.0,-1.4268698084902693,-0.73099979606919374,-0.12549787669312504,-2.0111834238844257,-1.2664889396216357,-2.1659998191170349,2.4437971910828353,0.28513444020856071,-0.08122784816858962,0.08122784816858962,-0.28513444020856071,4.6638402876697018,0.0
694640.0783812654,3970767.5119837918,-42500.0,-1.2202869941604502,-0.78186641622743958,-0.31766439421773895,-2.1001848795769353,-1.6283868385695148,-2.6265433877238453,2.7381829160730575,0.33441337598514403,-0.20375754139638741,0.20375754139638741,-0.33441337598514403,5.2041146563342124,0.0
699640.0783812654,3970767.5119837918,-42500.0,-0.91552825055861908,-0.75273910311437364,-0.54254073308702544,-2.0800785191171096,-2.0194640501247476,-3.113445743951559,3.0240989259295157,0.4261681874309477,-0.40658896255792304,0.40658896255792304,-0.4261681874309477,5.7187839917073866,0.0
704640.0783812654,3970767.5119837918,-42500.0,-0.52861480616909562,-0.60772027341406387,-0.77784577066698479,-1.9080572100728552,-2.4021795117613944,-3.5830446103853091,3.2780304377927583,0.57596289588517602,-0.70378908044541111,0.70378908044541111,-0.57596289588517602,6.1621276341471534,0.0
709640.0783812654,3970767.5119837918,-42500.0,-0.10281915929240699,-0.31761524360845278,-0.98454515876654403,-1.5504713731461894,-2.7178727664287599,-3.9693550716709423,3.4721746482739269,0.79431994381990056,-1.0939517714764069,1.0939517714764069,-0.79431994381990056,6.4802264888858003,0.0
714640.0783812654,3970767.5119837918,-42500.0,0.28959929716619293,0.12569628014936723,-1.1080417775973939,-0.9991120912016157,-2.8897729898369864,-4.1876622759526168,3.579641239537632,1.0784393766803932,-1.5486716875682089,1.5486716875682089,-1.0784393766803932,6.6208839641094217,0.0
719640.0783812654,3970767.5119837918,-42500.0,0.55762158446994736,0.69351499638126257,-1.0871791446109305,-0.28855785302792064,-2.8356081771480302,-4.1479898664041759,3.5836794660323159,1.4032068126383581,-2.0040647200357791,2.0040647200357791,-1.4032068126383581,6.5515694819630239,0.0
724640.0783812654,3970767.5119837918,-42500.0,0.61681108058147249,1.3111196594141461,-0.87228293826476078,0.49405263627272389,-2.4907232366464833,-3.7792210486732452,3.4900362747890878,1.7163230347307232,-2.3629420663501355,2.3629420663501355,-1.7163230347307232,6.2846534796214026,0.0
729640.0783812654,3970767.5119837918,-42500.0,0.42450164973333476,1.8649026113395448,-0.44806954652697101,1.2172239659489814,-1.8363004623529198,-3.0583382742874621,3.3378597422875544,1.9436985507856264,-2.5141603476449665,2.5141603476449665,-1.9436985507856264,5.9031359965113328,0.0
734640.0783812654,3970767.5119837918,-42500.0,0.0089158517880289691,2.2306406771638101,0.1491066685353582,1.7362210089247987,-0.92018419986033528,-2.0322479811625578,3.1984075015756952,2.0082685213001952,-2.367930774912085,2.367930774912085,-2.0082685213001952,5.5662407633221438,0.0
739640.0783812654,3970767.5119837918,-42500.0,-0.52745747281362476,2.3153109924399216,0.83187208235288668,1.9389790679187588,0.14379053169675818,-0.8180609376713267,3.1472584872057365,1.8574664515684076,-1.8937734790027387,1.8937734790027387,-1.8574664515684076,5.4543739050040347,0.0
744640.0783812654,3970767.5119837918,-42500.0,-1.0388288228776772,2.0927451801249348,1.4849267143407221,1.7859891725598755,1.2032909316565763,0.42377079945619706,3.2153625580716545,1.4864489017316238,-1.1405835688339532,1.1405835688339532,-1.4864489017316238,5.6452672310729177,0.0
749640.0783812654,3970767.5119837918,-42500.0,-1.3885559343449323,1.6131976295663586,2.0015078336839767,1.3228832643261585,2.1115747499804653,1.5338241491183389,3.3660482638959617,0.94357787003047622,-0.22507007660779799,0.22507007660779799,-0.94357787003047622,6.0464292611135768,0.0
754640.0783812654,3970767.5119837918,-42500.0,-1.4954817864511636,0.98174465332049821,2.3150851944204707,0.65955602991149698,2.767440088634642,2.3953291274920829,3.5269337648162606,0.31436224691677694,0.70671493629725879,-0.70671493629725879,-0.31436224691677694,6.4811510383246169,0.0
759640.0783812654,3970767.5119837918,-42500.0,-1.3517984357368189,0.31900916640833255,2.411850968118427,-0.070961713953121328,3.1338010516745163,2.9555754169821555,3.6352988557939794,-0.30708681115629244,1.5244199342827671,-1.5244199342827671,0.30708681115629244,6.803647230933394,0.0
764640.0783812654,3970767.5119837918,-42500.0,-1.0097941708090692,-0.2748905084037,2.3223487227534223,-0.75222264631056934,3.2315931554786976,3.2227849526222627,3.658178318225024,-0.84438732796024707,2.1441177787318653,-2.1441177787318653,0.84438732796024707,6.9403269319933436,0.0
769640.0783812654,3970767.5119837918,-42500.0,-0.55169305825140658,-0.7393584321465011,2.1014594203980224,-1.3074300522062987,3.1183247443524165,3.2466172003667473,3.5903215772150219,-1.2528550959122451,2.5361200695981436,-2.5361200695981436,1.2528550959122451,6.8795932256109298,0.0
774640.0783812654,3970767.5119837918,-42500.0,-0.060105254870195489,-1.0540803665191849,1.808200131552359,-1.7032781267857251,2.8641327569548451,3.0946222405634929,3.444253392030399,-1.5198755524851539,2.7146046323440189,-2.7146046323440189,1.5198755524851539,6.6479599090364374,0.0
779640.0783812654,3970767.5119837918,-42500.0,0.40060566249071861,-1.2285496018428517,1.4922673062179963,-1.9409381524306144,2.5340158269229351,2.8335582549829321,3.240524159163308,-1.6566557136994522,2.7195631052547435,-2.7195631052547435,1.6566557136994522,6.2887563298321636,0.0
784640.0783812654,3970767.5119837918,-42500.0,0.79066594217509767,-1.2885861854609351,1.1885307761703205,-2.0425418192023974,2.1787359408922202,2.5187376651254998,3.0008385895258369,-1.687505769856724,2.5998927463227837,-2.5998927463227837,1.687505769856724,5.8476452148422995,0.0
789640.0783812654,3970767.5119837918,-42500.0,1.092703616254783,-1.2651327268648163,0.91729191301839774,-2.0390099340504273,1.8327521830662534,2.1904088130097201,2.7442185032653459,-1.640774321497902,2.4018364424077103,-2.4018364424077103,1.640774321497902,5.3646607515903426,0.0
794640.0783812654,3970767.5119837918,-42500.0,1.3057172690605225,-1.1871545759799684,0.6873939856804302,-1.9616657997727056,1.5162367904897103,1.8745938552454984,2.485459069368539,-1.5429792830960067,2.1631512174196392,-2.1631512174196392,1.5429792830960067,4.8710391086497324,0.0
799640.0783812654,3970767.5119837918,-42500.0,1.4385876223932059,-1.0782725075616886,0.49999021860844517,-1.8376849614362309,1.2386465341473825,1.5859520531894178,2.2349945782409906,-1.4159392861244608,1.9115138942717396,-1.9115138942717396,1.4159392861244608,4.3889640916546195,0.0
804640.0783812654,3970767.5119837918,-42500.0,1.5048240557882704,-0.95594496860187317,0.35180613903666041,-1.6883948809542719,1.0023067008141995,1.3310529081462978,1.9994728774239117,-1.2760169181501833,1.6653553840440467,-1.6653553840440467,1.2760169181501833,3.9327682133621811,0.0
809640.0783812654,3970767.5119837918,-42500.0,1.5189999204975053,-0.83203458831013166,0.23750712330630369,-1.5292876334385539,0.80531718439600064,1.1112390690545328,1.7825772483418068,-1.1345496827150205,1.4357121451304138,-1.4357121451304138,1.1345496827150205,3.5106358505788839,0.0
814640.0783812654,3970767.5119837918,-42500.0,1.494687517161889,-0.71392711514330098,0.15120627474011694,-1.3708557514431017,0.6436253110531317,0.92480251712568395,1.5858407075058121,-0.99878409188622697,1.2282361913904578,-1.2282361913904578,0.99878409188622697,3.1262843485851319,0.0
819640.0783812654,3970767.5119837918,-42500.0,1.4434863996935188,-0.60572022349687493,0.087309526821941569,-1.2196861617032797,0.51236591920786201,0.76848748473873429,1.4093388172484584,-0.87290069418249427,1.0449484711606436,-1.0449484711606436,0.87290069418249427,2.7803905840968963,0.0
824640.0783812654,3970767.5119837918,-42500.0,1.3747443384068028,-0.50925571101664657,0.040913460506247036,-1.0795096267608149,0.40664982033762298,0.63844864886187946,1.2522275506667375,-0.75892609941044187,0.88559845873001786,-0.88559845873001786,0.75892609941044187,2.471696117418603,0.0
649640.0783812654,3975767.5119837918,-42500.0,-0.97840582331566595,0.15890761301892295,0.30929846503734409,-0.60148549254777905,0.076533546729866744,-0.301448797483513,0.83870219234925369,0.29237178975933653,-0.16605526106070956,0.16605526106070956,-0.29237178975933653,1.5567318705734428,0.0
654640.0783812654,3975767.5119837918,-42500.0,-1.1071922109573631,0.12398634527156852,0.33830853346880835,-0.72835430932806244,0.047947796428674194,-0.3920504301894428,0.95966865009127467,0.31009923119851973,-0.15517412046677853,0.15517412046677853,-0.31009923119851973,1.7921152326245697,0.0
659640.0783812654,3975767.5119837918,-42500.0,-1.2421587518919046,0.075231925023046528,0.36480603117563554,-0.87880429273410643,0.0031927253700529132,-0.50999194404624115,1.1009092782628196,0.32661252322320278,-0.13941964003731322,0.13941964003731322,-0.32661252322320278,2.0677859743911653,0.0
664640.0783812654,3975767.5119837918,-42500.0,-1.3777610401271496,0.01037012910133365,0.3856501873258667,-1.05472252089856,-0.063651139895838316,-0.66297522826680211,1.2656436772005768,0.34147954231132666,-0.11908127039786025,0.11908127039786025,-0.34147954231132666,2.389533929016336,0.0
669640.0783812654,3975767.5119837918,-42500.0,-1.5052600218399801,-0.072118088315742984,0.39639745926775954,-1.2563367861525558,-0.16000165425624069,-0.86022423210607368,1.4572475072465321,0.35461365562431912,-0.095635060392902455,0.095635060392902455,-0.35461365562431912,2.7628402442346367,0.0
674640.0783812654,3975767.5119837918,-42500.0,-1.6118880752370217,-0.17203916924186372,0.39109781543770911,-1.4808283596878271,-0.29470213302974341,-1.1122047757914313,1.6788894369705141,0.36668685589915084,-0.072537314147064547,0.072537314147064547,-0.36668685589915084,3.1919704949851773,0.0
679640.0783812654,3975767.5119837918,-42500.0,-1.680287355948775,-0.28603293941301289,0.36231056944620138,-1.7203561974261083,-0.47749431089683347,-1.4297445004346918,1.932760402794139,0.37976495835463353,-0.056278173333059567,0.056278173333059567,-0.37976495835463353,3.6785245692468793,0.0
684640.0783812654,3975767.5119837918,-42500.0,-1.6887338497795676,-0.40558022276239442,0.30160220324132181,-1.9595080484265703,-0.71767282298213819,-1.8221334939005249,2.2187298651702392,0.39817812412310194,-0.057591784770337245,0.057591784770337245,-0.39817812412310194,4.2192899117666025,0.0
689640.0783812654,3975767.5119837918,-42500.0,-1.6129602061294541,-0.51464632796922649,0.20091422483832566,-2.1724920103786665,-1.0214385714899001,-2.2936766152037311,2.5324906177971513,0.42952457116833515,-0.092480952718508591,0.092480952718508591,-0.42952457116833515,4.8033328814686298,0.0
694640.0783812654,3975767.5119837918,-42500.0,-1.4306265985731101,-0.58758383368620126,0.055260706688076047,-2.3209546931076526,-1.3874659872206621,-2.8382114412550492,2.863517901266365,0.48546331141051347,-0.18231015508849904,0.18231015508849904,-0.48546331141051347,5.408522031608034,0.0
699640.0783812654,3975767.5119837918,-42500.0,-1.1293520684732687,-0.58864609780838872,-0.13292846443185732,-2.354181797814352,-1.8005254376419304,-3.4315408705732602,3.193293642843035,0.58155587224882854,-0.35169283104033472,0.35169283104033472,-0.58155587224882854,5.9982157842346,0.0
704640.0783812654,3975767.5119837918,-42500.0,-0.71817280150276852,-0.47531218762893263,-0.34812358738931315,-2.2143719514277724,-2.2239690028353958,-4.0228913720569484,3.4945267910573445,0.73495631352351454,-0.62251176088248605,0.62251176088248605,-0.73495631352351454,6.519756021737722,0.0
709640.0783812654,3975767.5119837918,-42500.0,-0.2397754492475993,-0.20798040480981836,-0.55632384098696064,-1.8499028240451161,-2.5937255996087516,-4.5286078728719321,3.7327481049256486,0.9585775385453027,-1.0028155272451311,1.0028155272451311,-0.9585775385453027,6.9076110064108578,0.0
714640.0783812654,3975767.5119837918,-42500.0,0.2229999692470124,0.23276420890120553,-0.70358218481679979,-1.2376119429460724,-2.8188187207819366,-4.8338790770842452,3.8722987483413704,1.2511966444757185,-1.4715059129094168,1.4715059129094168,-1.2511966444757185,7.0950525533332378,0.0
719640.0783812654,3975767.5119837918,-42500.0,0.55600488034547124,0.82445910360203811,-0.72336555547521275,-0.40970801998061268,-2.7946963666257774,-4.809489886476201,3.8886299825514543,1.5855827325704261,-1.9642174136499855,1.9642174136499855,-1.5855827325704261,7.0380843414213645,0.0
724640.0783812654,3975767.5119837918,-42500.0,0.64536796187994683,1.4867156723245443,-0.5560649535831973,0.52720751092581153,-2.4328416426880559,-4.347123834875533,3.7868885028882504,1.9008777437409456,-2.3709843037823601,2.3709843037823601,-1.9008777437409456,6.7521285933514816,0.0
729640.0783812654,3975767.5119837918,-42500.0,0.42732162695712284,2.0857645475173312,-0.1772627730681671,1.3988477682625546,-1.7009388520407005,-3.4062753619320314,3.6208734918638452,2.1083133242229781,-2.5570609469926797,2.5570609469926797,-2.1083133242229781,6.3518029447560913,0.0
734640.0783812654,3975767.5119837918,-42500.0,-0.066633414034173166,2.4694342142808847,0.37843861585328958,2.006904407683356,-0.65537264851995947,-2.0520026389444328,3.4932045338201028,2.1159025037116814,-2.4084865056885612,2.4084865056885612,-2.1159025037116814,6.0571663530086255,0.0
739640.0783812654,3975767.5119837918,-42500.0,-0.701625110706666,2.5239314226657767,1.0157118350953129,2.1989440188727429,0.55719546107146178,-0.45741789126655918,3.5062478819892915,1.8658121454500523,-1.8849003454966649,1.8849003454966649,-1.8658121454500523,6.0940669088836481,0.0
744640.0783812654,3975767.5119837918,-42500.0,-1.2845065841265664,2.2232088387514706,1.6069579462525441,1.9298218361962969,1.7393734748716367,1.1406287343415036,3.6791404496248865,1.364891386219933,-1.0484287864108617,1.0484287864108617,-1.364891386219933,6.5043466639125924,0.0
749640.0783812654,3975767.5119837918,-42500.0,-1.6416212017891674,1.6400251032878366,2.0385335856414688,1.2778840474854141,2.7074924728044292,2.5150666720740511,3.9312763525318903,0.68809223678327369,-0.046745107720069234,0.046745107720069234,-0.68809223678327369,7.1052019652428902,0.0
754640.0783812654,3975767.5119837918,-42500.0,-1.683598626191277,0.91204630967368883,2.2487861698946037,0.40711043885564668,3.3469806957926216,3.5137842774215757,4.1543305145777802,-0.048877611304394719,0.94178598122409829,-0.94178598122409829,0.048877611304394719,7.6575368883812738,0.0
759640.0783812654,3975767.5119837918,-42500.0,-1.4230797150175636,0.18607951088412911,2.2387301100922308,-0.49894796063745561,3.6324740392569748,4.0866349103496074,4.274623623040732,-0.73097021497234616,1.7685389497456314,-1.7685389497456314,0.73097021497234616,8.0016002269888489,0.0
764640.0783812654,3975767.5119837918,-42500.0,-0.94667047328230525,-0.42756667117327313,2.056149490043452,-1.2940786953221324,3.6114872369107767,4.2712743730539433,4.2661025171983251,-1.2765612401508584,2.3503424602471323,-2.3503424602471323,1.2765612401508584,8.0793691690939742,0.0
769640.0783812654,3975767.5119837918,-42500.0,-0.36799525100812125,-0.8733926714081689,1.7683468108009748,-1.8955845336252815,3.3698140623923867,4.1564960863482847,4.1377171063359448,-1.649465393868871,2.6719949494947306,-2.6719949494947306,1.649465393868871,7.9059613588507736,0.0
774640.0783812654,3975767.5119837918,-42500.0,0.21137068162911851,-1.1446062584252608,1.4388627876979816,-2.2811426673357573,2.9987424521392336,3.8450653935441799,3.9164981464038262,-1.8526571982636435,2.7666799535707174,-2.7666799535707174,1.8526571982636435,7.5345018086536371,0.0
779640.0783812654,3975767.5119837918,-42500.0,0.72152453553460683,-1.265413480715138,1.1150196069754377,-2.4701042286829789,2.5745968369389938,3.4285995010675543,3.6344676020393925,-1.9134213971592144,2.6906491393718008,-2.6906491393718008,1.9134213971592144,7.0293369342231413,0.0
784640.0783812654,3975767.5119837918,-42500.0,1.1266344103172887,-1.2731115292740098,0.82533394659399906,-2.5025707963652764,2.1511719000078795,2.97636526648476,3.3208886633833852,-1.8686451669512916,2.5031047949055516,-2.5031047949055516,1.8686451669512916,6.450058393142438,0.0
789640.0783812654,3975767.5119837918,-42500.0,1.4178076139626727,-1.205524435009901,0.58263143713587229,-2.4234787295027771,1.7607410949768825,2.5341090248804341,2.9988770056444083,-1.7545351223244985,2.254692036692191,-2.254692036692191,1.7545351223244985,5.8443304996217362,0.0
794640.0783812654,3975767.5119837918,-42500.0,1.6032905131279551,-1.0944616000204397,0.38902374256602112,-2.2733309750077684,1.4188995572591241,2.1279981932811705,2.6847791778259564,-1.6012823809677168,1.9832752472708699,-1.9832752472708699,1.6012823809677168,5.2463668045885807,0.0
799640.0783812654,3975767.5119837918,-42500.0,1.6998982556017288,-0.96362908441518069,0.2405052743339077,-2.0843147727742197,1.1300562508818168,1.7700734280999768,2.3889725396750627,-1.4314181761104563,1.7142065929668662,-1.7142065929668662,1.4314181761104563,4.6783644819841053,0.0
804640.0783812654,3975767.5119837918,-42500.0,1.7270145336193026,-0.82905947429919158,0.13032410181313886,-1.8797797108510601,0.89203716116393272,1.4632603412647911,2.1171741402208148,-1.2602816242839885,1.4626272997705896,-1.4626272997705896,1.2602816242839885,4.1530444043104797,0.0
809640.0783812654,3975767.5119837918,-42500.0,1.7030675212629154,-0.70059807596901735,0.051093526734820288,-1.6753765017002862,0.69937597408255692,1.2052232293122316,1.8717639878482226,-1.0973870853424705,1.2362442504943656,-1.2362442504943656,1.0973870853424705,3.6762744338355531,0.0
814640.0783812654,3975767.5119837918,-42500.0,1.6438498023644879,-0.58358312983026084,-0.0040708712607726424,-1.4807532227782467,0.5454105833740257,0.99100936756842994,1.6529044522506613,-0.94796109203396139,1.0378104653992295,-1.0378104653992295,0.94796109203396139,3.2493122614991061,0.0
819640.0783812654,3975767.5119837918,-42500.0,1.5620066658807907,-0.48031688353878055,-0.041057146413294228,-1.3012218948846486,0.42348377422712052,0.81470709244744555,1.4593976040963828,-0.81429872971253159,0.86704506169817586,-0.86704506169817586,0.81429872971253159,2.8705339297326637,0.0
824640.0783812654,3975767.5119837918,-42500.0,1.4671648216348896,-0.39119957048496523,-0.06463759544844383,-1.1391492857562631,0.32754576235281252,0.67039670410569352,1.289298189968473,-0.69682271702480647,0.72198898897781749,-0.72198898897781749,0.69682271702480647,2.5366749942933042,0.0
649640.0783812654,3980767.5119837918,-42500.0,-0.89443935463751889,0.30161278440252715,0.33575480989857059,-0.53118276785915386,0.16572142507924287,-0.25814047131470791,0.83941354658808331,0.3306658453282193,-0.23601033800545357,0.23601033800545357,-0.3306658453282193,1.5288066470811499,0.0
654640.0783812654,3980767.5119837918,-42500.0,-1.0288372308575964,0.28959841142745668,0.37845336711389627,-0.65463633812400779,0.15726629528016575,-0.34275482866170237,0.96017224915019928,0.3575778445039452,-0.23395453526882509,0.23395453526882509,-0.3575778445039452,1.7598592454717699,0.0
659640.0783812654,3980767.5119837918,-42500.0,-1.1742438240543758,0.26604285388091853,0.42322119850312184,-0.8041480734662575,0.13673994308751,-0.45508397544234402,1.1015021868949104,0.38480000735966352,-0.22662574126114082,0.22662574126114082,-0.38480000735966352,2.0319067131522939,0.0
664640.0783812654,3980767.5119837918,-42500.0,-1.326390770358399,0.22805543122534019,0.46804892046095831,-0.98307390741946676,0.098610834103217027,-0.60380117771319319,1.2668668277712571,0.4118592949680871,-0.21338234808781914,0.21338234808781914,-0.4118592949680871,2.3515971443808454,0.0
669640.0783812654,3980767.5119837918,-42500.0,-1.477722206055484,0.1729693940394777,0.50967458133745425,-1.1935506078940139,0.03554918971386227,-0.79971868544816782,1.4600358876109671,0.43844257090212008,-0.1943557389712624,0.1943557389712624,-0.43844257090212008,2.7256574207158177,0.0
674640.0783812654,3980767.5119837918,-42500.0,-1.6162180388900422,0.099138768303205629,0.54319594483375699,-1.4350495141175046,-0.061762543861376501,-1.0557472931231255,1.6848513019498421,0.46473009458968995,-0.17120449119600203,0.17120449119600203,-0.46473009458968995,3.1600535580281863,0.0
679640.0783812654,3980767.5119837918,-42500.0,-1.7242835439395487,0.0072923023301599103,0.56175944527112631,-1.702139431525812,-0.20446128098944358,-1.3862452318910163,1.944664301459458,0.49196314694330778,-0.14823930085873072,0.14823930085873072,-0.49196314694330778,3.6585381025684485,0.0
684640.0783812654,3980767.5119837918,-42500.0,-1.7782173826356273,-0.097396747831345817,0.55655069039401817,-1.9813224300817294,-0.40457427802429063,-1.805207203145677,2.2411366752330735,0.52330394064877739,-0.13392374748917812,0.13392374748917812,-0.52330394064877739,4.220343648459127,0.0
689640.0783812654,3980767.5119837918,-42500.0,-1.7491987089935122,-0.20252124123993911,0.51748357690884306,-2.2470864945784652,-0.67271327927579216,-2.3225018768736554,2.5721243811172263,0.56495666622536012,-0.14254348104245673,0.14254348104245673,-0.56495666622536012,4.8368262748173443,0.0
694640.0783812654,3980767.5119837918,-42500.0,-1.6072229782773648,-0.28535625645698914,0.4351708806441833,-2.457982965411631,-1.0136147228536745,-2.9372357569506509,2.9287785187679845,0.62728390058953631,-0.19539330496247559,0.19539330496247559,-0.62728390058953631,5.487101818907691,0.0
699640.0783812654,3980767.5119837918,-42500.0,-1.3296368849892246,-0.31075642984890095,0.30481370891519799,-2.5547415589617457,-1.4188881240179136,-3.6276346265019193,3.2925767318213972,0.72519752224500478,-0.32010742977785489,0.32010742977785489,-0.72519752224500478,6.1333301425972344,0.0
704640.0783812654,3980767.5119837918,-42500.0,-0.91513730459771958,-0.23257110485632762,0.13225348669441794,-2.4640807485236564,-1.8572390977465856,-4.3381766133413002,3.6333857253430395,0.87644859240313744,-0.54592361303313985,0.54592361303313985,-0.87644859240313744,6.7175029877082277,0.0
709640.0783812654,3980767.5119837918,-42500.0,-0.4012204920405506,-0.0022297413763128541,-0.058868552001560284,-2.1130921334660404,-2.2646673879271466,-4.9677235429479838,3.9102930437634935,1.0959244705223496,-0.89243256305386121,0.89243256305386121,-1.0959244705223496,7.1634594496009942,0.0
714640.0783812654,3980767.5119837918,-42500.0,0.12250475391233931,0.41244587471468819,-0.22233154878098588,-1.4577165766795621,-2.5407588404958923,-5.3669770290770975,4.0781173582264216,1.3846030252216388,-1.3511820982265701,1.3511820982265701,-1.3846030252216388,7.389984020878555,0.0
719640.0783812654,3980767.5119837918,-42500.0,0.51899760562101593,0.9998386372462903,-0.29306443035913876,-0.52187895029211051,-2.560449719535026,-5.3572909247759641,4.1032789275519024,1.714776207197684,-1.8649724926201272,1.8649724926201272,-1.714776207197684,7.3418059039599273,0.0
724640.0783812654,3980767.5119837918,-42500.0,0.64047295852089559,1.6798814093706691,-0.20533675090338482,0.56936861150759832,-2.2089463826810545,-4.7798426666368297,3.9911510510484214,2.0189334465365558,-2.3180248856334629,2.3180248856334629,-2.0189334465365558,7.041842004590829,0.0
729640.0783812654,3980767.5119837918,-42500.0,0.3959670293639887,2.3030641324374281,0.07566628402914681,1.5913744786880979,-1.4355347443885003,-3.5681421665028403,3.8184297793161757,2.1949380716686915,-2.5547910114620946,2.5547910114620946,-2.1949380716686915,6.6512448872261167,0.0
734640.0783812654,3980767.5119837918,-42500.0,-0.1811062926702669,2.690685269123184,0.52340350893433174,2.2787536892097444,-0.30178142910459971,-1.8111717086279226,3.7359630979502585,2.1368979465183178,-2.434831554167157,2.434831554167157,-2.1368979465183178,6.4709023526247718,0.0
739640.0783812654,3980767.5119837918,-42500.0,-0.9167383766969448,2.7084465707907377,1.0441802550112254,2.4291895247967363,1.0121682664861473,0.23945642738729783,3.8754915304048723,1.7841157982552276,-1.9032738299954692,1.9032738299954692,-1.7841157982552276,6.7600422996926799,0.0
744640.0783812654,3980767.5119837918,-42500.0,-1.5605322707292211,2.3323420718482253,1.5089588596588155,1.9959525743989575,2.2617394342672932,2.2413126217348731,4.2121265345220458,1.1597946138922004,-1.0319202206819686,1.0319202206819686,-1.1597946138922004,7.4715062519551596,0.0
749640.0783812654,3980767.5119837918,-42500.0,-1.8984656456626272,1.6607561753296332,1.8075738205644187,1.1070806879437809,3.228202316062748,3.8804567568656396,4.5927322469269729,0.3701246685531257,0.0030787886040427037,-0.0030787886040427037,-0.3701246685531257,8.302339725311267,0.0
754640.0783812654,3980767.5119837918,-42500.0,-1.8404770088130673,0.86444908239657492,1.8908173514690947,-0.00057742252082561415,3.7916954805725869,4.97013386647646,4.8734904414129829,-0.43847652201732412,0.9952211663691175,-0.9952211663691175,0.43847652201732412,8.9592000563244572,0.0
759640.0783812654,3980767.5119837918,-42500.0,-1.4328550382480474,0.11167629961477936,1.7768532301361233,-1.0837417771047184,3.9492461404988384,5.4798480444194082,4.9829348696194522,-1.135514074236958,1.7845945873741655,-1.7845945873741655,1.135514074236958,9.2871130916275337,0.0
764640.0783812654,3980767.5119837918,-42500.0,-0.80666177869988054,-0.48539589765206165,1.5270133045757044,-1.9696585755526346,3.782435643095063,5.4985983535612828,4.9143198656271574,-1.6432828981177745,2.2961740975637528,-2.2961740975637528,1.6432828981177745,9.2603383681774254,0.0
769640.0783812654,3980767.5119837918,-42500.0,-0.10939768600615749,-0.88418075822124453,1.2131180946904734,-2.5803624796207703,3.4066442509227426,5.1711471165338585,4.6988682944752496,-1.9426141776279597,2.5335793239490561,-2.5335793239490561,1.9426141776279597,8.932267973205585,0.0
774640.0783812654,3980767.5119837918,-42500.0,0.5423831148467837,-1.0956721585208695,0.89429349050894746,-2.91577251553985,2.9303626873043065,4.643672682565291,4.3819962668789971,-2.0569248286768751,2.5487754119531001,-2.5487754119531001,2.0569248286768751,8.3886165510018547,0.0
779640.0783812654,3980767.5119837918,-42500.0,1.0798338736466768,-1.1590396478912983,0.60815521458136346,-3.0212162650044161,2.4349203369019974,4.0336660162701428,4.0080683586105987,-2.0302913199306221,2.4104553861805722,-2.4104553861805722,2.0302913199306221,7.7162644903774726,0.0
784640.0783812654,3980767.5119837918,-42500.0,1.4770265954672688,-1.1206112032010445,0.37229680900493978,-2.9583079370514676,1.9710306027276348,3.4213800616758467,3.6130934705852522,-1.9100131319061098,2.182783992416319,-2.182783992416319,1.9100131319061098,6.9875513851661299,0.0
789640.0783812654,3980767.5119837918,-42500.0,1.7374181786999054,-1.0216323917875811,0.19012297326266644,-2.7863465918855286,1.5642107802519269,2.8538174307483137,3.2228037265690106,-1.7367668214513496,1.9157214939443705,-1.9157214939443705,1.7367668214513496,6.2554388551200537,0.0
794640.0783812654,3980767.5119837918,-42500.0,1.8802429878455247,-0.89350150361620195,0.056935742594936452,-2.5536467425268601,1.2227140030507451,2.3533495204901396,2.8535860038391467,-1.5410545208644464,1.6433636235141902,-1.6433636235141902,1.5410545208644464,5.5546697595876138,0.0
799640.0783812654,3980767.5119837918,-42500.0,1.9304604737569699,-0.7575288067615199,-0.03547461543746263,-2.295466367223872,0.94461442078300306,1.9263602541351319,2.5144997649682863,-1.3434170761312825,1.3862785963712747,-1.3862785963712747,1.3434170761312825,4.9053841074212521,0.0
804640.0783812654,3980767.5119837918,-42500.0,1.9126924691004576,-0.62671445228956413,-0.09598658750469112,-2.0353222864898211,0.72294179413054338,1.5700507667957448,2.2094003470537471,-1.1562944664485522,1.1550669126604571,-1.1550669126604571,1.1562944664485522,4.3171513332448468,0.0
809640.0783812654,3980767.5119837918,-42500.0,1.8482597308884861,-0.50801522173874347,-0.13268002279329977,-1.7875318377897109,0.54892446981299547,1.2771068071542704,1.9387402396827873,-0.98624155995663698,0.95371308430208401,-0.95371308430208401,0.98624155995663698,3.7924822041137016,0.0
814640.0783812654,3980767.5119837918,-42500.0,1.7542003260119754,-0.4043750192980346,-0.1522584998847937,-1.5598205274359978,0.41380332568703115,1.0385862490091267,1.7009330652767909,-0.83588660857773511,0.78220443924513983,-0.78220443924513983,0.83588660857773511,3.3295310883342442,0.0
819640.0783812654,3980767.5119837918,-42500.0,1.643368962893559,-0.31628274908414378,-0.15996716995326307,-1.3555082554902187,0.30970645414063513,0.8455378802501593,1.493309787365438,-0.7054354921265964,0.63836459210768126,-0.63836459210768126,0.7054354921265964,2.92401513550185,0.0
824640.0783812654,3980767.5119837918,-42500.0,1.525020608257365,-0.24285934286235994,-0.15974451446039453,-1.1751558426190196,0.2299675026349122,0.68980185563880914,1.3127470131363115,-0.59372946301635521,0.51903726500665104,-0.51903726500665104,0.59372946301635521,2.5704955476670621,0.0
829640.0783812654,3980767.5119837918,-42500.0,1.4055341818461002,-0.18256429611702121,-0.1544561165749265,-1.0177204102326844,0.16914602998523498,0.56432326089621709,1.1560530759102916,-0.49894087374365331,0.42079679789982266,-0.42079679789982266,0.49894087374365331,2.2631856915258628,0.0
644640.0783812654,3985767.5119837918,-42500.0,-0.65045186492632734,0.42377520444774031,0.29136701133028059,-0.34180078034954647,0.23585396408909806,-0.14540307965201216,0.73879363254714447,0.32125468860069228,-0.29407902164156519,0.29407902164156519,-0.32125468860069228,1.3124608416882289,0.0
649640.0783812654,3985767.5119837918,-42500.0,-0.76686444038281065,0.44301871068844523,0.33672003000169726,-0.43209718195119451,0.25287976957491431,-0.19932259267799671,0.8408585081990112,0.35330632058759093,-0.30672574891502802,0.30672574891502802,-0.35330632058759093,1.5014783562679552,0.0
654640.0783812654,3985767.5119837918,-42500.0,-0.89899837513785541,0.45710596605318859,0.38818515481327726,-0.54466683460851728,0.26627809287493781,-0.27263384188236239,0.96004383175687114,0.38747679580287364,-0.31603979485498968,0.31603979485498968,-0.38747679580287364,1.7240833507556459,0.0
659640.0783812654,3985767.5119837918,-42500.0,-1.0461840591244609,0.46349567585069207,0.4456901055861921,-0.68403540697449217,0.27293594163333657,-0.37220838358978747,1.0993718506758685,0.42344177641298647,-0.32067480098116913,0.32067480098116913,-0.42344177641298647,1.9864855800777699,0.0
664640.0783812654,3985767.5119837918,-42500.0,-1.2057756588442168,0.45914765034688892,0.5085223895725075,-0.85482996611283579,0.26829848256878502,-0.50713208888114736,1.2622704742938198,0.46077022087797803,-0.31924818537016741,0.31924818537016741,-0.46077022087797803,2.2956136571135635,0.0
669640.0783812654,3985767.5119837918,-42500.0,-1.3720433735855071,0.4407366483268681,0.57495122001494625,-1.0610426218141378,0.24591368044168063,-0.68915370010469357,1.4525177795760746,0.49901872389485402,-0.31066142717716005,0.31066142717716005,-0.49901872389485402,2.6587863926051649,0.0
674640.0783812654,3985767.5119837918,-42500.0,-1.5347528923513503,0.40518837772299421,0.64173457713000503,-1.3046672041376275,0.1969887717212932,-0.9329427198665412,1.6740834904447734,0.53795892385307553,-0.29470783912942539,0.29470783912942539,-0.53795892385307553,3.0829948139156831,0.0
679640.0783812654,3985767.5119837918,-42500.0,-1.6775716029336414,0.35074845070318778,0.70355248976119056,-1.5833998117492942,0.11014437763647714,-1.2558037555412864,1.9307547418116511,0.57802389111942365,-0.27310636458083137,0.27310636458083137,-0.57802389111942365,3.5735545538421176,0.0
684640.0783812654,3985767.5119837918,-42500.0,-1.7767358150061605,0.27883801955777737,0.75250664102624742,-1.8870905341714936,-0.028256084657942424,-1.6762051608730488,2.2252795813912596,0.62106916216136876,-0.25108408423818152,0.25108408423818152,-0.62106916216136876,4.1318139612213134,0.0
689640.0783812654,3985767.5119837918,-42500.0,-1.8009315938997943,0.19689170332753311,0.7780050458982577,-2.1928364277811152,-0.2325359108328155,-2.2100861760601496,2.5575318623248418,0.67149575408657203,-0.23949332309837837,0.23949332309837837,-0.67149575408657203,4.7515911106154745,0.0
694640.0783812654,3985767.5119837918,-42500.0,-1.714075049947676,0.12205385656650318,0.76761159528500855,-2.4592630334419052,-0.51389522401226351,-2.8635243090605522,2.9212310518265188,0.73759182252519084,-0.25705775271522358,0.25705775271522358,-0.73759182252519084,5.4141901904691325,0.0
699640.0783812654,3985767.5119837918,-42500.0,-1.4833597409624881,0.084786071810294142,0.70969923859083428,-2.6219874749741638,-0.87321251754128748,-3.6203629434306119,3.2995835840295999,0.832495301096007,-0.33153642547860018,0.33153642547860018,-0.832495301096007,6.082465431938024,0.0
704640.0783812654,3985767.5119837918,-42500.0,-1.0947247427360416,0.1299209473373597,0.59871844386166895,-2.5946535160629343,-1.2898946563614131,-4.4246659709216187,3.6615062439139918,0.97338745435322505,-0.4973583262468444,0.4973583262468444,-0.97338745435322505,6.695829174232232,0.0
709640.0783812654,3985767.5119837918,-42500.0,-0.5751564297509254,0.31078638094228672,0.44300034283478279,-2.2825610921724571,-1.7084560446269981,-5.1616510646433076,3.9610548532314773,1.1766257911263369,-0.78616378869740344,0.78616378869740344,-1.1766257911263369,7.1706926398993138,0.0
714640.0783812654,3985767.5119837918,-42500.0,-0.01422775595183905,0.67133622041565344,0.27259620117648325,-1.6160221427345633,-2.0291475270692376,-5.6477996598228479,4.1440314281639381,1.4465106371485756,-1.2074199181514835,1.2074199181514835,-1.4465106371485756,7.4144603636736468,0.0
719640.0783812654,3985767.5119837918,-42500.0,0.43297871213591732,1.2151744215237457,0.14095535883923774,-0.60297811993704586,-2.1147483176598865,-5.6486983323354316,4.1678784636144783,1.7582151859207471,-1.7216908654867571,1.7216908654867571,-1.7582151859207471,7.3643232813753876,0.0
724640.0783812654,3985767.5119837918,-42500.0,0.58434354028128677,1.8720702604144188,0.11218398045524716,0.61874265848431176,-1.8267692719382318,-4.9428101192254923,4.0414371658193344,2.0426113907211669,-2.2204495991814865,2.2204495991814865,-2.0426113907211669,7.059489380793269,0.0
729640.0783812654,3985767.5119837918,-42500.0,0.31685690837844083,2.4879680846423948,0.23102100177768128,1.7719289150103723,-1.0912791149764396,-3.4274931796447183,3.8796791468774021,2.1891360201112189,-2.5368732911589236,2.5368732911589236,-2.1891360201112189,6.7281459430219819,0.0
734640.0783812654,3985767.5119837918,-42500.0,-0.33737856993863974,2.8660540655415296,0.48822425343896475,2.5144143685831661,0.034611517071669491,-1.2196251719108517,3.9052577076311175,2.0812600079850192,-2.5047733533488667,2.5047733533488667,-2.0812600079850192,6.7676875530819229,0.0
739640.0783812654,3985767.5119837918,-42500.0,-1.1619695936377195,2.855274681791129,0.80863079434715068,2.5867905714093471,1.3475995165577763,1.3279684432551533,4.2583051514674537,1.6569440999334208,-2.0465336914296177,2.0465336914296177,-1.6569440999334208,7.4267553300645455,0.0
744640.0783812654,3985767.5119837918,-42500.0,-1.843647445552753,2.4335156682943468,1.0807454027085994,1.9469822008707975,2.5658736323557907,3.7380572619626733,4.8105458398475163,0.95582371897066132,-1.2307142477544897,1.2307142477544897,-0.95582371897066132,8.5013963989322718,0.0
749640.0783812654,3985767.5119837918,-42500.0,-2.1295668596959727,1.7208834626136353,1.2125375556915008,0.79079486628773521,3.4468425217141028,5.5951637350229211,5.3233532100724759,0.11256753141691307,-0.24827791344603461,0.24827791344603461,-0.11256753141691307,9.561737697817879,0.0
754640.0783812654,3985767.5119837918,-42500.0,-1.9403282302680007,0.91261682379488884,1.1728207856578274,-0.55616199397337729,3.8769977504484281,6.6879441817194438,5.6376586722558706,-0.70316204278500904,0.67877069165773929,-0.67877069165773929,0.70316204278500904,10.285794835844877,0.0
759640.0783812654,3985767.5119837918,-42500.0,-1.369070019379911,0.18639437548320067,0.99222965250550421,-1.7888429970126025,3.8831619891791154,7.0315279451462693,5.7032647099543805,-1.3564302228137697,1.3889391896489065,-1.3889391896489065,1.3564302228137697,10.547530544203488,0.0
764640.0783812654,3985767.5119837918,-42500.0,-0.59713380599804411,-0.35471138694953419,0.73373278935098596,-2.7189902344963608,3.5802931531455262,6.7914949287154451,5.5443680161379385,-1.7835675909354354,1.8194452380886332,-1.8194452380886332,1.7835675909354354,10.370219027721669,0.0
769640.0783812654,3985767.5119837918,-42500.0,0.19763721121804989,-0.68671224173612921,0.45986142360903992,-3.2885462264512078,3.1053708782721374,6.1826797301779681,5.2199132927238034,-1.9875799749395948,1.9900932418569621,-1.9900932418569621,1.9875799749395948,9.854358795218161,0.0
774640.0783812654,3985767.5119837918,-42500.0,0.89226058741451908,-0.83793155247603568,0.21417259199110159,-3.531157402144522,2.5729884783074723,5.3970748600397318,4.794789330139329,-2.0116446618058781,1.9640233498306963,-1.9640233498306963,2.0116446618058781,9.1204292785393744,0.0
779640.0783812654,3985767.5119837918,-42500.0,1.4273043147108608,-0.85794036329527401,0.01804562173693303,-3.5233069892666324,2.0593800109830709,4.5733896608445113,4.3243236146859116,-1.9119890600240665,1.813083020760698,-1.813083020760698,1.9119890600240665,8.2758631394812898,0.0
784640.0783812654,3985767.5119837918,-42500.0,1.7921402741325561,-0.79621709023513709,-0.12409443683301342,-3.3482387316850089,1.6051736314151781,3.7959640847474674,3.8489767702796067,-1.7403529032708549,1.5982074304212961,-1.5982074304212961,1.7403529032708549,7.4020809243375858,0.0
789640.0783812654,3985767.5119837918,-42500.0,2.0047303066174682,-0.6922156900633567,-0.21764281065682012,-3.0770763845516074,1.2254136046340447,3.1067995963338717,3.3948529898713815,-1.5364984788289076,1.3629108407402648,-1.3629108407402648,1.5364984788289076,6.5536484934447472,0.0
794640.0783812654,3985767.5119837918,-42500.0,2.0951610042112443,-0.57321376673357816,-0.27208404915704459,-2.7626880135603868,0.91978825514748885,2.519901046281944,2.9766054974082432,-1.3272937165917753,1.134277221157014,-1.134277221157014,1.3272937165917753,5.7628817062686055,0.0
799640.0783812654,3985767.5119837918,-42500.0,2.0952337258596017,-0.45594770493402625,-0.29744567891391477,-2.440490039716114,0.68032815299512039,2.0331115492365779,2.6007600540634126,-1.1288587639721959,0.92681653668983255,-0.92681653668983255,1.1288587639721959,5.0458214855767407,0.0
804640.0783812654,3985767.5119837918,-42500.0,2.0331654726702157,-0.34939717330221637,-0.30255102113070981,-2.1319820109568526,0.49628438646954276,1.6363116756419902,2.2685798930237562,-0.94951995867180849,0.74658655314302858,-0.74658655314302858,0.94951995867180849,4.407640880596901,0.0
809640.0783812654,3985767.5119837918,-42500.0,1.9316463687712742,-0.25742195608214336,-0.29441963797300336,-1.8486956648321926,0.35681739433817844,1.3164604361968573,1.9782228289708874,-0.79248655864753259,0.59453203854929038,-0.59453203854929038,0.79248655864753259,3.8468376932648254,0.0
814640.0783812654,3985767.5119837918,-42500.0,1.8077441009812112,-0.18080118068610812,-0.27827581749234515,-1.5955674871511791,0.25225582447259726,1.0603775321768532,1.726228631616765,-0.65789467932001044,0.46883567333772214,-0.46883567333772214,0.65789467932001044,3.3581970402915609,0.0
819640.0783812654,3985767.5119837918,-42500.0,1.6736432765897788,-0.11864095201024415,-0.25781586469711432,-1.3734716247513425,0.17452805010549888,0.85608729044327159,1.5084732978406812,-0.5442168364383333,0.36642323932016818,-0.36642323932016818,0.5442168364383333,2.9347463742684905,0.0
824640.0783812654,3985767.5119837918,-42500.0,1.5376401185644248,-0.069269575074585546,-0.23554251603497492,-1.180974671087891,0.11716674488610718,0.69332486791673242,1.3207386251623392,-0.44916315828578129,0.28385185225921067,-0.28385185225921067,0.44916315828578129,2.5689691004785038,0.0
829640.0783812654,3985767.5119837918,-42500.0,1.4051045027450522,-0.030767211452220208,-0.21307659835435031,-1.0154799078437948,0.075124895715767664,0.5635961268920151,1.1590237065797699,-0.37021957006088846,0.21778948073540294,-0.21778948073540294,0.37021957006088846,2.2535090227992725,0.0
644640.0783812654,3990767.5119837918,-42500.0,-0.49186717809398656,0.53120909583513953,0.26417827168668961,-0.23145149450609198,0.2977991606364005,-0.085216583568245685,0.74612371602815031,0.321628206919082,-0.34854439194018738,0.34854439194018738,-0.321628206919082,1.3049271282983255,0.0
649640.0783812654,3990767.5119837918,-42500.0,-0.59557351901796296,0.57295029857827884,0.31012487809532624,-0.3045895442741926,0.33172600970303284,-0.12530904172615853,0.84695137274900334,0.35692889636621866,-0.37238418507965504,0.37238418507965504,-0.35692889636621866,1.4861989852440343,0.0
654640.0783812654,3990767.5119837918,-42500.0,-0.71631987134413144,0.6139840899228407,0.36395677260171988,-0.39811036895818502,0.36679949500376957,-0.18166950459349937,0.96415049681488818,0.39535499079959618,-0.39459475082457579,0.39459475082457579,-0.39535499079959618,1.6986197139147921,0.0
659640.0783812654,3990767.5119837918,-42500.0,-0.85473688026119155,0.6523146037156875,0.42648727512072482,-0.51691792054364905,0.40117001218741094,-0.26067353452536585,1.1004719105885754,0.436727315793973,-0.41371274439507782,0.41371274439507782,-0.436727315793973,1.9478926713585443,0.0
664640.0783812654,3990767.5119837918,-42500.0,-1.0099492788463176,0.68526002157255073,0.49820068904786757,-0.66645099927077256,0.43176109188777645,-0.37102116736613378,1.2589888846558916,0.48069314310689892,-0.42794239802325873,0.42794239802325873,-0.48069314310689892,2.2404494331878104,0.0
669640.0783812654,3990767.5119837918,-42500.0,-1.1785013179827557,0.70945579797239255,0.57892121916979478,-0.85215321559942381,0.45373875805827452,-0.52436823112471576,1.4430248228674809,0.52674411589243531,-0.43529793624920549,0.43529793624920549,-0.52674411589243531,2.5832054347969873,0.0
674640.0783812654,3990767.5119837918,-42500.0,-1.3528562729978768,0.7210748639375768,0.66731572396943006,-1.0783426776143328,0.45987397088112275,-0.7358850117840211,1.6559954007884188,0.5743291597091984,-0.43398257233362592,0.43398257233362592,-0.5743291597091984,2.9829730548967262,0.0
679640.0783812654,3990767.5119837918,-42500.0,-1.5195013953560443,0.71646830709138887,0.76020427354708853,-1.346103737037132,0.43990446886704959,-1.0244180698180978,1.9011100644233641,0.62314893967872775,-0.42317425292523181,0.42317425292523181,-0.62314893967872775,3.445291760537752,0.0
684640.0783812654,3990767.5119837918,-42500.0,-1.656948901819836,0.69352233573643229,0.85170955747965627,-1.6497318214227203,0.38017697665744038,-1.4115952231113631,2.180801334836453,0.67375184199962856,-0.4044357330882179,0.4044357330882179,-0.67375184199962856,3.9723325201372215,0.0
689640.0783812654,3990767.5119837918,-42500.0,-1.7344562938502432,0.65407576586729699,0.93241426252987325,-1.9713340148823595,0.26416149136363298,-1.9186883012908498,2.4955208354373024,0.72855174203536421,-0.38393969116340232,0.38393969116340232,-0.72855174203536421,4.5594654852272543,0.0
694640.0783812654,3990767.5119837918,-42500.0,-1.7131825663832325,0.60759975859509674,0.98895694024298397,-2.2737158487027922,0.074885979993305526,-2.5593892537614886,2.8411166353179285,0.79327345670599081,-0.37545495938155116,0.37545495938155116,-0.79327345670599081,5.1901733693230181,0.0
699640.0783812654,3990767.5119837918,-42500.0,-1.5526209072295425,0.57572478784947756,1.0048837363380134,-2.4931629294671414,-0.19919471049775661,-3.326226551875938,3.2040111143321628,0.87845362137057614,-0.40333556877298038,0.40333556877298038,-0.87845362137057614,5.8295375912111007,0.0
704640.0783812654,3990767.5119837918,-42500.0,-1.2257260568581896,0.59573045829160143,0.96392452635553949,-2.5366735205904711,-0.55341954466507837,-4.1691739376479671,3.5551689227001186,0.99980518657961892,-0.50334273026394993,0.50334273026394993,-0.99980518657961892,6.4180385661493222,0.0
709640.0783812654,3990767.5119837918,-42500.0,-0.7442033490326182,0.71869765958966136,0.85666537477681248,-2.2923526534509424,-0.95142560016970323,-4.9690232822841285,3.8468669890923581,1.1750300542842635,-0.71717802770419492,0.71717802770419492,-1.1750300542842635,6.8705981757896497,0.0
714640.0783812654,3990767.5119837918,-42500.0,-0.1879289210533702,0.99585829186988595,0.68991377930593845,-1.6641920982234806,-1.3099440566931164,-5.5174065383606141,4.0185730094373602,1.4138807920283254,-1.0756176482761148,1.0756176482761148,-1.4138807920283254,7.0911247365885339,0.0
719640.0783812654,3990767.5119837918,-42500.0,0.28155588392579256,1.44858622291109,0.49423342139076293,-0.636044882777829,-1.4968745732644826,-5.5286052615374208,4.0216394915501734,1.7002623917286719,-1.5688110057987681,1.5688110057987681,-1.7002623917286719,7.0192350661940752,0.0
724640.0783812654,3990767.5119837918,-42500.0,0.45542083976223913,2.0289670451761883,0.32086212277555948,0.65447681027203308,-1.3611569883049164,-4.7139372649864422,3.878242670523441,1.9728640092660665,-2.1147027783110737,2.1147027783110737,-1.9728640092660665,6.7259329171830702,0.0
729640.0783812654,3990767.5119837918,-42500.0,0.17799939264398379,2.5982481346294573,0.22067363049806252,1.8881499635308892,-0.8026060393859823,-2.9243464920396045,3.769894219276777,2.1225674537515888,-2.5539286580532923,2.5539286580532923,-2.1225674537515888,6.5298776137088703,0.0
734640.0783812654,3990767.5119837918,-42500.0,-0.52650529998651951,2.9602623295358841,0.21150233212346814,2.6487934571727543,0.14570631614340082,-0.29973614470814119,3.992901526349447,2.0273130603186846,-2.7010193249630037,2.7010193249630037,-2.0273130603186846,6.9159375831841601,0.0
739640.0783812654,3990767.5119837918,-42500.0,-1.4059005437282626,2.9556631881214344,0.25890690812901712,2.6191163503975101,1.2876103996576058,2.6971192012164336,4.6296579135440341,1.6203010577563379,-2.4430232903872477,2.4430232903872477,-1.6203010577563379,8.0334665414247262,0.0
744640.0783812654,3990767.5119837918,-42500.0,-2.0897054506736361,2.5584589289037596,0.29388386726983845,1.7661020740114861,2.3351042010998739,5.4401640382892671,5.4102886005556901,0.94578104051012479,-1.8179218835961533,1.8179218835961533,-0.94578104051012479,9.4754913776624914,0.0
749640.0783812654,3990767.5119837918,-42500.0,-2.2951372757268436,1.8930040617038326,0.25801171674773998,0.36209895203069703,3.0448105146441855,7.4117024754612135,6.0309984689199485,0.14984704174601282,-1.0012107885294617,1.0012107885294617,-0.14984704174601282,10.719825227049682,0.0
754640.0783812654,3990767.5119837918,-42500.0,-1.9647066823674406,1.1566666803268724,0.1374832037448076,-1.1765106632461451,3.3189221354975493,8.3950428586112693,6.3442928376577354,-0.59214370448407605,-0.20833046356914942,0.20833046356914942,0.59214370448407605,11.453268094137909,0.0
759640.0783812654,3990767.5119837918,-42500.0,-1.2442293514285039,0.51777555306723577,-0.038796709047467307,-2.4939193022043176,3.2080315419333369,8.4772407014275846,6.336338875949961,-1.1534158102302574,0.40568000470674115,-0.40568000470674115,1.1534158102302574,11.600820861480219,0.0
764640.0783812654,3990767.5119837918,-42500.0,-0.36085897361636765,0.061329687909529508,-0.22542373907931837,-3.4041822071043413,2.84309694080414,7.9172789387367128,6.0688495688653834,-1.488105513829852,0.78461998607849592,-0.78461998607849592,1.488105513829852,11.245043911999018,0.0
769640.0783812654,3990767.5119837918,-42500.0,0.48859054901108256,-0.20568201408641773,-0.38513800912622259,-3.8834349988774157,2.3617886098702665,7.0019101038589922,5.6293291498244757,-1.6164694087430067,0.95019943756727065,-0.95019943756727065,1.6164694087430067,10.534792844552117,0.0
774640.0783812654,3990767.5119837918,-42500.0,1.1860954870909264,-0.32060158404319811,-0.49888369538755262,-4.0047845972008727,1.8672951741365851,5.9606678166236247,5.0996767875477875,-1.5914621089077103,0.96040881254660082,-0.96040881254660082,1.5914621089077103,9.6210383896381977,0.0
779640.0783812654,3990767.5119837918,-42500.0,1.6886616508501322,-0.33335575523803451,-0.56383789855615385,-3.8743159739228594,1.4197492936129625,4.9423192586822475,4.542608560651181,-1.4707433842443172,0.8767359125297165,-0.8767359125297165,1.4707433842443172,8.6255619811592261,0.0
784640.0783812654,3990767.5119837918,-42500.0,2.0030914055707383,-0.28816253016924243,-0.58687944814214432,-3.5917744579099553,1.0448511389596029,4.0258619281168526,3.9997682659597795,-1.3018722318391709,0.74812635346389378,-0.74812635346389378,1.3018722318391709,7.6331679017120369,0.0
789640.0783812654,3990767.5119837918,-42500.0,2.1606685738984499,-0.21712849718023752,-0.57859063989193904,-3.2344871906053174,0.74658031668067271,3.2420798336063026,3.4952549658578,-1.1181079421491551,0.60735409387860995,-0.60735409387860995,1.1181079421491551,6.6958614180109635,0.0
794640.0783812654,3990767.5119837918,-42500.0,2.1996849604199986,-0.140507912054191,-0.54948792748990927,-2.8553268710305568,0.51773194614944895,2.5932842952222965,3.0405468342055633,-0.93981747886396461,0.47339305907667611,-0.47339305907667611,0.93981747886396461,5.8409747276838635,0.0
799640.0783812654,3990767.5119837918,-42500.0,2.1559551856027177,-0.069458551248015227,-0.50828280786049806,-2.4867920669326282,0.34680059669091834,2.0674428177940114,2.6389386304725817,-0.7777705387039151,0.35545184306736416,-0.35545184306736416,0.7777705387039151,5.0791603929151288,0.0
804640.0783812654,3990767.5119837918,-42500.0,2.0589142165926897,-0.009061770526917411,-0.46143491210724008,-2.146576430432467,0.22178922557453026,1.6469318866044234,2.2889042886824509,-0.63640718715156352,0.25664270402565686,-0.25664270402565686,0.63640718715156352,4.4107526237818,0.0
809640.0783812654,3990767.5119837918,-42500.0,1.9308821872284876,0.039249090969054906,-0.41334713681765567,-1.8425631970654945,0.13197807354399915,1.3133593649832791,1.9863962822445957,-0.51638925392474155,0.17667763551128171,-0.17667763551128171,0.51638925392474155,3.8302903240083608,0.0
814640.0783812654,3990767.5119837918,-42500.0,1.7878109330410334,0.076004528812949654,-0.36679131653253733,-1.5766214778176355,0.068524166481424051,1.0498866746439381,1.7262993782025795,-0.41635588447645833,0.11362201174615394,-0.11362201174615394,0.41635588447645833,3.3294943159832626,0.0
819640.0783812654,3990767.5119837918,-42500.0,1.6405353073757489,0.1026393211288938,-0.3233525981887746,-1.3472300651135225,0.024472673129928856,0.84211175931509463,1.5032850983424322,-0.33403065868673154,0.064935595039133126,-0.064935595039133126,0.33403065868673154,2.8991049117131436,0.0
824640.0783812654,3990767.5119837918,-42500.0,1.4960418097088111,0.12087872576103043,-0.28380578822338998,-1.1511717699113397,-0.0054808935616164354,0.67819793792006078,1.3122730084325231,-0.26686864928858645,0.028037311883863922,-0.028037311883863922,0.26686864928858645,2.5299413176851777,0.0
829640.0783812654,3990767.5119837918,-42500.0,1.3585550853519199,0.13241361756711181,-0.24840217978702683,-0.98456541621845017,-0.025299642496958669,0.54865338391220242,1.1486500653657543,-0.21240384061970491,0.00057733884619644293,-0.00057733884619644293,0.21240384061970491,2.213459393195214,0.0
644640.0783812654,3995767.5119837918,-42500.0,-0.30093585489173025,0.61855531893487303,0.21579315515246969,-0.10153557331236754,0.34705577507407148,-0.015253720090460571,0.76109978513075083,0.30433729818992805,-0.39184232646259154,0.39184232646259154,-0.30433729818992805,1.3195099484244031,0.0
649640.0783812654,3995767.5119837918,-42500.0,-0.38422463306612903,0.68053539293235998,0.25674232722613588,-0.15141561303301337,0.39563726032846486,-0.037681994835122239,0.86168916737040435,0.33965942229827556,-0.42642484764211047,0.42642484764211047,-0.33965942229827556,1.4955132613426594,0.0
654640.0783812654,3995767.5119837918,-42500.0,-0.48418688940410642,0.74640570357955827,0.30585837154662293,-0.2178420446019679,0.44992959872113514,-0.071653661042075503,0.9778483315096842,0.37857437440244457,-0.46156526579209833,0.46156526579209833,-0.37857437440244457,1.6998456048755859,0.0
659640.0783812654,3995767.5119837918,-42500.0,-0.60255789992273723,0.81499040783823196,0.36449553110273603,-0.30552532168512431,0.50948091937779616,-0.12236634626931576,1.1119085719815067,0.42100806246045847,-0.49597955282178635,0.49597955282178635,-0.42100806246045847,1.9372101228198622,0.0
664640.0783812654,3995767.5119837918,-42500.0,-0.74015845853740914,0.88437770963873275,0.43396520635543634,-0.42004209498327505,0.57296031038705841,-0.19717859736590532,1.2663388820128567,0.46667264998267416,-0.52786096753959511,0.52786096753959511,-0.46667264998267416,2.212780251621342,0.0
669640.0783812654,3995767.5119837918,-42500.0,-0.89598429610823804,0.95174273847021407,0.51529951703374999,-0.5675603330403457,0.63762611142583703,-0.30634288388200343,1.443599121779497,0.51502332502962489,-0.55484923382925311,0.55484923382925311,-0.51502332502962489,2.5319489933935726,0.0
674640.0783812654,3995767.5119837918,-42500.0,-1.065826212888177,1.013258181078442,0.60884196070162944,-0.75406931853394188,0.69858844220049909,-0.46379546403429001,1.6458878269085178,0.56527116336834582,-0.57415132223528831,0.57415132223528831,-0.56527116336834582,2.8997876215906602,0.0
679640.0783812654,3995767.5119837918,-42500.0,-1.2403484840935024,1.0642491814473278,0.71359153615997373,-0.98372479240278754,0.74787414234637295,-0.68775705378680807,1.8747525147690824,0.61653095728952723,-0.58297996834190147,0.58297996834190147,-0.61653095728952723,3.3200117381780152,0.0
684640.0783812654,3995767.5119837918,-42500.0,-1.4027377220253949,1.0998644429983664,0.82623530402465661,-1.255754236812763,0.77342333088231674,-1.0005673158637891,2.1305365660891402,0.6682346342257971,-0.57957240691573941,0.57957240691573941,-0.6682346342257971,3.793157950077525,0.0
689640.0783812654,3995767.5119837918,-42500.0,-1.5264922181063232,1.1166664159884592,0.93987074232526413,-1.5592888172697779,0.75841030068193926,-1.4265926839918166,2.411602654478239,0.7209886552933128,-0.56513638830219881,0.56513638830219881,-0.7209886552933128,4.313591625562097,0.0
694640.0783812654,3995767.5119837918,-42500.0,-1.5748218598415593,1.1155940943144538,1.042605717295856,-1.8657798770572938,0.68176030010273303,-1.986180825095633,2.7129966312519498,0.77803429887260867,-0.54702968738355973,0.54702968738355973,-0.77803429887260867,4.8650067973955826,0.0
699640.0783812654,3995767.5119837918,-42500.0,-1.5045159722576342,1.1064721279469452,1.1166027665195615,-2.1198929511867157,0.5214217202691851,-2.6827308542583754,3.0234024917436919,0.8472323563935088,-0.5430537064820723,0.5430537064820723,-0.8472323563935088,5.414519071053717,0.0
704640.0783812654,3995767.5119837918,-42500.0,-1.278482264874643,1.1131729449442276,1.1387108177548004,-2.232785638312043,0.26253583798702329,-3.479997869838952,3.3188896082459092,0.94278734165580891,-0.5855095444100552,0.5855095444100552,-0.94278734165580891,5.9068785313345584,0.0
709640.0783812654,3995767.5119837918,-42500.0,-0.8905324517830111,1.1762050396865902,1.084331787302576,-2.0868774468276716,-0.087901978015914026,-4.2701147592067663,3.555780193439666,1.0845477111149242,-0.72129699823018945,0.72129699823018945,-1.0845477111149242,6.2637536007614454,0.0
714640.0783812654,3995767.5119837918,-42500.0,-0.39950411056567303,1.3462930643195958,0.93577024715766266,-1.5664461699312651,-0.48195019162005887,-4.843036578382458,3.6730746008997146,1.2911123618039846,-1.0015560941438864,1.0015560941438864,-1.2911123618039846,6.3997560251553507,0.0
719640.0783812654,3995767.5119837918,-42500.0,0.046041488017822117,1.6615501631073408,0.69370041155655848,-0.62543046752075548,-0.81770605830218168,-4.8862211839702878,3.6237540965113748,1.5633321274781964,-1.4546447812714423,1.4546447812714423,-1.5633321274781964,6.2771623617288101,0.0
724640.0783812654,3995767.5119837918,-42500.0,0.23040294776766604,2.1088824621690883,0.38530395276688872,0.62114761878209013,-0.95285734180871917,-4.0579106001354344,3.4740830425033802,1.8612694775545675,-2.0461326290705952,2.0461326290705952,-1.8612694775545675,6.0250586417898377,0.0
729640.0783812654,3995767.5119837918,-42500.0,-0.026951449700368387,2.5914554633732787,0.05913420134996307,1.845028296262591,-0.76259136938637362,-2.1558396255231269,3.5023925506927078,2.0916552155186556,-2.6512575398834226,2.6512575398834226,-2.0916552155186556,6.0685081871133759,0.0
734640.0783812654,3995767.5119837918,-42500.0,-0.72135402147538441,2.9431121851269446,-0.23674396557790142,2.5843762039090334,-0.22637886865638709,0.68357498388217897,3.9554799190759207,2.132139806792793,-3.0808393033544244,3.0808393033544244,-2.132139806792793,6.9068300226513433,0.0
739640.0783812654,3995767.5119837918,-42500.0,-1.59044271243085,3.0095618476722641,-0.47922660995612099,2.4750272087323548,0.5217326476453662,3.9209304902242303,4.8876457615261835,1.8980656540730094,-3.1736990903367492,3.1736990903367492,-1.8980656540730094,8.4765553510522551,0.0
744640.0783812654,3995767.5119837918,-42500.0,-2.2329940944925655,2.746981651721256,-0.67426949240660106,1.4855471693336268,1.2442792771729438,6.8105773433844234,5.8731586212259241,1.4077999260889738,-2.8969407396399327,2.8969407396399327,-1.4077999260889738,10.199134177302648,0.0
749640.0783812654,3995767.5119837918,-42500.0,-2.3529465835786603,2.2494415414314481,-0.8371399074904482,-0.055607675923762132,1.7295770339242726,8.7561548069333561,6.5633705100324065,0.78365325784629425,-2.3640959313228218,2.3640959313228218,-0.78365325784629425,11.534041011957731,0.0
754640.0783812654,3995767.5119837918,-42500.0,-1.9164056201731459,1.6805994610291821,-0.97198345587995916,-1.6688053811369932,1.892867261708308,9.5519089252533931,6.8476488845882653,0.18237098916267169,-1.7553418782326096,1.7553418782326096,-0.18237098916267169,12.213110109647534,0.0
759640.0783812654,3995767.5119837918,-42500.0,-1.1091263525326194,1.1790531637128723,-1.07003678118219,-2.9739708780668437,1.779113731551168,9.3596528584331935,6.7565620790613954,-0.28259638592556735,-1.2177450906958422,1.2177450906958422,0.28259638592556735,12.222413449043287,0.0
764640.0783812654,3995767.5119837918,-42500.0,-0.18409243418528651,0.81106513664772895,-1.1210437532320707,-3.8037094588834912,1.4972867321040992,8.5192195664985508,6.3882769404445057,-0.57158011362258809,-0.81959231202203553,0.81959231202203553,0.57158011362258809,11.69973490295774,0.0
769640.0783812654,3995767.5119837918,-42500.0,0.66041098754351568,0.57905930179050236,-1.1226232343774885,-4.1706918352302926,1.1544187262476662,7.3681689447471221,5.8536163594424373,-0.70241215895774534,-0.56259388536614952,0.56259388536614952,0.70241215895774534,10.831499333144084,0.0
774640.0783812654,3995767.5119837918,-42500.0,1.3206116671034118,0.45268998119592857,-1.0814471947495952,-4.1796575841657582,0.82381207379380705,6.1532263692454165,5.2454287151773489,-0.7186408697867539,-0.41541906126722444,0.41541906126722444,0.7186408697867539,9.7873220456364276,0.0
779640.0783812654,3995767.5119837918,-42500.0,1.7711435225820522,0.3948662505302562,-1.0093571486570991,-3.9547744120062207,0.54262086565018663,5.0190230298749832,4.6289122781432042,-0.66536707535318973,-0.34047496919005987,0.34047496919005987,0.66536707535318973,8.6938155406762814,0.0
784640.0783812654,3995767.5119837918,-42500.0,2.0325372437064946,0.37487200758331074,-0.91899284104409751,-3.6018829556409888,0.32213620400027393,4.0318518729850918,4.0437914040356802,-0.57802446126348805,-0.30689222042532538,0.30689222042532538,0.57802446126348805,7.6330472847766337,0.0
789640.0783812654,3995767.5119837918,-42500.0,2.1440626713030739,0.37180090634565666,-0.82106518858261535,-3.1971666897963025,0.15922826146737423,3.2089455600704357,3.5106557581742046,-0.48021504089976685,-0.29366338462918218,0.29366338462918218,0.48021504089976685,6.651305578600093,0.0
794640.0783812654,3995767.5119837918,-42500.0,2.1472647517979211,0.37335056759521557,-0.72337264774547705,-2.7892364339643292,0.0446211723032785,2.5414672265137033,3.0374216095285176,-0.38566645597293775,-0.28826887373818172,0.28826887373818172,0.38566645597293775,5.7698554381654414,0.0
799640.0783812654,3995767.5119837918,-42500.0,2.0782114073472511,0.37330204016173907,-0.63090372290706687,-2.4057115201669088,-0.032318742472320632,2.0093125784964481,2.6244009619998385,-0.30119404155253116,-0.28413051707771564,0.28413051707771564,0.30119404155253116,4.9940902550511073,0.0
804640.0783812654,3995767.5119837918,-42500.0,1.9650647145639357,0.36919394989999421,-0.54640552286372912,-2.0599658957451332,-0.08129513063154177,1.5894606931456987,2.2678035370843288,-0.22930676086857527,-0.27833433761981541,0.27833433761981541,0.22930676086857527,4.3202269038976526,0.0
809640.0783812654,3995767.5119837918,-42500.0,1.8283177080136908,0.36062999563226866,-0.47103668920019864,-1.7565019016064782,-0.11026186267565091,1.2601145292844609,1.9619570415897338,-0.17009252878753101,-0.27000275485447434,0.27000275485447434,0.17009252878753101,3.7397749699889311,0.0
814640.0783812654,3995767.5119837918,-42500.0,1.6820809064792317,0.34819873972040244,-0.40493076218652763,-1.4947362886443636,-0.12534367675146751,1.0023936679038692,1.7006180287162129,-0.12243741941482772,-0.25926598537297912,0.25926598537297912,0.12243741941482772,3.2423212620256474,0.0
819640.0783812654,3995767.5119837918,-42500.0,1.5355812764789221,0.33284855927042589,-0.34761956453424264,-1.2714638384549728,-0.13106805744001021,0.80073484436179854,1.4776884673868884,-0.084750893736704469,-0.24666799839701314,0.24666799839701314,0.084750893736704469,2.8171516008503898,0.0
824640.0783812654,3995767.5119837918,-42500.0,1.3945111738506484,0.31556025423369977,-0.29832486837265099,-1.0823641974665827,-0.1306857548963499,0.64268574287159597,1.2875696451451624,-0.055363997042193733,-0.23285208974992272,0.23285208974992272,0.055363997042193733,2.4541242933320868,0.0
829640.0783812654,3995767.5119837918,-42500.0,1.2621080267002005,0.29719722561415557,-0.2561455333459689,-0.92286666558254093,-0.12647859231521089,0.51846367498508761,1.125302814796022,-0.032726532292773725,-0.21841192625075895,0.21841192625075895,0.032726532292773725,2.1440797170445043,0.0
834640.0783812654,3995767.5119837918,-42500.0,1.1399642545581516,0.27845398697398482,-0.22016987040427322,-0.78861002619982079,-0.12001736054833932,0.42046810285537267,0.98659314505609896,-0.015488445109497317,-0.20383398588503798,0.20383398588503798,0.015488445109497317,1.8789805669152246,0.0
644640.0783812654,4000767.5119837918,-42500.0,-0.084396635375312501,0.67793578961637935,0.14974804824984653,0.043605688196462558,0.37911442366077824,0.062233263374971072,0.78569219442045268,0.26966571829876201,-0.41884044631902345,0.41884044631902345,-0.26966571829876201,1.3629636312701505,0.0
649640.0783812654,4000767.5119837918,-42500.0,-0.14053485624946294,0.75549218262918394,0.18057886006057508,0.02212525742917083,0.43842027157676744,0.060637619468966265,0.88801466646325555,0.30164212486343001,-0.46229441679519589,0.46229441679519589,-0.30164212486343001,1.5392842626268144,0.0
654640.0783812654,4000767.5119837918,-42500.0,-0.21128751142250357,0.84094558457565383,0.21830560533399318,-0.010267154144010089,0.50712844750802222,0.053645617653689866,1.0054694823918764,0.33705680229119239,-0.50861925750265802,0.50861925750265802,-0.33705680229119239,1.7419382362830711,0.0
659640.0783812654,4000767.5119837918,-42500.0,-0.29918925207832803,0.93401378869843243,0.26437181545355837,-0.057482732989386331,0.58605872225774802,0.037899136908073651,1.1399836921048614,0.37587677498480609,-0.5569580706243159,0.5569580706243159,-0.37587677498480609,1.9745157154332009,0.0
664640.0783812654,4000767.5119837918,-42500.0,-0.40650693424245771,1.0337413678721277,0.32036878243885414,-0.12447345818958731,0.67554227817561063,0.0083437198911844087,1.2933894492615785,0.4178460290263904,-0.60587908115893818,0.60587908115893818,-0.4178460290263904,2.2406073255562875,0.0
669640.0783812654,4000767.5119837918,-42500.0,-0.5346068569647866,1.1381991115612287,0.38791002563459764,-0.21722597046550537,0.77494750656797506,-0.042490419484506319,1.4671552056275552,0.4624095487444736,-0.65321673300555927,0.65321673300555927,-0.4624095487444736,2.5434060230637701,0.0
674640.0783812654,4000767.5119837918,-42500.0,-0.6828922366093978,1.2441488429117167,0.46836804657126846,-0.3424343831440807,0.88193665813324629,-0.12537965355787511,1.6619525523794243,0.50866569349380586,-0.69597085307545581,0.69597085307545581,-0.50866569349380586,2.8850161494800224,0.0
679640.0783812654,4000767.5119837918,-42500.0,-0.84716383126621764,1.3467607268540265,0.56238658216911019,-0.50652000449813717,0.99136819195412784,-0.25534453688190933,1.8770080572257242,0.55541596633294243,-0.73039514953744933,0.73039514953744933,-0.55541596633294243,3.2653172742105112,0.0
684640.0783812654,4000767.5119837918,-42500.0,-1.0173431533633994,1.4395790970906093,0.66905508105022859,-0.7134646982188001,1.0938058794384711,-0.45224542839318538,2.1092244990219804,0.60144395104009696,-0.75252287029844356,0.75252287029844356,-0.60144395104009696,3.6801885958433513,0.0
689640.0783812654,4000767.5119837918,-42500.0,-1.174803256671886,1.5151021563633635,0.78463029322997568,-0.96072333770193707,1.1737570637581991,-0.74012432825228458,2.3521677601574158,0.64624045260655127,-0.75953847730372948,0.75953847730372948,-0.64624045260655127,4.1188942318473369,0.0
694640.0783812654,4000767.5119837918,-42500.0,-1.2902791368809072,1.5665408130564848,0.90076668706734841,-1.2324887680723364,1.2081503181884903,-1.1434830181548314,2.5952229418898889,0.69146192507360948,-0.7525515936867998,0.7525515936867998,-0.69146192507360948,4.5605604372064636,0.0
699640.0783812654,4000767.5119837918,-42500.0,-1.3246722892286897,1.5913995828930732,1.0024695623788276,-1.4903193110379294,1.1662976644651055,-1.6774733279017999,2.8232241443174582,0.74333903421870384,-0.74126144166482777,0.74126144166482777,-0.74333903421870384,4.9701749871653025,0.0
704640.0783812654,4000767.5119837918,-42500.0,-1.2368505568257242,1.5970832883739881,1.0665326028878759,-1.6635562516446294,1.0136398432274676,-2.3281445792292286,3.0153964456504561,0.81576338296776241,-0.75025616892111535,0.75025616892111535,-0.81576338296776241,5.2959272455150845,0.0
709640.0783812654,4000767.5119837918,-42500.0,-1.0033691651014149,1.6071006370861476,1.0620779524669661,-1.6470795841517976,0.72234579024003787,-3.0206403928980099,3.1395224032776627,0.9324643144485264,-0.82456620189928842,0.82456620189928842,-0.9324643144485264,5.4730524581409972,0.0
714640.0783812654,4000767.5119837918,-42500.0,-0.65111854621975429,1.6631340342314065,0.95556199964828969,-1.3209873465847739,0.29052256487999401,-3.5818421496421822,3.1445251095517084,1.1244428194336482,-1.0282700335557946,1.0282700335557946,-1.1244428194336482,5.4466115203991166,0.0
719640.0783812654,4000767.5119837918,-42500.0,-0.28987992082970615,1.8147008973611372,0.72197874579347243,-0.60885298361485907,-0.23454323165811553,-3.7232995065413426,2.9911693979860869,1.4171208675188536,-1.4264693308939493,1.4264693308939493,-1.4171208675188536,5.2385989412146046,0.0
724640.0783812654,4000767.5119837918,-42500.0,-0.10884572506466944,2.0901291665191701,0.36024237938915138,0.4277874200030567,-0.74574412255756639,-3.0932225032494052,2.8884420331774892,1.8050073689235697,-2.044713688264336,2.044713688264336,-1.8050073689235697,5.0842711343015043,0.0
729640.0783812654,4000767.5119837918,-42500.0,-0.29391882511532269,2.4582124879351754,-0.095731508538201074,1.5133980623360848,-1.1028561888665163,-1.4384985966141053,3.1447031257393938,2.2252314507911803,-2.8198059994234956,2.8198059994234956,-2.2252314507911803,5.4976908399827975,0.0
734640.0783812654,4000767.5119837918,-42500.0,-0.87700365852708517,2.8144624917609526,-0.5816137340386468,2.2062676237835732,-1.2033164638895286,1.1690183994839207,3.6639015553729735,2.5588412335828563,-3.5850866981349592,3.5850866981349592,-2.5588412335828563,6.81024570340871,0.0
739640.0783812654,4000767.5119837918,-42500.0,-1.6376700050131094,3.0255886227844497,-1.025068135771791,2.1227536577554074,-1.0539331427747762,4.222142746963093,4.9277646692608563,2.6824992250629744,-4.1317039631770571,4.1317039631770571,-2.6824992250629744,8.6853951158818035,0.0
744640.0783812654,4000767.5119837918,-42500.0,-2.1985302460952481,3.0123110695932738,-1.3716396272168461,1.2004355333779484,-0.77255240396018987,6.9603307286850704,6.063533113102479,2.5446213383437106,-4.3215709074396935,4.3215709074396935,-2.5446213383437106,10.50384730616603,0.0
749640.0783812654,4000767.5119837918,-42500.0,-2.2714591814688858,2.7962576327018516,-1.596690121035014,-0.24829980372787325,-0.50700835618841134,8.760345952235566,6.7758544315972093,2.19827633898187,-4.1584773454745925,4.1584773454745925,-2.19827633898187,11.795143833402202,0.0
754640.0783812654,4000767.5119837918,-42500.0,-1.8262311242293572,2.4691872124028733,-1.7014827966683512,-1.7498682414989235,-0.34708083000617768,9.4145473623816684,7.018961439097593,1.7597403719278408,-3.7581162392245147,3.7581162392245147,-1.7597403719278408,12.36149518378633,0.0
759640.0783812654,4000767.5119837918,-42500.0,-1.047929166829189,2.1262096980917984,-1.7035031729887866,-2.9361941915057588,-0.30113884465071,9.1051213802685496,6.8636080728443192,1.3379260831105988,-3.261615012447316,3.261615012447316,-1.3379260831105988,12.242073131382758,0.0
764640.0783812654,4000767.5119837918,-42500.0,-0.17980949070797084,1.8243710820754457,-1.6280098849469247,-3.6584630505448938,-0.32950168248717121,8.1901508861354611,6.4326259836303841,0.9938121144026435,-2.7717534709008578,2.7717534709008578,-0.9938121144026435,11.60769832040546,0.0
769640.0783812654,4000767.5119837918,-42500.0,0.59600077763383963,1.5808966036926269,-1.5017357008063505,-3.9444195479248085,-0.38564874583095227,7.0100429879374895,5.8484982991503065,0.74159791261751984,-2.3389666184532585,2.3389666184532585,-0.74159791261751984,10.65901589818133,0.0
774640.0783812654,4000767.5119837918,-42500.0,1.191048503423632,1.3899463298756671,-1.3484595469402132,-3.9042670870436837,-0.43749122656909978,5.8020486020318618,5.2066865404485148,0.5687785958712126,-1.9763599817722455,1.9763599817722455,-0.5687785958712126,9.5666110769994717,0.0
779640.0783812654,4000767.5119837918,-42500.0,1.5896544130536037,1.2382199186367864,-1.1866280036328227,-3.6592708814920631,-0.47012825904923478,4.6973065525211828,4.570344448785157,0.45440814125778717,-1.6786967211594979,1.6786967211594979,-0.45440814125778717,8.4514131044533141,0.0
784640.0783812654,4000767.5119837918,-42500.0,1.8159075782332286,1.1132904375178074,-1.0288708712681476,-3.3082343744717453,-0.48066584702032789,3.7502789108773356,3.9756507519979696,0.37903440099898722,-1.434909049943967,1.434909049943967,-0.37903440099898722,7.3879648451608411,0.0
789640.0783812654,4000767.5119837918,-42500.0,1.9083554369291482,1.0062467202249232,-0.88274225195311706,-2.9197128367180829,-0.47232239802199383,2.9700044340390006,3.4398091500548125,0.32804077543802845,-1.233959410689875,1.233959410689875,-0.32804077543802845,6.4157246542993738,0.0
794640.0783812654,4000767.5119837918,-42500.0,1.9056847015222174,0.91156869917188499,-0.7519610879645463,-2.5359229512960813,-0.45036072689938222,2.3428757115895755,2.9680968158170882,0.29165333228895762,-1.0667581792952741,1.0667581792952741,-0.29165333228895762,5.5506917088258367,0.0
799640.0783812654,4000767.5119837918,-42500.0,1.8405138699872532,0.82615596358658272,-0.63765240210130281,-2.1798502798198358,-0.4199314608198918,1.846505029491313,2.5589815700970453,0.2638214037403977,-0.92633801188285414,0.92633801188285414,-0.2638214037403977,4.7945866460710684,0.0
804640.0783812654,4000767.5119837918,-42500.0,1.7378101232847978,0.74837178887482114,-0.53935933057527574,-1.8618533456216859,-0.38520564431698795,1.45714112139567,2.2074695521298513,0.2410112036371273,-0.80746772128503319,0.80746772128503319,-0.2410112036371273,4.1412521950090895,0.0
809640.0783812654,4000767.5119837918,-42500.0,1.615469494479969,0.6773556805115587,-0.45577315663621804,-1.5846659975452408,-0.3492029971669478,1.1531126906738878,1.9071405563915698,0.22125843062644285,-0.70619771377805529,0.70619771377805529,-0.22125843062644285,3.5807717222038602,0.0
814640.0783812654,4000767.5119837918,-42500.0,1.4856605131827536,0.61260345928337701,-0.38521432914747483,-1.3468018554508585,-0.31392602410986264,0.91607039991021644,1.65130613787026,0.20352037063521539,-0.61949096389661973,0.61949096389661973,-0.20352037063521539,3.1019505337442355,0.0
819640.0783812654,4000767.5119837918,-42500.0,1.3562490969046921,0.55374139849284876,-0.32592484141968781,-1.1447089052858317,-0.28058808243625855,0.73112439932593565,1.4336180990420611,0.18726745636881317,-0.54495944282671649,0.54495944282671649,-0.18726745636881317,2.6937101979580267,0.0
824640.0783812654,4000767.5119837918,-42500.0,1.2320284926594538,0.50042091514276843,-0.27623065005381242,-0.97405171290076764,-0.24983757013903446,0.58649749460930434,1.2483491292012228,0.17224037680480492,-0.48068553865608638,0.48068553865608638,-0.17224037680480492,2.3458000364094311,0.0
829640.0783812654,4000767.5119837918,-42500.0,1.1156813721174905,0.45227996072937232,-0.23462051265902337,-0.83042608926274863,-0.22194228068233957,0.47301850234738796,1.0904868445824558,0.15831257316536054,-0.42510251155076528,0.42510251155076528,-0.15831257316536054,2.0491000330793732,0.0
834640.0783812654,4000767.5119837918,-42500.0,1.008489535634433,0.40893726087043825,-0.19977459216306709,-0.70972343820159334,-0.19692766052977076,0.38361089734646581,0.95572768142207298,0.14541617766840464,-0.37691354843080171,0.37691354843080171,-0.14541617766840464,1.7956919860790399,0.0
644640.0783812654,4005767.5119837918,-42500.0,0.14821435903849206,0.70316500543890759,0.071839535776925395,0.19799074250111789,0.39047541334249142,0.14418098628553017,0.82016952392333242,0.21966129590881345,-0.42525344515718588,0.42525344515718588,-0.21966129590881345,1.4366205330002566,0.0
649640.0783812654,4005767.5119837918,-42500.0,0.12401667941904107,0.78957059029937826,0.088752106083906296,0.20840268911854293,0.45516256235095942,0.16550747317583286,0.92672264323403053,0.24531059019045107,-0.47436121376324203,0.47436121376324203,-0.24531059019045107,1.6206502705483889,0.0
654640.0783812654,4005767.5119837918,-42500.0,0.088632320974960696,0.88657696367791239,0.1100112680540431,0.2148836388868739,0.53146222702233004,0.1886074493915629,1.048671092131588,0.27370103252391448,-0.52836579673113526,0.52836579673113526,-0.27370103252391448,1.8309156428715987,0.0
659640.0783812654,4005767.5119837918,-42500.0,0.039043764151565713,0.99463551095338099,0.13672108433666871,0.2148296620759971,0.62107039688617316,0.21248009657681366,1.1877395883339272,0.30480075092310799,-0.58698255286829715,0.58698255286829715,-0.30480075092310799,2.0703188855454657,0.0
664640.0783812654,4005767.5119837918,-42500.0,-0.028146126287751115,1.1136439913984497,0.17020050825618627,0.2045832362259776,0.72551374518284295,0.23515324873281404,1.345376001300767,0.3383917476496337,-0.64943799060026874,0.64943799060026874,-0.3383917476496337,2.3413085459041216,0.0
669640.0783812654,4005767.5119837918,-42500.0,-0.11643790315617236,1.2425893454312351,0.21195855128593974,0.1791839185277127,0.84575499578191093,0.25309570225502814,1.5223634580258765,0.37400316053362404,-0.71425674711775877,0.71425674711775877,-0.37400316053362404,2.6452515577518891,0.0
674640.0783812654,4005767.5119837918,-42500.0,-0.22884344782549287,1.3790693316598088,0.26359591861324749,0.13221817945232014,0.98150432232723628,0.26037201938694582,1.7181956444905351,0.41086696006002399,-0.77903315797383044,0.77903315797383044,-0.41086696006002399,2.9814280400506807,0.0
679640.0783812654,4005767.5119837918,-42500.0,-0.36679652145159847,1.5187150740500066,0.3265697280993457,0.055978363604972922,1.130086361259492,0.24751916080610054,1.9301221823133958,0.447958733560684,-0.84026867083067125,0.84026867083067125,-0.447958733560684,3.3454995837044601,0.0
684640.0783812654,4005767.5119837918,-42500.0,-0.52836837618911592,1.6546210103139922,0.40172303388680219,-0.057671714403131166,1.2846894163519114,0.20025760878824922,2.1517851066888785,0.48425120382086789,-0.89346164076899481,0.89346164076899481,-0.48425120382086789,3.7273110844145565,0.0
689640.0783812654,4005767.5119837918,-42500.0,-0.7056956246369992,1.7770548739475875,0.48844486494977168,-0.2150632373913543,1.4318726671228745,0.098484486927045201,2.3714733020643872,0.51941000684273508,-0.93381438296339969,0.93381438296339969,-0.51941000684273508,4.1080019226409519,0.0
694640.0783812654,4005767.5119837918,-42500.0,-0.88192919420012494,1.8739929348854931,0.58331692515698941,-0.41620681354790767,1.5484459346665935,-0.0833071513553445,2.570366699027804,0.55528419611057944,-0.95816982995792266,0.95816982995792266,-0.55528419611057944,4.4567760591247048,0.0
699640.0783812654,4005767.5119837918,-42500.0,-1.0289769238097572,1.9333610401815822,0.67818819066917135,-0.64716253938673374,1.5984639487217516,-0.37184121796537234,2.722033728222895,0.59859727513021577,-0.96900031807703901,0.96900031807703901,-0.59859727513021577,4.7286123429411422,0.0
704640.0783812654,4005767.5119837918,-42500.0,-1.109023157315274,1.9480143066176263,0.75792504186879828,-0.86965638206146068,1.5323155972289366,-0.78325578445695232,2.7962023949058388,0.66497308677266853,-0.98108728676832613,0.98108728676832613,-0.66497308677266853,4.866270471626053,0.0
709640.0783812654,4005767.5119837918,-42500.0,-1.0847495284118289,1.9238091702013806,0.79876460889397904,-1.0118899623104245,1.2916731358334483,-1.299321376595221,2.7699923222327998,0.7833356949934035,-1.0301722672725973,1.0301722672725973,-0.7833356949934035,4.814349719330008,0.0
714640.0783812654,4005767.5119837918,-42500.0,-0.94286206748358536,1.888581941849881,0.76924603599266417,-0.97130483410474722,0.8252704544511511,-1.8313646095230685,2.6336177842817108,0.99727278382453277,-1.1792979134064698,1.1792979134064698,-0.99727278382453277,4.5624227984553221,0.0
719640.0783812654,4005767.5119837918,-42500.0,-0.72755158004873866,1.8950471225953027,0.63648890820538828,-0.64700507468648039,0.11793318522610947,-2.1858639516771983,2.3596356897165984,1.3566566717223858,-1.5129331691955912,1.5129331691955912,-1.3566566717223858,4.2482538466265645,0.0
724640.0783812654,4005767.5119837918,-42500.0,-0.560484050715926,2.0066598987526927,0.3794455088208018,-0.013870780987865814,-0.77531469508457906,-2.0711600076654526,2.3434489346315344,1.8924282954700695,-2.1060179420674245,2.1060179420674245,-1.8924282954700695,4.2976163257483782,0.0
729640.0783812654,4005767.5119837918,-42500.0,-0.60378259121412836,2.2613471507306193,0.0057448786803467287,0.7876642028643519,-1.715332199249481,-1.1992909294146028,2.9882783802741928,2.5775589903199894,-2.9662771447317331,2.9662771447317331,-2.5775589903199894,5.2075468089328885,0.0
734640.0783812654,4005767.5119837918,-42500.0,-0.94520953272781782,2.6308237303426432,-0.43861891938186381,1.4346950117706261,-2.5154121741712254,0.51371725788186695,3.7762862083128939,3.3001761057494319,-3.9809125439188682,3.9809125439188682,-3.3001761057494319,6.8968592751276301,0.0
739640.0783812654,4005767.5119837918,-42500.0,-1.4797710774671988,3.015564736695596,-0.87882718308180197,1.5668972657660938,-3.0251062253126046,2.7803097810973103,4.9814686765855392,3.888529883362581,-4.9271172469350315,4.9271172469350315,-3.888529883362581,8.8345655861191794,0.0
744640.0783812654,4005767.5119837918,-42500.0,-1.9316271058806815,3.2958482660570607,-1.2394397290762205,1.0310505166906154,-3.2024426704805875,5.0093057722491814,6.0461479152311011,4.1934623341931658,-5.5716636275724074,5.5716636275724074,-4.1934623341931658,10.506912320824108,0.0
749640.0783812654,4005767.5119837918,-42500.0,-2.0409335591909175,3.3998866064209934,-1.4733015152193605,-0.0017507317750043777,-3.1129975457997818,6.6223234722808471,6.6864768080325838,4.1679521911733453,-5.7917314558101261,5.7917314558101261,-4.1679521911733453,11.584759099768851,0.0
754640.0783812654,4005767.5119837918,-42500.0,-1.7366174898833096,3.3293481137067475,-1.5722733926609573,-1.1688336846686826,-2.8669926113659594,7.3494748381979944,6.8688196804745303,3.8752778044666254,-5.6156930163775609,5.6156930163775609,-3.8752778044666254,11.962523570327035,0.0
759640.0783812654,4005767.5119837918,-42500.0,-1.1379965855266569,3.1336236934942954,-1.5580283129609693,-2.1483408004549909,-2.5585126914614236,7.2691731756363058,6.6732487790040587,3.4315145625204284,-5.1679637929726852,5.1679637929726852,-3.4315145625204284,11.718833841375686,0.0
764640.0783812654,4005767.5119837918,-42500.0,-0.43513317018814035,2.8708973825977284,-1.465051029337116,-2.7853007017248324,-2.2438536536091109,6.6465441681153932,6.2239047397283676,2.9430476532662637,-4.5875162194652193,4.5875162194652193,-2.9430476532662637,11.027643614192293,0.0
769640.0783812654,4005767.5119837918,-42500.0,0.21749727425975904,2.5857490301426163,-1.3270977096763232,-3.0763673296658012,-1.9487225035831377,5.7600043801500185,5.6390818020015692,2.4781647875336206,-3.9793024460839841,3.9793024460839841,-2.4781647875336206,10.075169851029928,0.0
774640.0783812654,4005767.5119837918,-42500.0,0.73759968779770557,2.3050741650160615,-1.1706169996185354,-3.0969521289283932,-1.6820398290177929,4.8144051472098193,5.0082558020441912,2.0687131886650056,-3.4048246396783495,3.4048246396783495,-2.0687131886650056,9.0134496189599052,0.0
779640.0783812654,4005767.5119837918,-42500.0,1.1034060002328763,2.0424125676595155,-1.0134569758230039,-2.9401376975775468,-1.4455140466170786,3.9290258082077321,4.3892156620369507,1.7228927727294971,-2.8921640544415528,2.8921640544415528,-1.7228927727294971,7.9475024393315135,0.0
784640.0783812654,4005767.5119837918,-42500.0,1.3284132196755787,1.8033007002241528,-0.86615210731196057,-2.6856229987659241,-1.2381910178091495,3.1580488332996799,3.8142734970128087,1.4370267724665495,-2.4491397759939595,2.4491397759939595,-1.4370267724665495,6.9405822696857751,0.0
789640.0783812654,4005767.5119837918,-42500.0,1.4405920136066419,1.589067819849616,-0.73393288506477183,-2.3906921315744842,-1.058142860510048,2.5155348503979944,3.2982364114089995,1.2029571056724004,-2.0731798372707377,2.0731798372707377,-1.2029571056724004,6.02512952163426,0.0
794640.0783812654,4005767.5119837918,-42500.0,1.4699803803407887,1.3990046491833623,-0.61857755540019366,-2.0918517348363244,-0.90301685678052102,1.9945532563381962,2.8450829001869749,1.0117854546219771,-1.7572694998471428,1.7572694998471428,-1.0117854546219771,5.2132852592228449,0.0
799640.0783812654,4005767.5119837918,-42500.0,1.4428832985795002,1.2314763716594133,-0.51982531726180414,-1.8098770594996989,-0.77025187564724928,1.5792465950351493,2.4526936557397954,0.85543113942815618,-1.4931029799171502,1.4931029799171502,-0.85543113942815618,4.5049852835882174,0.0
804640.0783812654,4005767.5119837918,-42500.0,1.3800221925356388,1.0844713224343598,-0.43634469152305694,-1.5549101942648709,-0.6572243994971998,1.2515169612775581,2.1159043283765091,0.72709942409796069,-1.2725855521519978,1.2725855521519978,-0.72709942409796069,3.8935321526343807,0.0
809640.0783812654,4005767.5119837918,-42500.0,1.2966433741355172,0.95587490785516716,-0.36634635279752648,-1.3304836314118411,-0.5613723919583955,0.99428811436014319,1.8283472004289929,0.62127952166928624,-1.0884558357552181,1.0884558357552181,-0.62127952166928624,3.3691552843751826,0.0
814640.0783812654,4005767.5119837918,-42500.0,1.203401263782977,0.8436125138034819,-0.30794281931037654,-1.1363381331648117,-0.48029133690232134,0.79281252344585329,1.5834930780391383,0.53357566537669265,-0.93447035259967193,0.93447035259967193,-0.53357566537669265,2.9211439149416902,0.0
819640.0783812654,4005767.5119837918,-42500.0,1.1074095336774286,0.74572652974458553,-0.25934159954150265,-0.97025044779517988,-0.4117961134185063,0.63496271062763432,1.3751941915199621,0.46050379430915811,-0.80538538422154926,0.80538538422154926,-0.46050379430915811,2.5390367293307898,0.0
824640.0783812654,4005767.5119837918,-42500.0,1.0131948355985065,0.66041678141189453,-0.21893533710110141,-0.8291487021741788,-0.35395069023466696,0.5110525116193354,1.1979297986897164,0.39930467196546715,-0.69685544430987889,0.69685544430987889,-0.39930467196546715,2.2132202618490631,0.0
829640.0783812654,4005767.5119837918,-42500.0,0.92346630756655546,0.58605840904883122,-0.18533186294445589,-0.70975328608869592,-0.30507278480460864,0.41348171445091936,1.0468826213903399,0.34778818930476918,-0.6053063116101125,0.6053063116101125,-0.34778818930476918,1.9351740113450864,0.0
834640.0783812654,4005767.5119837918,-42500.0,0.83969682819441149,0.52120525799827766,-0.15735184133532024,-0.6089187599045196,-0.26372186104947026,0.33634970868589686,0.91792502648625951,0.30420923687336943,-0.52780955521658957,0.52780955521658957,-0.30420923687336943,1.6975162407715736,0.0
644640.0783812654,4010767.5119837918,-42500.0,0.38531450299775916,0.69067597924466473,-0.010431514320497595,0.35445057660038737,0.37916402476883249,0.22694137148267418,0.86286771881440039,0.15804640087586172,-0.40829802343333821,0.40829802343333821,-0.15804640087586172,1.5356832533671492,0.0
649640.0783812654,4010767.5119837918,-42500.0,0.39513271617019519,0.77787240434528748,-0.0092163831132665332,0.39805858627878149,0.44300519184902915,0.2718834812667465,0.97598860647284369,0.1752919766414674,-0.458826977757882,0.458826977757882,-0.1752919766414674,1.7344226698089409,0.0
654640.0783812654,4010767.5119837918,-42500.0,0.39794106838125609,0.8765604119201269,-0.0069028856388486607,0.44535269414507139,0.518770436828357,0.3262080064773793,1.1055499855070168,0.19428677391467838,-0.51562376207859628,0.51562376207859628,-0.19428677391467838,1.9614951937301361,0.0
659640.0783812654,4010767.5119837918,-42500.0,0.39046155484671785,0.9875744037290316,-0.0029961096049261719,0.49532072210874917,0.60843314168909712,0.39153334426756287,1.2533727024212102,0.21503595129470429,-0.57899812602317935,0.57899812602317935,-0.21503595129470429,2.219851777006939,0.0
664640.0783812654,4010767.5119837918,-42500.0,0.36841780326025519,1.111312645152627,0.0031868871435329817,0.54599395427472619,0.71394830532225229,0.4693822066808418,1.4209450592232975,0.23746844925626046,-0.64896791588325387,0.64896791588325387,-0.23746844925626046,2.51177325460751,0.0
669640.0783812654,4010767.5119837918,-42500.0,0.32641982708233797,1.2473875564362911,0.012573721998843908,0.59396464504802182,0.8369201855956272,0.56080409654074348,1.6089741034769647,0.26143270557218778,-0.7250756109258979,0.7250756109258979,-0.26143270557218778,2.8380647087826629,0.0
674640.0783812654,4010767.5119837918,-42500.0,0.2580049820502141,1.3941239712414655,0.026397079355208131,0.63375870617281471,0.97798454809232049,0.66568325336214218,1.8166557724678294,0.28673590971237278,-0.80615672652343706,0.80615672652343706,-0.28673590971237278,3.1967674088562195,0.0
679640.0783812654,4010767.5119837918,-42500.0,0.15601876331417708,1.5478920911214364,0.046243469685913786,0.65711124452895642,1.1357339998617022,0.78155533766668062,2.0405419464325711,0.31328715192534357,-0.89009496846017311,0.89009496846017311,-0.31328715192534357,3.5811989022842958,0.0
684640.0783812654,4010767.5119837918,-42500.0,0.013630341174839942,1.7023227009480899,0.074056913349372339,0.65232580619983782,1.3049565497782516,0.90172087754768693,2.2728741376536048,0.34145966163384406,-0.97366901795064886,0.97366901795064886,-0.34145966163384406,3.9771498968163121,0.0
689640.0783812654,4010767.5119837918,-42500.0,-0.17360892751728424,1.847593920532667,0.11203306359507156,0.60416585016174329,1.473939545024457,1.0124964734226838,2.4993121841240109,0.37287130304860222,-1.0527303125795189,1.0527303125795189,-0.37287130304860222,4.3592417020699248,0.0
694640.0783812654,4010767.5119837918,-42500.0,-0.40424599307383208,1.9702495931207189,0.16229378181815596,0.49518457796596665,1.6207173560133596,1.0897474081205389,2.6962154135672325,0.41188519921945921,-1.1231720184330172,1.1231720184330172,-0.41188519921945921,4.6870059563367414,0.0
699640.0783812654,4010767.5119837918,-42500.0,-0.66587883030486694,2.0544292561959154,0.22618082972050221,0.31001491066401549,1.7086250083721881,1.0957030726509009,2.828263116042085,0.46818643769471746,-1.1834291452002628,1.1834291452002628,-0.46818643769471746,4.9026594602068796,0.0
704640.0783812654,4010767.5119837918,-42500.0,-0.92969925502755191,2.0858294840735714,0.30298697191572527,0.044560140370878722,1.6826897133349246,0.97888530677387109,2.8488562936619122,0.56059872905425834,-1.2393994240406601,1.2393994240406601,-0.56059872905425834,4.9357744279559812,0.0
709640.0783812654,4010767.5119837918,-42500.0,-1.14829478225805,2.0596674756044466,0.3880464687264083,-0.27887274097929859,1.4705006993777983,0.68292113026459955,2.71152105977965,0.72146709097089046,-1.3121637663968131,1.3121637663968131,-0.72146709097089046,4.7273079950082622,0.0
714640.0783812654,4010767.5119837918,-42500.0,-1.2639712550007618,1.9922593812589537,0.47049539481656816,-0.59394370516232564,0.99372891648702255,0.17263371341752634,2.4345121427439107,0.99892939843804973,-1.4467304596939043,1.4467304596939043,-0.99892939843804973,4.3021571528322236,0.0
719640.0783812654,4010767.5119837918,-42500.0,-1.2359727204042767,1.9312587574918723,0.53183826417389601,-0.78395521170178495,0.1967626848936192,-0.51742404178866197,2.2719545311268341,1.4512745378148568,-1.7153556337303066,1.7153556337303066,-1.4512745378148568,3.939593225607771,0.0
724640.0783812654,4010767.5119837918,-42500.0,-1.0845536570420085,1.9530035239168964,0.54753453967185217,-0.71300631707396145,-0.9085710633675933,-1.2265202986798041,2.3131405455804646,2.1256045176923593,-2.2032760994053291,2.2032760994053291,-2.1256045176923593,4.2848424637037823,0.0
729640.0783812654,4010767.5119837918,-42500.0,-0.92028225061723612,2.134053263190506,0.49402347191418322,-0.31392437752891339,-2.2025354928710437,-1.6575934563929378,3.1849131806997355,3.0183548628131338,-2.9655910287795719,2.9655910287795719,-3.0183548628131338,5.6655410399586392,0.0
734640.0783812654,4010767.5119837918,-42500.0,-0.90111013549015206,2.5002319041779497,0.36084186952567443,0.30524577121438223,-3.4615935943443152,-1.4881778023460703,4.3824752522193906,4.0343931143602498,-3.9644584541942209,3.9644584541942209,-4.0343931143602498,7.5933468794371155,0.0
739640.0783812654,4010767.5119837918,-42500.0,-1.105726550036632,2.9882655730107781,0.16137611995680734,0.85391312415025977,-4.4347385192181985,-0.59260958148176091,5.4437078487717878,4.9852278982350402,-5.033799222800134,5.033799222800134,-4.9852278982350402,9.4443676228572304,0.0
744640.0783812654,4010767.5119837918,-42500.0,-1.4350601195906618,3.4642845073587023,-0.067808907351439587,1.0279023302183132,-4.9575276862489668,0.80695599361623538,6.2240382470688917,5.6573885935523904,-5.9281738848362675,5.9281738848362675,-5.6573885935523904,10.804416051113702,0.0
749640.0783812654,4010767.5119837918,-42500.0,-1.674307721072158,3.7957263249836375,-0.28193600869577584,0.72588479983772169,-5.0177855743588102,2.2512202503912389,6.6343100765619232,5.917380885472916,-6.4436852152148347,6.4436852152148347,-5.917380885472916,11.498718718958102,0.0
754640.0783812654,4010767.5119837918,-42500.0,-1.6619705232672077,3.9163135290199222,-0.44692399711915048,0.093748388630227247,-4.7263443003822632,3.330652558946932,6.6678177899451203,5.7684118190384615,-6.5141108569970561,6.5141108569970561,-5.7684118190384615,11.549469535891438,0.0
759640.0783812654,4010767.5119837918,-42500.0,-1.385331682677851,3.8365322177468633,-0.5489840833198919,-0.61890172218829664,-4.235201890524845,3.8757867519674867,6.3950378361202933,5.3193247223488163,-6.2092650148139592,6.2092650148139592,-5.3193247223488163,11.094844851402424,0.0
764640.0783812654,4010767.5119837918,-42500.0,-0.9421402187069059,3.6113928868973573,-0.59208052104362985,-1.2160380726113591,-3.6723177975158072,3.939522365069521,5.9204249292742812,4.7105918670921181,-5.6641880721169553,5.6641880721169553,-4.7105918670921181,10.308480663811398,0.0
769640.0783812654,4010767.5119837918,-42500.0,-0.45361846305945408,3.3037105801695819,-0.58965793882527695,-1.6119089703875651,-3.1191389946992385,3.6769612856669078,5.3426226370539771,4.0584581319599558,-5.010111657694825,5.010111657694825,-4.0584581319599558,9.347056450399867,0.0
774640.0783812654,4010767.5119837918,-42500.0,-0.0087697540333867997,2.9638477341332541,-0.5571995107717177,-1.8072284091311615,-2.6167441893379428,3.2453563988058969,4.7358528388081123,3.4364261386172017,-4.3417766105344766,4.3417766105344766,-3.4364261386172017,8.3287589729839429,0.0
779640.0783812654,4010767.5119837918,-42500.0,0.34791546879316032,2.6250048147982805,-0.50804216923096523,-1.8445744587352209,-2.1801692844218201,2.7604151638583945,4.1478220107465162,2.8807899935610668,-3.7146534094499404,3.7146534094499404,-2.8807899935610668,7.3318855527285862,0.0
784640.0783812654,4010767.5119837918,-42500.0,0.60606446132659486,2.3060460302778689,-0.45197227932427558,-1.7755853214558366,-1.8104195139458013,2.2916572401140209,3.6049657465717617,2.4033123366817102,-3.1547237449230221,3.1547237449230221,-2.4033123366817102,6.402233585415078,0.0
789640.0783812654,4010767.5119837918,-42500.0,0.77461891994272791,2.0160189418250662,-0.39537089624599531,-1.6448719916890546,-1.502013573603741,1.873296532626223,3.1190672799851118,2.0022935211945914,-2.6695891261132152,2.6695891261132152,-2.0022935211945914,5.5623154656224623,0.0
794640.0783812654,4010767.5119837918,-42500.0,0.87043753388080358,1.7579574094577126,-0.34195115543195576,-1.4852074175628645,-1.2470860149632463,1.5171528229542048,2.6928056294207288,1.6698884722664253,-2.2568701835413831,2.2568701835413831,-1.6698884722664253,4.8194018162918137,0.0
799640.0783812654,4010767.5119837918,-42500.0,0.91154596354935225,1.5314989340052458,-0.29356864033520302,-1.3181793603732079,-1.0374259776269519,1.2227107996436686,2.3237148075839604,1.3962565365380111,-1.9095445724172975,1.9095445724172975,-1.3962565365380111,4.1715859648334126,0.0
804640.0783812654,4010767.5119837918,-42500.0,0.91391824135653088,1.3345251595525855,-0.25089433432647867,-1.1566968944873597,-0.86540488304966068,0.98366632946649835,2.0067638475613023,1.1716486416815837,-1.6189970704600047,1.6189970704600047,-1.1716486416815837,3.6119785075260178,0.0
809640.0783812654,4010767.5119837918,-42500.0,0.89038735318654139,1.1641377283674075,-0.21390367574888219,-1.0076297502613061,-0.7243350588128773,0.79171264783712092,1.7359294678463999,0.9873138730057649,-1.3766117895682668,1.3766117895682668,-0.9873138730057649,3.131424070147554,0.0
814640.0783812654,4010767.5119837918,-42500.0,0.85064169486618368,1.0172161553576253,-0.18220284542478593,-0.8739570675282583,-0.60854639351990381,0.63850677295225811,1.5050945260979589,0.8357877605359777,-1.1745131944363552,1.1745131944363552,-0.8357877605359777,2.720154738357381,0.0
819640.0783812654,4010767.5119837918,-42500.0,0.80167359230994095,0.8907210278031904,-0.15523248952307164,-0.75631652227479462,-0.51332979432194636,0.51655560749547402,1.3085186777995079,0.71088295323413386,-1.0058397074159509,1.0058397074159509,-0.71088295323413386,2.3687230120743128,0.0
824640.0783812654,4010767.5119837918,-42500.0,0.74834591377814741,0.78184643564430178,-0.13238743075558151,-0.6540413637140492,-0.43482578396570287,0.41951390626583523,1.141052054781482,0.60755510941090118,-0.86477822893654765,0.86477822893654765,-0.60755510941090118,2.0684754409738946,0.0
829640.0783812654,4010767.5119837918,-42500.0,0.69392332747208496,0.68808392383510075,-0.11308192363250144,-0.56581658263796497,-0.36989766201841884,0.34218925169072006,0.99820036134547552,0.52173003528387007,-0.74648617238839887,0.74648617238839887,-0.52173003528387007,1.8117449060542399,0.0
834640.0783812654,4010767.5119837918,-42500.0,0.64051287949038194,0.6072365150387794,-0.096781558953991778,-0.49007401577638521,-0.31600911502119411,0.28041982011771877,0.87611002728411569,0.45013290077488666,-0.64697006066863905,0.64697006066863905,-0.45013290077488666,1.5918815757171831,0.0
644640.0783812654,4015767.5119837918,-42500.0,0.61439965626096904,0.64013694003610211,-0.08875446880156955,0.5052939161230583,0.34507105310654734,0.30661181914033353,0.91054614027555802,0.089848205252723856,-0.36718716674574126,0.36718716674574126,-0.089848205252723856,1.6508333092840954,0.0
649640.0783812654,4015767.5119837918,-42500.0,0.65719408576913685,0.71975402795230192,-0.10262019757133448,0.58094128886529395,0.40166728431565518,0.37431048124114735,1.0317703147801001,0.097912005320058865,-0.41443751852715982,0.41443751852715982,-0.097912005320058865,1.8689643183031543,0.0
654640.0783812654,4015767.5119837918,-42500.0,0.69711174922019448,0.8097720147277625,-0.11857353371625884,0.66767282133805494,0.46848065456729426,0.45875535211871893,1.1710531906442285,0.10680681947056275,-0.46844642590720936,0.46844642590720936,-0.10680681947056275,2.1191290558410127,0.0
659640.0783812654,4015767.5119837918,-42500.0,0.73067193449588674,0.91097883395651125,-0.13674921871575763,0.76605129458292875,0.54708976513439256,0.56412315802598745,1.3305618765785361,0.11671810625515971,-0.53003928033125081,0.53003928033125081,-0.11671810625515971,2.4049454711328453,0.0
664640.0783812654,4015767.5119837918,-42500.0,0.75281284495608136,1.0238109497085417,-0.15714213110232869,0.87579840535099041,0.63899588768866056,0.69536645322993773,1.5121992677376719,0.1279657459560766,-0.60001791145842409,0.60001791145842409,-0.1279657459560766,2.7294004602645612,0.0
669640.0783812654,4015767.5119837918,-42500.0,0.75639552230311013,1.148069465976908,-0.17948015600895134,0.99509426724586636,0.74531504319135944,0.85805719207918807,1.717161957012423,0.14111803844055842,-0.67908112098105233,0.67908112098105233,-0.14111803844055842,3.0939704109092623,0.0
674640.0783812654,4015767.5119837918,-42500.0,0.73170008441138978,1.2825169398975438,-0.20301823255670956,1.119493159502601,0.86622207574078958,1.0578701873036942,1.9452119699525778,0.15719215415783921,-0.76771126657332256,0.76771126657332256,-0.15719215415783921,3.4971886419109759,0.0
679640.0783812654,4015767.5119837918,-42500.0,0.66608996624160199,1.4243486672061543,-0.22621669495798016,1.2403355495123873,1.0000043676936061,1.2993779605498228,2.1935331790634902,0.17799668707285804,-0.86603095048403067,0.86603095048403067,-0.17799668707285804,3.9324270326125972,0.0
684640.0783812654,4015767.5119837918,-42500.0,0.54421919874681379,1.5685834372552423,-0.24626140416561745,1.3426049570397922,1.1415393369122013,1.5836215202034809,2.4550245825825163,0.20669654375311469,-0.9736561409472706,0.9736561409472706,-0.20669654375311469,4.3846672082628668,0.0
689640.0783812654,4015767.5119837918,-42500.0,0.34948112002598153,1.7075333271635846,-0.25839412304674392,1.4024267152593572,1.2800042655541208,1.9036728138425085,2.7159090474162459,0.24869928262073371,-1.0896173083957295,1.0896173083957295,-0.24869928262073371,4.8262225197955848,0.0
694640.0783812654,4015767.5119837918,-42500.0,0.067822455657705352,1.8307229828375788,-0.25507737371367228,1.3850327420753505,1.3957455945056005,2.2372612425105252,2.9526720479617818,0.31294672988747135,-1.2124983660322355,1.2124983660322355,-0.31294672988747135,5.2120192504530101,0.0
699640.0783812654,4015767.5119837918,-42500.0,-0.30464711761577767,1.9259386936463057,-0.22517091391831351,1.2452948789775353,1.4566472910869441,2.5359366148534557,3.1287004311730198,0.41358265357232837,-1.3410530372865537,1.3410530372865537,-0.41358265357232837,5.476763200152944,0.0
704640.0783812654,4015767.5119837918,-42500.0,-0.74934605314571112,1.9823760808593689,-0.15362040674217337,0.93499508055750946,1.4152871270276766,2.7121953182961067,3.1917470987568017,0.57165827273717784,-1.4756688924354933,1.4756688924354933,-0.57165827273717784,5.5404182041261558,0.0
709640.0783812654,4015767.5119837918,-42500.0,-1.2102214624247338,1.9967156243287996,-0.022692283812507399,0.42306354096541104,1.209798205130562,2.6311831830498744,3.0747775875228855,0.8159599054156772,-1.6210761521653294,1.6210761521653294,-0.8159599054156772,5.3379057991671122,0.0
714640.0783812654,4015767.5119837918,-42500.0,-1.5853736624769061,1.98159998105976,0.18364940937371391,-0.26639007858004238,0.7731628979114411,2.1231706100110341,2.7056420804639543,1.181332276147212,-1.7904810180430366,1.7904810180430366,-1.181332276147212,4.9100602792184223,0.0
719640.0783812654,4015767.5119837918,-42500.0,-1.7453278260097365,1.9727161218912246,0.470805808295165,-1.0060557183107242,0.055605075728697828,1.0425894634504254,2.5092256776069375,1.702562434848085,-2.0105053362208034,2.0105053362208034,-1.702562434848085,4.6071553711831434,0.0
724640.0783812654,4015767.5119837918,-42500.0,-1.5993912802601273,2.0265735252804058,0.8210757792254475,-1.5457255638155851,-0.94090634154693675,-0.6104579458499223,2.9395943314656794,2.4025149269294022,-2.3240269230460231,2.3240269230460231,-2.4025149269294022,5.1563249425037601,0.0
729640.0783812654,4015767.5119837918,-42500.0,-1.195685971675104,2.2010168463492201,1.1843959808776603,-1.5885792533111933,-2.1301959286619039,-2.5519760298252399,3.681680154850973,3.274316811918784,-2.7830432984018389,2.7830432984018389,-3.274316811918784,6.8154072513598818,0.0
734640.0783812654,4015767.5119837918,-42500.0,-0.76359943723704871,2.5209021681393438,1.4844024225342758,-0.98877215922000572,-3.338653510949674,-4.2053882608242716,5.0928435938922831,4.259379195470081,-3.4198426170612866,3.4198426170612866,-4.259379195470081,8.9484214538170885,0.0
739640.0783812654,4015767.5119837918,-42500.0,-0.58989782460498874,2.9494645200336511,1.6467584159767932,0.063018389679502809,-4.3523239713501303,-4.9600798458205126,6.2367647288949595,5.2322693901726325,-4.1986813213075607,4.1986813213075607,-5.2322693901726325,10.808044485438201,0.0
744640.0783812654,4015767.5119837918,-42500.0,-0.78741464477810541,3.3925564378818249,1.6363531584878355,1.0991684026214812,-4.9999764314211221,-4.5713305623607416,6.8844519073734451,6.0192417332648027,-4.9885876178566306,4.9885876178566306,-6.0192417332648027,11.938011879525455,0.0
749640.0783812654,4015767.5119837918,-42500.0,-1.2013532192674727,3.7408082842239754,1.4743516987367298,1.6909306077301072,-5.2200117824924286,-3.3210041054013892,7.0358931151651962,6.465142936734777,-5.6075216127952299,5.6075216127952299,-6.465142936734777,12.232257552647903,0.0
754640.0783812654,4015767.5119837918,-42500.0,-1.5613284390713857,3.9202037758482433,1.2211780617638646,1.7105429732724653,-5.0658909591667776,-1.7740715666707787,6.808744632948903,6.507773023181425,-5.9177488798762958,5.9177488798762958,-6.507773023181425,11.842769083045887,0.0
759640.0783812654,4015767.5119837918,-42500.0,-1.6892983944958231,3.914965947042941,0.94283739352679319,1.3122066720369294,-4.6566918456080932,-0.41110731858352445,6.3444983308477347,6.1961388447824932,-5.8880095844457214,5.8880095844457214,-6.1961388447824932,11.018094651212719,0.0
764640.0783812654,4015767.5119837918,-42500.0,-1.56680818885009,3.7556837178085685,0.68666995755593041,0.74362628429979027,-4.1176959678186904,0.54534524337332424,5.7579441220398895,5.646113229241025,-5.5802458327869671,5.5802458327869671,-5.646113229241025,9.9809992106563836,0.0
769640.0783812654,4015767.5119837918,-42500.0,-1.2749893770769818,3.4927020758522271,0.47562510682601483,0.19723295438025742,-3.5452291484330436,1.0888872748057254,5.1294451068674896,4.9812640691992325,-5.0960090932566313,5.0960090932566313,-4.9812640691992325,8.8844742232271159,0.0
774640.0783812654,4015767.5119837918,-42500.0,-0.91410058682931583,3.1748408017953564,0.31424272298191475,-0.23130256742326252,-2.9989454576353265,1.3155203141064216,4.5108161068701067,4.2971173110004459,-4.5311074758604724,4.5311074758604724,-4.2971173110004459,7.8180344901072161,0.0
779640.0783812654,4015767.5119837918,-42500.0,-0.55957345718376439,2.8396128075394311,0.19716161425326681,-0.52047322339280355,-2.5087890441093612,1.3382083780476344,3.9323513431489001,3.6528102081170242,-3.9554990946586845,3.9554990946586845,-3.6528102081170242,6.828107571822768,0.0
784640.0783812654,4015767.5119837918,-42500.0,-0.25305093591871958,2.511801113583771,0.11549228124072516,-0.68744114978627813,-2.0852596773610181,1.2483901435838072,3.409160382345187,3.0775493355194485,-3.4117450281439807,3.4117450281439807,-3.0775493355194485,5.9352243229940793,0.0
789640.0783812654,4015767.5119837918,-42500.0,-0.0097905685387450845,2.205740312712106,0.06031679765406936,-0.76223652324366142,-1.7278561288968874,1.1079329301737346,2.9463994314295858,2.5807182522348038,-2.9212109165095299,2.9212109165095299,-2.5807182522348038,5.1450175074251474,0.0
794640.0783812654,4015767.5119837918,-42500.0,0.17081342658791945,1.9283805032054038,0.024127579485922538,-0.77427203209592643,-1.430695137992581,0.95386997791681993,2.5432001554091093,2.1604407946922,-2.4913577413837298,2.4913577413837298,-2.1604407946922,4.4547355681333611,0.0
799640.0783812654,4015767.5119837918,-42500.0,0.29694021705337964,1.6819278145960836,0.001143993891765904,-0.74722648439161377,-1.185837036967758,0.80598671118957799,2.1953950476472492,1.8093993168144795,-2.121568489086572,2.121568489086572,-1.8093993168144795,3.8571377965281743,0.0
804640.0783812654,4015767.5119837918,-42500.0,0.37918752610055589,1.4657792421888001,-0.012858156276051108,-0.69824608489190854,-0.98508358374889493,0.67335774869651799,1.8972895779042735,1.5183105712580356,-1.8071000217643962,1.8071000217643962,-1.5183105712580356,3.34288830941072,0.0
809640.0783812654,4015767.5119837918,-42500.0,0.42787028574939795,1.2778196731619778,-0.020865442306573587,-0.63888419750227377,-0.8208500188655935,0.55895363796627684,1.6427420794285106,1.2777934390560319,-1.541503331821986,1.541503331821986,-1.2777934390560319,2.9020236125131817,0.0
814640.0783812654,4015767.5119837918,-42500.0,0.45186776456837391,1.1152493645132167,-0.024943379626339839,-0.57647751243045353,-0.6865185640089364,0.46256062052867453,1.425786647912018,1.0792635020961281,-1.3179984062306087,1.3179984062306087,-1.0792635020961281,2.5248380731492639,0.0
819640.0783812654,4015767.5119837918,-42500.0,0.45831491466387231,0.97507262002316264,-0.026498152922238321,-0.51540640185043629,-0.57650704199148251,0.38249433627446394,1.2409429856194905,0.91526449705668089,-1.1301727907425818,1.1301727907425818,-0.91526449705668089,2.2023500838816452,0.0
824640.0783812654,4015767.5119837918,-42500.0,0.45269941636217753,0.85437826792791594,-0.026475399934954846,-0.45808407771595355,-0.48620692626736539,0.31654791401780841,1.083351515239289,0.77951859547284308,-0.97229699444814732,0.97229699444814732,-0.77951859547284308,1.9265270907474414,0.0
829640.0783812654,4015767.5119837918,-42500.0,0.43911396929155622,0.75048161308277617,-0.025504142857017086,-0.40566762054755673,-0.4118635012381866,0.26247845015975546,0.94879788765413386,0.66683754060603195,-0.83941805572718031,0.83941805572718031,-0.66683754060603195,1.6903441294845036,0.0
834640.0783812654,4015767.5119837918,-42500.0,0.4205394370924706,0.66098485240097404,-0.023998077034882135,-0.35854410461733971,-0.35044235179356509,0.21823208838188299,0.83368063895477129,0.57298158636469343,-0.72734071923929933,0.72734071923929933,-0.57298158636469343,1.4877508981322478,0.0
644640.0783812654,4020767.5119837918,-42500.0,0.82337117427562734,0.55461286417318456,-0.15509099297396992,0.64308637579069949,0.29003935147174209,0.3794210826430181,0.95911139452104099,0.020797496327784881,-0.30334965944512421,0.30334965944512421,-0.020797496327784881,1.7708547516660782,0.0
649640.0783812654,4020767.5119837918,-42500.0,0.89506354024118628,0.61908263931255092,-0.18107961988773688,0.74722290443017447,0.33359138485167744,0.46750776449923431,1.0888028687782563,0.020369595024226528,-0.34281695179945093,0.34281695179945093,-0.020369595024226528,2.0098364621470597,0.0
654640.0783812654,4020767.5119837918,-42500.0,0.96718252205039157,0.69110819340202301,-0.21152291059611045,0.86878148379506459,0.38385238710694281,0.57878768744438569,1.2383536350806623,0.020325278001438074,-0.38863135442171842,0.38863135442171842,-0.020325278001438074,2.2850945960545808,0.0
659640.0783812654,4020767.5119837918,-42500.0,1.0359326127088309,0.77106465784880096,-0.24695110208369486,1.0095812219871507,0.44141787677650468,0.71961354864075788,1.4103786242007239,0.021271763432137825,-0.44200887031133179,0.44200887031133179,-0.021271763432137825,2.6011501065745382,0.0
664640.0783812654,4020767.5119837918,-42500.0,1.0953937997869978,0.85904052623119909,-0.28774582094306528,1.1706391225914747,0.50656939097055764,0.89782382487785251,1.6073562224051254,0.024272408704577447,-0.5044457787578287,0.5044457787578287,-0.024272408704577447,2.9620465276575594,0.0
669640.0783812654,4020767.5119837918,-42500.0,1.13669975128351,0.95467575375115299,-0.33394213567880832,1.351257362415162,0.57896356430576223,1.1227471571050367,1.8312259828544881,0.031120940288837495,-0.57779578946601196,0.57779578946601196,-0.031120940288837495,3.3704548883447742,0.0
674640.0783812654,4020767.5119837918,-42500.0,1.1470834450272096,1.0569710195942783,-0.38489351150202084,1.5475194055129917,0.65713968805471745,1.4047923540357556,2.0827094279594069,0.044749700572364881,-0.66436470120476465,0.66436470120476465,-0.044749700572364881,3.8261836385838341,0.0
679640.0783812654,4020767.5119837918,-42500.0,1.1089745392162411,1.1641062964767168,-0.43872980368766057,1.7499410276381062,0.73777945203515671,1.7541634376153254,2.3602161335521199,0.06980699788189626,-0.76701164063237193,0.76701164063237193,-0.06980699788189626,4.3238276880983708,0.0
684640.0783812654,4020767.5119837918,-42500.0,0.99961469617917176,1.2733602083050226,-0.4915238553806488,1.9400488995864753,0.81466844887398593,2.1778932966592266,2.6581582852906545,0.1134081916789399,-0.88921685381229276,0.88921685381229276,-0.1134081916789399,4.8492858432316677,0.0
689640.0783812654,4020767.5119837918,-42500.0,0.79216325458017089,1.3813047166563994,-0.53609449516758667,2.08591520531564,0.87738686170513036,2.6739084240592086,2.9644843709719728,0.18596921633187541,-1.0350082516777768,1.0350082516777768,-0.18596921633187541,5.3750566642952284,0.0
694640.0783812654,4020767.5119837918,-42500.0,0.46002808907789167,1.4845461951676735,-0.56046046208630695,2.13747707264405,0.90996086320381164,3.2203673571383207,3.2573445571435178,0.30181230487698985,-1.2085047752389722,1.2085047752389722,-0.30181230487698985,5.8549045782936107,0.0
699640.0783812654,4020767.5119837918,-42500.0,-0.013046831698174673,1.5813097000443062,-0.54620999542963178,2.0243227473001091,0.89010963977387758,3.7586249551258848,3.5012547792202051,0.47883623377889339,-1.4126187512937474,1.4126187512937474,-0.47883623377889339,6.2203570524233003,0.0
704640.0783812654,4020767.5119837918,-42500.0,-0.61473484660547628,1.6739105187421517,-0.46758179319375748,1.6620026732925035,0.79031583399627914,4.1703472599235019,3.6445206536207726,0.73603518914751231,-1.6462554937993799,1.6462554937993799,-0.73603518914751231,6.3860011454201544,0.0
709640.0783812654,4020767.5119837918,-42500.0,-1.2787704645278155,1.7712974486387063,-0.29291062292769104,0.97716051670800697,0.58239123866057618,4.2563404913241349,3.6237090218051153,1.0875123038229553,-1.899585363054215,1.899585363054215,-1.0875123038229553,6.2806910412950385,0.0
714640.0783812654,4020767.5119837918,-42500.0,-1.8640008840046678,1.8892958935714361,0.0090523804363973111,-0.037689436677457749,0.24650789395088724,3.7394131601565612,3.3986286791659834,1.5331354538811377,-2.1486980892791476,2.1486980892791476,-1.5331354538811377,5.9418819696250029,0.0
719640.0783812654,4020767.5119837918,-42500.0,-2.16727087441638,2.0450953967644145,0.45576883204875185,-1.24388547743091,-0.21757023817109467,2.3320292731861265,3.1995411570816006,2.0506702257045917,-2.3553623394508807,2.3553623394508807,-2.0506702257045917,5.7142983292393712,0.0
724640.0783812654,4020767.5119837918,-42500.0,-2.0088125886874137,2.2452274334212645,1.0319105239785051,-2.2989252825164548,-0.78447592498365626,-0.094312990287613988,3.6475590801236866,2.6003277774371405,-2.482628466411442,2.482628466411442,-2.6003277774371405,6.3177813399886764,0.0
729640.0783812654,4020767.5119837918,-42500.0,-1.3871340933010796,2.4750063073039832,1.6738483427407438,-2.7235773237708858,-1.4103820116045831,-3.2777897431144325,4.6185516354585863,3.1492962539242533,-2.5314604859303658,2.5314604859303658,-3.1492962539242533,8.0826714167930511,0.0
734640.0783812654,4020767.5119837918,-42500.0,-0.58746189023831141,2.7037138999005292,2.2735020607846814,-2.1640591075700417,-2.0486685362260921,-6.4653733509066171,5.9870026501180913,3.6984876203545847,-2.5740894776089345,2.5740894776089345,-3.6984876203545847,10.398184504973482,0.0
739640.0783812654,4020767.5119837918,-42500.0,-0.065392184588913521,2.9060169103228319,2.7115471454394879,-0.71033470988026715,-2.6545323800398868,-8.6798474381412216,7.1587415502814684,4.269037620389196,-2.7298746735502748,2.7298746735502748,-4.269037620389196,12.402830583295986,0.0
744640.0783812654,4020767.5119837918,-42500.0,-0.11952697116976541,3.0746801677131326,2.9071121099836028,1.0655413543971526,-3.1729605864020503,-9.2843959470585453,7.768930058448225,4.8426104622680324,-3.0701695635205244,3.0701695635205244,-4.8426104622680324,13.522731390973055,0.0
749640.0783812654,4020767.5119837918,-42500.0,-0.66807661930687912,3.2075556299538004,2.8510364519490281,2.4755141688618432,-3.5376403518389741,-8.3587048704939662,7.7715414499117434,5.3271492589837601,-3.5402693195556898,3.5402693195556898,-5.3271492589837601,13.615746709104643,0.0
754640.0783812654,4020767.5119837918,-42500.0,-1.3652705505452511,3.2907135695007934,2.5996382903522224,3.1417446788386356,-3.6985772211373575,-6.5341428561997814,7.3190233610345663,5.6046583714777354,-3.9908216132063439,3.9908216132063439,-5.6046583714777354,12.886750450894132,0.0
759640.0783812654,4020767.5119837918,-42500.0,-1.8883236566266615,3.3028872705870778,2.2388313542501574,3.1011291873245335,-3.6510353353988729,-4.5232251884882695,6.6239202165209798,5.6101348515468592,-4.2815462783071263,4.2815462783071263,-5.6101348515468592,11.67986037432992,0.0
764640.0783812654,4020767.5119837918,-42500.0,-2.1010437943732438,3.2321265209546901,1.8474851556903884,2.618874538229548,-3.4352095638649698,-2.7902646885703861,5.8547280467489689,5.3611795608529773,-4.3515233069968184,4.3515233069968184,-5.3611795608529773,10.300715814474247,0.0
769640.0783812654,4020767.5119837918,-42500.0,-2.0323131491117756,3.0839773501360219,1.4788519276773555,1.9715075516135432,-3.1126072898510029,-1.5051716151164092,5.1064913192990993,4.9304795133160688,-4.2179799406645593,4.2179799406645593,-4.9304795133160688,8.9450279394645573,0.0
774640.0783812654,4020767.5119837918,-42500.0,-1.7825960798143998,2.8772407829601514,1.1596427307210133,1.3434276241312659,-2.7421212488482203,-0.64885201598130182,4.4207327475362277,4.4032879598897496,-3.9386357607143596,3.9386357607143596,-4.4032879598897496,7.7080492200071529,0.0
779640.0783812654,4020767.5119837918,-42500.0,-1.4523946568491295,2.6352746800164506,0.89751559090394273,0.82142538669528575,-2.3677454143339292,-0.12648105184019603,3.8112065635372749,3.8500434151617577,-3.5771428297956138,3.5771428297956138,-3.8500434151617577,6.6212717093338611,0.0
784640.0783812654,4020767.5119837918,-42500.0,-1.1130496280418851,2.379354417368289,0.68942889813628061,0.4269865637632731,-2.0167063418293858,0.16464986966688436,3.2789937620783665,3.3177727074063501,-3.1851834666896774,3.1851834666896774,-3.3177727074063501,5.6842472897497727,0.0
789640.0783812654,4020767.5119837918,-42500.0,-0.80471106698886108,2.1256611161136716,0.52772925969496076,0.14873292390660856,-1.7027021995901359,0.307934706720706,2.8194998524273309,2.8324318337421071,-2.7978975385984013,2.7978975385984013,-2.8324318337421071,4.8836562199671318,0.0
794640.0783812654,4020767.5119837918,-42500.0,-0.54447612098918596,1.8848929869559108,0.40369317386052445,-0.036399595012704275,-1.4302944443951571,0.36254865155332311,2.4257061712332098,2.4048488445595879,-2.43589791577421,2.43589791577421,-2.4048488445595879,4.2025435169775083,0.0
799640.0783812654,4020767.5119837918,-42500.0,-0.33544752777697806,1.6631412349313299,0.30923487134316846,-0.15228597906210661,-1.1986503672977808,0.36725296715612227,2.0898074359889547,2.036454186616155,-2.1092298023449003,2.1092298023449003,-2.036454186616155,3.6241360639041829,0.0
804640.0783812654,4020767.5119837918,-42500.0,-0.1735455348357563,1.4631170570287004,0.23753978446806318,-0.21922618843409358,-1.0041827860719141,0.34606563551203101,1.8040792484829404,1.723556696029231,-1.8211039188704872,1.8211039188704872,-1.723556696029231,3.1331847249310916,0.0
809640.0783812654,4020767.5119837918,-42500.0,-0.051783567172716941,1.2852830579031023,0.18315540913912218,-0.25289893880106512,-0.84220669295075556,0.31320670240923537,1.5613293333267273,1.4601310311388029,-1.5707262781118534,1.5707262781118534,-1.4601310311388029,2.7163084060305271,0.0
814640.0783812654,4020767.5119837918,-42500.0,0.037372388419466156,1.128737164648864,0.14184981317482767,-0.26474589428395423,-0.70788325608196134,0.27671877191399524,1.3551070627011517,1.2394669783930063,-1.3552117591856825,1.3552117591856825,-1.2394669783930063,2.3619707806673449,0.0
819640.0783812654,4020767.5119837918,-42500.0,0.10086675665082397,0.99183797683802544,0.11039733558958757,-0.26280799455131831,-0.59670131528205073,0.24089573172616516,1.1797681192147771,1.0550558740954059,-1.170778737103096,1.170778737103096,-1.0550558740954059,2.0603285200345058,0.0
824640.0783812654,4020767.5119837918,-42500.0,0.14461618454731917,0.87261815450241909,0.086365137330555258,-0.25258108303364474,-0.50468283086048538,0.20782970694199548,1.0304573277442888,0.90100966557270989,-1.0134461336357263,1.0134461336357263,-0.90100966557270989,1.8030431520931971,0.0
829640.0783812654,4020767.5119837918,-42500.0,0.17343448317956842,0.76904041296809567,0.067928643354476764,-0.23773509848633698,-0.42843447556872299,0.17836259069428706,0.9030473327446914,0.77221108171586128,-0.87940843033594585,0.87940843033594585,-0.77221108171586128,1.5830879361746919,0.0
834640.0783812654,4020767.5119837918,-42500.0,0.19112456288714638,0.67914526306209266,0.053722651031303158,-0.22066615211962737,-0.36512099097588863,0.15265593257401774,0.79405773882534392,0.66432053078824482,-0.76521412234740949,0.76521412234740949,-0.66432053078824482,1.394564085581885,0.0
644640.0783812654,4025767.5119837918,-42500.0,1.0018348203750564,0.44022030133790507,-0.20273734129145926,0.76141290997669808,0.21766852200224479,0.44210721546674797,1.0043860504736859,-0.043396422003557852,-0.22031580730118833,0.22031580730118833,0.043396422003557852,1.8848942011023044,0.0
649640.0783812654,4025767.5119837918,-42500.0,1.0958578573522286,0.4837607958267563,-0.23603197990410618,0.88849675422953456,0.24366127835505894,0.54694490820796338,1.1416905996317488,-0.050258495775941631,-0.24833076396173207,0.24833076396173207,0.050258495775941631,2.1430375197593343,0.0
654640.0783812654,4025767.5119837918,-42500.0,1.1921839858678684,0.53082651174103024,-0.2747666420433923,1.0376130181034466,0.27156527502606792,0.67996075780394605,1.3004201444723953,-0.056396329517273261,-0.28156278168851917,0.28156278168851917,0.056396329517273261,2.4411895404849244,0.0
659640.0783812654,4025767.5119837918,-42500.0,1.286484143377677,0.58119548601629867,-0.31946143607077004,1.2112957992319966,0.30062316985081727,0.84905122151881907,1.4835738853710818,-0.060494648225270536,-0.32150951138431605,0.32150951138431605,0.060494648225270536,2.7846212107705788,0.0
664640.0783812654,4025767.5119837918,-42500.0,1.3718193621004482,0.63445118737303552,-0.37037958747579192,1.4111798118697902,0.32944269522181258,1.0640316720286833,1.6941253360590793,-0.060372239108542253,-0.37026430001482502,0.37026430001482502,0.060372239108542253,3.1782433562893688,0.0
669640.0783812654,4025767.5119837918,-42500.0,1.4375897834503895,0.68999657429805039,-0.42725996048825737,1.6368845108798205,0.35568958099012965,1.3366948431253813,1.9346514442705016,-0.052538603264105838,-0.43077481008406748,0.43077481008406748,0.052538603264105838,3.6256991340154205,0.0
674640.0783812654,4025767.5119837918,-42500.0,1.4682986296061948,0.74716785700382105,-0.48888661919199244,1.8841572235182373,0.375697040927082,1.6803841420049836,2.2066822800745989,-0.031589969334301637,-0.50718704641031853,0.50718704641031853,0.031589969334301637,4.1278341230171058,0.0
679640.0783812654,4025767.5119837918,-42500.0,1.4423566311988636,0.80554654903726253,-0.55242909518810035,2.1419514920044405,0.38403359864689329,2.1085248895187974,2.5096133713641788,0.010542007680446053,-0.60525558251370692,0.60525558251370692,-0.010542007680446053,4.6802609863794533,0.0
684640.0783812654,4025767.5119837918,-42500.0,1.3315078155963176,0.86561872866459977,-0.61249146436711766,2.3881467587286864,0.37316587062018819,2.6311358818067769,2.8389680032629432,0.085367944388205497,-0.73271945929604121,0.73271945929604121,-0.085367944388205497,5.2697270148295736,0.0
689640.0783812654,4025767.5119837918,-42500.0,1.1020937397988397,0.92996071870437769,-0.65985973258749175,2.5839303132075311,0.33353699220921834,3.2477608290346147,3.1837891828686988,0.20828472505531836,-0.89935904415874179,0.89935904415874179,-0.20828472505531836,5.8691772895527299,0.0
694640.0783812654,4025767.5119837918,-42500.0,0.72032186889525507,1.0050539266459826,-0.68008979678814685,2.6678479013200684,0.25467762305683228,3.9346977825453644,3.5231250999447346,0.39788184052577091,-1.1160937667634074,1.1160937667634074,-0.39788184052577091,6.4321096391615029,0.0
699640.0783812654,4025767.5119837918,-42500.0,0.16466601333895525,1.1034600872481981,-0.65241016052426637,2.552788610648391,0.12830963312236301,4.624548665356488,3.8222607998498912,0.67265351798810435,-1.3919263516376583,1.3919263516376583,-0.67265351798810435,6.8887358961659402,0.0
704640.0783812654,4025767.5119837918,-42500.0,-0.55170662914731305,1.2451316622207149,-0.54996645756293128,2.1332130022350779,-0.045549410703923654,5.178701536268524,4.0311801435318069,1.0431191887033349,-1.726999888310657,1.726999888310657,-1.0431191887033349,7.1509918774222951,0.0
709640.0783812654,4025767.5119837918,-42500.0,-1.3499070833181324,1.454955311813273,-0.34305867180508848,1.3148404923222254,-0.24961422330506772,5.3615433665271697,4.0923270753641772,1.4980634381959312,-2.10043209336248,2.10043209336248,-1.4980634381959312,7.1431030274258127,0.0
714640.0783812654,4025767.5119837918,-42500.0,-2.0596866920572907,1.7521202552642383,-0.0070809974103663619,0.079309722266104068,-0.44134758855002904,4.8418792659544865,3.9785958381605431,1.9878876694004115,-2.4550698800875184,2.4550698800875184,-1.9878876694004115,6.8914162962125491,0.0
719640.0783812654,4025767.5119837918,-42500.0,-2.4338172532498681,2.1289325564612076,0.46484053872047815,-1.4212281975899945,-0.55630472216764304,3.2670665371599013,3.8351277785387845,2.4178631454475199,-2.6903163903438005,2.6903163903438005,-2.4178631454475199,6.7054110132782059,0.0
724640.0783812654,4025767.5119837918,-42500.0,-2.2467728797656119,2.5274856941852279,1.048757598194938,-2.7937233543523652,-0.53663186573279675,0.45038272603661023,4.1704913365316383,2.6742746908710551,-2.6856585942794879,2.6856585942794879,-2.6742746908710551,7.2587708748250126,0.0
729640.0783812654,4025767.5119837918,-42500.0,-1.4746940717257238,2.8402126504522696,1.685012382498382,-3.4706646529704304,-0.3843598831165837,-3.3694485309479005,5.1733632630082083,2.6962978297754523,-2.3727573353933389,2.3727573353933389,-2.6962978297754523,8.9633067497621983,0.0
734640.0783812654,4025767.5119837918,-42500.0,-0.43017487576635444,2.9606748941633554,2.2886116293803909,-2.993008627792753,-0.2005603383324529,-7.3957311072830727,6.5259818203520847,2.5547141963577382,-1.8266182585919712,1.8266182585919712,-2.5547141963577382,11.319911516037887,0.0
739640.0783812654,4025767.5119837918,-42500.0,0.34591917514491538,2.8638399409023148,2.7720474199619831,-1.373410328565448,-0.14872127017054204,-10.520594888973902,7.7078365247279148,2.4444598619704818,-1.2810839282239672,1.2810839282239672,-2.4444598619704818,13.441006001092628,0.0
744640.0783812654,4025767.5119837918,-42500.0,0.44166795122413349,2.6368095706534422,3.0695328629244729,0.81094192256588638,-0.34122583682881236,-11.910805543660427,8.3423510002261416,2.550634415957135,-1.0017836554428508,1.0017836554428508,-2.550634415957135,14.667323779818828,0.0
749640.0783812654,4025767.5119837918,-42500.0,-0.13847852564940807,2.4136321657901885,3.1538002358753152,2.7645404193768011,-0.7508183200168056,-11.46559738858679,8.3344640995390336,2.9018512621639365,-1.1065428219453288,1.1065428219453288,-2.9018512621639365,14.782788991788635,0.0
754640.0783812654,4025767.5119837918,-42500.0,-1.0406856691635973,2.2789144941813895,3.0410272089628854,3.950969520630812,-1.2375836270466973,-9.7449428464043066,7.8115706069284503,3.3619610250747187,-1.5065258028963942,1.5065258028963942,-3.3619610250747187,13.962751362747653,0.0
759640.0783812654,4025767.5119837918,-42500.0,-1.8620448902892643,2.2335732595957745,2.7812002815678927,4.2835357984065112,-1.6514617825074958,-7.5199149070573128,6.9965891776649798,3.7487401655907777,-2.0040535781806299,2.0040535781806299,-3.7487401655907777,12.57126325692267,0.0
764640.0783812654,4025767.5119837918,-42500.0,-2.3718244991362267,2.2293912101237661,2.4378725719542031,3.9854115190636419,-1.9078113001957782,-5.3837118794975911,6.0924675640362009,3.9455304148346877,-2.4249946444553845,2.4249946444553845,-3.9455304148346877,10.962263439776711,0.0
769640.0783812654,4025767.5119837918,-42500.0,-2.5359380227696979,2.2165661024538257,2.0684723371504572,3.3587335538815934,-1.996088083512775,-3.6318052603560389,5.2271229039787404,3.9295491065739854,-2.6817515335839563,2.6817515335839563,-3.9295491065739854,9.3799367938047524,0.0
774640.0783812654,4025767.5119837918,-42500.0,-2.4333395553761479,2.1672246046134997,1.7137053180996535,2.64203954346514,-1.9502232328914093,-2.3294895328147374,4.4563443846668722,3.7408273866494954,-2.7647920223651323,2.7647920223651323,-3.7408273866494954,7.9510951188304508,0.0
779640.0783812654,4025767.5119837918,-42500.0,-2.1715670592063825,2.075705247637373,1.3964150878253763,1.9745966231472913,-1.8172383736966053,-1.4230874179604638,3.7924405423100511,3.4411285790849391,-2.7073156774800768,2.7073156774800768,-3.4411285790849391,6.7193730805532219,0.0
784640.0783812654,4025767.5119837918,-42500.0,-1.8411625411326751,1.9496492149746876,1.1255874292077426,1.4160760198054412,-1.6389445609718594,-0.8211579604657383,3.2291114945005646,3.0875457345457216,-2.5549179062093126,2.5549179062093126,-3.0875457345457216,5.6827408932162049,0.0
789640.0783812654,4025767.5119837918,-42500.0,-1.5027454466982983,1.8014957393043902,0.90146541053207796,0.97810805018738467,-1.445631954401555,-0.43572487426147938,2.7542750131366507,2.722264929015743,-2.3489492307155326,2.3489492307155326,-2.722264929015743,4.819670353392163,0.0
794640.0783812654,4025767.5119837918,-42500.0,-1.1902487318605968,1.6433318060556443,0.71972996532634959,0.64914570573592167,-1.2563289672421021,-0.1967568005105097,2.3550980111213389,2.3719767802058747,-2.1206010998228408,2.1206010998228408,-2.3719767802058747,4.1034586088643801,0.0
799640.0783812654,4025767.5119837918,-42500.0,-0.91882913002937394,1.4846989373196198,0.57426679927165647,0.40952950801177024,-1.0814303726187071,-0.053562949882600359,2.0197212123927799,2.0511252836508791,-1.8907278662847786,1.8907278662847786,-2.0511252836508791,3.5086616558112178,0.0
804640.0783812654,4025767.5119837918,-42500.0,-0.69222907949795265,1.3321683767021772,0.45874163821248193,0.23910782691977611,-0.92553840337200521,0.028574752130922206,1.7377588356480704,1.7657788520275954,-1.671867779705255,1.671867779705255,-1.7657788520275954,3.0133149639537287,0.0
809640.0783812654,4025767.5119837918,-42500.0,-0.50809878906885664,1.1897236724605313,0.36736937515174606,0.12038822023417098,-0.78973353679449454,0.072620161536857783,1.5003474171073106,1.5168500561994533,-1.4706353648611157,1.4706353648611157,-1.5168500561994533,2.5992542105588083,0.0
814640.0783812654,4025767.5119837918,-42500.0,-0.36135925379116274,1.0593877785000072,0.29520612803139279,0.039380489970306361,-0.67315331133084422,0.093409565746885373,1.3000290902151974,1.3023905706180499,-1.2897602140474571,1.2897602140474571,-1.3023905706180499,2.2517267424210967,0.0
819640.0783812654,4025767.5119837918,-42500.0,-0.24612606087838096,0.94182870160184173,0.23818872511442249,-0.014590286603997802,-0.57399786027779853,0.10036431505671493,1.1305811800200012,1.1190798725190318,-1.1295985683787952,1.1295985683787952,-1.1190798725190318,1.958823409590664,0.0
824640.0783812654,4025767.5119837918,-42500.0,-0.15670432431810774,0.83684811150688254,0.19305713237080485,-0.049434641560609109,-0.49012714153872433,0.099382048274805665,0.98683821712325925,0.96312255159144888,-0.9891667050173526,0.9891667050173526,-0.96312255159144888,1.7109335595726729,0.0
829640.0783812654,4025767.5119837918,-42500.0,-0.088033244415836626,0.74373912248464968,0.15723447307956742,-0.070903704828103917,-0.41939117444143548,0.094103230101268545,0.86452532697184747,0.83075053454223036,-0.86680770915707939,0.86680770915707939,-0.83075053454223036,1.5002833985062014,0.0
834640.0783812654,4025767.5119837918,-42500.0,-0.035827611199469409,0.66153177642082273,0.12870221254309147,-0.083124683636350241,-0.35979608186777434,0.086738858439061789,0.76011036507184526,0.71847788493157605,-0.76060092905138355,0.76060092905138355,-0.71847788493157605,1.3205636815574779,0.0
644640.0783812654,4030767.5119837918,-42500.0,1.142141438994565,0.30533774867127561,-0.22715845096219167,0.85549290297798231,0.13287158311991379,0.49222381123467818,1.042709322955846,-0.097755071506409733,-0.12328543449252725,0.12328543449252725,0.097755071506409733,1.9838612077376903,0.0
649640.0783812654,4030767.5119837918,-42500.0,1.2503465631028912,0.32461281995947805,-0.26188342498184058,0.99865049642029835,0.13854537206274517,0.60930229859013785,1.1857547797503956,-0.1079742734017947,-0.13749804975156726,0.13749804975156726,0.1079742734017947,2.2569856615515329,0.0
654640.0783812654,4030767.5119837918,-42500.0,1.3610230230088827,0.3429637280142554,-0.30141387406809728,1.1663457726262823,0.14073633202618926,0.75774740298756649,1.3512270597414813,-0.1161907415471797,-0.15541062688784049,0.15541062688784049,0.1161907415471797,2.5725687835840416,0.0
659640.0783812654,4030767.5119837918,-42500.0,1.4690872034003284,0.35962125951270252,-0.34582107878421742,1.3611959955513493,0.13725336365652374,0.94623801221366288,1.5423237928773619,-0.12013057469551922,-0.1787531872421749,0.1787531872421749,0.12013057469551922,2.9362223085708483,0.0
664640.0783812654,4030767.5119837918,-42500.0,1.5664600011060876,0.37379267801272364,-0.39472616107223774,1.5846832685656278,0.12498272804962589,1.1854845597409214,1.7622581140961466,-0.11621539128109259,-0.21016395739643251,0.21016395739643251,0.11621539128109259,3.3531951652511167,0.0
669640.0783812654,4030767.5119837918,-42500.0,1.6409155318609019,0.38489365592267255,-0.44698410877621186,1.8358659347875492,0.099628501976179354,1.4882287836456343,2.0138862185800677,-0.098985958069970126,-0.25362526042818534,0.25362526042818534,0.098985958069970126,3.8274353856846672,0.0
674640.0783812654,4030767.5119837918,-42500.0,1.6747782361744354,0.39301599495874923,-0.50022428018636744,2.1092782670123151,0.055495700658102325,1.8686815772941778,2.2990373194780194,-0.060382940369148208,-0.31504475575688629,0.31504475575688629,0.060382940369148208,4.3600187115499525,0.0
679640.0783812654,4030767.5119837918,-42500.0,1.6437643267073199,0.39977629788609675,-0.5502250232558159,2.3917015096679313,-0.014527587019121902,2.3407971146730566,2.6173770690483997,0.011023463207571221,-0.4029485604737737,0.4029485604737737,-0.011023463207571221,4.946668701265005,0.0
684640.0783812654,4030767.5119837918,-42500.0,1.5166699112935897,0.40971697356914977,-0.59014571482732792,2.6575666939759981,-0.11847141781875759,2.9143610458684277,2.9646010671863334,0.13057242172013522,-0.52912040775577096,0.52912040775577096,-0.13057242172013522,5.5740992758967627,0.0
689640.0783812654,4030767.5119837918,-42500.0,1.2572933712482304,0.43237364791530852,-0.60975101160023781,2.8631612958322119,-0.26369877449533957,3.5873298210785323,3.329808441003149,0.31716978403691487,-0.70873456123887546,0.70873456123887546,-0.31716978403691487,6.2151215526047636,0.0
694640.0783812654,4030767.5119837918,-42500.0,0.83091989899181184,0.48483380883044913,-0.59497793874726623,2.9409470897647472,-0.45336000792811398,4.3324350955302826,3.6921868229161006,0.59081658406184046,-0.95900216951474371,0.95900216951474371,-0.59081658406184046,6.8231886222001519,0.0
699640.0783812654,4030767.5119837918,-42500.0,0.21846449688900713,0.59384073280156013,-0.52852466149110733,2.7976955208361156,-0.67987422430366118,5.0765092568556334,4.0179170596558897,0.96604361995783117,-1.294575155684885,1.294575155684885,-0.96604361995783117,7.3289444309216041,0.0
704640.0783812654,4030767.5119837918,-42500.0,-0.55941498479332485,0.79499142894224828,-0.39245666852835209,2.3240780045015241,-0.9150687967822636,5.6739983804068572,4.2600140247232705,1.4390617694794952,-1.7172883368056586,1.7172883368056586,-1.4390617694794952,7.6455673169896814,0.0
709640.0783812654,4030767.5119837918,-42500.0,-1.4111402096803023,1.1245737043055799,-0.17369913725070327,1.4274149334613297,-1.0992153599279659,5.8844113794708743,4.3677644131124698,1.9683485956144824,-2.1985638203036504,2.1985638203036504,-1.9683485956144824,7.6980438855474151,0.0
714640.0783812654,4030767.5119837918,-42500.0,-2.1518815388324306,1.5989744116610765,0.12809714744558387,0.097698235356047741,-1.1369458519522062,5.3786462161139177,4.3211244615692905,2.455126871319294,-2.6576561127674534,2.6576561127674534,-2.455126871319294,7.5042946539982234,0.0
719640.0783812654,4030767.5119837918,-42500.0,-2.5245883841162171,2.1820698703299537,0.4940166963888073,-1.5020574075590529,-0.91534792107731011,3.8146372202685033,4.2235719718863418,2.7427661701338892,-2.9504962461117201,2.9504962461117201,-2.7427661701338892,7.3299755015382138,0.0
724640.0783812654,4030767.5119837918,-42500.0,-2.3030647241878288,2.7574518911582677,0.88760019288055747,-2.9754042032987948,-0.35901418723930068,1.0126988628969342,4.4414828022928461,2.6638674235005042,-2.8977631597066167,2.8977631597066167,-2.6638674235005042,7.7686245309541544,0.0
729640.0783812654,4030767.5119837918,-42500.0,-1.466172688550923,3.1425259401969337,1.2692335152430552,-3.7623142226535395,0.48831887820547976,-2.81367059567763,5.2960894959425744,2.145457789455179,-2.3751750196463988,2.3751750196463988,-2.145457789455179,9.2623404498555324,0.0
734640.0783812654,4030767.5119837918,-42500.0,-0.32248780501710733,3.1730107480087466,1.6149448478324504,-3.4008930198441676,1.4155217392856392,-6.9431854548464669,6.5340999225144394,1.3170928188846365,-1.4353236902298627,1.4353236902298627,-1.3170928188846365,11.459832261756258,0.0
739640.0783812654,4030767.5119837918,-42500.0,0.58833193817630802,2.8202556373559751,1.9198407489554279,-1.8577555791810862,2.1080160039727911,-10.352045197761386,7.6707964153750883,0.50503870379434979,-0.35388975277306711,0.35388975277306711,-0.50503870379434979,13.549113015786098,0.0
744640.0783812654,4030767.5119837918,-42500.0,0.82263212857949986,2.2344637830601037,2.1792925380604222,0.36841300802947247,2.3188722495430061,-12.208455589305753,8.3393835389559943,0.057943725017479464,0.49140747973457199,-0.49140747973457199,-0.057943725017479464,14.860878524945306,0.0
749640.0783812654,4030767.5119837918,-42500.0,0.31794316625360047,1.6527920830243206,2.3710538521657587,2.5235500869221474,2.0136000173461697,-12.292184640283539,8.4084417589580287,0.13042180486497618,0.84052143522325728,-0.84052143522325728,-0.13042180486497618,15.119008239908952,0.0
754640.0783812654,4030767.5119837918,-42500.0,-0.62539341487569666,1.2526763464370889,2.4629784518097195,4.0257822791719686,1.3619943789283946,-10.999176606572101,7.956452773267678,0.61859269255924076,0.67922989331084949,-0.67922989331084949,-0.61859269255924076,14.425150525555621,0.0
759640.0783812654,4030767.5119837918,-42500.0,-1.6003582239809309,1.0792857332033374,2.4370540261619746,4.6877411846116122,0.60681911796193211,-9.0000595046212162,7.172982034593697,1.277497084416134,0.1856501892683502,-0.1856501892683502,-1.277497084416134,13.094118334860942,0.0
764640.0783812654,4030767.5119837918,-42500.0,-2.3234475346719083,1.0763238714782111,2.3027893467424283,4.6457662919497,-0.062217799577485619,-6.8864874144640718,6.2555818932851723,1.8808058515720334,-0.41360335170019757,0.41360335170019757,-1.8808058515720334,11.4703779241023,0.0
769640.0783812654,4030767.5119837918,-42500.0,-2.6993172970642738,1.155667055719356,2.0909719651631664,4.1658421817186628,-0.55444247815132641,-5.0140345981272718,5.3487683112750766,2.3030929665344226,-0.95023430098100681,0.95023430098100681,-2.3030929665344226,9.817565609495384,0.0
774640.0783812654,4030767.5119837918,-42500.0,-2.7662563928119832,1.2459776672392739,1.8387361777654065,3.4942823806057719,-0.85966080749239815,-3.5192498456051604,4.5300041083515996,2.5167387334765676,-1.3433083864620574,1.3433083864620574,-2.5167387334765676,8.2912570935086016,0.0
779640.0783812654,4030767.5119837918,-42500.0,-2.61712813861805,1.3075055592484011,1.5778879119472597,2.7986823361085751,-1.0099765939018952,-2.4027187368302365,3.8250548687483037,2.5522092283490356,-1.5793785010117538,1.5793785010117538,-2.5522092283490356,6.9592685788527735,0.0
784640.0783812654,4030767.5119837918,-42500.0,-2.3458169572004524,1.326813291050374,1.3301746482652343,2.1690728911304569,-1.0496082772917286,-1.6045894640509553,3.2316353352809863,2.4605974393405869,-1.6810777088306823,1.6810777088306823,-2.4605974393405869,5.8342566959133517,0.0
789640.0783812654,4030767.5119837918,-42500.0,-2.0244679774915273,1.3060785414908136,1.1076039691842063,1.6409021308469718,-1.018848922094453,-1.0507698214062926,2.7368351764110148,2.2913780913592277,-1.6830979599392362,1.6830979599392362,-2.2913780913592277,4.9007787499492617,0.0
794640.0783812654,4030767.5119837918,-42500.0,-1.7000063326330994,1.2542250363195109,0.91489390938952997,1.2182528248018263,-0.94847306749639593,-0.67433227924316119,2.3255942223742538,2.0834077429541793,-1.6189562116934773,1.6189562116934773,-2.0834077429541793,4.1325706102841924,0.0
799640.0783812654,4030767.5119837918,-42500.0,-1.3987874942756719,1.1815373413455033,0.75215202945160731,0.89031589995575067,-0.85958734961425154,-0.4222939733159306,1.9838259734448331,1.8635733417605189,-1.5156988885619491,1.5156988885619491,-1.8635733417605189,3.5017783809496827,0.0
804640.0783812654,4030767.5119837918,-42500.0,-1.1329709164564419,1.0970881618552886,0.61699261549411866,0.64111595273305766,-0.765524040575294,-0.25556810304626326,1.6993207143325546,1.6486853883208834,-1.3929835729338618,1.3929835729338618,-1.6486853883208834,2.9830793826396929,0.0
809640.0783812654,4030767.5119837918,-42500.0,-0.90597735746794283,1.007879078148493,0.50595437819843092,0.45447896638786917,-0.67405790287143319,-0.14649348064248827,1.4618459636366365,1.4481676385328539,-1.2640490935751414,1.2640490935751414,-1.4481676385328539,2.5550350031591584,0.0
814640.0783812654,4030767.5119837918,-42500.0,-0.71639043130382052,0.91884067820598714,0.415342521682317,0.31616355602894985,-0.58928023599577506,-0.075988988277341268,1.2629700442354712,1.2664865780655747,-1.1372169056165238,1.1372169056165238,-1.2664865780655747,2.2001378176738418,0.0
819640.0783812654,4030767.5119837918,-42500.0,-0.56046570831521603,0.83317502857824555,0.34167262408948834,0.21449100148032507,-0.51297998774887565,-0.031101080737596799,1.0958051242632751,1.1050079944878568,-1.017316088986725,1.017316088986725,-1.1050079944878568,1.9043441954507883,0.0
824640.0783812654,4030767.5119837918,-42500.0,-0.43361926628663849,0.75277484715897858,0.28186754497874184,0.1402711720839801,-0.44558534390716481,-0.0031238679602557007,0.95474748819577071,0.9632918098600457,-0.90682736075697867,0.90682736075697867,-0.9632918098600457,1.6564753840838204,0.0
829640.0783812654,4030767.5119837918,-42500.0,-0.33124248293146907,0.67860339535271974,0.23331377361789096,0.086453883734104217,-0.38677229444942079,0.013756940906449943,0.83524383866324725,0.83994043126203244,-0.80672438876006569,0.80672438876006569,-0.83994043126203244,1.4476483467595846,0.0
834640.0783812654,4030767.5119837918,-42500.0,-0.24910279753769507,0.61099808452372195,0.19384523697712364,0.047717153153102328,-0.33584173124168831,0.023408648542863092,0.73359263003476349,0.73312747457771277,-0.71705963925544003,0.71705963925544003,-0.73312747457771277,1.2707921952158854,0.0
644640.0783812654,4035767.5119837918,-42500.0,1.2399994995310317,0.15953113837448968,-0.2264424448800238,0.92255050625934643,0.041270498570689422,0.52832670208685106,1.0713045420139939,-0.13859119056097705,-0.018465805948829267,0.018465805948829267,0.13859119056097705,2.0610827082797369,0.0
649640.0783812654,4035767.5119837918,-42500.0,1.3537304890910202,0.15387784973565907,-0.25659648226111936,1.0743654622112324,0.025805793700092068,0.65273865551554333,1.2175340843993863,-0.1485817962609684,-0.018083460744733423,0.018083460744733423,0.1485817962609684,2.3434019892369795,0.0
654640.0783812654,4035767.5119837918,-42500.0,1.4684632787976633,0.14321045953941591,-0.28942114547798142,1.2510731791965091,0.0015947505231926281,0.80982135631415486,1.3864389445469003,-0.15440922023700096,-0.019881780773666674,0.019881780773666674,0.15440922023700096,2.6689395066995631,0.0
659640.0783812654,4035767.5119837918,-42500.0,1.5782391221413263,0.12646782263723871,-0.3242062821866068,1.454793570636655,-0.034789340458737737,1.0082807485192453,1.5811701621760024,-0.15270430070614427,-0.025842728653707361,0.025842728653707361,0.15270430070614427,3.0431435391989923,0.0
664640.0783812654,4035767.5119837918,-42500.0,1.6738721764059206,0.1028402177463757,-0.35957642195011047,1.686189087408108,-0.087852861186697329,1.258677215722581,1.8048456240617499,-0.1384073156429268,-0.039152810867959562,0.039152810867959562,0.1384073156429268,3.4709661578563282,0.0
669640.0783812654,4035767.5119837918,-42500.0,1.7418405863614066,0.072233205919665075,-0.39317483192597252,1.9430655197469255,-0.16333153303712683,1.5732855690596945,2.0601430650445893,-0.10413610470780026,-0.064784696160474484,0.064784696160474484,0.10413610470780026,3.9558854114681843,0.0
674640.0783812654,4035767.5119837918,-42500.0,1.7631339654101297,0.03607610812522484,-0.42127195053547628,2.2181791379110956,-0.26815946632585286,1.9653330164731728,2.3485819415929177,-0.039482943352642255,-0.11025594425152176,0.11025594425152176,0.039482943352642255,4.498309402839535,0.0
679640.0783812654,4035767.5119837918,-42500.0,1.7124323508933195,-0.0013709982135066369,-0.43834688470480188,2.4960067077521595,-0.41000847310856192,2.4470273016671706,2.6693481214756432,0.069572183516832961,-0.18650266958254119,0.18650266958254119,-0.069572183516832961,5.0931235570211886,0.0
684640.0783812654,4035767.5119837918,-42500.0,1.5584082206676504,-0.031080963268844766,-0.4367798494063575,2.7483826687022272,-0.59595908004624409,3.0254321179850678,3.0175230540429721,0.24068889726667819,-0.30862910640722052,0.30862910640722052,-0.24068889726667819,5.7261806436469858,0.0
689640.0783812654,4035767.5119837918,-42500.0,1.2665819852090947,-0.036732723899511897,-0.40694855544865116,2.9294096766665692,-0.82961844833406051,3.6948534343020372,3.3816819714489634,0.49375560085810244,-0.49593563916724259,0.49593563916724259,-0.49375560085810244,6.369785277524314,0.0
694640.0783812654,4035767.5119837918,-42500.0,0.80690928567355136,0.0078785504516918209,-0.33823976848205684,2.9712326097991988,-1.1058033607844648,4.4242425566018175,3.7411368877361655,0.84655331541477674,-0.77001534453387144,0.77001534453387144,-0.84655331541477674,6.9779732888861057,0.0
699640.0783812654,4035767.5119837918,-42500.0,0.16859922863403917,0.13993055914791661,-0.2216770283196926,2.7844892787900042,-1.4020899183084148,5.138919197668482,4.0638517922596948,1.3054757327609288,-1.1488986488240744,1.1488986488240744,-1.3054757327609288,7.4841596560340422,0.0
704640.0783812654,4035767.5119837918,-42500.0,-0.61682268078627367,0.40393600420095849,-0.054733641702461262,2.2704174225404801,-1.6678139593388674,5.6990631227493571,4.3076446197629616,1.8496681177526051,-1.6347188969967295,1.6347188969967295,-1.8496681177526051,7.8073655160995887,0.0
709640.0783812654,4035767.5119837918,-42500.0,-1.448844327240953,0.83854329842756437,0.15213636803171574,1.3539442462384161,-1.8145454137999222,5.884707749143816,4.4302609229766032,2.4100106949407456,-2.1936308205675488,2.1936308205675488,-2.4100106949407456,7.8797166683594009,0.0
714640.0783812654,4035767.5119837918,-42500.0,-2.143946332169564,1.4498745273960518,0.37026311618371727,0.043374406184614231,-1.7180614798367064,5.4084520855907083,4.4186721000025084,2.8522874241430651,-2.7323364185671792,2.7323364185671792,-2.8522874241430651,7.7161465609151687,0.0
719640.0783812654,4035767.5119837918,-42500.0,-2.4639036338938691,2.1755394986635204,0.55529790028655523,-1.4959543433898712,-1.2473185036103891,3.985765838997791,4.351882507654917,2.9858711546465613,-3.0873019412763685,3.0873019412763685,-2.9858711546465613,7.5379657148092605,0.0
724640.0783812654,4035767.5119837918,-42500.0,-2.2132465334292828,2.8610618490318718,0.66449375202401295,-2.9020723503923511,-0.33077677817014428,1.4788850709750914,4.4807173466683405,2.6245690281234926,-3.0549042283492374,3.0549042283492374,-2.6245690281234926,7.8383394543228926,0.0
729640.0783812654,4035767.5119837918,-42500.0,-1.3866245025918427,3.2864382802957501,0.68656748867035899,-3.6864498804337917,0.95824930452688528,-1.928615939392569,5.1054315798370711,1.702065229067699,-2.4829853902541275,2.4829853902541275,-1.702065229067699,9.0355976625022763,0.0
734640.0783812654,4035767.5119837918,-42500.0,-0.2641311542255978,3.2640420226032676,0.66336500999611459,-3.448895711300366,2.3600700484742734,-5.6541590242896973,6.1315045480628836,0.38080135124166004,-1.3943423274393161,1.3943423274393161,-0.38080135124166004,10.920999382318481,0.0
739640.0783812654,4035767.5119837918,-42500.0,0.67470798205490945,2.7624936293640832,0.67461403264140274,-2.136282001986384,3.5015784102597123,-8.8714102865524076,7.1512015438202488,-0.95670584764464217,-0.045388863602205953,0.045388863602205953,0.95670584764464217,12.825593427881117,0.0
744640.0783812654,4035767.5119837918,-42500.0,1.0155304751267311,1.9518190057951283,0.78485433848763597,-0.13136431102045504,4.0726494011453385,-10.871648423055516,7.821083386836067,-1.8828671673468325,1.1678421490133881,-1.1678421490133881,1.8828671673468325,14.137048016059111,0.0
749640.0783812654,4035767.5119837918,-42500.0,0.65126724548495529,1.1120191412772507,0.99579983191677734,1.9412565377505175,3.9821488069431745,-11.387419754085267,7.987783893365112,-2.1536264767810214,1.9139161000198128,-1.9139161000198128,2.1536264767810214,14.552804721277433,0.0
754640.0783812654,4035767.5119837918,-42500.0,-0.20131127341730654,0.47715238838213292,1.2478838342907927,3.5439421907912392,3.3720841945995921,-10.639519447933305,7.6782861603799972,-1.8075993942680124,2.0807201542438145,-2.0807201542438145,1.8075993942680124,14.094602299501647,0.0
759640.0783812654,4035767.5119837918,-42500.0,-1.1878556895903496,0.1407968624899365,1.4637975245843446,4.4337283529481022,2.5011060121655229,-9.1215562552495975,7.0299093331251061,-1.0812649265377641,1.7740034022353457,-1.7740034022353457,1.0812649265377641,12.992774856971666,0.0
764640.0783812654,4035767.5119837918,-42500.0,-2.0178982609664367,0.067829450467295924,1.5910300547332854,4.652150014635172,1.6088341056952784,-7.3320958834582024,6.2084904650469088,-0.24825107571078397,1.203972344943204,-1.203972344943204,0.24825107571078397,11.539062420829442,0.0
769640.0783812654,4035767.5119837918,-42500.0,-2.551900375703247,0.16240629858956876,1.6159730380023749,4.3917608788802971,0.84491424075279786,-5.6201513074779736,5.3520935180366589,0.49311523317208389,0.56963441860368369,-0.56963441860368369,-0.49311523317208389,9.9828288851441123,0.0
774640.0783812654,4035767.5119837918,-42500.0,-2.7812919857757858,0.32866853845330346,1.5541473764487825,3.867294631225227,0.26706940002087931,-4.1620392563934274,4.5493259270479109,1.0483011917276728,0.0018660794216455168,-0.0018660794216455168,-1.0483011917276728,8.4908535535047438,0.0
779640.0783812654,4035767.5119837918,-42500.0,-2.7684096802957012,0.49931248829348307,1.43346740445412,3.2471230807535192,-0.12814514226793086,-3.0071796594067965,3.8420992657287734,1.4026037162070863,-0.43971845217346867,0.43971845217346867,-1.4026037162070863,7.1515516891139255,0.0
784640.0783812654,4035767.5119837918,-42500.0,-2.5949948305118027,0.63858507879139415,1.2816647069439266,2.6374067634670664,-0.37286567758696537,-2.1349448491963456,3.2399485934749213,1.5844938075296082,-0.74540689360190227,0.74540689360190227,-1.5844938075296082,5.9970726578856448,0.0
789640.0783812654,4035767.5119837918,-42500.0,-2.3336619296014227,0.73402418750288345,1.1203353318490648,2.0926595304613396,-0.50613216555737039,-1.4966268272142242,2.7357839934751804,1.637167882505939,-0.93179766716009138,0.93179766716009138,-1.637167882505939,5.0261479738660411,0.0
794640.0783812654,4035767.5119837918,-42500.0,-2.0379348607313497,0.78668232535704596,0.96375168364394126,1.6330098716550348,-0.56302010490165366,-1.0391917521674203,2.3167034524868217,1.6025298490861557,-1.0249372938094523,1.0249372938094523,-1.6025298490861557,4.2210711956504614,0.0
799640.0783812654,4035767.5119837918,-42500.0,-1.7424246162717778,0.80374156127557073,0.81997907786601953,1.2590647876071701,-0.5709491965863005,-0.71589759621020077,1.9691608726579204,1.514602850981225,-1.05092069210537,1.05092069210537,-1.514602850981225,3.5582266161248142,0.0
804640.0783812654,4035767.5119837918,-42500.0,-1.4668755365232347,0.7940476966765917,0.69264002376645806,0.96207325790933296,-0.54963671759765631,-0.48947825019933044,1.6808466697059832,1.3982875118472824,-1.0318099749690626,1.0318099749690626,-1.3982875118472824,3.0137518014237434,0.0
809640.0783812654,4035767.5119837918,-42500.0,-1.2207516784924872,0.76586220116188819,0.58253186007508395,0.72995888030747236,-0.51245312754154648,-0.33185124844841696,1.4411977844029591,1.2704937171780448,-0.98458329032621938,0.98458329032621938,-1.2704937171780448,2.5661284535625564,0.0
814640.0783812654,4035767.5119837918,-42500.0,-1.0070457523720784,0.72598150488855639,0.48884366558132702,0.55049201787290747,-0.46804170088377889,-0.22256267125988691,1.2414017880746757,1.1419740150118602,-0.92151035390894731,0.92151035390894731,-1.1419740150118602,2.1970570858632015,0.0
819640.0783812654,4035767.5119837918,-42500.0,-0.82502464803012165,0.67958122803306309,0.40997287282483341,0.4127250814129973,-0.42173708023920575,-0.1470253520075363,1.0742204121239782,1.0190886812403905,-0.85103524487460303,0.85103524487460303,-1.0190886812403905,1.8914753188209077,0.0
824640.0783812654,4035767.5119837918,-42500.0,-0.67204164143458422,0.63038632954529084,0.3440283566701301,0.3074727807000136,-0.37665713871732381,-0.094970138626645606,0.93376009210092115,0.90523291187007349,-0.77871560678935237,0.77871560678935237,-0.90523291187007349,1.6372097685160238,0.0
829640.0783812654,4035767.5119837918,-42500.0,-0.54465341251288901,0.58094948997348017,0.28911595882227825,0.22731732318959347,-0.3344854173847473,-0.05922301957431856,0.81524332676027522,0.80189088738338066,-0.70803510324974195,0.70803510324974195,-0.80189088738338066,1.4245156884760841,0.0
644640.0783812654,4040767.5119837918,-42500.0,1.2945898537509195,0.012405504943008325,-0.2013190244721843,0.96189852248994534,-0.051453957736242076,0.55002010203984431,1.0884331775340463,-0.16382848728375352,0.087687001743716214,-0.087687001743716214,0.16382848728375352,2.1124557999477029,0.0
649640.0783812654,4040767.5119837918,-42500.0,1.4057108771212177,-0.016370492432192033,-0.22164077910393262,1.1151852516366221,-0.087042818837258756,0.67693474804711418,1.2349714334608284,-0.17005214264594318,0.10193198754577606,-0.10193198754577606,0.17005214264594318,2.3974696642638071,0.0
654640.0783812654,4040767.5119837918,-42500.0,1.515092178652564,-0.053269031929166127,-0.24141020040529776,1.2918227544366352,-0.13588913919806173,0.8360813400150896,1.403630127331756,-0.16931083867274158,0.1151780478449623,-0.1151780478449623,0.16931083867274158,2.724701929300716,0.0
659640.0783812654,4040767.5119837918,-42500.0,1.6159419765690735,-0.099272525880781379,-0.25900052778594918,1.4930138645346216,-0.20225521285291992,1.035557135530345,1.5972665802607082,-0.15716484575588194,0.12512618813848311,-0.12512618813848311,0.15716484575588194,3.0989716950366608,0.0
664640.0783812654,4040767.5119837918,-42500.0,1.6982084694287025,-0.15475090646696671,-0.27196263656670494,1.7181769153530813,-0.29146214308432589,1.2849319910412182,1.8185772014621033,-0.1272278493058196,0.12801149240182902,-0.12801149240182902,0.1272278493058196,3.5243774013361033,0.0
669640.0783812654,4040767.5119837918,-42500.0,1.7476434631244246,-0.21879119695747629,-0.27677617045315933,1.9635245855178327,-0.40987626820631906,1.594938675696153,2.0696465536164719,-0.070578819144971411,0.11792901749608234,-0.11792901749608234,0.070578819144971411,4.0032918777201631,0.0
674640.0783812654,4040767.5119837918,-42500.0,1.7449737549026492,-0.28812910928199109,-0.26862873172617391,2.2199479358703105,-0.56459059386408605,1.9765195952831029,2.3512024530702877,0.024782099227648291,0.085989983238495049,-0.085989983238495049,-0.024782099227648291,4.5347876478535101,0.0
679640.0783812654,4040767.5119837918,-42500.0,1.6656137105163484,-0.35556428582739208,-0.24134595521226182,2.4700745042504333,-0.76250204695707369,2.438708986605751,2.661479345607868,0.17415632569392053,0.019411787628802746,-0.019411787628802746,-0.17415632569392053,5.1123128963756148,0.0
684640.0783812654,4040767.5119837918,-42500.0,1.4807321476870989,-0.40782854128958218,-0.18770746416243619,2.6845808072376753,-1.008314498572576,2.9845788948775756,2.9946264581525459,0.39549024960862778,-0.099145959253008759,0.099145959253008759,-0.39549024960862778,5.7205167890427964,0.0
689640.0783812654,4040767.5119837918,-42500.0,1.1609922534122799,-0.42314910592839672,-0.10053637899137466,2.8183816883142572,-1.3008250004815032,3.604268569545432,3.3387163912220585,0.70686182251622787,-0.29130149339210709,0.29130149339210709,-0.70686182251622787,6.3314094199695852,0.0
694640.0783812654,4040767.5119837918,-42500.0,0.6847259148827074,-0.36936134159851047,0.024912221519105732,2.8084166945035482,-1.626834645026237,4.2642265808096882,3.6737203833936007,1.1206588778708768,-0.58043270731406094,0.58043270731406094,-1.1206588778708768,6.90077183804671,0.0
699640.0783812654,4040767.5119837918,-42500.0,0.052111942242396882,-0.20450584259255108,0.18679122286613414,2.5765416577425961,-1.9525261543416663,4.8928130504495213,3.9704914345765285,1.632829120083414,-0.98495544730419871,0.98495544730419871,-1.632829120083414,7.3672808685454818,0.0
704640.0783812654,4040767.5119837918,-42500.0,-0.69507028635104828,0.11675677534324008,0.37086911596037997,2.0431143337298372,-2.2138001709788351,5.3652868851918374,4.1930519267770423,2.2066087363835174,-1.5052759172152486,1.5052759172152486,-2.2066087363835174,7.6596841267615927,0.0
709640.0783812654,4040767.5119837918,-42500.0,-1.4538877047965488,0.62685983584795557,0.54491491490168753,1.1574408011721165,-2.3105007290426625,5.496779454570448,4.3084287086545636,2.7538393124487688,-2.1040361311837841,2.1040361311837841,-2.7538393124487688,7.7218574442159973,0.0
714640.0783812654,4040767.5119837918,-42500.0,-2.0556150962639692,1.3175326106791758,0.65789755000757344,-0.053677143308783516,-2.1142581923303845,5.0591133006352633,4.3103306852593208,3.1244884003065758,-2.6849033425593927,2.6849033425593927,-3.1244884003065758,7.5698869821553902,0.0
719640.0783812654,4040767.5119837918,-42500.0,-2.2982237658839288,2.1076701111990825,0.65101335800531757,-1.4332670806973209,-1.5021533268524825,3.8401831169359055,4.2611128409554642,3.1239232072183918,-3.0851607665637402,3.0851607665637402,-3.1239232072183918,7.3846732175842806,0.0
724640.0783812654,4040767.5119837918,-42500.0,-2.0304635632350023,2.8289033503703225,0.48497574693812889,-2.6750919673400935,-0.42034444370111251,1.7504680244050856,4.332536974725369,2.5774626961383515,-3.1056721461206638,3.1056721461206638,-2.5774626961383515,7.5576898984674328,0.0
729640.0783812654,4040767.5119837918,-42500.0,-1.2643070388190396,3.2597721016324974,0.17560549690306632,-3.3877926390821078,1.0437377485350712,-1.0595019564884642,4.7453504022931625,1.4364822973457454,-2.5924405313263081,2.5924405313263081,-1.4364822973457454,8.4497524608714585,0.0
734640.0783812654,4040767.5119837918,-42500.0,-0.23828636184007468,3.2192600008558769,-0.18798110747263383,-3.2561754772788802,2.6335940288804505,-4.1550837416331508,5.5153374861135589,-0.13057191547606839,-1.5434996385304536,1.5434996385304536,0.13057191547606839,9.9622919764560276,0.0
739640.0783812654,4040767.5119837918,-42500.0,0.65341511006546982,2.6757665935947834,-0.47027932758722357,-2.2244425883460108,3.9913427567015276,-6.9262139422895608,6.3649174257785068,-1.750344475424813,-0.16534227484718178,0.16534227484718178,1.750344475424813,11.589320292237643,0.0
744640.0783812654,4040767.5119837918,-42500.0,1.0574377811426365,1.7866484091917814,-0.55708117094067733,-0.56249052046144776,4.8071464449616572,-8.8269089522452564,6.9916615482677225,-2.9943379920149678,1.1905852055504049,-1.1905852055504049,2.9943379920149678,12.814055246619105,0.0
749640.0783812654,4040767.5119837918,-42500.0,0.8471309761206105,0.82300723955950006,-0.41694066812792985,1.2578417847294852,4.9557514025270661,-9.5988109848528325,7.233148549167665,-3.5796974173027842,2.189131742127858,-2.189131742127858,3.5796974173027842,13.340468434420499,0.0
754640.0783812654,4040767.5119837918,-42500.0,0.15670941196487109,0.03324088743372737,-0.10902987454295188,2.7905291292070378,4.5252551468745761,-9.329949836520596,7.0742335920853598,-3.4772074078528936,2.6568958809702155,-2.6568958809702155,3.4772074078528936,13.128008941603781,0.0
759640.0783812654,4040767.5119837918,-42500.0,-0.73800300203271918,-0.4538794503638971,0.26141967074658579,3.7836495403564148,3.7350266287078653,-8.3383971000407655,6.5995657515736728,-2.8671055490403381,2.6170654978402998,-2.6170654978402998,2.8671055490403381,12.319827322575771,0.0
764640.0783812654,4040767.5119837918,-42500.0,-1.5749571714251041,-0.63818907608405218,0.59840446178486018,4.2056005591335568,2.8200899573626317,-6.9950039391514931,5.9333979146976601,-2.0092245573076077,2.2211579505486414,-2.2211579505486414,2.0092245573076077,11.136513620991796,0.0
769640.0783812654,4040767.5119837918,-42500.0,-2.1954334322319511,-0.59736369033807868,0.84584473382429182,4.1692781701824133,1.9542835759800279,-5.5970282161145404,5.1927195571994993,-1.1288568112506576,1.6519053862716571,-1.6519053862716571,1.1288568112506576,9.7899060417237038,0.0
774640.0783812654,4040767.5119837918,-42500.0,-2.551654032430509,-0.42868196028085848,0.98885413884086237,3.8368506495389298,1.230211421699448,-4.3255593457069397,4.4637576967492967,-0.36639285446838321,1.0570031853973982,-1.0570031853973982,0.36639285446838321,8.4390934491850835,0.0
779640.0783812654,4040767.5119837918,-42500.0,-2.6703353194519197,-0.21297015256131269,1.0395892482320652,3.3555637166343497,0.675322059640038,-3.2602794871913794,3.7975311946064219,0.21964762180276215,0.52692299744563154,-0.52692299744563154,-0.21964762180276215,7.1821929004968705,0.0
784640.0783812654,4040767.5119837918,-42500.0,-2.610927008317359,-0.0028466287561907974,1.021656885139762,2.8318588637931441,0.27828329160608384,-2.4142855033885171,3.2157758348746039,0.62638254223258449,0.10154386841952301,-0.10154386841952301,-0.62638254223258449,6.0671772526648393,0.0
789640.0783812654,4040767.5119837918,-42500.0,-2.4366963450705899,0.17456439540640942,0.95950493899382472,2.3304860160387051,0.010953702343367821,-1.7660916823829285,2.7208541877615691,0.87941119189061734,-0.2130383500092683,0.2130383500092683,-0.87941119189061734,5.1079994818961705,0.0
794640.0783812654,4040767.5119837918,-42500.0,-2.2005188297177427,0.30990440641972666,0.87332175590838101,1.8840622580769852,-0.15799821575661679,-1.2812752295122998,2.3053845456635278,1.0136767112980081,-0.42867179777518366,0.42867179777518366,-1.0136767112980081,4.2988348147846773,0.0
799640.0783812654,4040767.5119837918,-42500.0,-1.9407984860192511,0.40409104239985189,0.77767444318294632,1.5041815538989771,-0.25647008828073398,-0.92442384669862276,1.9587283441365826,1.0629005203760349,-0.56411710391457937,0.56411710391457937,-1.0629005203760349,3.6242256280204108,0.0
804640.0783812654,4040767.5119837918,-42500.0,-1.6825697524858487,0.46288455268715234,0.68202801158758675,1.1903885923913828,-0.3066840311118017,-0.6644784028892613,1.6701145462593179,1.055116720199285,-0.63873504512989954,0.63873504512989954,-1.055116720199285,3.0653682760736296,0.0
809640.0783812654,4040767.5119837918,-42500.0,-1.4404693426288959,0.49356604984291563,0.591918118486089,0.93629288074456762,-0.32518309032586518,-0.47634094952602429,1.4297995319054317,1.0116893320539169,-0.66953123077108678,0.66953123077108678,-1.0116893320539169,2.6035835750769487,0.0
814640.0783812654,4040767.5119837918,-42500.0,-1.2218423895655779,0.50318349839169541,0.51014257521049333,0.73327108046297118,-0.32372601519532629,-0.34067786324895222,1.2293798511897651,0.94794869475967891,-0.67018829398261892,0.67018829398261892,-0.94794869475967891,2.2219574837985978,0.0
819640.0783812654,4040767.5119837918,-42500.0,-1.0293164349185731,0.49778938179365867,0.43773575332355358,0.5724952601230735,-0.31038512091109105,-0.24303223198146068,1.0617921845270588,0.87438487193099113,-0.65111316902654826,0.65111316902654826,-0.87438487193099113,1.905942563309301,0.0
824640.0783812654,4040767.5119837918,-42500.0,-0.86268916306441878,0.48223023175983326,0.37467682090481019,0.44590838216799877,-0.29054205783118636,-0.17279407467037938,0.92118923935309927,0.79786727958013681,-0.61990617693775574,0.61990617693775574,-0.79786727958013681,1.6433995264776438,0.0
829640.0783812654,4040767.5119837918,-42500.0,-0.72021264386402173,0.46020771513688419,0.3203683788265943,0.34659633513717281,-0.26768525677540228,-0.12226697674832372,0.80277565489662162,0.72268289608049097,-0.58193923506758338,0.58193923506758338,-0.72268289608049097,1.4243818461692224,0.0
649640.0783812654,4045767.5119837918,-42500.0,1.4099257462288164,-0.17557754735277734,-0.16139265667767297,1.1231946632731868,-0.1933501162775941,0.68293321343734992,1.2373616853787828,-0.17250312924566408,0.21529511013966368,-0.21529511013966368,0.17250312924566408,2.4175518408318264,0.0
654640.0783812654,4045767.5119837918,-42500.0,1.5064182409060805,-0.23363015521131458,-0.1637098060501512,1.2920059933027694,-0.26314920542473724,0.83835805328353252,1.4021623896727391,-0.16190533510827898,0.24103028939194981,-0.24103028939194981,0.16190533510827898,2.7384696771231334,0.0
659640.0783812654,4045767.5119837918,-42500.0,1.5902841321442562,-0.30210050149903578,-0.1592768911044809,1.4812689857216195,-0.35414965473162335,1.0311874653385344,1.590142008566706,-0.13593533535485747,0.26370168345681821,-0.26370168345681821,0.13593533535485747,3.1028877868000024,0.0
664640.0783812654,4045767.5119837918,-42500.0,1.6510284962063633,-0.38051283214125436,-0.14477339600550587,1.6890266342141433,-0.47182818623102807,1.2694558382341199,1.8033283716518425,-0.087247959254153573,0.27895481452200305,-0.27895481452200305,0.087247959254153573,3.5136792254948084,0.0
669640.0783812654,4045767.5119837918,-42500.0,1.6744058325670141,-0.46657302640389448,-0.11590173525526858,1.9099396718629045,-0.62233191941272803,1.5617304876364404,2.0429491951201748,-0.0060240334293371889,0.28006591176459128,-0.28006591176459128,0.0060240334293371889,3.9717432279983766,0.0
674640.0783812654,4045767.5119837918,-42500.0,1.6420105905675486,-0.55497040593406211,-0.067412118125090334,2.1334005848464379,-0.81188715510046772,1.9160347338685724,2.3087167856458422,0.12030372353711619,0.25711609603233676,-0.25711609603233676,-0.12030372353711619,4.4745157503246507,0.0
679640.0783812654,4045767.5119837918,-42500.0,1.5315794419824702,-0.63574566281961264,0.0065546935592735809,2.3410942683012799,-1.045517466661207,2.3377358293995703,2.5978145483918671,0.30681078071728007,0.19618972740711149,-0.19618972740711149,-0.30681078071728007,5.0138809447442316,0.0
684640.0783812654,4045767.5119837918,-42500.0,1.3187568067169724,-0.69232109751507254,0.11152718692292636,2.5042371302455422,-1.324653082417796,2.8258383337665771,2.903577607004566,0.56972969438926291,0.078965306634279975,-0.078965306634279975,-0.56972969438926291,5.5734859135869881,0.0
689640.0783812654,4045767.5119837918,-42500.0,0.98139935790426702,-0.69962451767726164,0.25078479781358165,2.5812414310608798,-1.6431500613619776,3.3670806055820832,3.2139882528468768,0.92306211406361638,-0.11656692439906258,0.11656692439906258,-0.92306211406361638,6.1257618181063416,0.0
694640.0783812654,4045767.5119837918,-42500.0,0.50761706777969784,-0.62336075262832902,0.42207809874454577,2.5174488984157186,-1.9813986250366515,3.9275206262791791,3.5103977815517178,1.3719755513956766,-0.41303068485136951,0.41303068485136951,-1.3719755513956766,6.6296151151708429,0.0
699640.0783812654,4045767.5119837918,-42500.0,-0.091845793145578281,-0.42240028127489038,0.61290733251592755,2.2498118601662069,-2.2989009648657928,4.4423354113361446,3.7674378393704844,1.902027234258441,-0.82657514909856433,0.82657514909856433,-1.902027234258441,7.0310071068880573,0.0
704640.0783812654,4045767.5119837918,-42500.0,-0.76842606852247708,-0.057129352492659435,0.79520957145555293,1.72043341539894,-2.5273590866975932,4.806862984243077,3.9559638792413505,2.4647148708136082,-1.3543411301230068,1.3543411301230068,-2.4647148708136082,7.2707070033776304,0.0
709640.0783812654,4045767.5119837918,-42500.0,-1.423701489845145,0.49361358551998596,0.9221156284020855,0.90220274022427827,-2.5691203996893877,4.875647420976656,4.0519568968345876,2.9635077387229236,-1.9570464157200707,1.9570464157200707,-2.9635077387229236,7.3062675489507294,0.0
714640.0783812654,4045767.5119837918,-42500.0,-1.9123269836167105,1.2076252794963078,0.93171353132785295,-0.16518785522853063,-2.3088346188152502,4.4800230568951775,4.0547415877461006,3.2504569401615337,-2.5422267388509892,2.5422267388509892,-3.2504569401615337,7.1567934447526884,0.0
719640.0783812654,4045767.5119837918,-42500.0,-2.0744902974768276,1.9949580612065381,0.76347581116405749,-1.3416988807681574,-1.6460878323960015,3.4742086084454544,4.0143217725833491,3.1486534121757765,-2.9610816221471783,2.9610816221471783,-3.1486534121757765,6.968783814560914,0.0
724640.0783812654,4045767.5119837918,-42500.0,-1.8029786288127125,2.6929332228685641,0.38843374622436011,-2.3825165080070452,-0.54824699118846165,1.8081585413980239,4.0506229824462636,2.5119910193414396,-3.0362796770331881,3.0362796770331881,-2.5119910193414396,7.0438381744681466,0.0
729640.0783812654,4045767.5119837918,-42500.0,-1.1224690800316028,3.1020315919956687,-0.1578542779026261,-2.9917594823208242,0.89636986271027275,-0.39978941131910367,4.3129944384252665,1.3116461663210264,-2.6286122454577581,2.6286122454577581,-1.3116461663210264,7.6737051872046749,0.0
734640.0783812654,4045767.5119837918,-42500.0,-0.22703516489815509,3.0649798513027959,-0.76353193652202644,-2.9359394721947667,2.4636137995158198,-2.8415428408186076,4.8479549150878984,-0.29665764784873039,-1.7207904377524383,1.7207904377524383,0.29665764784873039,8.8300911277991432,0.0
739640.0783812654,4045767.5119837918,-42500.0,0.57533358809183321,2.5523153380430572,-1.2711414196609057,-2.1654823770025637,3.8488808656352083,-5.0912395532186538,5.5059687751347237,-1.986451538766677,-0.46433936577996149,0.46433936577996149,1.986451538766677,10.154253774569462,0.0
744640.0783812654,4045767.5119837918,-42500.0,1.0006317337502988,1.6934261494114784,-1.5437028771871755,-0.86034088559356048,4.7797264535161776,-6.7544675149634053,6.0530151650742239,-3.376191465977004,0.85932292062295956,-0.85932292062295956,3.376191465977004,11.235863390954307,0.0
749640.0783812654,4045767.5119837918,-42500.0,0.92254706578149981,0.72152662654882926,-1.5257727508626122,0.64406670735922888,5.1215610998523236,-7.6122447286140824,6.3303918858946648,-4.1866488277357563,1.9537184927306275,-1.9537184927306275,4.1866488277357563,11.808406882586162,0.0
754640.0783812654,4045767.5119837918,-42500.0,0.41068363376609313,-0.13222350238214869,-1.2585625046467135,2.0040499555041769,4.9109797804468629,-7.6738642238379944,6.2935862875628468,-4.3394082806684988,2.6255332414274255,-2.6255332414274255,4.3394082806684988,11.794297837873478,0.0
759640.0783812654,4045767.5119837918,-42500.0,-0.33808842643600828,-0.72430437583802532,-0.84529049366511022,2.9913945416458314,4.3071674943706864,-7.1225238188133693,5.9837706571038325,-3.9447879443333953,2.834682127281102,-2.834682127281102,3.9447879443333953,11.265832758654732,0.0
764640.0783812654,4045767.5119837918,-42500.0,-1.1086958746550977,-1.0215521183723981,-0.39822512479130606,3.5330815873723327,3.5072841672129464,-6.2092083546237831,5.4850457147439355,-3.2123788336017669,2.6648205370942644,-2.6648205370942644,3.2123788336017669,10.374275423399494,0.0
769640.0783812654,4045767.5119837918,-42500.0,-1.7461261328041422,-1.0713601686600638,-0.00061864875661811502,3.6770159311778317,2.6784285366926239,-5.1619153234650321,4.887941415752886,-2.3545565147410739,2.2556065196827881,-2.2556065196827881,2.3545565147410739,9.2845792771680173,0.0
774640.0783812654,4045767.5119837918,-42500.0,-2.1785931877086253,-0.95519926664298405,0.30510413821330723,3.530265975990754,1.9283052065118553,-4.1412286174909791,4.2674891675644027,-1.5288740545967965,1.7428722485195327,-1.7428722485195327,1.5288740545967965,8.1348580820331904,0.0
779640.0783812654,4045767.5119837918,-42500.0,-2.4016985200884591,-0.7526703338859001,0.51036205904096021,3.207571136217588,1.3074124622780305,-3.2363642791829212,3.6752545394649232,-0.82415178984403215,1.2272332645080897,-1.2272332645080897,0.82415178984403215,7.0214256896670513,0.0
784640.0783812654,4045767.5119837918,-42500.0,-2.4496090719645638,-0.52404895261803663,0.62687172526685708,2.8032494947500601,0.82562936582984392,-2.4817805923563481,3.1402101618809359,-0.27290265967794236,0.76809709433786477,-0.76809709433786477,0.27290265967794236,6.0006866957034521,0.0
789640.0783812654,4045767.5119837918,-42500.0,-2.370187216832091,-0.30709113783062331,0.67464643843523819,2.3827972656039784,0.47011158006383236,-1.8779488589523785,2.673598257816745,0.12820601185602562,0.39137436473969012,-0.39137436473969012,-0.12820601185602562,5.0983943248412134,0.0
794640.0783812654,4045767.5119837918,-42500.0,-2.2095943439801844,-0.12100978646558216,0.67431694817029575,1.9855234347645963,0.21867231640636711,-1.4082037794277562,2.2750834228151495,0.40037406947011089,0.1009759850102471,-0.1009759850102471,-0.40037406947011089,4.3199912801484022,0.0
799640.0783812654,4045767.5119837918,-42500.0,-2.0053135932142494,0.02761003558735459,0.64341299228676019,1.631190049505959,0.04780722200096886,-1.0497477306055245,1.9384905102463699,0.57054241867472577,-0.11113722490305211,0.11113722490305211,-0.57054241867472577,3.6591409380450997,0.0
804640.0783812654,4045767.5119837918,-42500.0,-1.7845515916998556,0.13957054450495265,0.59524537709045711,1.3267500390859028,-0.06339868539391505,-0.77972997036910363,1.6557171215336406,0.66467575016597424,-0.25796741642156873,0.25796741642156873,-0.66467575016597424,3.1037273791349689,0.0
809640.0783812654,4045767.5119837918,-42500.0,-1.5653278000291722,0.21930266420336594,0.53914112186602303,1.0716674443358141,-0.13191519853521266,-0.57802869166112747,1.4186720101680703,0.70481073720249643,-0.35334276164069711,0.35334276164069711,-0.70481073720249643,2.6396416140402996,0.0
814640.0783812654,4045767.5119837918,-42500.0,-1.3584886878517195,0.27251740835639321,0.48120028765803158,0.86157075237086123,-0.17074597108480827,-0.42812341748811877,1.2200037280586007,0.70829344388323412,-0.4098347855283403,0.4098347855283403,-0.70829344388323412,2.2529146875426513,0.0
819640.0783812654,4045767.5119837918,-42500.0,-1.1697587552859186,0.30490715845755995,0.42513675949352414,0.69053671277912665,-0.18947628197627628,-0.31701464738321838,1.0533140100808114,0.6880994515915948,-0.43794894875026658,0.43794894875026658,-0.6880994515915948,1.9307921247238913,0.0
824640.0783812654,4045767.5119837918,-42500.0,-1.0014472775577026,0.32152938474203552,0.37300804477200311,0.55239198138193757,-0.19497504451567757,-0.2347451652921301,0.91316370663688051,0.65356975309905441,-0.44601048875502325,0.44601048875502325,-0.65356975309905441,1.6621557406521021,0.0
829640.0783812654,4045767.5119837918,-42500.0,-0.85373072415542273,0.32659030869974554,0.32578011814790375,0.44138104755458829,-0.19205713751647327,-0.17381936597541192,0.79499742857125733,0.61121642126746289,-0.44037782664935082,0.44037782664935082,-0.61121642126746289,1.4375867529157305,0.0
649640.0783812654,4050767.5119837918,-42500.0,1.3729514999331611,-0.31562993180251447,-0.082181989010755963,1.1024234402898176,-0.28790088229388411,0.6728321027758758,1.2251354728298396,-0.15785817305645233,0.31618239129306636,-0.31618239129306636,0.15785817305645233,2.4046524282287174,0.0
654640.0783812654,4050767.5119837918,-42500.0,1.4514167914507239,-0.38847773561672549,-0.064945620005062321,1.257494622304798,-0.37376817178718691,0.8199091366045681,1.3828486574936725,-0.13537357265408884,0.35091995469530984,-0.35091995469530984,0.13537357265408884,2.7122487677127918,0.0
659640.0783812654,4050767.5119837918,-42500.0,1.5133417218410559,-0.47135282735682649,-0.036720132346667447,1.4280331063596365,-0.48268354601100222,1.0002023675997662,1.5611973197367137,-0.093966149601673238,0.38215342548056175,-0.38215342548056175,0.093966149601673238,3.0584166407972697,0.0
664640.0783812654,4050767.5119837918,-42500.0,1.5483098881650557,-0.5626881016892874,0.0062888911018292235,1.6108368056578271,-0.61968995010356198,1.2199720142228601,1.7614223672427567,-0.025832360323425174,0.40498420564233761,-0.40498420564233761,0.025832360323425174,3.4446504706008514,0.0
669640.0783812654,4050767.5119837918,-42500.0,1.5428302001879897,-0.65868758451584353,0.068576722816393224,1.7993568722833664,-0.79002438334602476,1.4854325753117601,1.9838285922418541,0.078992639620845267,0.41206259452287342,-0.41206259452287342,-0.078992639620845267,3.8702943295241656,0.0
674640.0783812654,4050767.5119837918,-42500.0,1.480354265820556,-0.75214450370861619,0.15504617135749749,1.982148454579741,-0.99832053288885114,1.8016477292662203,2.2271488923753271,0.23258862550940429,0.39287166463369405,-0.39287166463369405,-0.23258862550940429,4.3312027282526353,0.0
679640.0783812654,4050767.5119837918,-42500.0,1.3420948833340274,-0.83097718472676885,0.27028206460893495,2.1410409179605896,-1.2471268466987131,2.1705748428170706,2.4877015926116672,0.44845382661748301,0.33314304640417636,-0.33314304640417636,-0.44845382661748301,4.817971689342218,0.0
684640.0783812654,4050767.5119837918,-42500.0,1.1092663641568661,-0.87669387700178703,0.41713173474318033,2.2493517891356998,-1.5344288233178653,2.5879065772790293,2.7583761901447188,0.739601774182711,0.21479843149329758,-0.21479843149329758,-0.739601774182711,5.3138298465709459,0.0
689640.0783812654,4050767.5119837918,-42500.0,0.7675094303878639,-0.86333682901458764,0.59430693463686179,2.2709000786134559,-1.8499023085162263,3.0384253973518001,3.0276101649879168,1.1146963994358499,0.017116882336644323,-0.017116882336644323,-1.1146963994358499,5.792565523320798,0.0
694640.0783812654,4050767.5119837918,-42500.0,0.31412993621454627,-0.75798782475757842,0.79285575962948829,2.1612177826881669,-2.1699037612677459,3.4899453380315766,3.2787653161808121,1.5714467000512289,-0.27982390085982145,0.27982390085982145,-1.5714467000512289,6.2174196880000343,0.0
699640.0783812654,4050767.5119837918,-42500.0,-0.23201534786721087,-0.52454542341093269,0.99182339006084008,1.8730661256075498,-2.4519425494017715,3.8868093162506372,3.4907150283164059,2.0869868719566447,-0.68821607287114916,0.68821607287114916,-2.0869868719566447,6.5428098951886096,0.0
704640.0783812654,4050767.5119837918,-42500.0,-0.82008512854188387,-0.13280348841339018,1.1544258624339643,1.3686179125176186,-2.6307787246772403,4.1455446827373859,3.6409995667903035,2.6065385969505614,-1.2013981654817096,1.2013981654817096,-2.6065385969505614,6.722107392946155,0.0
709640.0783812654,4050767.5119837918,-42500.0,-1.3615582396743511,0.42601772585187914,1.2275887012861411,0.63940010710592154,-2.6202104386777108,4.1574597968976477,3.7133844908904199,3.0347162913246617,-1.7797969967148486,1.7797969967148486,-3.0347162913246617,6.7261558360912268,0.0
714640.0783812654,4050767.5119837918,-42500.0,-1.7378014517851899,1.1194133170549565,1.1490491321650769,-0.26905138532536232,-2.3260116557618251,3.8044595501747449,3.7112973467596833,3.2378354881182885,-2.3391196775052503,2.3391196775052503,-3.2378354881182885,6.5771041525311986,0.0
719640.0783812654,4050767.5119837918,-42500.0,-1.8291755406108163,1.8575732141567085,0.86555308388341412,-1.2381383868952724,-1.6739502898497316,2.9924531303562074,3.6751408170671516,3.0676360477660158,-2.7508210097487091,2.7508210097487091,-3.0676360477660158,6.3932548874462389,0.0
724640.0783812654,4050767.5119837918,-42500.0,-1.565230310286617,2.4954069990333902,0.36060217614122397,-2.0799739631513106,-0.64954117301597813,1.6983326331280173,3.6903437266942207,2.411467379003994,-2.8663977213978966,2.8663977213978966,-2.411467379003994,6.4031517906766489,0.0
729640.0783812654,4050767.5119837918,-42500.0,-0.97735470462976848,2.8656474484075702,-0.31936202071733055,-2.5792494715001286,0.66639446726968365,0.012247939322000778,3.8574809239239833,1.2571350665292089,-2.5687531886307378,2.5687531886307378,-1.2571350665292089,6.8327703479420725,0.0
734640.0783812654,4050767.5119837918,-42500.0,-0.21866072384106411,2.8405306079277075,-1.0593265326292611,-2.5695977018917122,2.091837923928288,-1.8538398117536921,4.2172812668752693,-0.26139879924732212,-1.8338464475929876,1.8338464475929876,0.26139879924732212,7.6907468852860097,0.0
739640.0783812654,4050767.5119837918,-42500.0,0.47768379515696374,2.3943002346324564,-1.7047011623137152,-2.0109690106242479,3.3854171552995362,-3.6121868145384397,4.696994943042955,-1.8774284364025244,-0.76640272126905318,0.76640272126905318,1.8774284364025244,8.7336894541762469,0.0
744640.0783812654,4050767.5119837918,-42500.0,0.89195759012451437,1.6259482403601029,-2.1174117276533262,-1.0194884790775962,4.3254803168300091,-4.9890118783460711,5.1436986967171716,-3.2752336707607617,0.42235802137247158,-0.42235802137247158,3.2752336707607617,9.6500067219883299,0.0
749640.0783812654,4050767.5119837918,-42500.0,0.91021555312581481,0.72178776096037234,-2.2286324260188755,0.17521675651804447,4.7859796204230252,-5.8134114413897802,5.4201626807149346,-4.2049760321971892,1.4913522151407714,-1.4913522151407714,4.2049760321971892,10.21405511173333,0.0
754640.0783812654,4050767.5119837918,-42500.0,0.55894475748928252,-0.12067837659699543,-2.0571054746835151,1.3211296175209424,4.767335398827111,-6.0580487121200797,5.4651615363431638,-4.5632969192040607,2.2573243235096863,-2.2573243235096863,4.5632969192040607,10.333452216804622,0.0
759640.0783812654,4050767.5119837918,-42500.0,-0.030740387884421183,-0.76121980089538943,-1.686860644594474,2.2290567455198147,4.3718585268799171,-5.8177167344888892,5.2879620756793084,-4.4001461072173482,2.6448292385839451,-2.6448292385839451,4.4001461072173482,10.031539782374244,0.0
764640.0783812654,4050767.5119837918,-42500.0,-0.69445370760676084,-1.1447910239826689,-1.2245563693148569,2.8116397998662275,3.7480638248237983,-5.250407373385201,4.9394042557868651,-3.8646036336535095,2.6816427539044088,-2.6816427539044088,3.8646036336535095,9.4028794172333079,0.0
769640.0783812654,4050767.5119837918,-42500.0,-1.2957957161631,-1.2888682471211932,-0.76246871730210308,3.0735043941286198,3.0379049603440769,-4.5178670360215261,4.4843701572201979,-3.1330295310094969,2.4584342241928874,-2.4584342241928874,3.1330295310094969,8.5670315983337844,0.0
774640.0783812654,4050767.5119837918,-42500.0,-1.7544614533592036,-1.251390589981566,-0.36049050541186517,3.075679581240804,2.3466247939445468,-3.7486091384605551,3.9830603230011201,-2.3558211649912284,2.0830531098989793,-2.0830531098989793,2.3558211649912284,7.6352378868505406,0.0
779640.0783812654,4050767.5119837918,-42500.0,-2.0445003806839934,-1.1002711471334383,-0.045619217810635972,2.8989301917801673,1.7359574296234377,-3.0261233071741795,3.4818652825698453,-1.634482271819254,1.649050587360795,-1.649050587360795,1.634482271819254,6.6936597018662516,0.0
784640.0783812654,4050767.5119837918,-42500.0,-2.177629373113672,-0.89438737231215204,0.17933018138605569,2.6188901500316693,1.2315537803394596,-2.3936680837339503,3.0113754742123349,-1.0222397257117759,1.2224558040279678,-1.2224558040279678,1.0222397257117759,5.7997278280821538,0.0
789640.0783812654,4050767.5119837918,-42500.0,-2.1846319648246375,-0.67617607465703511,0.32526413762790635,2.2945273519314431,0.8350857119631343,-1.8656497044393416,2.5882100029865946,-0.53600488541887537,0.84166023565834724,-0.84166023565834724,0.53600488541887537,4.9858830504264446,0.0
794640.0783812654,4050767.5119837918,-42500.0,-2.1013632933214197,-0.47175568801782303,0.40852483219415925,1.9660281529625474,0.53525876018435325,-1.4390646790039887,2.2182852035263503,-0.17032037758536614,0.52352122216568797,-0.52352122216568797,0.17032037758536614,4.2660108570921285,0.0
799640.0783812654,4050767.5119837918,-42500.0,-1.9606389712015271,-0.29440952338986609,0.44574425340470125,1.6574895150803803,0.31562858498075547,-1.1022431870507758,1.9004765595308528,0.09133200971762627,0.27074528062742931,-0.27074528062742931,-0.09133200971762627,3.6417858149572671,0.0
804640.0783812654,4050767.5119837918,-42500.0,-1.7887776682266741,-0.14872045720495375,0.45131420441859921,1.3811386485662884,0.15924902048819703,-0.84049658234340907,1.6300355860902462,0.26902554620107744,0.078115711741661487,-0.078115711741661487,-0.26902554620107744,3.1077448152492604,0.0
809640.0783812654,4050767.5119837918,-42500.0,-1.6050155694650141,-0.034081410666664737,0.43655767511879978,1.1413426717361805,0.050973102771767746,-0.63928002264512795,1.4010060565580766,0.38216264586790449,-0.063131948240429003,0.063131948240429003,-0.38216264586790449,2.6548663408759898,0.0
814640.0783812654,4050767.5119837918,-42500.0,-1.4223406479770828,0.052778304804391503,0.40981407377430928,0.93775222189347129,-0.021710675301615773,-0.48568521950063792,1.2074601641406415,0.44752646295119047,-0.16262155324336913,0.16262155324336913,-0.44752646295119047,2.2728671425826414,0.0
819640.0783812654,4050767.5119837918,-42500.0,-1.2488204164049379,0.11617222285241452,0.37691292925764092,0.76750076391295674,-0.068634288797991827,-0.36894389607337547,1.0439798679635286,0.47869734447407325,-0.22939126044989672,0.22939126044989672,-0.47869734447407325,1.9515479045532524,0.0
824640.0783812654,4050767.5119837918,-42500.0,-1.088932643774895,0.16051881496576023,0.34174120888474979,0.62661893693132009,-0.097266093185238017,-0.28041212601188598,0.90580141616959553,0.48618037415976356,-0.27125224763991018,0.27125224763991018,-0.48618037415976356,1.6814989625666699,0.0
654640.0783812654,4055767.5119837918,-42500.0,1.3608960129715306,-0.51226211237205477,0.045457285291391501,1.1955573219419873,-0.4637703127897907,0.78482977793113162,1.3475298919821874,-0.094263375357182155,0.44049245104500695,-0.44049245104500695,0.094263375357182155,2.6504734619859303,0.0
659640.0783812654,4055767.5119837918,-42500.0,1.3989526298733745,-0.60149085819559811,0.096456696175735657,1.3432917841738681,-0.58353247057465352,0.94862346727038405,1.5131284703425458,-0.037562673434028943,0.47589536316010095,-0.47589536316010095,0.037562673434028943,2.9720267077003673,0.0
664640.0783812654,4055767.5119837918,-42500.0,1.407466931005815,-0.6962571110077509,0.16557214929994132,1.4971858120779409,-0.73066409381341324,1.1452924311522128,1.6968232259488749,0.048526654000246749,0.50146411132095503,-0.50146411132095503,-0.048526654000246749,3.3265707552148638,0.0
669640.0783812654,4055767.5119837918,-42500.0,1.374341235968217,-0.79140730243510216,0.2568992115554124,1.6499878319579468,-0.90906664945680704,1.3788474507308714,1.8980961901019464,0.17340332819941101,0.50948847614389448,-0.50948847614389448,-0.17340332819941101,3.7120472826967932,0.0
674640.0783812654,4055767.5119837918,-42500.0,1.2855803645790334,-0.87829582223076641,0.37430153558174567,1.7901680834071421,-1.1214492883760652,1.6517641572198192,2.1149064220136262,0.34778207459000104,0.48933179856585068,-0.48933179856585068,-0.34778207459000104,4.1230421639509514,0.0
679640.0783812654,4055767.5119837918,-42500.0,1.1264687019899267,-0.94363985759135049,0.52040813601207625,1.900698928739248,-1.3678169683476209,1.9632946419566728,2.3430330561938364,0.58263537927996611,0.42711884991793414,-0.42711884991793414,-0.58263537927996611,4.5493803796309988,0.0
684640.0783812654,4055767.5119837918,-42500.0,0.88399884988181865,-0.96855335271217247,0.69494034968428564,1.9581325506295426,-1.6431666999469525,2.3069496339809419,2.5753581399109087,0.88697229491041496,0.30603761452759326,-0.30603761452759326,-0.88697229491041496,4.974603446673961,0.0
689640.0783812654,4055767.5119837918,-42500.0,0.5510008976219174,-0.92833807771611343,0.89222538739492341,1.9326463285702955,-1.9343116464404417,2.6670896752567201,2.8012655137659852,1.2639293201320527,0.10786274689579933,-0.10786274689579933,-1.2639293201320527,5.3747269180933328,0.0
694640.0783812654,4055767.5119837918,-42500.0,0.13213887457270934,-0.79399276043636025,1.0979783206920688,1.7901241858470849,-2.2160709081211345,3.0149043399376967,3.006518211838495,1.704797729860277,-0.18349646164931266,0.18349646164931266,-1.704797729860277,5.7181038890722888,0.0
699640.0783812654,4055767.5119837918,-42500.0,-0.34886652417234393,-0.53672648299347714,1.2859536000595371,1.497645118324344,-2.4477136880374917,3.3047337754674988,3.1742440842944442,2.181244891804373,-0.57566309489370848,0.57566309489370848,-2.181244891804373,5.9678646300122455,0.0
704640.0783812654,4055767.5119837918,-42500.0,-0.84294698935308876,-0.1366568896478926,1.4159434499530095,1.0335529425162022,-2.5715607094044026,3.4727196535198832,3.287954814251087,2.6374002982415385,-1.0585658530114288,1.0585658530114288,-2.6374002982415385,6.0892068685708809,0.0
709640.0783812654,4055767.5119837918,-42500.0,-1.2745027829689914,0.40428244394026724,1.4356445396836426,0.40193924324927643,-2.5167469488668313,3.4408691372997664,3.3376412861848612,2.9857176885339607,-1.5939084178325658,1.5939084178325658,-2.9857176885339607,6.0644309077629366,0.0
714640.0783812654,4055767.5119837918,-42500.0,-1.5508675019289888,1.0479775175937309,1.2893936911038484,-0.35166120171815357,-2.2114607686967505,3.1298912996521868,3.3293442677945042,3.1127939267362796,-2.1077339988787474,2.1077339988787474,-3.1127939267362796,5.9177236040670111,0.0
719640.0783812654,4055767.5119837918,-42500.0,-1.5863681071323033,1.7111125557208409,0.93535156173731648,-1.1308298569072737,-1.6050161670887904,2.4821546601642388,3.295796478902477,2.9014074946775654,-2.4932771142392376,2.4932771142392376,-2.9014074946775654,5.7446106422927521,0.0
724640.0783812654,4055767.5119837918,-42500.0,-1.3380630579066153,2.2711739514509457,0.36821818921021504,-1.7954193831483976,-0.69573190473880231,1.4907037681864674,3.2988199609867506,2.2697989633434528,-2.6311552873151909,2.6311552873151909,-2.2697989633434528,5.7169974593361284,0.0
729640.0783812654,4055767.5119837918,-42500.0,-0.83912343762687347,2.5944245440987728,-0.36205368181704661,-2.1925156207032939,0.44690759631009402,0.22277453234982658,3.4072971981929685,1.2175570409960192,-2.4273994461006656,2.4273994461006656,-1.2175570409960192,6.0051888421919397,0.0
734640.0783812654,4055767.5119837918,-42500.0,-0.20800253745725245,2.5815001830318796,-1.1490445769051549,-2.2063909632072045,1.6814884881254619,-1.1779696168518559,3.6508459272566811,-0.1451172785992334,-1.8570130429454403,1.8570130429454403,0.1451172785992334,6.6327023072176416,0.0
739640.0783812654,4055767.5119837918,-42500.0,0.38196856946206381,2.2110407684310718,-1.8545157099911314,-1.8066265966353974,2.8247634655841884,-2.520319512133157,3.9905230994082355,-1.6091968786298958,-0.98972874127046762,0.98972874127046762,1.6091968786298958,7.4384060859420966,0.0
744640.0783812654,4055767.5119837918,-42500.0,0.76478809839369311,1.5556272805796252,-2.3523030905982787,-1.067064049935224,3.7049212147410922,-3.6186009690370087,4.3352155476546361,-2.9251270766973185,0.02212828092597463,-0.02212828092597463,2.9251270766973185,8.1928055724220261,0.0
749640.0783812654,4055767.5119837918,-42500.0,0.84401950979510798,0.75739107351098534,-2.5702133213280125,-0.14165013399626,4.2136193384318839,-4.3463256772603529,4.5842717217257674,-3.883120461370821,0.99281631812883342,-0.99281631812883342,3.883120461370821,8.7132372759560184,0.0
754640.0783812654,4055767.5119837918,-42500.0,0.62095787579025552,-0.024189051558875095,-2.5081300117792593,0.79061667072460684,4.331243345438069,-4.6648793340396244,4.6736447414194648,-4.3746776244371421,1.764549916970841,-1.764549916970841,4.3746776244371421,8.9077159289543495,0.0
759640.0783812654,4055767.5119837918,-42500.0,0.17794427823779832,-0.6635542765760466,-2.2259365821521264,1.5819038305404822,4.1166791372440477,-4.6173735247766672,4.5914130038620939,-4.4075504538565546,2.2498947855231002,-2.2498947855231002,4.4075504538565546,8.7701571659171069,0.0
764640.0783812654,4055767.5119837918,-42500.0,-0.36594204776947298,-1.0960727816937152,-1.8128355306710791,2.1477329786710246,3.6733660428324102,-4.2977338735220165,4.3632415794777648,-4.0766573506017263,2.4396387000842878,-2.4396387000842878,4.0766573506017263,8.3538527320234675,0.0
769640.0783812654,4055767.5119837918,-42500.0,-0.89928254816579556,-1.3163901330016827,-1.35620852391292,2.4689649524652668,3.1119501578824513,-3.8142522464401192,4.0322370652417954,-3.515342580840211,2.382504797849168,-2.382504797849168,3.515342580840211,7.7403241810175185,0.0
774640.0783812654,4055767.5119837918,-42500.0,-1.3447379784851128,-1.3590342568292131,-0.92212395047193574,2.5736710244309462,2.5243228847565371,-3.2624823788004353,3.6436586038757262,-2.8523027800540697,2.1543305223136833,-2.1543305223136833,2.8523027800540697,7.0139646368184865,0.0
779640.0783812654,4055767.5119837918,-42500.0,-1.6649488481744614,-1.2755098758260932,-0.54955979082577633,2.513413128600384,1.9729809788410828,-2.7123464654900142,3.2360857703547348,-2.186782908146836,1.8318060416126078,-1.8318060416126078,2.186782908146836,6.2465882834325237,0.0
784640.0783812654,4055767.5119837918,-42500.0,-1.8550498438042433,-1.1169663444682756,-0.25400275588890109,2.3439462453886324,1.4920068049923856,-2.2067900782484999,2.837967300120908,-1.5817311125068576,1.4772024063226015,-1.4772024063226015,1.5817311125068576,5.4912268223574925,0.0
789640.0783812654,4055767.5119837918,-42500.0,-1.9304708942010216,-0.92492833236526195,-0.034831393621477504,2.113775293092325,1.0937655792633638,-1.7667286328781737,2.4675992624886187,-1.068299033564384,1.1333466129002312,-1.1333466129002312,1.068299033564384,4.7822012715971427,0.0
794640.0783812654,4055767.5119837918,-42500.0,-1.9158035631379047,-0.72854888855867905,0.11741757736425011,1.8596309867032783,0.77671740686209267,-1.3978636682510555,2.1347087135604483,-0.6548165429167061,0.82508397536509448,-0.82508397536509448,0.6548165429167061,4.1383651429829005,0.0
799640.0783812654,4055767.5119837918,-42500.0,-1.8370513224375151,-0.54567458599975616,0.21562869234822704,1.6063716387173963,0.5319370068864604,-1.0968415410661769,1.8425003403455862,-0.33575944787234924,0.56353043663927338,-0.56353043663927338,0.33575944787234924,3.5672727205667303,0.0
804640.0783812654,4055767.5119837918,-42500.0,-1.7173237099338019,-0.38545351720167637,0.27277591013139002,1.3689987477450218,0.3476293216627902,-0.85581816259823806,1.5897944384980252,-0.098725761717516791,0.35069235372935503,-0.35069235372935503,0.098725761717516791,3.0690292984961784,0.0
809640.0783812654,4055767.5119837918,-42500.0,-1.5750919935210841,-0.25110700069443015,0.30024756144692388,1.1552518493852362,0.21182663161689363,-0.66540887319920938,1.3730734925452202,0.070939254722979406,0.18330241115799217,-0.18330241115799217,-0.070939254722979406,2.6393281981033692,0.0
814640.0783812654,4055767.5119837918,-42500.0,-1.424002106961763,-0.14223719526965045,0.30725314369084561,0.96798919370040526,0.11375773326629943,-0.51637194883976811,1.1880159340745056,0.18747826992925379,0.055558835226424436,-0.055558835226424436,-0.18747826992925379,2.2716125840679555,0.0
819640.0783812654,4055767.5119837918,-42500.0,-1.2734613687858813,-0.056505423207538673,0.30083219108938641,0.80705864313730735,0.044374775328693321,-0.40043193656867654,1.0303183895946224,0.26343025954439753,-0.039129488011096336,0.039129488011096336,-0.26343025954439753,1.9584925071240462,0.0
824640.0783812654,4055767.5119837918,-42500.0,-1.1294983421457976,0.0092608916583389912,0.28613980578335363,0.67063210895287684,-0.003592026685593849,-0.31057948458899459,0.89602320721267648,0.30918760452870231,-0.10714827311312092,0.10714827311312092,-0.30918760452870231,1.6926030140893198,0.0
654640.0783812654,4060767.5119837918,-42500.0,1.2460024030242964,-0.60304687490540831,0.1585618121676316,1.1138632895063296,-0.53151843423827472,0.73749325590355752,1.2986822490843846,-0.043661659984720241,0.5077820500636554,-0.5077820500636554,0.043661659984720241,2.5590509031438984,0.0
659640.0783812654,4060767.5119837918,-42500.0,1.2607991151053364,-0.69155026503811667,0.22918690472079067,1.2371679748899913,-0.65553159703534813,0.88263649310683201,1.4494062652591582,0.02672370784550171,0.54333455583026369,-0.54333455583026369,-0.02672370784550171,2.8517990231720041,0.0
664640.0783812654,4060767.5119837918,-42500.0,1.2449547696182568,-0.78187617649577612,0.31960054390863535,1.361270485765125,-0.80457833124067646,1.0541093250875424,1.614394599785917,0.12764449386508392,0.56743972125471676,-0.56743972125471676,-0.12764449386508392,3.1703792728709237,0.0
669640.0783812654,4060767.5119837918,-42500.0,1.1882005712238677,-0.86785789871944852,0.43302291581428143,1.4787509348510246,-0.9810772674186945,1.2540727364850255,1.7924974419606545,0.26737662282493663,0.57233145066785185,-0.57233145066785185,-0.26737662282493663,3.5116321580882488,0.0
674640.0783812654,4060767.5119837918,-42500.0,1.0794331898440777,-0.94004161936266828,0.5718284994888444,1.5786672440251917,-1.1858400426628934,1.4829942543727483,1.9811722371134479,0.45469168808430771,0.54771582965806687,-0.54771582965806687,-0.45469168808430771,3.8693189199777902,0.0
679640.0783812654,4060767.5119837918,-42500.0,0.90806513648453679,-0.98492671954427302,0.73640758758249747,1.6458670231318973,-1.4166706467604777,1.7382805928466658,2.1760069485181393,0.69758043793137092,0.48073084087656415,-0.48073084087656415,-0.69758043793137092,4.2330816947788152,0.0
684640.0783812654,4060767.5119837918,-42500.0,0.66637791093065601,-0.98456893802074197,0.92347135051372398,1.6607296132615339,-1.6664069433138062,2.0123924743585655,2.3702636972995825,1.0009637413599684,0.35654882397160681,-0.35654882397160681,-1.0009637413599684,4.5874539296004677,0.0
689640.0783812654,4060767.5119837918,-42500.0,0.3530664778912278,-0.91707257078769067,1.1237959626625014,1.5998713244537843,-1.9204637293500733,2.2905077260007709,2.5546080002251208,1.3630946828366994,0.16010319371892845,-0.16010319371892845,-1.3630946828366994,4.9112964994583157,0.0
694640.0783812654,4060767.5119837918,-42500.0,-0.022168483055879193,-0.75872404696875273,1.3196599084220553,1.4385492354631828,-2.1542319790378923,2.5480743547836515,2.717318963195146,1.7705999193147197,-0.12051186862766938,0.12051186862766938,-1.7705999193147197,5.1783425311836373,0.0
699640.0783812654,4060767.5119837918,-42500.0,-0.43381365869867772,-0.48860125317226188,1.4826965732983262,1.1555447439683497,-2.3311861015883588,2.7490515085248535,2.8454371739944562,2.192730013490364,-0.4885937300071781,0.4885937300071781,-2.192730013490364,5.3599420633513075,0.0
704640.0783812654,4060767.5119837918,-42500.0,-0.83741021902171187,-0.096148270484534157,1.5735290233563555,0.74092619221701883,-2.4031929669438559,2.8462185358456873,2.9274387203933223,2.5764996026558418,-0.93161492940959079,0.93161492940959079,-2.5764996026558418,5.4315192497549685,0.0
709640.0783812654,4060767.5119837918,-42500.0,-1.171082871140148,0.40892378526237233,1.54511953320087,0.20595499114174909,-2.3150171900590477,2.7853788322728774,2.9579565163852308,2.8458419513239175,-1.4138464821251402,1.4138464821251402,-2.8458419513239175,5.3843863209119194,0.0
714640.0783812654,4060767.5119837918,-42500.0,-1.3649810160585063,0.98711329362774269,1.3516559258842762,-0.40759948473541047,-2.0147646822729683,2.5150489059624439,2.9444026045264553,2.9089293378386749,-1.8722665181192684,1.8722665181192684,-2.9089293378386749,5.2434278869975586,0.0
719640.0783812654,4060767.5119837918,-42500.0,-1.3599901312024627,1.5650935176126841,0.96319801027035212,-1.0237347375603998,-1.4702197740438483,2.0016125699369569,2.9132820322511099,2.6769492463810298,-2.2205943187065476,2.2205943187065476,-2.6769492463810298,5.0857871049238401,0.0
724640.0783812654,4060767.5119837918,-42500.0,-1.1322173886612332,2.0432454903900066,0.38285332489587781,-1.539905707601547,-0.68743112572864506,1.2466895691298228,2.9098541865177019,2.0933341273011443,-2.3654203060371346,2.3654203060371346,-2.0933341273011443,5.0404955256055031,0.0
729640.0783812654,4060767.5119837918,-42500.0,-0.7133912952353183,2.3179232152060298,-0.3408667865228826,-1.8490885383891247,0.27622480654272058,0.29975492318841912,2.9820592653113858,1.1649503228609817,-2.2336184119431044,2.2336184119431044,-1.1649503228609817,5.2337756702645892,0.0
734640.0783812654,4060767.5119837918,-42500.0,-0.19409676790333411,2.3140028636193022,-1.1154244719141524,-1.8719094574970543,1.3136980852981228,-0.74232079287921016,3.1507991178411263,-0.019966457276131999,-1.8023666095485853,1.8023666095485853,0.019966457276131999,5.6918952138270793,0.0
739640.0783812654,4060767.5119837918,-42500.0,0.29800166494021546,2.0145054554775035,-1.8239204794624531,-1.5862194622740093,2.2892854154302174,-1.7532605025158421,3.3922008305388696,-1.3015252913486293,-1.1171074541422688,1.1171074541422688,1.3015252913486293,6.3089672552077367,0.0
744640.0783812654,4060767.5119837918,-42500.0,0.63920351281011789,1.4714469580585421,-2.3578122223120954,-1.0388985843780625,3.0737173340619606,-2.6086365117080308,3.6498227306179158,-2.4879169414160693,-0.28516744069978062,0.28516744069978062,2.4879169414160693,6.9190573410644545,0.0
749640.0783812654,4060767.5119837918,-42500.0,0.75119725883352151,0.79029275838938207,-2.6485361785683823,-0.33222132399946031,3.5788940095665063,-3.2179116248016673,3.8579870426240945,-3.4101312436185554,0.55513232258556222,-0.55513232258556222,3.4101312436185554,7.3789124224737801,0.0
754640.0783812654,4060767.5119837918,-42500.0,0.62253274401088476,0.0951469288246755,-2.6834428213765671,0.40906113266197314,3.7770624382979481,-3.5436323413046567,3.9631510236085119,-3.9668633766549957,1.2759154656431329,-1.2759154656431329,3.9668633766549957,7.6053218089032724,0.0
759640.0783812654,4060767.5119837918,-42500.0,0.30212082801419449,-0.50800854595872125,-2.5005627888954804,1.0738473990978235,3.6980327783685403,-3.6014154073055384,3.9423499489265685,-4.1410374548385596,1.7925746839754273,-1.7925746839754273,4.1410374548385596,7.577087540065599,0.0
764640.0783812654,4060767.5119837918,-42500.0,-0.12721646964218261,-0.95437497136960781,-2.1682349851320066,1.5888727961790143,3.4096478763719742,-3.4444673664305694,3.8033871450192533,-3.9863058185490039,2.0759689620590565,-2.0759689620590565,3.9863058185490039,7.3200055027118953,0.0
769640.0783812654,4060767.5119837918,-42500.0,-0.57923301897746238,-1.2243951239133697,-1.7612821540165975,1.9250642930167734,2.9929828389369244,-3.1422430697885244,3.572266929318578,-3.5962744631700265,2.1445760501753957,-2.1445760501753957,3.5962744631700265,6.8866206184305865,0.0
774640.0783812654,4060767.5119837918,-42500.0,-0.9860533840283634,-1.3335914116750913,-1.343217271647394,2.0897105690644597,2.5222826020613578,-2.7621249631281102,3.2810617460985352,-3.0726884206220837,2.0457919502075126,-2.0457919502075126,3.0726884206220837,6.3379369820208948,0.0
779640.0783812654,4060767.5119837918,-42500.0,-1.3069927816050089,-1.3169520942627149,-0.9579505269330465,2.112330667393151,2.054014053711549,-2.3584606528022065,2.9600109590856238,-2.5031606033166831,1.8365354289069069,-1.8365354289069069,2.5031606033166831,5.7306416827171747,0.0
784640.0783812654,4060767.5119837918,-42500.0,-1.5269628807237239,-1.2149242243262401,-0.62946886247546219,2.0310488909423245,1.6242993751737473,-1.9688729997973455,2.6335674057360978,-1.9510542487213309,1.5692877773505038,-1.5692877773505038,1.9510542487213309,5.1103853611964327,0.0
789640.0783812654,4060767.5119837918,-42500.0,-1.6495504921534436,-1.0642217291785252,-0.36596264965510517,1.8829444703498339,1.2516061879086768,-1.6154788403046918,2.3192650610818468,-1.4548322800210025,1.2850144348633057,-1.2850144348633057,1.4548322800210025,4.5098472390366453,0.0
794640.0783812654,4060767.5119837918,-42500.0,-1.6891055514836253,-0.89353391341575394,-0.16523356530146177,1.698903303457175,0.94154209960008062,-1.3083864169655444,2.0282107557618732,-1.0325767060504132,1.0115402497715393,-1.0115402497715393,1.0325767060504132,3.9497463347266559,0.0
799640.0783812654,4060767.5119837918,-42500.0,-1.6642578437336002,-0.72274042541206263,-0.01949034732128687,1.501949263152905,0.69165144940528311,-1.0495892729259453,1.7662363582825737,-0.68811468239227258,0.76510291496799998,-0.76510291496799998,0.68811468239227258,3.4411991805309512,0.0
804640.0783812654,4060767.5119837918,-42500.0,-1.5936159889806476,-0.56403517376588796,0.081186609139321658,1.3076642309950264,0.49523192075228845,-0.83627850591027675,1.5351482685037308,-0.41665157433326511,0.55316271924184679,-0.55316271924184679,0.41665157433326511,2.9883542699010199,0.0
809640.0783812654,4060767.5119837918,-42500.0,-1.493445246975275,-0.42375368811895631,0.14671338687822377,1.125553404710862,0.34395237612863622,-0.66326050703908446,1.3339570277505017,-0.20906257592474195,0.37727204691191252,-0.37727204691191252,0.20906257592474195,2.5907363922276674,0.0
814640.0783812654,4060767.5119837918,-42500.0,-1.3767681100938918,-0.30419865894893611,0.18590202160309885,0.96062596601973427,0.2294342234265519,-0.52452958148163198,1.1601030107532155,-0.054757375091797705,0.23544619141346876,-0.23544619141346876,0.054757375091797705,2.2450875611290493,0.0
819640.0783812654,4060767.5119837918,-42500.0,-1.2533267161046859,-0.20514821106104814,0.20604103133723375,0.8148173830838189,0.14407763220536385,-0.41418433404578503,1.0104563707810426,0.056625995044403174,0.12388776294272404,-0.12388776294272404,-0.056625995044403174,1.9466924238024583,0.0
659640.0783812654,4065767.5119837918,-42500.0,1.111040497659332,-0.74408871031385637,0.35261434734325914,1.1189026972933398,-0.70001747099021372,0.80796567216050219,1.3738461611577573,0.092950221155241652,0.58533134911220597,-0.58533134911220597,-0.092950221155241652,2.7063096359671714,0.0
664640.0783812654,4065767.5119837918,-42500.0,1.0747205108380087,-0.82426061179652688,0.45825459123643042,1.2146378825220592,-0.84437657320723081,0.95415048349380349,1.519266239461192,0.20462803732800217,0.6048026912666703,-0.6048026912666703,-0.20462803732800217,2.9872073356790945,0.0
669640.0783812654,4065767.5119837918,-42500.0,0.99987026106808985,-0.89563451629685642,0.58580754273286906,1.2997678300626907,-1.0114270233353502,1.1214012153143993,1.6738070529197324,0.35334627727482942,0.60377561197292229,-0.60377561197292229,-0.35334627727482942,3.2833162826593223,0.0
674640.0783812654,4065767.5119837918,-42500.0,0.8782823840385876,-0.94860466488682582,0.73599605093266307,1.3644301926189462,-1.2003608750603392,1.3087979639608753,1.8346924245860565,0.5456814833213679,0.57268805540633183,-0.57268805540633183,-0.5456814833213679,3.5880364995090566,0.0
679640.0783812654,4065767.5119837918,-42500.0,0.70313737046601088,-0.9703107828028098,0.9070653804944131,1.3957508454508398,-1.4073499627502359,1.5127086803307699,1.9976176558281142,0.78663394232247308,0.50012807926119773,-0.50012807926119773,-0.78663394232247308,3.891358392540214,0.0
684640.0783812654,4065767.5119837918,-42500.0,0.4710919507833522,-0.94471573082653504,1.0932483300393467,1.3780301218729949,-1.6240066081434634,1.7254597467229047,2.1564997249299522,1.0774781395551836,0.37363927294465138,-0.37363927294465138,-1.0774781395551836,4.1793134697010057,0.0
689640.0783812654,4065767.5119837918,-42500.0,0.18510376047899371,-0.85357087995291181,1.2829328290927797,1.2937764543646548,-1.8356410673865313,1.9338419945820378,2.3034375956710749,1.4126998945105473,0.1814892590634164,-0.1814892590634164,-1.4126998945105473,4.4339096829160125,0.0
694640.0783812654,4065767.5119837918,-42500.0,-0.14231270118259795,-0.67879077961663459,1.4568743069365999,1.1260417607762727,-2.0196906862716917,2.1177703871878975,2.4291088596255248,1.7761789947257338,-0.084272319824220121,0.084272319824220121,-1.7761789947257338,4.6340815113931102,0.0
699640.0783812654,4065767.5119837918,-42500.0,-0.48622285669307008,-0.40668630475041834,1.5871582899296488,0.86242749045164857,-2.1450331938571838,2.2496951645786227,2.5239165460678916,2.1373010427433292,-0.42336950947967944,0.42336950947967944,-2.1373010427433292,4.7584223165669082,0.0
704640.0783812654,4065767.5119837918,-42500.0,-0.80827799690358182,-0.034082478165422446,1.6380217112327848,0.5007319283717091,-2.1732467745700426,2.2956492601337239,2.5802329645454845,2.448462113489791,-0.82194234626296148,0.82194234626296148,-2.448462113489791,4.7906468460745311,0.0
709640.0783812654,4065767.5119837918,-42500.0,-1.0595507747722386,0.42458711088527495,1.5698456980784963,0.055371125616932422,-2.0630150397050215,2.2189282762384135,2.5959430004996609,2.6462456025684831,-1.2477030611377584,1.2477030611377584,-2.6462456025684831,4.7286195805231008,0.0
714640.0783812654,4065767.5119837918,-42500.0,-1.1888929881288728,0.93149902487958391,1.3472267837083387,-0.43750071579178845,-1.7784241171752051,1.9870318706470702,2.578908775388614,2.6588265657870762,-1.6481357802434895,1.6481357802434895,-2.6588265657870762,4.5966885176336127,0.0
719640.0783812654,4065767.5119837918,-42500.0,-1.156838375105727,1.4245261797904125,0.95060683790967693,-0.91931814344682061,-1.3005144883453479,1.5813712777477411,2.5505383700982214,2.4210290698681445,-1.9548239573788275,1.9548239573788275,-2.4210290698681445,4.4571029227770422,0.0
724640.0783812654,4065767.5119837918,-42500.0,-0.95189247834129753,1.8247421756053841,0.38853978170568515,-1.3159744399169531,-0.63921578528391365,1.0074292101060038,2.544245819819773,1.8953051114999058,-2.0959507645686584,2.0959507645686584,-1.8953051114999058,4.4067642081125671,0.0
729640.0783812654,4065767.5119837918,-42500.0,-0.60261298450251244,2.0534297162072321,-0.29467430414441947,-1.5531543637926095,0.15932367956617027,0.30131526221468086,2.5937853570885392,1.0923514112125883,-2.0157173463664555,2.0157173463664555,-1.0923514112125883,4.5383142653154529,0.0
734640.0783812654,4065767.5119837918,-42500.0,-0.17785515300958976,2.0548074560763512,-1.0215784504693117,-1.5768187343123248,1.0152266206057015,-0.47159468001331051,2.7138784738422617,0.081718035457813976,-1.6947377063079083,1.6947377063079083,-0.081718035457813976,4.8752584865746469,0.0
739640.0783812654,4065767.5119837918,-42500.0,0.22865585269524202,1.8158225756629325,-1.6966490402987955,-1.371305089661208,1.8293318759020609,-1.2278622779413053,2.8888377468043656,-1.0158776466725605,-1.1623114161936021,1.1623114161936021,1.0158776466725605,5.3475635269193811,0.0
744640.0783812654,4065767.5119837918,-42500.0,0.52537245144220313,1.3734003927221581,-2.2299968607507177,-0.96660101340472759,2.5060703404010298,-1.88445384804025,3.0808674508087823,-2.055378381588119,-0.49316404463132935,0.49316404463132935,2.055378381588119,5.8362801109601383,0.0
749640.0783812654,4065767.5119837918,-42500.0,0.65036735086210107,0.80461439889506714,-2.560496098184275,-0.43058703671135312,2.9763269524741833,-2.3778424277982833,3.2470241130473365,-2.9041959529497139,0.2117777896836297,-0.2117777896836297,2.9041959529497139,6.2314143998776954,0.0
754640.0783812654,4065767.5119837918,-42500.0,0.58708250060294065,0.2038090598860727,-2.6688363910435045,0.15062379046201907,3.211338960972884,-2.6764630012830994,3.3495095967251025,-3.4740885839948188,0.85279289901891886,-0.85279289901891886,3.4740885839948188,6.4619399844585272,0.0
759640.0783812654,4065767.5119837918,-42500.0,0.36280366793803231,-0.34304563893396622,-2.5762516145464001,0.69557300947552425,3.2232503525226393,-2.7826345444550973,3.3640923815121195,-3.7360775214078759,1.355428043492295,-1.355428043492295,3.7360775214078759,6.5007496166549457,0.0
764640.0783812654,4065767.5119837918,-42500.0,0.033352808080974537,-0.77663111140476926,-2.331783533623546,1.144662423688618,3.0543957858628632,-2.7251345814344403,3.2872080334311176,-3.7156407211213973,1.6827395596434713,-1.6827395596434713,3.7156407211213973,6.3566617427861027,0.0
769640.0783812654,4065767.5119837918,-42500.0,-0.3370690222444595,-1.0704996386714183,-1.9952047960247137,1.4671561115396217,2.761551512138174,-2.5470947240223381,3.1320842898857486,-3.474400506379721,1.8341636590604842,-1.8341636590604842,3.474400506379721,6.0616132364549573,0.0
774640.0783812654,4065767.5119837918,-42500.0,-0.69249603516985403,-1.2268077457907614,-1.6223833101747331,1.6588032306897948,2.4014939645216709,-2.2942569532324661,2.9200121762891258,-3.0881066547630676,1.8353002580530831,-1.8353002580530831,3.0881066547630676,5.6579543372389987,0.0
779640.0783812654,4065767.5119837918,-42500.0,-0.99416179733496257,-1.2665415827819591,-1.2565973235460675,1.7340578909162274,2.0215216438228429,-2.006727499007412,2.6735356576337646,-2.6287143523768788,1.7248298991643325,-1.7248298991643325,2.6287143523768788,5.1885769544361597,0.0
784640.0783812654,4065767.5119837918,-42500.0,-1.2220835561615555,-1.2191622370353641,-0.92587493101543394,1.7171339978232374,1.6555051919660826,-1.7149826947227131,2.41253147485468,-2.153906179389093,1.5433452843556053,-1.5433452843556053,2.153906179389093,4.6907888023801094,0.0
789640.0783812654,4065767.5119837918,-42500.0,-1.3718869410358767,-1.114641896576432,-0.64448749842391795,1.6346613861868673,1.3240969378740477,-1.439280431407723,2.1525225214603214,-1.7036198700807943,1.3262091379687031,-1.3262091379687031,1.7036198700807943,4.1935671136793271,0.0
794640.0783812654,4065767.5119837918,-42500.0,-1.4497580280802991,-0.97876391611551061,-0.41637862213683091,1.5109628797036443,1.0371922301272758,-1.1910827355233158,1.9044365535733563,-1.3013030523288578,1.1003826462641688,-1.1003826462641688,1.3013030523288578,3.7172223813162164,0.0
799640.0783812654,4065767.5119837918,-42500.0,-1.4675519977541067,-0.83122775315830455,-0.23886971701148862,1.3657694228328816,0.79707613779829611,-0.97525915256292373,1.67513250222815,-0.95744318692876684,0.88410371404442889,-0.88410371404442889,0.95744318692876684,3.2744356898333611,0.0
804640.0783812654,4065767.5119837918,-42500.0,-1.439041485225214,-0.68561473273867302,-0.1057556264438862,1.2136798599373266,0.60131708625212976,-0.79228032534472825,1.4681961465683537,-0.67358571486123031,0.68813401928268392,-0.68813401928268392,0.67358571486123031,2.8718703797059226,0.0
809640.0783812654,4065767.5119837918,-42500.0,-1.3775004490039353,-0.55030975153900352,-0.0095038513664133621,1.0646160077174958,0.44500470951894028,-0.64001448678563455,1.2847001405353791,-0.44584998600965547,0.51757430324900577,-0.51757430324900577,0.44584998600965547,2.5118227888449267,0.0
814640.0783812654,4065767.5119837918,-42500.0,-1.2944279155560856,-0.42974489781241781,0.05738106846023857,0.92471224577426769,0.32228455869290401,-0.51503236160200372,1.1239000945157285,-0.26758566434485836,0.37365214102406924,-0.37365214102406924,0.26758566434485836,2.1936666340195936,0.0
819640.0783812654,4065767.5119837918,-42500.0,-1.1990728128418424,-0.32559586494143045,0.10163318369466923,0.79727977564872177,0.22729842677850556,-0.41346345046895988,0.98395457386998419,-0.13116491074493633,0.25519973393250384,-0.25519973393250384,0.13116491074493633,1.914985169479019,0.0
659640.0783812654,4070767.5119837918,-42500.0,0.95954790464639705,-0.76396503823156048,0.46054129049371667,0.99624185496899142,-0.72003276362786295,0.72948474666649288,1.2902513088175689,0.15630731492796013,0.60447963254974679,-0.60447963254974679,-0.15630731492796013,2.5437956682706133,0.0
664640.0783812654,4070767.5119837918,-42500.0,0.9074894535703506,-0.83048768894078095,0.5750857194815594,1.066528149229004,-0.85492704941735875,0.85171869760987395,1.4163317377751659,0.27436570183829717,0.6172978427372211,-0.6172978427372211,-0.27436570183829717,2.7873538123709558,0.0
669640.0783812654,4070767.5119837918,-42500.0,0.82048607026033105,-0.88452558398680159,0.70902833038047086,1.1237492518610304,-1.0075043437118316,0.98882852854911352,1.5481829479310583,0.42634347847754905,0.60888204757100883,-0.60888204757100883,-0.42634347847754905,3.0397884396976385,0.0
674640.0783812654,4070767.5119837918,-42500.0,0.69297577412314249,-0.91688814553642828,0.86152815032960939,1.159404355242178,-1.1757413944346726,1.1390603438247027,1.6830188241599338,0.61665077301150661,0.57068103537370074,-0.57068103537370074,-0.61665077301150661,3.2945444607015526,0.0
679640.0783812654,4070767.5119837918,-42500.0,0.52129456224373094,-0.91597973273202848,1.029046848410841,1.1629988431930469,-1.3548024325683365,1.2983866225624006,1.8168561173020517,0.84761282867853105,0.49297130640726239,-0.49297130640726239,-0.84761282867853105,3.5423634226517451,0.0
684640.0783812654,4070767.5119837918,-42500.0,0.30539919433887996,-0.86821303793935123,1.2040827487246168,1.1224800353172586,-1.5359150265791792,1.4596229950563708,1.9444132752662981,1.117596083033451,0.36576047232283204,-0.36576047232283204,-1.117596083033451,3.7710679652715089,0.0
689640.0783812654,4070767.5119837918,-42500.0,0.05096837502946186,-0.75921541045366647,1.373829549584668,1.0253538614446251,-1.7052427200427689,1.6115451870892143,2.0592153913874331,1.4185705328939942,0.18046398230482319,-0.18046398230482319,-1.4185705328939942,3.9658251529316013,0.0
694640.0783812654,4070767.5119837918,-42500.0,-0.22847090331351319,-0.57614424579860812,1.5191160141513114,0.86072929298684842,-1.843089962880581,1.7382634461084434,2.1540712366380141,1.7333723830230716,-0.067488794006912545,0.067488794006912545,-1.7333723830230716,4.1102795492816293,0.0
699640.0783812654,4070767.5119837918,-42500.0,-0.51009579849950182,-0.31128135224535497,1.6142299793078339,0.62240555140734433,-1.9239782955213629,1.8192658742760996,2.2221252494987027,2.0333266642057524,-0.3751934614636554,0.3751934614636554,-2.0333266642057524,4.189068448054539,0.0
704640.0783812654,4070767.5119837918,-42500.0,-0.76207611795567476,0.033321198450686131,1.6284362397465304,0.3127832650492024,-1.9182884216263298,1.8306593873685697,2.258667726688647,2.2773830048618668,-0.72847720671023009,0.72847720671023009,-2.2773830048618668,4.1922765763108991,0.0
709640.0783812654,4070767.5119837918,-42500.0,-0.94678119676197836,0.44106120072525967,1.5299809447676482,-0.05318145978609802,-1.7961147002343185,1.7481034492442797,2.2637250385832552,2.4143063434192737,-1.098931463274424,1.098931463274424,-2.4143063434192737,4.122176548198893,0.0
714640.0783812654,4070767.5119837918,-42500.0,-1.0276455521329708,0.87763330217192259,1.2928872483595744,-0.44543276595992287,-1.5335277931535634,1.5515975491227583,2.2449914699737445,2.3893609063752068,-1.4435326217027669,1.4435326217027669,-2.3893609063752068,4.0016525836169272,0.0
719640.0783812654,4070767.5119837918,-42500.0,-0.97915224192685235,1.2918260296348012,0.90573120946648611,-0.81956515664841967,-1.1204710924330585,1.2315637477449062,2.2196969078381308,2.1558762157447284,-1.70872205697935,1.70872205697935,-2.1558762157447284,3.8808478255531722,0.0
724640.0783812654,4070767.5119837918,-42500.0,-0.79742745901540923,1.6222005197570111,0.38003523723692523,-1.1224154596924778,-0.56820772295770838,0.79468687689825912,2.212664155640077,1.6899238338855833,-1.8398786701515204,1.8398786701515204,-1.6899238338855833,3.8326523768321157,0.0
729640.0783812654,4070767.5119837918,-42500.0,-0.50718149826036152,1.8097255474219081,-0.24531350006315045,-1.3025460299477689,0.086775847352901531,0.26720232617740919,2.2478562439815821,1.0036849998245283,-1.7949294342377176,1.7949294342377176,-1.0036849998245283,3.9246970721971608,0.0
734640.0783812654,4070767.5119837918,-42500.0,-0.16063399599664049,1.8134377028990423,-0.90699746207780485,-1.3232659954238029,0.78529486918087454,-0.30657086225808189,2.3356206173801572,0.1515216175274342,-1.5581069475068268,1.5581069475068268,-0.1515216175274342,4.1759149575405052,0.0
739640.0783812654,4070767.5119837918,-42500.0,0.17335676997701038,1.6235592686392313,-1.5285766747165916,-1.1737207957286682,1.4553173519679019,-0.87123854084908958,2.4653024615649128,-0.77594880262486354,-1.1482428620269081,1.1482428620269081,0.77594880262486354,4.5392143062482671,0.0
744640.0783812654,4070767.5119837918,-42500.0,0.4271788797754249,1.2662850993907617,-2.037387285532037,-0.87335047162037627,2.0268433103498982,-1.3713316872295689,2.6104598512758259,-1.6699295474590863,-0.61714647707206149,0.61714647707206149,1.6699295474590863,4.9294134299330912,0.0
749640.0783812654,4070767.5119837918,-42500.0,0.55265863187173803,0.79755655554957983,-2.3811479634182584,-0.46741012479328786,2.4468664828956013,-1.7627405763119768,2.7411200303814187,-2.4280912454740107,-0.03765083775257283,0.03765083775257283,2.4280912454740107,5.2631296746002825,0.0
754640.0783812654,4070767.5119837918,-42500.0,0.53235049385701483,0.28810827463936117,-2.5381714329392393,-0.015165233753057335,2.6891644455893515,-2.020666239681892,2.8318407262993359,-2.9768344920307843,0.5143283182296392,-0.5143283182296392,2.9768344920307843,5.4819185344014647,0.0
759640.0783812654,4070767.5119837918,-42500.0,0.3801839126579375,-0.1941362906649679,-2.5180859554796959,0.42452604803899663,2.7560436124807026,-2.1417810937502328,2.8634880047452733,-3.2835157566118651,0.9768589393900331,-0.9768589393900331,3.2835157566118651,5.5580575304389299,0.0
764640.0783812654,4070767.5119837918,-42500.0,0.13283809502245827,-0.59789171260805274,-2.3542600872235595,0.80506119395165043,2.672716472126814,-2.1408385596275354,2.8273229448722543,-3.3560068512620922,1.3125015408474501,-1.3125015408474501,3.3560068512620922,5.4906684404002553,0.0
769640.0783812654,4070767.5119837918,-42500.0,-0.16323920305712517,-0.89491964347244457,-2.0921104744816548,1.098225055869438,2.4776105667911645,-2.0439575530306087,2.7275632051017782,-3.2323828282379403,1.510273171322575,-1.510273171322575,3.2323828282379403,5.2977903870964553,0.0
774640.0783812654,4070767.5119837918,-42500.0,-0.46386469338811898,-1.0791162174114211,-1.7778617970165747,1.2943708009897437,2.2124578687492278,-1.8813528178224364,2.5770802230731351,-2.9664029287552554,1.5807686262337395,-1.5807686262337395,2.9664029287552554,5.0077797363400967,0.0
779640.0783812654,4070767.5119837918,-42500.0,-0.73492915028570316,-1.1608955000776706,-1.4507014305132719,1.3985087946410206,1.9148438043856773,-1.6815605721582034,2.3918698478714693,-2.6140907455671947,1.5479753993562433,-1.5479753993562433,2.6140907455671947,4.6520172498174404,0.0
784640.0783812654,4070767.5119837918,-42500.0,-0.95531994424166,-1.1600550755827277,-1.1391094227740701,1.4247763106155449,1.6141574232726625,-1.4680043969650967,2.1873864684670146,-2.2244528647106705,1.44110735839114,-1.44110735839114,2.2244528647106705,4.2598188241536787,0.0
789640.0783812654,4070767.5119837918,-42500.0,-1.1160887121395244,-1.0994782137732868,-0.86059048615040301,1.3912398476537184,1.3305307530153971,-1.2577470915468232,1.9766575146285592,-1.8349377927634678,1.2884443723199621,-1.2884443723199621,1.8349377927634678,3.8556034712505154,0.0
794640.0783812654,4070767.5119837918,-42500.0,-1.217602927238367,-1.0007668604960913,-0.62343575379319704,1.3160457660154472,1.0757415507989869,-1.0617725650303795,1.7696163149556523,-1.4706793408225454,1.1137480448826929,-1.1137480448826929,1.4706793408225454,3.4578780198591494,0.0
799640.0783812654,4070767.5119837918,-42500.0,-1.2661734885874085,-0.88188839875730762,-0.42925322195343174,1.2151238004654419,0.85503657094625107,-0.88606910972680264,1.5731657642183672,-1.1460354159593305,0.93489075192847515,-0.93489075192847515,1.1460354159593305,3.0794186823740652,0.0
804640.0783812654,4070767.5119837918,-42500.0,-1.2710900015193471,-0.7563973877178678,-0.27543259444021712,1.101194526708678,0.6691279290158465,-0.73296137213638379,1.3916190217045938,-0.86710727368723206,0.76398119840908429,-0.76398119840908429,0.86710727368723206,2.7281165803155178,0.0
809640.0783812654,4070767.5119837918,-42500.0,-1.2424311108410941,-0.63363617652403437,-0.15712674249365202,0.98364551513948373,0.51592832658301047,-0.60234085057371411,1.2272312556558578,-0.63432623717972791,0.60826491406813255,-0.60826491406813255,0.63432623717972791,2.4080312255269143,0.0
814640.0783812654,4070767.5119837918,-42500.0,-1.1896900930043781,-0.51942764538625141,-0.068653348430837396,0.86890243229816111,0.39187940273663574,-0.49265844343046283,1.0806797205710592,-0.44466116236303066,0.47129418178386662,-0.47129418178386662,0.44466116236303066,2.120442491012636,0.0
664640.0783812654,4075767.5119837918,-42500.0,0.75070857877344488,-0.80853713227135171,0.66700451084673218,0.92371926175361119,-0.84196433942708315,0.75155384475905485,1.3099034267404304,0.33360441426058074,0.60959537980767431,-0.60959537980767431,-0.33360441426058074,2.5796818390361334,0.0
669640.0783812654,4075767.5119837918,-42500.0,0.65711569574575002,-0.8447161449609164,0.80063899256451887,0.95804345245525613,-0.97729689904215578,0.86202575767836487,1.4207911715192458,0.48382046139317059,0.59344785240530695,-0.59344785240530695,-0.48382046139317059,2.7915377941653139,0.0
674640.0783812654,4075767.5119837918,-42500.0,0.5295591609610687,-0.85737848507840919,0.94813898899478344,0.97111333659606158,-1.1227485326011033,0.98030768561811532,1.5321583558074319,0.66644965836952408,0.54855581098509809,-0.54855581098509809,-0.66644965836952408,3.0009796408712743,0.0
679640.0783812654,4075767.5119837918,-42500.0,0.36682032326175962,-0.83655516075270708,1.1046782997627969,0.95468940888096632,-1.2730382831881659,1.1024257153907784,1.6404660666290267,0.88163889221440506,0.46694412952958386,-0.46694412952958386,-0.88163889221440506,3.1997540538138822,0.0
684640.0783812654,4075767.5119837918,-42500.0,0.17111590608164048,-0.77127667246093767,1.2617935118693495,0.89987669974615991,-1.4196540870526044,1.2220339541284795,1.7412699264026201,1.1256767237417471,0.34095612837769207,-0.34095612837769207,-1.1256767237417471,3.3775707430482389,0.0
689640.0783812654,4075767.5119837918,-42500.0,-0.050442098534756397,-0.65083123603371829,1.40650856170103,0.79817139086479094,-1.5502025363457486,1.329943463776563,1.8294065238744401,1.3891681588732214,0.16474926494504383,-0.16474926494504383,-1.3891681588732214,3.5225525095681145,0.0
694640.0783812654,4075767.5119837918,-42500.0,-0.28459073621565101,-0.46683149077674763,1.52086301909708,0.64312580496463378,-1.6481393518127145,1.4139199550036956,1.8994829682089156,1.6552096816413255,-0.063583723449501806,0.063583723449501806,-1.6552096816413255,3.6223937692106474,0.0
699640.0783812654,4075767.5119837918,-42500.0,-0.51140923306246322,-0.21608533678228464,1.5823110512896037,0.43261159273401145,-1.6932571116517745,1.4590146297949209,1.9467902080676369,1.8981265783075969,-0.33942805221729788,0.33942805221729788,-1.8981265783075969,3.6665534695798039,0.0
704640.0783812654,4075767.5119837918,-42500.0,-0.70526315365048164,0.096056683413883612,1.5655302933603452,0.17141339974734829,-1.6633491122756177,1.4487229540394915,1.9687182939543102,2.0836143674478715,-0.64908003549651028,0.64908003549651028,-2.0836143674478715,3.6497836402809525,0.0
709640.0783812654,4075767.5119837918,-42500.0,-0.83785024045711098,0.45267167893150007,1.4460552765632175,-0.12646385306273453,-1.5373516699539791,1.3671878873760466,1.9666050858424577,2.1712591163960084,-0.96808126053282773,0.96808126053282773,-2.1712591163960084,3.5770635368861985,0.0
714640.0783812654,4075767.5119837918,-42500.0,-0.88356121730437442,0.82381595576379452,1.2057005874863285,-0.43673427455219033,-1.2998975199638305,1.2024117217210346,1.9476049491454708,2.1201620760861344,-1.2616282408276929,1.2616282408276929,-2.1201620760861344,3.4692338862945076,0.0
719640.0783812654,4075767.5119837918,-42500.0,-0.82646816919449273,1.1680994378161245,0.83893800462016577,-0.72609812099720139,-0.94657856166989518,0.95000581877522827,1.9255319344587876,1.8975541203043527,-1.4881407726306426,1.4881407726306426,-1.8975541203043527,3.3665923514129661,0.0
724640.0783812654,4075767.5119837918,-42500.0,-0.66709251257173086,1.4382490618653576,0.35844834535751602,-0.95655295766020787,-0.48848566158714185,0.61650080534081197,1.918914845402937,1.4888816469303567,-1.6063255101610181,1.6063255101610181,-1.4888816469303567,3.3240765580250415,0.0
729640.0783812654,4075767.5119837918,-42500.0,-0.4262611438414764,1.5903222380703332,-0.20251619175841395,-1.0924918511695902,0.045848446009187228,0.22092119358682946,1.9448726940512446,0.90635802744594074,-1.5846625923741109,1.5846625923741109,-0.90635802744594074,3.3909289343347,0.0
734640.0783812654,4075767.5119837918,-42500.0,-0.14359053566350025,1.5944224769456303,-0.79294194179090871,-1.1089886035956891,0.61267031634699032,-0.20648967371266,2.0106444388162155,0.19231300813425789,-1.4106667743747361,1.4106667743747361,-0.19231300813425789,3.5814774786046577,0.0
739640.0783812654,4075767.5119837918,-42500.0,0.13016157029172121,1.4433695740739443,-1.3524098181776167,-0.99862258328422748,1.1597094893538153,-0.6286844471333044,2.108799924500941,-0.58530014848170253,-1.0964649704185208,1.0964649704185208,0.58530014848170253,3.8633260901839916,0.0
744640.0783812654,4075767.5119837918,-42500.0,0.34499800452215618,1.1558392327762488,-1.8230522836298022,-0.77420863186283995,1.6358826629865864,-1.0084366275266599,2.2204923850985185,-1.345119924067903,-0.6780143237578522,0.6780143237578522,1.345119924067903,4.1752052985912007,0.0
749640.0783812654,4075767.5119837918,-42500.0,0.46379373173020699,0.77238755665469905,-2.1613581312404686,-0.46615962569429398,2.0010846484516311,-1.3152381589761195,2.3238198869236721,-2.0088926674281389,-0.20763454222850963,0.20763454222850963,2.0088926674281389,4.4543045701153314,0.0
754640.0783812654,4075767.5119837918,-42500.0,0.47028837323667849,0.34567079693011538,-2.3459330944988825,-0.11533181489506231,2.2329738685947103,-1.5303417837445072,2.4006769753692296,-2.5168940723792526,0.25770082143019057,-0.25770082143019057,2.5168940723792526,4.6536322221335853,0.0
759640.0783812654,4075767.5119837918,-42500.0,0.37050135074096485,-0.071542494956488345,-2.3790374334670563,0.23606198036125919,2.3289073058880905,-1.6485929032490347,2.4379157496460908,-2.83742555283877,0.66823895800883037,-0.66823895800883037,2.83742555283877,4.7475346920027137,0.0
764640.0783812654,4075767.5119837918,-42500.0,0.18800071824129141,-0.4365311356236985,-2.282290894155409,0.5524618983991948,2.3031386588318568,-1.6769896603932428,2.4267343895407838,-2.9682784157242503,0.9897861237552128,-0.9897861237552128,2.9682784157242503,4.7301293283807926,0.0
769640.0783812654,4075767.5119837918,-42500.0,-0.04430584943863055,-0.72231651103846239,-2.0889260243058185,0.80981391408139392,2.180988037715859,-1.6310155022338648,2.3658447591842746,-2.9312709558796319,1.2067408406094209,-1.2067408406094209,2.9312709558796319,4.61049305699951,0.0
774640.0783812654,4075767.5119837918,-42500.0,-0.29259420774035311,-0.91842880879096678,-1.8355508910478633,0.99674560776297061,1.9922574896843983,-1.5302398848890173,2.261770852374474,-2.7630259827711248,1.3202872485110388,-1.3202872485110388,2.7630259827711248,4.4069442979746807,0.0
779640.0783812654,4075767.5119837918,-42500.0,-0.52838044341534884,-1.0280052103296968,-1.5556517906722025,1.1128505269798075,1.7657155717999011,-1.3944516291050686,2.1251955397553339,-2.5054123186089496,1.3436299674105037,-1.3436299674105037,2.5054123186089496,4.1418139831377943,0.0
784640.0783812654,4075767.5119837918,-42500.0,-0.73170842889291465,-1.0631616012526142,-1.2757975377340465,1.1654519735397713,1.5255542196439684,-1.2410115161220467,1.9676631564081519,-2.1980337918294781,1.2964123624714434,-1.2964123624714434,2.1980337918294781,3.837451763918081,0.0
789640.0783812654,4075767.5119837918,-42500.0,-0.89160145055231188,-1.0403356853446724,-1.0143953250204816,1.166121370222222,1.2898524059552088,-1.0835310106340585,1.7996712143636846,-1.8736959285005224,1.1998903647768859,-1.1998903647768859,1.8736959285005224,3.5136757633067903,0.0
794640.0783812654,4075767.5119837918,-42500.0,-1.004725789062322,-0.97661572290632459,-0.78225156351536396,1.1277730222196816,1.0705675076115346,-0.93161602550837885,1.62979490391242,-1.5566406457846893,1.0736012952921155,-1.0736012952921155,1.5566406457846893,3.1865137572615057,0.0
799640.0783812654,4075767.5119837918,-42500.0,-1.0732673309094198,-0.88738767707653521,-0.5840792890979295,1.0626658642945985,0.87442573426498027,-0.79128319786222945,1.4644619402496326,-1.2627632265334636,0.93358283484915605,-0.93358283484915605,1.2627632265334636,2.867905979212332,0.0
804640.0783812654,4075767.5119837918,-42500.0,-1.1027648008278887,-0.78517909550341836,-0.42026947686002802,0.98129092018563013,0.70417072377050305,-0.66568924711550737,1.3081007016899253,-1.0009323678705389,0.79181672077825582,-0.79181672077825582,1.0009323678705389,2.5660117607039568,0.0
809640.0783812654,4075767.5119837918,-42500.0,-1.1003117111986704,-0.67937641851427333,-0.28850741768744254,0.8919470893969158,0.55980806471833711,-0.5559183117517621,1.163465605703659,-0.77470878600241933,0.65645940693330362,-0.65645940693330362,0.77470878600241933,2.2858194325484797,0.0
669640.0783812654,4080767.5119837918,-42500.0,0.51345097803028417,-0.78559014569412566,0.86169906802433893,0.80708252435439387,-0.92840213465324262,0.74460215161064924,1.2956624283562457,0.52518859930416906,0.56317002936474247,-0.56317002936474247,-0.52518859930416906,2.5466847955349459,0.0
674640.0783812654,4080767.5119837918,-42500.0,0.39037746363404752,-0.78091283579021031,0.99892715118127451,0.80348848265343875,-1.0510459889517689,0.83626828729580172,1.3865249381983513,0.69606367567472727,0.51270435032912698,-0.51270435032912698,-0.69606367567472727,2.7162756555016201,0.0
679640.0783812654,4080767.5119837918,-42500.0,0.24022654104444943,-0.74397129161436293,1.1397048346818333,0.77368396179388577,-1.173927693811911,0.92827093305583286,1.4730659139400077,0.89189670337933502,0.42885352513626307,-0.42885352513626307,-0.89189670337933502,2.8730026884386826,0.0
684640.0783812654,4080767.5119837918,-42500.0,0.066585758241242396,-0.66630500418770833,1.2752844062232735,0.71135864674161275,-1.289220874397442,1.0152393388063825,1.5516380030861865,1.1076767460407111,0.3060292981053675,-0.3060292981053675,-1.1076767460407111,3.0084068167329847,0.0
689640.0783812654,4080767.5119837918,-42500.0,-0.12296362507980725,-0.54038805206719454,1.393282029335597,0.61103794734481975,-1.3862471850109723,1.0898679860224365,1.6182213716628595,1.333570489681791,0.14062945965384344,-0.14062945965384344,-1.333570489681791,3.1132321428285152,0.0
694640.0783812654,4080767.5119837918,-42500.0,-0.31621081072287782,-0.36135816360375833,1.4776282762320658,0.46936772087774375,-1.4515262885866855,1.1429403843896859,1.6688850382376761,1.5538049158404772,-0.067302571487764418,0.067302571487764418,-1.5538049158404772,3.1785124620340395,0.0
699640.0783812654,4080767.5119837918,-42500.0,-0.49637539022791399,-0.12919818488136212,1.5092894338184697,0.28670581270865214,-1.4694325334074383,1.1637484835845384,1.700547410257186,1.7461608288594426,-0.31221503600177625,0.31221503600177625,-1.7461608288594426,3.197408903833717,0.0
704640.0783812654,4080767.5119837918,-42500.0,-0.64329765116202309,0.1489639643788162,1.4680865716426614,0.068773377055708282,-1.4236900574603606,1.141059903901309,1.7120531673270181,1.8826546604153518,-0.58139027385616571,0.58139027385616571,-1.8826546604153518,3.1679411437677985,0.0
709640.0783812654,4080767.5119837918,-42500.0,-0.73607524728969143,0.45706315707111045,1.3357824357243888,-0.17208359526941697,-1.2998131000197291,1.0647068688312948,1.7054623484528053,1.9319846826647913,-0.8541297185019423,0.8541297185019423,-1.9319846826647913,3.0965379039457441,0.0
714640.0783812654,4080767.5119837918,-42500.0,-0.75710181001945742,0.76967298962445763,1.1002430099831044,-0.41662977418535119,-1.0883262477233242,0.92769795179848735,1.6871980182892878,1.8640477385289307,-1.1025356539135913,1.1025356539135913,-1.8640477385289307,3.0017192758474591,0.0
719640.0783812654,4080767.5119837918,-42500.0,-0.69686591392341368,1.0538026807555134,0.75994107370960062,-0.64006833990782586,-0.78820512057697556,0.72850227938915557,1.6682957215742129,1.6562157940236775,-1.2944852992119582,1.2944852992119582,-1.6562157940236775,2.9157913826655726,0.0
724640.0783812654,4080767.5119837918,-42500.0,-0.55821064837123147,1.2733408419875796,0.32752379985160129,-0.81525461729305582,-0.40958737548309998,0.47290215329358704,1.6626401926150358,1.3001828001534217,-1.3988406078393476,1.3988406078393476,-1.3001828001534217,2.8802471111393979,0.0
729640.0783812654,4080767.5119837918,-42500.0,-0.3583832161399817,1.3956948202621278,-0.16907199306084902,-0.91747865285315622,0.025362300912794792,0.17469399418571596,1.6825244712392964,0.80738302057192834,-1.392047717006113,1.392047717006113,-0.80738302057192834,2.9309069621596784,0.0
734640.0783812654,4080767.5119837918,-42500.0,-0.12750323302622923,1.399104020011581,-0.68909367325012316,-0.92975732442613723,0.48427110279947794,-0.14532173573062393,1.7329815196124951,0.21075088418616594,-1.2643803634710626,1.2643803634710626,-0.21075088418616594,3.0781605460471542,0.0
739640.0783812654,4080767.5119837918,-42500.0,0.09682536452693917,1.2783753290519184,-1.1851011737278627,-0.84706295780847662,0.92912667847144959,-0.46214518011237216,1.8086889420458137,-0.43865179448987834,-1.0236891579777865,1.0236891579777865,0.43865179448987834,3.2991409650365253,0.0
744640.0783812654,4080767.5119837918,-42500.0,0.27749975015409051,1.0469366844225088,-1.6114086487106352,-0.67799878110629419,1.3226436393323868,-0.75061728176452192,1.8960533671909918,-1.0799389073156771,-0.69504146529646793,0.69504146529646793,1.0799389073156771,3.5494246814277961,0.0
749640.0783812654,4080767.5119837918,-42500.0,0.38603656390994839,0.73426776128163995,-1.9324419231171326,-0.44321180897355839,1.6346955497553046,-0.98962387511168581,1.9787879164891813,-1.6535178285510905,-0.31601687561936043,0.31601687561936043,1.6535178285510905,3.7817709059055358,0.0
754640.0783812654,4080767.5119837918,-42500.0,0.40819816396656355,0.37947203327397078,-2.1285305244387787,-0.17100395519810907,1.846979453841858,-1.1652916118532628,2.0431704950636544,-2.1117442677215728,0.070948664239372849,-0.070948664239372849,2.1117442677215728,3.9589227444958954,0.0
759640.0783812654,4080767.5119837918,-42500.0,0.34552729508928814,0.023133638245761645,-2.1976347373784999,0.10842154573813517,1.9547430488203914,-1.2723837193187759,2.0800159453661902,-2.4260723894016301,0.42674250118220602,-0.42674250118220602,2.4260723894016301,4.0584025997066506,0.0
764640.0783812654,4080767.5119837918,-42500.0,0.21283429709511856,-0.30001722993814994,-2.1530389845407853,0.36832494578883052,1.9654871857617757,-1.31376627601972,2.0829048999602384,-2.5891359199656523,0.72190351081962045,-0.72190351081962045,2.5891359199656523,4.0721692782793664,0.0
769640.0783812654,4080767.5119837918,-42500.0,0.03307215176630663,-0.56579421638108474,-2.018347143918751,0.58906988193670051,1.8955206851274264,-1.2984319312250738,2.0483380502327511,-2.6120940966880162,0.93972166746540564,-0.93972166746540564,2.6120940966880162,4.0037640225321969,0.0
774640.0783812654,4080767.5119837918,-42500.0,-0.16842778523327706,-0.7620063175261409,-1.8216345688346944,0.75952783226696396,1.7656768909969496,-1.2388736373521967,1.9783398106471717,-2.5189491959768286,1.0760454576488898,-1.0760454576488898,2.5189491959768286,3.8645480674302677,0.0
779640.0783812654,4080767.5119837918,-42500.0,-0.36871697499278305,-0.88720385580109351,-1.5903623840718886,0.87652420515726981,1.5973901852043351,-1.1485690661520205,1.8794021401866354,-2.3399816109305625,1.1367306986425079,-1.1367306986425079,2.3399816109305625,3.670030839920861,0.0
784640.0783812654,4080767.5119837918,-42500.0,-0.55014974127579264,-0.94784412881922608,-1.3479344856525617,0.94305154235710964,1.4098503402306695,-1.0400628767576909,1.7597884937389678,-2.1060164719474388,1.1340326972885864,-1.1340326972885864,2.1060164719474388,3.436848587136764,0.0
789640.0783812654,4080767.5119837918,-42500.0,-0.70141794050265549,-0.95502496626541244,-1.1120497030602368,0.96603970695264962,1.2184365341628636,-0.92381888023628567,1.6276741614708088,-1.8444346612095712,1.0830705926235851,-1.0830705926235851,1.8444346612095712,3.1806343236349788,0.0
794640.0783812654,4080767.5119837918,-42500.0,-0.81715782878633536,-0.92160474568081674,-0.8945080382215399,0.95428103467588332,1.0342555980142629,-0.80777093967238722,1.4901856660302462,-1.5770751763718796,0.99904858743908509,-0.99904858743908509,1.5770751763718796,2.9147682538596049,0.0
799640.0783812654,4080767.5119837918,-42500.0,-0.89674780761430328,-0.86010561736297897,-0.70193921714035679,0.91683238463728256,0.86443810382684771,-0.69737946788889849,1.3530147009935471,-1.3196888604044108,0.89546776974244868,-0.89546776974244868,1.3196888604044108,2.6498507592354428,0.0
804640.0783812654,4080767.5119837918,-42500.0,-0.9428391476417356,-0.78145682675203165,-0.53695289711894922,0.86197858734626387,0.71283695356449728,-0.59598003949700806,1.2203754128136728,-1.0824172689095464,0.78324783258478337,-0.78324783258478337,1.0824172689095464,2.3936843327526809,0.0
674640.0783812654,4085767.5119837918,-42500.0,0.27521365627248096,-0.69615286469819238,1.0189071904139733,0.65781170281133805,-0.96863734129834977,0.7085468953913604,1.2490815843909395,0.70780423076252863,0.46856124065588156,-0.46856124065588156,-0.70780423076252863,2.446507854025731,0.0
679640.0783812654,4085767.5119837918,-42500.0,0.13966852833825263,-0.64719583953786342,1.1414427985263373,0.61996080079649774,-1.066775825580307,0.7767652443740366,1.317469120865405,0.88257487807769242,0.38422018159574434,-0.38422018159574434,-0.88257487807769242,2.5680518589183858,0.0
684640.0783812654,4085767.5119837918,-42500.0,-0.011718578491464999,-0.56198110067440921,1.2543713585853173,0.55515760102307465,-1.1549545316080057,0.83875789970626391,1.377946829433945,1.0699089310407215,0.2662512818650431,-0.2662512818650431,-1.0699089310407215,2.6689590342829184,0.0
689640.0783812654,4085767.5119837918,-42500.0,-0.17154873580747865,-0.43558621305767881,1.3463903927638905,0.46012745863209392,-1.2242485988621727,0.88884928596950319,1.4274570954088699,1.2602022755007143,0.11278442857065685,-0.11278442857065685,-1.2602022755007143,2.7422026348446686,0.0
694640.0783812654,4085767.5119837918,-42500.0,-0.32906393289699465,-0.26577239663798941,1.4036245697043241,0.33356117698752469,-1.2639379712378118,0.92021637215549335,1.4632241432188979,1.4393028349176733,-0.074812729320908322,0.074812729320908322,-1.4393028349176733,2.7814760054299228,0.0
699640.0783812654,4085767.5119837918,-42500.0,-0.47050758393601466,-0.05457313333418172,1.4104792008789298,0.17719439235909598,-1.2621851281439507,0.9252948882410178,1.4833658378911638,1.5884753537317287,-0.2906398577990813,0.2906398577990813,-1.5884753537317287,2.7826879008301475,0.0
704640.0783812654,4085767.5119837918,-42500.0,-0.58032128631871727,0.19019721470432902,1.3513052154138492,-0.0031840504484157983,-1.2072856640053446,0.89653542866547309,1.487693436468116,1.6853117034327822,-0.52324928968974727,0.52324928968974727,-1.6853117034327822,2.7460376014137955,0.0
709640.0783812654,4085767.5119837918,-42500.0,-0.64329969257694508,0.45397848941403085,1.2129033393137039,-0.19710480564044316,-1.0894989761045886,0.82751722016507301,1.4785894459002586,1.7059020743304225,-0.75535542292857705,0.75535542292857705,-1.7059020743304225,2.6785297553304628,0.0
714640.0783812654,4085767.5119837918,-42500.0,-0.64755530190700661,0.71560435049185167,0.98762569551909196,-0.38954200481053786,-0.90327924945697413,0.71431661493268162,1.461677424458566,1.6283464818796334,-0.9647359149916388,0.9647359149916388,-1.6283464818796334,2.5963133131881828,0.0
719640.0783812654,4085767.5119837918,-42500.0,-0.58776657901504015,0.94902728157729466,0.67648594586329791,-0.56210238309662131,-0.64949141227966856,0.55688608314254406,1.4457464231906503,1.4372575947239661,-1.1266319428351002,1.1266319428351002,-1.4372575947239661,2.5252300964589436,0.0
724640.0783812654,4085767.5119837918,-42500.0,-0.46782289942255101,1.1267716007048887,0.2913903390693679,-0.695370301667249,-0.33699703802946829,0.36007769013556429,1.4412368521899919,1.1283714728665564,-1.2175641251028895,1.2175641251028895,-1.1283714728665564,2.4966846698479475,0.0
729640.0783812654,4085767.5119837918,-42500.0,-0.30184139565540169,1.2246845575052332,-0.14446545594599242,-0.77212581451492468,0.017047178568161261,0.13391289044041274,1.4570164715753129,0.71195582758352893,-1.2199268272296668,1.2199268272296668,-0.71195582758352893,2.5367371127851106,0.0
734640.0783812654,4085767.5119837918,-42500.0,-0.1127997938358984,1.2269304384187758,-0.5986706229520723,-0.78074463150543827,0.38861925365017785,-0.10717945989584692,1.4965594590266629,0.21366523409714472,-1.1262138457981063,1.1262138457981063,-0.21366523409714472,2.6526720530444425,0.0
739640.0783812654,4085767.5119837918,-42500.0,0.071271823539467788,1.1297979205327953,-1.0340797577955312,-0.71784036585111077,0.74995758219796926,-0.34616172918547677,1.5559512971614269,-0.32797655663956393,-0.94154567656734145,0.94154567656734145,0.32797655663956393,2.8279260197605369,0.0
744640.0783812654,4085767.5119837918,-42500.0,0.22269898096724283,0.94304220688617069,-1.414780468427667,-0.58929672219684548,1.0737706859753147,-0.56588457250036639,1.6252735883541916,-0.86726436544044738,-0.68351572355595736,0.68351572355595736,0.86726436544044738,3.029960685473986,0.0
749640.0783812654,4085767.5119837918,-42500.0,0.31965021892158524,0.68820163452946992,-1.7120101585485958,-0.40929136513471337,1.3374900460849908,-0.75167989492218534,1.6923326746854883,-1.3588467954445094,-0.37919534679700811,0.37919534679700811,1.3588467954445094,3.223177742986211,0.0
754640.0783812654,4085767.5119837918,-42500.0,0.35009401962882658,0.39434059533562776,-1.9084337214276836,-0.19756645541925236,1.526468449236652,-0.89339433503396337,1.7464406113487623,-1.765097896234753,-0.060101247090604604,0.060101247090604604,1.765097896234753,3.3782668202011172,0.0
759640.0783812654,4085767.5119837918,-42500.0,0.31318713256872233,0.092509501162180457,-1.9997627115039083,0.024241758828483725,1.6353850638575282,-0.98639919512438679,1.7805552378556535,-2.0614040977035826,0.24341729971120274,-0.24341729971120274,2.0614040977035826,3.4761578709287302,0.0
764640.0783812654,4085767.5119837918,-42500.0,0.21800132190838342,-0.18949836711174836,-1.9936124990812814,0.23618577066878468,1.6677237955225521,-1.0314580055898337,1.7905255474806236,-2.2382553970236665,0.50685847675904883,-0.50685847675904883,2.2382553970236665,3.5082831712213616,0.0
769640.0783812654,4085767.5119837918,-42500.0,0.080352736921989784,-0.43084255441795588,-1.9063268536661231,0.42265484059653191,1.6337632960017938,-1.0336725641809432,1.7730831262093396,-2.3001397742913721,0.71430897625997569,-0.71430897625997569,2.3001397742913721,3.4749203765087917,0.0
774640.0783812654,4085767.5119837918,-42500.0,-0.081083442279628437,-0.61923766314005468,-1.7589232815568145,0.5736776813200124,1.54783379920806,-1.0009302083439071,1.7275382592286028,-2.2621454290363436,0.85900350697653094,-0.85900350697653094,2.2621454290363436,3.3827446778572918,0.0
779640.0783812654,4085767.5119837918,-42500.0,-0.24827812397596385,-0.75062973924028842,-1.5732575570863103,0.68493267587063089,1.425596438151985,-0.94229553996746251,1.6571588893451095,-2.1455697939272658,0.94211986271888348,-0.94211986271888348,2.1455697939272658,3.2422801869351798,0.0
784640.0783812654,4085767.5119837918,-42500.0,-0.40629651168345132,-0.82756867352460461,-1.3691289883817526,0.75683204984240038,1.2818749846763209,-0.8666738517952669,1.5675368192488526,-1.9737159384474845,0.9705660885635653,-0.9705660885635653,1.9737159384474845,3.0656698829290643,0.0
789640.0783812654,4085767.5119837918,-42500.0,-0.54450111345103669,-0.85701720058739117,-1.162585893885858,0.79314999731115388,1.1292689779843528,-0.78190458124741113,1.4648370645576421,-1.7686329679201209,0.95451960162333571,-0.95451960162333571,1.7686329679201209,2.8649773484244148,0.0
794640.0783812654,4085767.5119837918,-42500.0,-0.65668797895719477,-0.84820472478416442,-0.96532656388709392,0.79960186509256603,0.97752450739414476,-0.69429394442669823,1.3548048623423812,-1.5490777180774633,0.90526727601982104,-0.90526727601982104,1.5490777180774633,2.6510697866832102,0.0
799640.0783812654,4085767.5119837918,-42500.0,-0.74051023282849837,-0.81089319899289258,-0.78489726432907414,0.78263828663695878,0.83349131327809112,-0.60850307711533491,1.2422995930236593,-1.3296102837502284,0.83362230931939507,-0.83362230931939507,1.3296102837502284,2.4330208003802287,0.0
679640.0783812654,4090767.5119837918,-42500.0,0.062056464803999942,-0.55245774680535997,1.1174656444341613,0.4917332190789695,-0.9583955519258831,0.64707275081563209,1.1750797758344189,0.85809044194477879,0.3372071223309987,-0.3372071223309987,-0.85809044194477879,2.2880779044787021,0.0
684640.0783812654,4090767.5119837918,-42500.0,-0.068057040022227594,-0.46384004701639381,1.2083965634040792,0.42794377472099565,-1.0239391430387372,0.69033704461327094,1.221064264656222,1.0182591537338415,0.22540838154448922,-0.22540838154448922,-1.0182591537338415,2.3614921180720732,0.0
689640.0783812654,4090767.5119837918,-42500.0,-0.20124188045512942,-0.34078617798432925,1.2766851005107354,0.340472742198068,-1.0710777595546577,0.72273023897247834,1.2572653717921822,1.1761940772126818,0.084432339667347645,-0.084432339667347645,-1.1761940772126818,2.4104403615267351,0.0
694640.0783812654,4090767.5119837918,-42500.0,-0.32832052969555037,-0.18289906758207988,1.3106819700429277,0.22928679645108285,-1.0914515021705629,0.73927097460647617,1.281798201736722,1.3195645631783233,-0.083535218692474711,0.083535218692474711,-1.3195645631783233,2.430672402150273,0.0
699640.0783812654,4090767.5119837918,-42500.0,-0.43824964600982047,0.0065988186752101849,1.2979153375897481,0.09676897776891405,-1.0762422646396825,0.7346759212082028,1.2936399389726607,1.4328852001487968,-0.27265504254972994,0.27265504254972994,-1.4328852001487968,2.4200715926037648,0.0
704640.0783812654,4090767.5119837918,-42500.0,-0.5192015188437652,0.21992488083814082,1.2265252236719926,-0.051694461518661639,-1.017171587662137,0.7039263041609557,1.2932112059122334,1.4984651941181972,-0.47285598367051263,0.47285598367051263,-1.4984651941181972,2.3802076608438996,0.0
709640.0783812654,4090767.5119837918,-42500.0,-0.56025836313916122,0.44429591511961875,1.087228010168289,-0.2074535189626257,-0.90783985272934342,0.64303309264441555,1.2829589377266315,1.4982325631116682,-0.66984598930862116,0.66984598930862116,-1.4982325631116682,2.3180902622744317,0.0
714640.0783812654,4090767.5119837918,-42500.0,-0.55354808761181817,0.66234027872658874,0.87557730185143157,-0.35887869563617786,-0.74524821605493519,0.54991459385145813,1.267717041655867,1.4164027420459993,-0.8459934681628567,0.8459934681628567,-1.4164027420459993,2.2475971910911552,0.0
719640.0783812654,4090767.5119837918,-42500.0,-0.49641826299917385,0.85361833475104276,0.59407316477254546,-0.4923466549698825,-0.53120832826944808,0.4252231890996494,1.2544691719719185,1.2426746446529433,-0.98222235204828601,0.98222235204828601,-1.2426746446529433,2.1893624075505582,0.0
724640.0783812654,4090767.5119837918,-42500.0,-0.39305622556863784,0.99725712064156313,0.253517365405866,-0.59392902405655723,-0.27324844813234128,0.2729018344514933,1.2510910880464463,0.97531987008186138,-1.0607964050093772,1.0607964050093772,-0.97531987008186138,2.1672058384074266,0.0
729640.0783812654,4090767.5119837918,-42500.0,-0.25493155498039372,1.0753389469550236,-0.12697868010401958,-0.65156048052223847,0.01536806921517936,0.10025114680607426,1.2640065035495192,0.62331364780971621,-1.0685264755988952,1.0685264755988952,-0.62331364780971621,2.2001007491798785,0.0
734640.0783812654,4090767.5119837918,-42500.0,-0.099649316551144868,1.0763212355311442,-0.52168141591346018,-0.65723896627166889,0.31673949127422529,-0.082629860890090112,1.2955938261925695,0.20668996208883933,-0.99964668785485089,0.99964668785485089,-0.20668996208883933,2.2929994788240116,0.0
739640.0783812654,4090767.5119837918,-42500.0,0.051754205292599206,0.99757711712555175,-0.9015103828069575,-0.60869225398190741,0.61047591728327155,-0.2640087529007783,1.3429028042326521,-0.24533314724327093,-0.85752625137455163,0.85752625137455163,0.24533314724327093,2.433609583555095,0.0
744640.0783812654,4090767.5119837918,-42500.0,0.1785105191784136,0.84627406236837988,-1.2382727153816513,-0.51001750975035465,0.8765084770603061,-0.43208432715790024,1.3986080138313657,-0.69828417436445434,-0.6546139833602449,0.6546139833602449,0.69828417436445434,2.5978288119983795,0.0
749640.0783812654,4090767.5119837918,-42500.0,0.26386295177380731,0.63825404351557757,-1.5088632127980834,-0.37106746731429396,1.0979242223575183,-0.57660641751650787,1.453530971017639,-1.1175881201853786,-0.4105084323538456,0.4105084323538456,1.1175881201853786,2.7587162659501652,0.0
754640.0783812654,4090767.5119837918,-42500.0,0.29785591761204727,0.39518801999032549,-1.6984076119864573,-0.20572842171334621,1.2631621803616759,-0.69017855857502908,1.499298667628042,-1.4736875245852943,-0.14862493412952538,0.14862493412952538,1.4736875245852943,2.8932909222134802,0.0
759640.0783812654,4090767.5119837918,-42500.0,0.27849443747635838,0.14079048070390723,-1.8016590523643286,-0.029556579576584571,1.3671032923592008,-0.76896970447607615,1.53015737988073,-1.7459140100544555,0.10765748703509959,-0.10765748703509959,1.7459140100544555,2.9856882570195795,0.0
764640.0783812654,4090767.5119837918,-42500.0,0.21114885403476552,-0.10291190122131362,-1.8225098242269751,0.14261772093120481,1.4109294158103911,-0.81274409471026765,1.5432027976854363,-1.9243382585532132,0.33840602057353841,-0.33840602057353841,1.9243382585532132,3.0276778361872809,0.0
769640.0783812654,4090767.5119837918,-42500.0,0.10660786610137121,-0.31841626397002187,-1.772010293557803,0.298583825734691,1.400967137672493,-0.82430718318044061,1.5363904187417052,-2.009479129593382,0.52939191330619717,-0.52939191330619717,2.009479129593382,3.0177351638385201,0.0
774640.0783812654,4090767.5119837918,-42500.0,-0.021515199287357747,-0.49424010493544751,-1.6656010960999013,0.42983900409530029,1.3469471166239086,-0.80859174711957682,1.507996432490331,-2.0103332188866521,0.6729259453839137,-0.6729259453839137,2.0103332188866521,2.9594578276251284,0.0
779640.0783812654,4090767.5119837918,-42500.0,-0.15930690403915779,-0.62507871532755344,-1.5202952767237281,0.53183753041528248,1.2601502670636875,-0.77164106196614313,1.4589373128921355,-1.9414999717207788,0.76742543435113098,-0.76742543435113098,1.9414999717207788,2.8598116312956492,0.0
784640.0783812654,4090767.5119837918,-42500.0,-0.29450139257795893,-0.71094899234945186,-1.3523591587449437,0.60357459683912784,1.151810724078683,-0.71969978312210303,1.3926625354571909,-1.8201866051556959,0.81613298200396145,-0.81613298200396145,1.8201866051556959,2.7275104818289768,0.0
789640.0783812654,4090767.5119837918,-42500.0,-0.41763378072953394,-0.75577979745235302,-1.1757622264430232,0.64677591798269862,1.0319779919563201,-0.6585363127488002,1.3136580782824556,-1.663670474045414,0.8254756530085976,-0.8254756530085976,1.663670474045414,2.5717037167158421,0.0
794640.0783812654,4090767.5119837918,-42500.0,-0.52243200325576133,-0.7658749465694874,-1.0014098822224093,0.66495650226533565,0.90887637726126558,-0.59303076120231857,1.2264345901113871,-1.4875057542106038,0.80346808546092863,-0.80346808546092863,1.4875057542106038,2.4010315092305734,0.0
689640.0783812654,4095767.5119837918,-42500.0,-0.21662033246162357,-0.25795577986027474,1.1930747282093934,0.24690924250455804,-0.93057778684241632,0.58673964321089023,1.1067688898425652,1.0871803051950661,0.057604423568166307,-0.057604423568166307,-1.0871803051950661,2.1167371004053748,0.0
694640.0783812654,4095767.5119837918,-42500.0,-0.31827263646844361,-0.11343355433939574,1.2079826938212652,0.15045163919245863,-0.93687567300511954,0.59344561496093873,1.1229604998535019,1.2002879560897615,-0.091877408633602276,0.091877408633602276,-1.2002879560897615,2.1234140771937011,0.0
699640.0783812654,4095767.5119837918,-42500.0,-0.4029396793517207,0.054784962643729666,1.1804374128384827,0.038961121275153318,-0.91304455902112358,0.58331943262556407,1.1289535624488056,1.284498374587814,-0.2569085397262636,0.2569085397262636,-1.284498374587814,2.1053928732531491,0.0
704640.0783812654,4095767.5119837918,-42500.0,-0.46173935826933638,0.23937875816985843,1.1016326239278988,-0.082793315773561263,-0.8533182563845898,0.55305874634340513,1.1255246704385373,1.3259950117788482,-0.4287798335029353,0.4287798335029353,-1.3259950117788482,2.0650344143726485,0.0
709640.0783812654,4095767.5119837918,-42500.0,-0.48692492218314765,0.42937334279224681,0.96523577637534852,-0.20779040264836185,-0.75360275279753919,0.50023280436602346,1.1150286809051291,1.311227353998484,-0.59575976242393169,0.59575976242393169,-1.311227353998484,2.0090061477314407,0.0
714640.0783812654,4095767.5119837918,-42500.0,-0.47340219067890721,0.61065288147211816,0.76900803593760014,-0.32708141939833307,-0.61250227434002635,0.42384107286474859,1.1015646775154964,1.2289066923356744,-0.74388840927541577,0.74388840927541577,-1.2289066923356744,1.9491021360357044,0.0
719640.0783812654,4095767.5119837918,-42500.0,-0.42017160604142989,0.7672354261915092,0.5162125422645405,-0.43057191592124877,-0.43220646480746105,0.32480584687436853,1.0906732169335029,1.0722587491053752,-0.85845155322516031,0.85845155322516031,-1.0722587491053752,1.9017770656441495,0.0
724640.0783812654,4095767.5119837918,-42500.0,-0.3313052084922673,0.88325960087136757,0.21640883261324326,-0.50822863660889517,-0.21899229829484998,0.2062684066362441,1.0883142088014937,0.84108743828002952,-0.92600950778629665,0.92600950778629665,-0.84108743828002952,1.8851376433333624,0.0
729640.0783812654,4095767.5119837918,-42500.0,-0.2160810508365654,0.94539983763810931,-0.11473109965502201,-0.55154503057697601,0.016882149555498726,0.073568144800704949,1.0991592898599396,0.54309922983422687,-0.93664554387990695,0.93664554387990695,-0.54309922983422687,1.9130122528363518,0.0
734640.0783812654,4095767.5119837918,-42500.0,-0.088054483611098244,0.94521835515632247,-0.45676957135851859,-0.55497662692785399,0.26200660718849089,-0.066161522995481878,1.1248202524646744,0.19399239537181961,-0.88593680089400229,0.88593680089400229,-0.19399239537181961,1.9886566207530001,0.0
739640.0783812654,4095767.5119837918,-42500.0,0.03687303700740769,0.88087155183190158,-0.78690195839305588,-0.5170029504967566,0.50130748868960329,-0.20475548903483337,1.1630256565655073,-0.18393849409346352,-0.77612133224589053,0.77612133224589053,0.18393849409346352,2.1027481706831717,0.0
744640.0783812654,4095767.5119837918,-42500.0,0.14301015306658296,0.75768644048501788,-1.0829770825627572,-0.44052618555254147,0.71994086096549137,-0.33401088954228225,1.2082972523849804,-0.56454437429260751,-0.61608682908621049,0.61608682908621049,0.56454437429260751,2.2372243482209906,0.0
749640.0783812654,4095767.5119837918,-42500.0,0.21745567658075976,0.58740498196397173,-1.326493178491762,-0.33247740896006844,0.90520006020090826,-0.44671261479966584,1.2536825519542856,-0.92137445834027631,-0.42011174207709062,0.42011174207709062,0.92137445834027631,2.3715764126800831,0.0
754640.0783812654,4095767.5119837918,-42500.0,0.25207356154357502,0.38626161226552802,-1.5049034600624476,-0.20271359714727233,1.0480291361795977,-0.53747486626903818,1.292620156210984,-1.2312546324842732,-0.20563748482085831,0.20563748482085831,1.2312546324842732,2.4877910376034666,0.0
759640.0783812654,4095767.5119837918,-42500.0,0.24442173722071997,0.17238097150460049,-1.6127674412772035,-0.062479559860770209,1.1438467734537974,-0.60323638298851967,1.3203283841281195,-1.4771107254675955,0.0093850700133054632,-0.0093850700133054632,1.4771107254675955,2.5728248003316794,0.0
764640.0783812654,4095767.5119837918,-42500.0,0.19751810862189978,-0.036875825762663426,-1.6516152693397721,0.077200856120291955,1.1925791697926249,-0.64334439387767006,1.3344162793681722,-1.649505664587773,0.20896099585960148,-0.20896099585960148,1.649505664587773,2.6191929487453574,0.0
769640.0783812654,4095767.5119837918,-42500.0,0.11865329794227762,-0.22705292231047902,-1.6287314623653846,0.20686717608732491,1.198005255275314,-0.65926898936603295,1.3338780478571726,-1.7467464058955375,0.38083822158103064,-0.38083822158103064,1.7467464058955375,2.6244767069490762,0.0
774640.0783812654,4095767.5119837918,-42500.0,0.017669644548335334,-0.38789000635407977,-1.55528685787452,0.31948344183231919,1.1666592482144225,-0.6540666644540184,1.3172085400559943,-1.7737849966084414,0.5173769705994824,-0.5173769705994824,1.7737849966084414,2.5903042710121085,0.0
779640.0783812654,4095767.5119837918,-42500.0,-0.094831092219752749,-0.51369550717468615,-1.4443052764882778,0.41075966845426654,1.106581663279897,-0.63174139694792342,1.2838350998737791,-1.7403697180252626,0.61552992317364374,-0.61552992317364374,1.7403697180252626,2.5211496037154055,0.0
784640.0783812654,4095767.5119837918,-42500.0,-0.20898622358812197,-0.60296068805745795,-1.3088648194356209,0.47900854651892344,1.0261691393058887,-0.59663567055952682,1.2355083207875812,-1.6589554859390174,0.67615505084726135,-0.67615505084726135,1.6589554859390174,2.4231672113700253,0.0
789640.0783812654,4095767.5119837918,-42500.0,-0.31667942294817952,-0.65749124632646128,-1.1607713821400654,0.5246886656917934,0.93328286918717496,-0.55294057227257087,1.1753372618349684,-1.54279198356624,0.70296406372702447,-0.70296406372702447,1.54279198356624,2.3031964693219589,0.0
699640.0783812654,4100767.5119837918,-42500.0,-0.36693920460529272,0.0913235124184478,1.0641464956760744,-0.0016279006160684431,-0.7720232445449976,0.46363178550196738,0.98657634921674131,1.146330224857,-0.24255920450948093,0.24255920450948093,-1.146330224857,1.8336640249627134,0.0
704640.0783812654,4100767.5119837918,-42500.0,-0.40892209296717763,0.25022891635385192,0.98172996875305829,-0.10127581949652691,-0.71397856160087558,0.43525014710495058,0.98138836383437278,1.1696462307981745,-0.38991227377487286,0.38991227377487286,-1.1696462307981745,1.7945751941425463,0.0
709640.0783812654,4100767.5119837918,-42500.0,-0.42279747165828507,0.41065261671602693,0.85083650456635385,-0.20161686931619313,-0.6241979178863476,0.38995664917739764,0.97121643692470083,1.1451838168440993,-0.53143997873386228,0.53143997873386228,-1.1451838168440993,1.7447880749887534,0.0
714640.0783812654,4100767.5119837918,-42500.0,-0.40536759091024838,0.56120169075752446,0.67069747115359624,-0.29578708624324102,-0.50226055965189642,0.32736744142326057,0.95950189029422916,1.0649257373370042,-0.65609622093952491,0.65609622093952491,-1.0649257373370042,1.6942417480975269,0.0
719640.0783812654,4100767.5119837918,-42500.0,-0.35661949988513841,0.68939968145635433,0.44486580340758874,-0.37629309617708401,-0.35040822491709256,0.2484504364795562,0.9506369697892969,0.92451646873421256,-0.75250571340456862,0.75250571340456862,-0.92451646873421256,1.6560485123216235,0.0
724640.0783812654,4100767.5119837918,-42500.0,-0.28030242480227796,0.78317375305432302,0.18165884090845866,-0.43587140084223702,-0.17381061002489082,0.15567779724421282,0.9491461739799103,0.7246388949967042,-0.81044306096077579,0.81044306096077579,-0.7246388949967042,1.6440031602582477,0.0
729640.0783812654,4100767.5119837918,-42500.0,-0.18390588931265978,0.8325783962314498,-0.1061045404743403,-0.46848361605129651,0.019584802992292906,0.0529729833920283,0.95843944941662396,0.47183155511052433,-0.82241729469174407,0.82241729469174407,-0.47183155511052433,1.6681957022697955,0.0
734640.0783812654,4100767.5119837918,-42500.0,-0.077923151026761103,0.83142202289072453,-0.40216568416738008,-0.47026122148862082,0.21967388254118139,-0.054578760564976618,0.97959473284473164,0.17844519967254446,-0.78503281548914883,0.78503281548914883,-0.17844519967254446,1.7306767054896774,0.0
739640.0783812654,4100767.5119837918,-42500.0,0.025536761037849312,0.77842117077516249,-0.68858887717830786,-0.44018915764104227,0.41523427607477209,-0.16123449416690544,1.0108311739142488,-0.13839763399504063,-0.69979074321374668,0.69979074321374668,0.13839763399504063,1.8242415794060829,0.0
744640.0783812654,4100767.5119837918,-42500.0,0.11453385516199437,0.67758050727689068,-0.94792982842208839,-0.38035636702476189,0.59521431279128489,-0.26123369468422541,1.0480018497652821,-0.45873372879772556,-0.57309637813867331,0.57309637813867331,0.45873372879772556,1.9351976950843979,0.0
749640.0783812654,4100767.5119837918,-42500.0,0.17909339769258451,0.53767437754788017,-1.1653844972205998,-0.29569762529986793,0.75002886806676872,-0.34945606765843568,1.0858011425858012,-0.76223396725629133,-0.41542651350123416,0.41542651350123416,0.76223396725629133,2.047824369700538,0.0
754640.0783812654,4100767.5119837918,-42500.0,0.21261254970963478,0.37093446649752043,-1.3304826871562443,-0.19327706387650564,0.87260866914407964,-0.42197066839192432,1.1190831310402718,-1.0307215920085051,-0.23982632773834711,0.23982632773834711,1.0307215920085051,2.1479756291570284,0.0
759640.0783812654,4100767.5119837918,-42500.0,0.21258774604434935,0.19124765997897716,-1.4380138537393967,-0.081275983843589819,0.95901535129955728,-0.47637924421035444,1.1438885818204592,-1.2502313389784381,-0.060072305712685625,0.060072305712685625,1.2502313389784381,2.2250004111534123,0.0
764640.0783812654,4100767.5119837918,-42500.0,0.18056512772049388,0.012263971644517858,-1.488066056707678,0.032094624856033968,1.0085406449273946,-0.51190684314191803,1.1580632439869767,-1.4122399212977972,0.11110547596577369,-0.11110547596577369,1.4122399212977972,2.2723052705127267,0.0
769640.0783812654,4100767.5119837918,-42500.0,0.12142306124892595,-0.15420499864322648,-1.4852965673165168,0.13954168612095852,1.0233459253817079,-0.5292603646831876,1.1610733139013192,-1.5139462920500564,0.26340394525186306,-0.26340394525186306,1.5139462920500564,2.2871237162591438,0.0
774640.0783812654,4100767.5119837918,-42500.0,0.042233969340408198,-0.29925015538824595,-1.4376796829263787,0.23535112350289389,1.0077720657322777,-0.53031358651445404,1.1521807997500362,-1.5576916658290383,0.38974082222814432,-0.38974082222814432,1.5576916658290383,2.2698612749047471,0.0
779640.0783812654,4100767.5119837918,-42500.0,-0.048996291901765174,-0.41730631082473196,-1.3550578762508876,0.31570326506589502,0.96750411796710212,-0.51770692867543255,1.130178206234532,-1.5497905094328615,0.48643470154487345,-0.48643470154487345,1.5497905094328615,2.2232754096160825,0.0
709640.0783812654,4105767.5119837918,-42500.0,-0.36711172564908862,0.38945050606439191,0.74608800346382331,-0.19147133081096715,-0.5165063616785438,0.30483910353622518,0.84815539546331076,0.99921045590092294,-0.47544864270823434,0.47544864270823434,-0.99921045590092294,1.5192272506987969,0.0
714640.0783812654,4105767.5119837918,-42500.0,-0.34776159469744417,0.51447243396740139,0.58192684780493431,-0.26601512345552009,-0.41141254346225908,0.25356447260815085,0.83808122383175654,0.92263888143210571,-0.58051531268615031,0.58051531268615031,-0.92263888143210571,1.4768162989372582,0.0
719640.0783812654,4105767.5119837918,-42500.0,-0.30365278253118494,0.61953755012050893,0.3808936232675722,-0.32887664652636062,-0.28342353968589112,0.19044597421133116,0.83093160152094603,0.79730940377646187,-0.66177948979521495,0.66177948979521495,-0.79730940377646187,1.4461847798715948,0.0
724640.0783812654,4105767.5119837918,-42500.0,-0.23812605004490481,0.69543228183683203,0.15014040860426331,-0.37476810057567056,-0.13676359652146708,0.11741517464654019,0.83015243552913298,0.62436761618321823,-0.71142448691718163,0.71142448691718163,-0.62436761618321823,1.437866503067103,0.0
729640.0783812654,4105767.5119837918,-42500.0,-0.1572246150159296,0.73470217018480033,-0.09985718032760281,-0.39937246468466664,0.022393315371257827,0.037370431320989946,0.83824133373139553,0.40931787628014582,-0.7237616419579872,0.7237616419579872,-0.40931787628014582,1.4592313562275907,0.0
734640.0783812654,4105767.5119837918,-42500.0,-0.069117149594048397,0.73278373632939997,-0.35613092396771795,-0.39997096482254046,0.18638694216394044,-0.046029790496027782,0.85590599619288665,0.16192072433586913,-0.69617754532709852,0.69617754532709852,-0.16192072433586913,1.5114903011011696,0.0
739640.0783812654,4105767.5119837918,-42500.0,0.016906541431394587,0.68879135483621834,-0.60452096660790355,-0.3758878597404306,0.34680058858564822,-0.12870373599468141,0.88172909079789696,-0.10458478885016975,-0.62968882077730182,0.62968882077730182,0.10458478885016975,1.58898579424624,0.0
744640.0783812654,4105767.5119837918,-42500.0,0.091694602685181134,0.60576870422669438,-0.83124354575115966,-0.32864899381959189,0.4953478096769427,-0.20656411271831279,0.912534252475661,-0.37485444485380426,-0.52895581656043822,0.52895581656043822,0.37485444485380426,1.6812212081508877,0.0
749640.0783812654,4105767.5119837918,-42500.0,0.14749654120688682,0.49032809287053369,-1.024442846126965,-0.26180950576601825,0.62476182548642767,-0.27594575107596625,0.94424028451684683,-0.63318010416711878,-0.4017247547674952,0.4017247547674952,0.63318010416711878,1.7760563576494124,0.0
754640.0783812654,4105767.5119837918,-42500.0,0.17897214285766297,0.35174465444867858,-1.1754393443552771,-0.18048164578697046,0.72952852475802199,-0.33396788124510546,0.97280232633043762,-0.86527649303806187,-0.25780305145922838,0.25780305145922838,0.86527649303806187,1.8623467637981046,0.0
759640.0783812654,4105767.5119837918,-42500.0,0.18375307992905154,0.20069689111517625,-1.2794583729203555,-0.090660376562891554,0.80633962622951005,-0.3787708663762076,0.99496208866145253,-1.0597827901248058,-0.10777838359712688,0.10777838359712688,1.0597827901248058,1.9314181011914326,0.0
764640.0783812654,4105767.5119837918,-42500.0,0.16248317952745925,0.047914915582615451,-1.3357565804687237,0.0015160077179727539,0.85421405586645416,-0.40959919485025775,1.0087617202091941,-1.2092347275478432,0.038261750755418711,-0.038261750755418711,1.2092347275478432,1.9775801966506623,0.0
769640.0783812654,4105767.5119837918,-42500.0,0.11838833209778302,-0.097014139586809142,-1.347187382954703,0.090436029048872033,0.87430130686676177,-0.42673320312140417,1.0137317937054278,-1.3103912089578889,0.17178364357636944,-0.17178364357636944,1.3103912089578889,1.9980321224641096,0.0
729640.0783812654,4110767.5119837918,-42500.0,-0.13504871725907047,0.649786460215944,-0.095101542713351583,-0.34172807279164957,0.024784209452252359,0.025713794850365033,0.7354243380167832,0.35496201900332885,-0.63863385040669463,0.63863385040669463,-0.35496201900332885,1.2805712334260764,0.0
734640.0783812654,4110767.5119837918,-42500.0,-0.06148277455146077,0.64730819572901366,-0.31713272600435283,-0.34151244529955477,0.15978349719402057,-0.039435038365842119,0.75033811487312341,0.14557378702453683,-0.61828400340728096,0.61828400340728096,-0.14557378702453683,1.3247595074647429,0.0
739640.0783812654,4110767.5119837918,-42500.0,0.010342689102227966,0.61052479277501226,-0.532653768910891,-0.32202873888763606,0.29191367219054409,-0.10398569330888149,0.77189931412560964,-0.079414789096115573,-0.56616668295060113,0.56616668295060113,0.079414789096115573,1.3895344887993375,0.0
744640.0783812654,4110767.5119837918,-42500.0,0.073361414036726053,0.54177378811024135,-0.73072908170191031,-0.284406676555089,0.41491621632084297,-0.16500840677720363,0.79764776230970591,-0.30812768499824467,-0.48570489721576698,0.48570489721576698,0.30812768499824467,1.4667635032887807,0.0
749640.0783812654,4110767.5119837918,-42500.0,0.12151833234442942,0.44608052277205917,-0.90184402122599538,-0.23123679851369391,0.52325062270333822,-0.21985622172928063,0.82441807467505401,-0.52835643816647204,-0.3826711244559502,0.3826711244559502,0.52835643816647204,1.5469989455707329,0.0
709640.0783812654,3920767.5119837918,-47500.0,0.14613846876722106,0.051706144936503405,-1.0262821140120733,-0.048596225313506596,-0.87441434289448405,-0.57395684082961018,0.95066762191674747,0.051777647210463573,-0.70917418786050734,0.70917418786050734,-0.051777647210463573,1.8324190023270517,0.0
714640.0783812654,3920767.5119837918,-47500.0,0.16668346233955347,0.17959281833286633,-0.97758771239428255,0.040791832236489765,-0.84029724037934028,-0.55618096485947799,0.93874233960308073,0.13507146369894102,-0.79523416771488398,0.79523416771488398,-0.13507146369894102,1.7957693595340856,0.0
719640.0783812654,3920767.5119837918,-47500.0,0.16538745243821767,0.30665568730619552,-0.89195365182708997,0.13005216251179896,-0.7800216086824544,-0.52336163551904968,0.9184762043781961,0.2224972715181357,-0.86179003314033276,0.86179003314033276,-0.2224972715181357,1.7384641935734169,0.0
724640.0783812654,3920767.5119837918,-47500.0,0.14138009925408984,0.42447423342232887,-0.76983931396576688,0.21374997263348153,-0.69384633922596373,-0.47554538306773986,0.89162986540520484,0.30861161436301993,-0.90140834503148981,0.90140834503148981,-0.30861161436301993,1.6645221230304403,0.0
729640.0783812654,3920767.5119837918,-47500.0,0.096143158781000632,0.52454135091216569,-0.61465895850712449,0.28637263207134861,-0.58397653145711237,-0.41384938878354449,0.86075915884804033,0.38736979627059659,-0.90790801354312034,0.90790801354312034,-0.38736979627059659,1.5803078097096614,0.0
734640.0783812654,3920767.5119837918,-47500.0,0.033551404403875468,0.59926100243250746,-0.43273816359298339,0.34294433578596212,-0.45454371553689127,-0.34046128462439784,0.82906729985660776,0.45277996181691671,-0.87725942306441118,0.87725942306441118,-0.45277996181691671,1.4942947851876593,0.0
739640.0783812654,3920767.5119837918,-47500.0,-0.040473081095988982,0.6429109430411788,-0.23284814581155622,0.37962383534866229,-0.3113200764842381,-0.25849566799519313,0.8000090502967836,0.49962649034126383,-0.8082745245374402,0.8082745245374402,-0.49962649034126383,1.4162297433204769,0.0
744640.0783812654,3920767.5119837918,-47500.0,-0.1186597063356204,0.65238634288327058,-0.025362315412034861,0.39417501365605723,-0.16119203251213751,-0.17171893834870341,0.77667058698800528,0.52413235725289808,-0.7029352714085314,0.7029352714085314,-0.52413235725289808,1.3554940916567884,0.0
749640.0783812654,3920767.5119837918,-47500.0,-0.19332132708994257,0.62757550839554854,0.17883354686430109,0.38621967222445436,-0.011471922312462716,-0.084182593543879761,0.76107225062339845,0.52443237278910193,-0.56627529272016275,0.56627529272016275,-0.52443237278910193,1.3188020240352585,0.0
754640.0783812654,3920767.5119837918,-47500.0,-0.25734172243310599,0.57129671540094629,0.36948895267825727,0.35722674490140832,0.13083729739688693,0.00017486800630364327,0.75366426613488935,0.50076677841415362,-0.40582509497170932,0.40582509497170932,-0.50076677841415362,1.3081055154104564,0.0
759640.0783812654,3920767.5119837918,-47500.0,-0.30503082322140906,0.48882209783118707,0.53799611302962735,0.31024892314137498,0.25970157786441284,0.077891957655728733,0.75327338479559169,0.45536668861837071,-0.23072577874750344,0.23072577874750344,-0.45536668861837071,1.3200185961292752,0.0
764640.0783812654,3920767.5119837918,-47500.0,-0.33270016677512532,0.38710094120901462,0.67809966444575687,0.24946936604075942,0.37053920429269882,0.14625925034464812,0.75753855915777912,0.39207040754992567,-0.050681490115506322,0.050681490115506322,-0.39207040754992567,1.3472678054656422,0.0
699640.0783812654,3925767.5119837918,-47500.0,0.042041183798536677,-0.22164228494707128,-1.0770805545897684,-0.26924652867588306,-0.98310560421682558,-0.68271630872628664,1.0606390301697459,-0.074903683645240221,-0.53340666323056263,0.53340666323056263,0.074903683645240221,2.0569302121192901,0.0
704640.0783812654,3925767.5119837918,-47500.0,0.10937485885009461,-0.10123756878866523,-1.1043260660157956,-0.18066416105493638,-1.0044139043769849,-0.69796666536183005,1.0725047922678899,-0.0052512500271953977,-0.65142483419900266,0.65142483419900266,0.0052512500271953977,2.0736939852127962,0.0
709640.0783812654,3925767.5119837918,-47500.0,0.16011166717893155,0.03577024539278606,-1.0970853512440484,-0.080215571519094864,-0.99956319092892387,-0.69737640675735457,1.0724598945734423,0.07811510688972445,-0.76601835085997594,0.76601835085997594,-0.07811510688972445,2.063569856650715,0.0
714640.0783812654,3925767.5119837918,-47500.0,0.18855633372860964,0.18248755962318508,-1.0497302093865477,0.027393751159044147,-0.96455679386167337,-0.67850993611319999,1.0607483000767965,0.17171674805059528,-0.86831868045810978,0.86831868045810978,-0.17171674805059528,2.026017470812334,0.0
719640.0783812654,3925767.5119837918,-47500.0,0.19065778620152579,0.32985869245160693,-0.95903229216427344,0.13602380406621514,-0.89708526152837753,-0.63989882954059008,1.0385286572146686,0.2703169510518495,-0.94861924841777601,0.94861924841777601,-0.2703169510518495,1.9628913530136773,0.0
724640.0783812654,3925767.5119837918,-47500.0,0.16487237868132165,0.4674153696959934,-0.82502196321454202,0.2385856051479873,-0.79710730835814914,-0.58138245908683495,1.0079782459868196,0.36723635113537839,-0.99743572114725709,0.99743572114725709,-0.36723635113537839,1.8789397246958854,0.0
729640.0783812654,3925767.5119837918,-47500.0,0.11274416107833454,0.5844084153574155,-0.65150567506378587,0.32777116308146681,-0.66720365308466323,-0.50432277379291213,0.97232611727948326,0.45498157664900812,-1.0067687828035925,1.0067687828035925,-0.45498157664900812,1.7820324487012493,0.0
734640.0783812654,3925767.5119837918,-47500.0,0.039021112299596081,0.67116149561081173,-0.44607021996264917,0.39692816437014072,-0.51259142226844379,-0.41162854546895988,0.93565860541005619,0.52612084831007211,-0.97135099170557515,0.97135099170557515,-0.52612084831007211,1.6828759707549259,0.0
739640.0783812654,3925767.5119837918,-47500.0,-0.048785120274650894,0.72039986808275869,-0.21949562520661248,0.44092542863939937,-0.34074642997441357,-0.30755688483910726,0.90238482273732323,0.57426317068191424,-0.88961734186629171,0.88961734186629171,-0.57426317068191424,1.5938719657875287,0.0
744640.0783812654,3925767.5119837918,-47500.0,-0.14135561559815321,0.72827965982154053,0.015368145215303681,0.45683675096015613,-0.1606658855437523,-0.19730711827585606,0.87638081024862735,0.59494984890494118,-0.7641680882763795,0.7641680882763795,-0.59494984890494118,1.5268188032388539,0.0
749640.0783812654,3925767.5119837918,-47500.0,-0.22886005655384617,0.69489414407920691,0.24507184979692326,0.44430034212025371,0.01810955839529459,-0.086470833391970037,0.8600343440552729,0.58627038363732753,-0.60159419322574026,0.60159419322574026,-0.58627038363732753,1.4897077604416464,0.0
754640.0783812654,3925767.5119837918,-47500.0,-0.30232415093151382,0.62415317465508879,0.4571082642676278,0.40548319810950073,0.18653705934114975,0.019564008849456877,0.85360125631535011,0.54907399320086325,-0.41168327416456346,0.41168327416456346,-0.54907399320086325,1.4839935746903508,0.0
759640.0783812654,3925767.5119837918,-47500.0,-0.35478743951679892,0.52308209832724062,0.64123587996121001,0.34467213795511226,0.33698791704024234,0.11614880110472714,0.85523583038931839,0.48674531367218465,-0.20616950249870156,0.20616950249870156,-0.48674531367218465,1.5042286327352885,0.0
764640.0783812654,3925767.5119837918,-47500.0,-0.38203824391759861,0.40071697902908121,0.79036373478399113,0.26759529630309609,0.46388987007066751,0.19976344997791745,0.86168936751691905,0.40461549038376587,0.0027132378144140712,-0.0027132378144140712,-0.40461549038376587,1.5404673342423727,0.0
769640.0783812654,3925767.5119837918,-47500.0,-0.38283336149353581,0.26684414898875197,0.90089526548798071,0.18062543097693826,0.56401998133002618,0.26821223541884565,0.86928975691295629,0.30915495987238706,0.20359662731844141,-0.20359662731844141,-0.30915495987238706,1.5817406055602581,0.0
774640.0783812654,3925767.5119837918,-47500.0,-0.35863858607288079,0.13082822057082236,0.97255643962451266,0.090018347610602054,0.63645416188724835,0.3206249030043874,0.87476500221512299,0.2071206348060747,0.38703863108260439,-0.38703863108260439,-0.2071206348060747,1.6186805075125248,0.0
689640.0783812654,3930767.5119837918,-47500.0,-0.16334087253331442,-0.45459439413539438,-0.96073277737875851,-0.48831639085801987,-0.9719365646203727,-0.72815082173925161,1.1134021972818573,-0.15595941624239051,-0.30968202795429423,0.30968202795429423,0.15595941624239051,2.1618922698830345,0.0
694640.0783812654,3930767.5119837918,-47500.0,-0.067715564212197182,-0.37649624906484502,-1.0505984260090444,-0.42652711273932997,-1.0467267003729264,-0.77951573562791687,1.1567833122324684,-0.11539697612532723,-0.42543367220882583,0.42543367220882583,0.11539697612532723,2.2429972761326669,0.0
699640.0783812654,3930767.5119837918,-47500.0,0.025556123043076057,-0.27045234443760213,-1.1201515587257596,-0.34370669824498906,-1.1041906307452867,-0.81963392113797551,1.1885579979254899,-0.056939434284844104,-0.5540074872231846,0.5540074872231846,0.056939434284844104,2.3000431993425559,0.0
704640.0783812654,3930767.5119837918,-47500.0,0.10869592191055689,-0.13805847244873251,-1.1601924125413698,-0.24111703398130443,-1.137306417815938,-0.84404974123649013,1.2068254658114033,0.019563720261583928,-0.68943828289771669,0.68943828289771669,-0.019563720261583928,2.3282749854721105,0.0
709640.0783812654,3930767.5119837918,-47500.0,0.17344689080403836,0.016031382144317121,-1.1617675122128759,-0.12217254884337089,-1.1393039218655847,-0.84845090952052626,1.2105100757363421,0.11235830887558024,-0.82317972668839201,0.82317972668839201,-0.11235830887558024,2.3242653989541027,0.0
714640.0783812654,3930767.5119837918,-47500.0,0.21217238047194276,0.18388043392404033,-1.1173887076876896,0.0074161658751835955,-1.104547824942669,-0.82920740768735679,1.1996271890571797,0.21744188581482332,-0.94445708115731652,0.94445708115731652,-0.21744188581482332,2.2867674213282592,0.0
719640.0783812654,3930767.5119837918,-47500.0,0.21915383245075809,0.35456272176883158,-1.0223786572265401,0.1398488923489466,-1.0295028847724308,-0.78396315638558967,1.1754649834005775,0.32852181240145972,-1.0411418058341075,1.0411418058341075,-0.32852181240145972,2.217586562452782,0.0
724640.0783812654,3930767.5119837918,-47500.0,0.19184145386805104,0.51507261051121678,-0.87608931091205855,0.26585615772488197,-0.91360532460330124,-0.71217589836469275,1.1407134655494167,0.43738663084162577,-1.1011282767287578,1.1011282767287578,-0.43738663084162577,2.1223236060236119,0.0
729640.0783812654,3930767.5119837918,-47500.0,0.13174764036462344,0.65180735288601444,-0.68269129495557046,0.37570525391206611,-0.75983210755961494,-0.61548042923572321,1.09948434887714,0.53472302286888196,-1.1140446206521892,1.1140446206521892,-0.53472302286888196,2.0107573742829219,0.0
734640.0783812654,3930767.5119837918,-47500.0,0.044695194855359471,0.75240881915646896,-0.45126766586427641,0.46045201501679678,-0.57478402646084137,-0.49776342015213415,1.0570391240759389,0.6112934008226325,-1.0729879069794135,1.0729879069794135,-0.6112934008226325,1.8965063882686812,0.0
739640.0783812654,3930767.5119837918,-47500.0,-0.059740340025123663,0.80760616247385675,-0.19507701914429082,0.51320360643785345,-0.36818717637841114,-0.36488878588588453,1.0190497261541536,0.65926837598915899,-0.97589594245506006,0.97589594245506006,-0.65926837598915899,1.7954487377681658,0.0
744640.0783812654,3930767.5119837918,-47500.0,-0.16954904041834418,0.8126479300073588,0.069947544020042871,0.53012052571541435,-0.15185325340407105,-0.22409234740556597,0.99040020657597394,0.67343153017508439,-0.82620271521654853,0.82620271521654853,-0.67343153017508439,1.7224540758814066,0.0
749640.0783812654,3930767.5119837918,-47500.0,-0.2721029540464962,0.76798500976993567,0.32719069097166953,0.51093017889311876,0.061720316131561717,-0.083148248099455715,0.97386839810202064,0.65197848795036917,-0.63257819058118847,0.63257819058118847,-0.65197848795036917,1.6868898779895922,0.0
754640.0783812654,3930767.5119837918,-47500.0,-0.35606218957675845,0.67905219345403733,0.56142974747737717,0.45884245225920184,0.26083394724581377,0.050531412584903949,0.96931863712665867,0.59672727260041269,-0.40778386661978977,0.40778386661978977,-0.59672727260041269,1.6891155486332043,0.0
759640.0783812654,3930767.5119837918,-47500.0,-0.41294613342421843,0.5552304962498078,0.76057072590917696,0.37990940083046243,0.43586216898795016,0.17068984429888254,0.97390754572884286,0.5127105637253706,-0.16690084907851782,0.16690084907851782,-0.5127105637253706,1.7206480684733516,0.0
764640.0783812654,3930767.5119837918,-47500.0,-0.43806121574733825,0.40827086415158181,0.91673559714485597,0.28200304828183465,0.58010070194264107,0.27277498672598444,0.98318879545185767,0.40727753242227593,0.074671863301029401,-0.074671863301029401,-0.40727753242227593,1.7680234206082528,0.0
769640.0783812654,3930767.5119837918,-47500.0,-0.430673337441349,0.25055662880374396,1.0265790867479903,0.17365437407676865,0.69008569586377722,0.35417867259025859,0.99247512765927581,0.28893829594883003,0.30303764582625636,-0.30303764582625636,-0.28893829594883003,1.8175004846590221,0.0
774640.0783812654,3930767.5119837918,-47500.0,-0.39351263604878584,0.093558882830111795,1.0909060827924042,0.062988990781029694,0.76541723132539263,0.41417627644052718,0.99786057478576262,0.16620911936869709,0.50713196022288343,-0.50713196022288343,-0.16620911936869709,1.8581348223641498,0.0
779640.0783812654,3930767.5119837918,-47500.0,-0.33183538707959187,-0.053274541020966876,1.1137974178549004,-0.043072858542046594,0.8082163736517658,0.45363697660610663,0.99670067987006694,0.046667522522528149,0.67941776929210806,-0.67941776929210806,-0.046667522522528149,1.8828270998717991,0.0
784640.0783812654,3930767.5119837918,-47500.0,-0.25231354459211341,-0.18310444785443022,1.1015040969681169,-0.13927823800437419,0.8223878633058187,0.47460345191761893,0.98765433049887819,-0.063665358854345711,0.81596763035081765,-0.81596763035081765,0.063665358854345711,1.888083648820875,0.0
684640.0783812654,3935767.5119837918,-47500.0,-0.32549076195898985,-0.55948493149381495,-0.83869869974479394,-0.6326950582512314,-0.95629898787621204,-0.78040827467196094,1.16592059046626,-0.16019502997246624,-0.19357413299188017,0.19357413299188017,0.16019502997246624,2.2628229251907777,0.0
689640.0783812654,3935767.5119837918,-47500.0,-0.22196431696920133,-0.51303591191616993,-0.9547838655253662,-0.59285632709653013,-1.0614139955408091,-0.85713962707164604,1.2317856362298749,-0.13595835242886445,-0.29934947431987879,0.29934947431987879,0.13595835242886445,2.3872276191386419,0.0
694640.0783812654,3935767.5119837918,-47500.0,-0.11063517496127655,-0.43513738020399995,-1.0608593663101644,-0.52763968858646526,-1.1561780234341315,-0.92652134761255556,1.2876738721491767,-0.093509962208961683,-0.42562222080939938,0.42562222080939938,0.093509962208961683,2.4913468023122216,0.0
699640.0783812654,3935767.5119837918,-47500.0,0.00085910963732906001,-0.32368778462187414,-1.147014004638393,-0.43560672464252342,-1.2323667439850834,-0.98298682975927709,1.3303668450747819,-0.030656758696566699,-0.56912012476177198,0.56912012476177198,0.030656758696566699,2.5682678195554938,0.0
704640.0783812654,3935767.5119837918,-47500.0,0.10296362673726074,-0.17953326618059798,-1.2021118742967851,-0.31755052699623276,-1.2808918243479663,-1.0203942233199637,1.3571087048762829,0.053180962897434569,-0.72341213256964465,0.72341213256964465,-0.053180962897434569,2.6115802310685488,0.0
709640.0783812654,3935767.5119837918,-47500.0,0.18509908829281688,-0.0073523269098455298,-1.2148945826621687,-0.17712395052675936,-1.2926720922794377,-1.0325917595063121,1.366093648606254,0.15626678101682007,-0.87864073637730722,0.87864073637730722,-0.15626678101682007,2.6163482309484474,0.0
714640.0783812654,3935767.5119837918,-47500.0,0.23707868489450129,0.18386523784024125,-1.1755272700553439,-0.021172020093753855,-1.2598281387794863,-1.01419279370597,1.3569223937614987,0.27402377585678173,-1.0218158654702845,1.0218158654702845,-0.27402377585678173,2.58028045245731,0.0
719640.0783812654,3935767.5119837918,-47500.0,0.25088934044809313,0.38102396015330897,-1.0774004812412583,0.14042548644003419,-1.1770574604251174,-0.96147095409056893,1.3309454245607686,0.39889651377119817,-1.1378386468547768,1.1378386468547768,-0.39889651377119817,2.5049738554538172,0.0
724640.0783812654,3935767.5119837918,-47500.0,0.22249895177159523,0.56799913594858253,-0.91884519723955216,0.29553007480195781,-1.0429366056672242,-0.873215634515765,1.291469256981538,0.5207781378527625,-1.2112733701152227,1.2112733701152227,-0.5207781378527625,2.3970195889925443,0.0
729640.0783812654,3935767.5119837918,-47500.0,0.15322548672207276,0.72756979143012179,-0.70432120390125907,0.43112925261890855,-0.86082860498274827,-0.75134344723366586,1.2437645582508765,0.62807222013893838,-1.2286621616504145,1.2286621616504145,-0.62807222013893838,2.2686316470922057,0.0
734640.0783812654,3935767.5119837918,-47500.0,0.050210120924609601,0.84392753915795637,-0.44466654091598057,0.53513640799533235,-0.63909421223776053,-0.60107158689961271,1.1946693289111519,0.70928268769190539,-1.1809450275754301,1.1809450275754301,-0.70928268769190539,2.1372517146504983,0.0
739640.0783812654,3935767.5119837918,-47500.0,-0.07428308732214195,0.90524185766746845,-0.15617945873880107,0.59824669740614045,-0.39043647542209459,-0.43053875871880776,1.1515384785252296,0.75483542804983772,-1.0654068484687298,1.0654068484687298,-0.75483542804983772,2.0233281473308784,0.0
744640.0783812654,3935767.5119837918,-47500.0,-0.20469706576309496,0.9056609717079569,0.14139207434266518,0.61541636179753478,-0.13042512040389248,-0.24989379065653686,1.1205375471312002,0.75871092307216159,-0.8866089223396254,0.8866089223396254,-0.75871092307216159,1.9456032356882684,0.0
749640.0783812654,3935767.5119837918,-47500.0,-0.32474719772829913,0.84623246271249752,0.42755647499318949,0.5865991257059936,0.12452086705441918,-0.070019046873087576,1.1048110717102615,0.71947450961815973,-0.65599760147780095,0.65599760147780095,-0.71947450961815973,1.9147726779105829,0.0
754640.0783812654,3935767.5119837918,-47500.0,-0.42009394879151202,0.73451969385032456,0.68387384999889378,0.51656864300847505,0.35925777510999463,0.098841898201157449,1.1035026978522016,0.64044433622436892,-0.39024478373937466,0.39024478373937466,-0.64044433622436892,1.9291024667067138,0.0
759640.0783812654,3935767.5119837918,-47500.0,-0.4804765188668933,0.58305973940262612,0.89622247203346284,0.41390828478287844,0.56169568369593637,0.24826439828931243,1.1123019069726134,0.52898231436233778,-0.10872729811245013,0.10872729811245013,-0.52898231436233778,1.9757147713238878,0.0
764640.0783812654,3935767.5119837918,-47500.0,-0.50086154569628261,0.40711047265026867,1.0561050960214255,0.28946260696763643,0.72390111171032789,0.37241339151293573,1.1251667888755699,0.39513330238953576,0.16924216614405901,-0.16924216614405901,-0.39513330238953576,2.0366087903731107,0.0
769640.0783812654,3935767.5119837918,-47500.0,-0.4814834961227179,0.22226247186010992,1.1608621629093796,0.1546434247410155,0.84240160172391609,0.46831368418511737,1.1361853340974657,0.24998296011688304,0.42682532731409129,-0.42682532731409129,-0.24998296011688304,2.0948474008439937,0.0
774640.0783812654,3935767.5119837918,-47500.0,-0.42696208544362557,0.042425134951417552,1.2129479325446948,0.019950660405459699,0.91777903109331382,0.5356603785074816,1.1407969732193664,0.10411555965437741,0.6512887507275078,-0.6512887507275078,-0.10411555965437741,2.1379619887992063,0.0
779640.0783812654,3935767.5119837918,-47500.0,-0.34487109372559377,-0.12150288327813207,1.2186079250870361,-0.10605927602656123,0.95377831224468101,0.57630220151321621,1.1362327139101953,-0.033548798465638574,0.8347018421385286,-0.8347018421385286,0.033548798465638574,2.1586814334416111,0.0
784640.0783812654,3935767.5119837918,-47500.0,-0.24417064858155763,-0.26220216189952217,1.1863451830654408,-0.21728234353390047,0.9562066669074788,0.59356683919132758,1.1214103136981879,-0.1564115892336973,0.97379619424998376,-0.97379619424998376,0.1564115892336973,2.1542194050405969,0.0
789640.0783812654,3935767.5119837918,-47500.0,-0.13382880845330508,-0.37585024040039411,1.1254932384626155,-0.31010960439175289,0.93186046810289114,0.59157978360086416,1.0965662637342473,-0.26036640882185325,1.0692313209112561,-1.0692313209112561,0.26036640882185325,2.1250817669333135,0.0
794640.0783812654,3935767.5119837918,-47500.0,-0.021818648079086678,-0.46159768841598953,1.0450945398568809,-0.38313611954901089,0.88763889092199022,0.57468295637569078,1.0628236071141937,-0.34359511880596794,1.1245581250541803,-1.1245581250541803,0.34359511880596794,2.0738871773760708,0.0
674640.0783812654,3940767.5119837918,-47500.0,-0.58418411629716205,-0.60285657777364621,-0.54560832511303825,-0.74807428318364066,-0.76653121085770282,-0.70574980227069262,1.0976143953259125,-0.13438177966972076,-0.024510305619804162,0.024510305619804162,0.13438177966972076,2.1337337348935796,0.0
679640.0783812654,3940767.5119837918,-47500.0,-0.50780128488748688,-0.61754849980478776,-0.6662077605990171,-0.76013387685951306,-0.89019171091629712,-0.80374015933879062,1.1885397241942193,-0.13831955502269516,-0.087017165590716636,0.087017165590716636,0.13831955502269516,2.3066483525810968,0.0
684640.0783812654,3940767.5119837918,-47500.0,-0.41043509849357163,-0.60858220658179762,-0.79443190002608999,-0.7509324744768181,-1.0186898309791084,-0.90488315354329607,1.2766524189683479,-0.13017947323799306,-0.172386342442723,0.172386342442723,0.13017947323799306,2.4734729665922899,0.0
689640.0783812654,3940767.5119837918,-47500.0,-0.29482214359074055,-0.56940201732529183,-0.92415579633546363,-0.71520988369412908,-1.1461265126477427,-1.0048168051583086,1.3583376393119699,-0.10587628726713119,-0.2828132114781442,0.2828132114781442,0.10587628726713119,2.6270476178257152,0.0
694640.0783812654,3940767.5119837918,-47500.0,-0.16656290666180701,-0.49424571602695755,-1.0466411620368785,-0.64843943407934657,-1.2644336838554704,-1.0976453947356679,1.4295016875863562,-0.061514777304474022,-0.41852190526851768,0.41852190526851768,0.061514777304474022,2.7591053058034762,0.0
699640.0783812654,3940767.5119837918,-47500.0,-0.034379032019600554,-0.37935052623219717,-1.1506035594817523,-0.54776994178818683,-1.3634902104782685,-1.1760253500799296,1.4859027856388767,0.0058883284126621804,-0.57675628343889507,0.57675628343889507,-0.0058883284126621804,2.8607993191049017,0.0
704640.0783812654,3940767.5119837918,-47500.0,0.090155528121439968,-0.22434908046021931,-1.2228036385429124,-0.41309844725761358,-1.431666313561559,-1.2315465054135095,1.5236689343223706,0.097493322332549981,-0.75084665481242396,0.75084665481242396,-0.097493322332549981,2.9235887278310142,0.0
709640.0783812654,3940767.5119837918,-47500.0,0.19360904328192641,-0.033597623426913727,-1.2492990812585092,-0.24807693613916534,-1.456894748584056,-1.2554758106378967,1.5399685004456689,0.21167364169153347,-0.92964165933856568,0.92964165933856568,-0.21167364169153347,2.9405057874187266,0.0
714640.0783812654,3940767.5119837918,-47500.0,0.26248275869030518,0.18294730838941362,-1.2173635748441232,-0.060765965361933384,-1.4282630336287463,-1.2398604407449634,1.5337248623266859,0.34323544854686139,-1.0976499428379565,1.0976499428379565,-0.34323544854686139,2.907754412711137,0.0
719640.0783812654,3940767.5119837918,-47500.0,0.28563377820355118,0.40973680076579266,-1.1178667936157274,0.13638532928599648,-1.3379561201378343,-1.1788764839142765,1.5062243656446148,0.48312351224756078,-1.2361871733550469,1.2361871733550469,-0.48312351224756078,2.8264816508708255,0.0
724640.0783812654,3940767.5119837918,-47500.0,0.25687532046695505,0.62685656340862927,-0.94766347300730669,0.32747861148119367,-1.1831917386940969,-1.0701827372700969,1.4614942430312543,0.6188959075158369,-1.3256271083455893,1.3256271083455893,-0.6188959075158369,2.7044234375542309,0.0
729640.0783812654,3940767.5119837918,-47500.0,0.17706477092289549,0.81252731304161918,-0.71135835308612638,0.49506506538536788,-0.96765415889586115,-0.91594558721151209,1.4063258264724674,0.73610243044647516,-1.348521284543112,1.348521284543112,-0.73610243044647516,2.5569210952259342,0.0
734640.0783812654,3940767.5119837918,-47500.0,0.054951925940604836,0.94652137342623754,-0.42181400962353716,0.62274273735059071,-0.70193389124301719,-0.72319792373561809,1.3496870553003475,0.82043752176638229,-1.2929763318033038,1.2929763318033038,-0.82043752176638229,2.4064693743384695,0.0
739640.0783812654,3940767.5119837918,-47500.0,-0.093688664766505503,1.0137430394117646,-0.099019211378040803,0.69790152706357111,-0.40267142002957018,-0.5033180374092131,1.3011892164276264,0.86023944159525678,-1.1554247129291992,1.1554247129291992,-0.86023944159525678,2.2795390720539976,0.0
744640.0783812654,3940767.5119837918,-47500.0,-0.24861428343731382,1.0070323351117201,0.23260566310630867,0.71392184328377761,-0.090451260110595982,-0.27064420666831179,1.2686120172197679,0.84870556394520635,-0.94195220167397364,0.94195220167397364,-0.84870556394520635,2.1996815794905835,0.0
749640.0783812654,3940767.5119837918,-47500.0,-0.38876327801310456,0.92840151951860272,0.54788804322342355,0.67123191364298307,0.21312235906755764,-0.040500242963244955,1.2553452857889809,0.78520606784597413,-0.667704488829724,0.667704488829724,-0.78520606784597413,2.178556911594085,0.0
754640.0783812654,3940767.5119837918,-47500.0,-0.49602062374338746,0.78837572026093117,0.82466349161437391,0.57695577328404879,0.48847861762270617,0.17291234663048871,1.2592721469744486,0.67532929110017015,-0.35446974997251479,0.35446974997251479,-0.67532929110017015,2.2107251083505721,0.0
759640.0783812654,3940767.5119837918,-47500.0,-0.55811016622155052,0.60369537317699673,1.0467105611919323,0.44330894909808516,0.72055316721787976,0.35827453651678026,1.2739483904457125,0.52968545343141349,-0.027086298995990465,0.027086298995990465,-0.52968545343141349,2.2770772295884218,0.0
764640.0783812654,3940767.5119837918,-47500.0,-0.56997257627336428,0.39409762933732834,1.2052666470285283,0.28524318271973398,0.90019306085296225,0.50821707748772582,1.2912459555457607,0.36186149264650458,0.29037785946585026,-0.29037785946585026,-0.36186149264650458,2.3539318491722789,0.0
769640.0783812654,3940767.5119837918,-47500.0,-0.53351949488244144,0.17905407556877845,1.2990045698386172,0.11797801469282614,1.0243573940920614,0.6195786081255239,1.303833317621379,0.18611229510449701,0.57778115962927068,-0.57778115962927068,-0.18611229510449701,2.4208596395650965,0.0
774640.0783812654,3940767.5119837918,-47500.0,-0.45612854064096497,-0.024812083232069598,1.3327757302920176,-0.045033933948654903,1.0953080255139922,0.69296135303892159,1.3065519248160502,0.01534239737238341,0.82084109529729066,-0.82084109529729066,-0.01534239737238341,2.4641437360956329,0.0
779640.0783812654,3940767.5119837918,-47500.0,-0.34849606476185241,-0.20524840967942273,1.3156637678611189,-0.19339612545274101,1.1191841593422494,0.7318333975204101,1.2967155185171007,-0.14026373271326098,1.0117170307037939,-1.0117170307037939,0.14026373271326098,2.4768942769277675,0.0
784640.0783812654,3940767.5119837918,-47500.0,-0.22246102814229801,-0.3548164338191872,1.2589057037884321,-0.32026152896851728,1.1043873424470501,0.74146017136354769,1.2737632753978703,-0.27385628750964963,1.148472512551574,-1.148472512551574,0.27385628750964963,2.4576556570409172,0.0
789640.0783812654,3940767.5119837918,-47500.0,-0.089237049132715157,-0.47049119752186985,1.1740985915763305,-0.42217406502824223,1.0601160124581188,0.72789915480494138,1.2386647478899744,-0.38187798498478093,1.2338335409767456,-1.2338335409767456,0.38187798498478093,2.4086776104571674,0.0
794640.0783812654,3940767.5119837918,-47500.0,0.041747085503671448,-0.55275866128518281,1.0719069979346409,-0.49849328522692088,0.99524338182015337,0.69720031851155295,1.1933151972145271,-0.46357523396425576,1.2736745987698599,-1.2736745987698599,0.46357523396425576,2.334366720765841,0.0
799640.0783812654,3940767.5119837918,-47500.0,0.16339810246447264,-0.60453372580093745,0.96130887413012822,-0.55063753375676672,0.91759686627769754,0.65486486035085734,1.1400318396554128,-0.52029136375986296,1.2755689879026297,-1.2755689879026297,0.52029136375986296,2.240088109485816,0.0
669640.0783812654,3945767.5119837918,-47500.0,-0.73944056053293639,-0.57230142926610128,-0.35322676036597755,-0.81137703897245139,-0.6492201730387489,-0.68194143161683873,1.0725269041006789,-0.078751770510473204,0.03205691492887143,-0.03205691492887143,0.078751770510473204,2.0862180296788497,0.0
674640.0783812654,3945767.5119837918,-47500.0,-0.68904844267775234,-0.6164879671393998,-0.46225723416293252,-0.85461220903146562,-0.77719025565457744,-0.79339297589272306,1.1778398052872314,-0.091374306906495423,-0.0053540884471421565,0.0053540884471421565,0.091374306906495423,2.2867703998159534,0.0
679640.0783812654,3945767.5119837918,-47500.0,-0.61297589990262091,-0.64420224851082541,-0.58610704872508823,-0.8810527751759375,-0.91785910933923487,-0.91448029267960596,1.2851082476952296,-0.096017765909309952,-0.063663777706815597,0.063663777706815597,0.096017765909309952,2.4901557247233015,0.0
684640.0783812654,3945767.5119837918,-47500.0,-0.51051257370316994,-0.64773211361244987,-0.72158724530854634,-0.88388000782790654,-1.0673827386173813,-1.0420167551402018,1.3909806000994189,-0.088432812718660367,-0.14733892826294365,0.14733892826294365,0.088432812718660367,2.6898293907138084,0.0
689640.0783812654,3945767.5119837918,-47500.0,-0.38361726531602308,-0.61878786192172908,-0.86280548707552929,-0.85591313053489326,-1.219397180353988,-1.1708831037262022,1.4911923776719251,-0.063841124249174291,-0.25994525436653204,0.25994525436653204,0.063841124249174291,2.8773956802389602,0.0
694640.0783812654,3945767.5119837918,-47500.0,-0.23780337931360906,-0.54950760371655738,-1.000651964280872,-0.79047867720884646,-1.364633232401931,-1.29374935196532,1.5806973197527148,-0.017464984478224338,-0.40304141735151833,0.40304141735151833,0.017464984478224338,3.0427865491398496,0.0
699640.0783812654,3945767.5119837918,-47500.0,-0.082731845609424245,-0.43394140490371208,-1.1226436245936005,-0.68265820405409183,-1.4908680101955754,-1.4010493567188134,1.6540147139031558,0.054617610502301683,-0.57482960429753138,0.57482960429753138,-0.054617610502301683,3.1748209446760884,0.0
704640.0783812654,3945767.5119837918,-47500.0,0.067830354317942848,-0.26990962010068859,-1.213397229664015,-0.53082067906813535,-1.5834364232622027,-1.4813706788124978,1.7058462873667126,0.15431929952708895,-0.76877906345451197,0.76877906345451197,-0.15431929952708895,3.2622640872278499,0.0
709640.0783812654,3945767.5119837918,-47500.0,0.19703138163321826,-0.060929945038197084,-1.2559755229361202,-0.33818791675408877,-1.6264955086639703,-1.5224001103121179,1.7319613544478885,0.28024456176037815,-0.97260459356522522,0.97260459356522522,-0.28024456176037815,3.2954576898093668,0.0
714640.0783812654,3945767.5119837918,-47500.0,0.28713623151177259,0.18230923769032401,-1.2342012849216584,-0.11401402887751631,-1.6051035740251498,-1.5124705407954171,1.7302488492177881,0.42655486038315954,-1.1681073831342612,1.1681073831342612,-0.42655486038315954,3.2684894212973061,0.0
719640.0783812654,3945767.5119837918,-47500.0,0.32278101743250592,0.44158373928925021,-1.1357432618382133,0.12613869618411866,-1.5079325718136272,-1.4425790757116996,1.7017251045016415,0.58243170537829791,-1.3323725038857768,1.3323725038857768,-0.58243170537829791,3.1817090071265701,0.0
724640.0783812654,3945767.5119837918,-47500.0,0.29469044042860004,0.69245126999800233,-0.95539897836570709,0.36147797819388838,-1.3301220457824361,-1.3085228681034102,1.6512339108106775,0.73257715085068464,-1.4405743569914666,1.4405743569914666,-0.73257715085068464,3.0441740611735533,0.0
729640.0783812654,3945767.5119837918,-47500.0,0.20284444584474071,0.9074475239409433,-0.69767757755458693,0.56856690641301211,-1.0755234109727969,-1.1126092839806896,1.5875588366873037,0.85899776130338545,-1.4701525215283462,1.4701525215283462,-0.85899776130338545,2.8752744574116367,0.0
734640.0783812654,3945767.5119837918,-47500.0,0.057941335267872818,1.0607275122070274,-0.37771970706470753,0.7250799842637925,-0.75753330093471127,-0.86435496307554927,1.5225626188588943,0.94392451759215057,-1.4055174612214647,1.4055174612214647,-0.94392451759215057,2.704227072814394,0.0
739640.0783812654,3945767.5119837918,-47500.0,-0.11965581553796698,1.133066753839044,-0.019924531178252741,0.81388441180212034,-0.39798580184037025,-0.57977452660530371,1.4688948118326022,0.97324839164482013,-1.241997145574012,1.241997145574012,-0.97324839164482013,2.5654368431236136,0.0
744640.0783812654,3945767.5119837918,-47500.0,-0.30351204834493439,1.115794600409064,0.34565636381916343,0.82632553336989889,-0.02413392140443724,-0.27925501053714058,1.4363309162600422,0.9395239395788797,-0.98773055375066687,0.98773055375066687,-0.9395239395788797,2.4882610191070498,0.0
749640.0783812654,3945767.5119837918,-47500.0,-0.46634359160469008,1.012443170774501,0.68831467079915298,0.76374238985814824,0.33560742739581034,0.015525513323398592,1.4281902982686221,0.84361464413002107,-0.66276329409094659,0.66276329409094659,-0.84361464413002107,2.4843444338761649,0.0
754640.0783812654,3945767.5119837918,-47500.0,-0.58534088565661635,0.83763209174947539,0.9817214754210668,0.63679367044058122,0.6560553788441259,0.28485563437585887,1.4402263070862704,0.69446889082915719,-0.29551689578753298,0.29551689578753298,-0.69446889082915719,2.5420270048832321,0.0
759640.0783812654,3945767.5119837918,-47500.0,-0.64606887533022683,0.6136435696359327,1.2076777652544965,0.46289607886915252,0.91867759431346119,0.5136148376589158,1.4629380781565278,0.50714885635881601,0.082328199559642601,-0.082328199559642601,-0.50714885635881601,2.6336063359206885,0.0
764640.0783812654,3945767.5119837918,-47500.0,-0.64403385751617226,0.36583937153122575,1.3577786090780661,0.26263591957739307,1.1133215528801081,0.69271867679404275,1.4855440413681174,0.29978947869114542,0.4410722401145773,-0.4410722401145773,-0.29978947869114542,2.7285775521009592,0.0
769640.0783812654,3945767.5119837918,-47500.0,-0.58388269336690501,0.11824973377142652,1.4329353942689984,0.056188471422213317,1.2381361409104643,0.8192555975651491,1.4991667656901646,0.09040224978074124,0.75705902477887843,-0.75705902477887843,-0.09040224978074124,2.8030057651292979,0.0
774640.0783812654,3945767.5119837918,-47500.0,-0.47692179935133266,-0.10965837949940926,1.44132101290888,-0.13943446010699387,1.2980868819888136,0.89556409443365614,1.4982418484404434,-0.10568899914292529,1.0148498221618392,-1.0148498221618392,0.10568899914292529,2.8425518923845137,0.0
779640.0783812654,3945767.5119837918,-47500.0,-0.33795306188800028,-0.30460561119030677,1.3955843222968658,-0.31191723194107912,1.302729763168863,0.92770602127702995,1.4805115486378808,-0.2773547300181623,1.2074802753834151,-1.2074802753834151,0.2773547300181623,2.8415704746238744,0.0
784640.0783812654,3945767.5119837918,-47500.0,-0.18232155342744572,-0.45963349480230703,1.3101181567934814,-0.45398565157934789,1.2638966399898452,0.92380453641624427,1.4463111376987583,-0.41807766385611456,1.3352723434940974,-1.3352723434940974,0.41807766385611456,2.80079749860076,0.0
789640.0783812654,3945767.5119837918,-47500.0,-0.023727478539731908,-0.57319140159616189,1.1988924454352485,-0.56287095897457995,1.1937500342898328,0.89259159568733404,1.3976680234580892,-0.52552760897433082,1.4038712987884068,-1.4038712987884068,0.52552760897433082,2.7249520910444924,0.0
794640.0783812654,3945767.5119837918,-47500.0,0.12702143517911824,-0.64770836580852864,1.0740583199912863,-0.6392917652482073,1.1034268908209013,0.84234674730025705,1.3374921797651926,-0.60065105160715182,1.4221281062260895,-1.4221281062260895,0.60065105160715182,2.620771390841838,0.0
799640.0783812654,3945767.5119837918,-47500.0,0.26242039839705555,-0.6880874748504221,0.94527528416342599,-0.68630073035363981,1.0022751618120271,0.78025254745390882,1.2689530619058782,-0.64660272047806222,1.4002391474854559,-1.4002391474854559,0.64660272047806222,2.495580576372431,0.0
804640.0783812654,3945767.5119837918,-47500.0,0.37807896527017254,-0.70040570563885363,0.81959976863721506,-0.70823664701029598,0.89758290875973812,0.71211186430812401,1.1950682276463747,-0.66775540980130033,1.3483552742662301,-1.3483552742662301,0.66775540980130033,2.3563750252843105,0.0
664640.0783812654,3950767.5119837918,-47500.0,-0.86100094169810548,-0.48933001020852895,-0.16539667462997024,-0.83192053164933899,-0.50719432908302442,-0.63105650608709052,1.0206897927764069,-0.0096625087654531872,0.054687036840643327,-0.054687036840643327,0.0096625087654531872,1.9857327517078933,0.0
669640.0783812654,3950767.5119837918,-47500.0,-0.84472216380281739,-0.55355461573022913,-0.25145138024503205,-0.90342065640812319,-0.62803103580588848,-0.74884673391942602,1.1345232472010673,-0.025297548800166346,0.040646041180395533,-0.040646041180395533,0.025297548800166346,2.203480419730877,0.0
674640.0783812654,3950767.5119837918,-47500.0,-0.80244934712898197,-0.6101741342232827,-0.35571849086915475,-0.96517079943537698,-0.76736110990724504,-0.88227116420625495,1.2552104477620856,-0.037094199152265139,0.010567457998807041,-0.010567457998807041,0.037094199152265139,2.4330494254279156,0.0
679640.0783812654,3950767.5119837918,-47500.0,-0.7301651042191758,-0.65199090053310449,-0.47806291829609809,-1.0100490980420755,-0.92400391238934787,-1.0300299132658972,1.3802264247086975,-0.041427107156338516,-0.041044176758785633,0.041044176758785633,0.041427107156338516,2.6695120573856017,0.0
684640.0783812654,3950767.5119837918,-47500.0,-0.62556866643628151,-0.67010401699814837,-0.61624509488713852,-1.0294833928513607,-1.0944970638084137,-1.1888915516777732,1.5058980532870947,-0.033655553060377152,-0.11995907720998011,0.11995907720998011,0.033655553060377152,2.9056960612848308,0.0
689640.0783812654,3950767.5119837918,-47500.0,-0.48930554267911108,-0.65439201351907894,-0.76504454225017815,-1.0139481221834106,-1.2723023175346675,-1.3530600846772673,1.6273069494557448,-0.0083311459510746338,-0.23137853100927419,0.23137853100927419,0.0083311459510746338,3.1319565384187684,0.0
694640.0783812654,3950767.5119837918,-47500.0,-0.32628712578237545,-0.59457232222454492,-0.91544291581702297,-0.95396882934299287,-1.447112820682279,-1.5136320239459129,1.7383560299978735,0.040255957909611562,-0.37863000873808494,0.37863000873808494,-0.040255957909611562,3.3362383306794547,0.0
699640.0783812654,3950767.5119837918,-47500.0,-0.14677918366782264,-0.48195070037964133,-1.0541408567223467,-0.84171826955945639,-1.6045194875905195,-1.658348211149927,1.8321048542631766,0.11709618247004505,-0.56143368306324504,0.56143368306324504,-0.11709618247004505,3.5046188174680206,0.0
704640.0783812654,3950767.5119837918,-47500.0,0.033224532931173632,-0.31181125347342686,-1.163784435968537,-0.67314535412535914,-1.726375468482177,-1.7719073034459309,1.9014757741370498,0.22503426363727702,-0.77396194592730549,0.77396194592730549,-0.22503426363727702,3.6225325355874403,0.0
709640.0783812654,3950767.5119837918,-47500.0,0.19290320708379721,-0.086117275454779582,-1.2242965066695319,-0.45033937981551375,-1.7922009933356287,-1.8371085729793124,1.9403823589142901,0.36305479103537242,-1.0031691781424383,1.0031691781424383,-0.36305479103537242,3.6768314035605378,0.0
714640.0783812654,3950767.5119837918,-47500.0,0.30921229943556083,0.18415738631616299,-1.2155595510319899,-0.18354026075353599,-1.7818237476760357,-1.8369761680903107,1.9452108695839228,0.52467003201954343,-1.2281103366437098,1.2281103366437098,-0.52467003201954343,3.6587015302073218,0.0
719640.0783812654,3950767.5119837918,-47500.0,0.36117972115649599,0.47802563176049656,-1.1213191913440512,0.10802054167201576,-1.6791049230004949,-1.7577486403460765,1.9164015244355397,0.69701940628958248,-1.4210401433015618,1.4210401433015618,-0.69701940628958248,3.5672205270510062,0.0
724640.0783812654,3950767.5119837918,-47500.0,0.33517210065999786,0.76576209101124504,-0.93361392200349613,0.39724660225293762,-1.4761017131588834,-1.5922300943002758,1.8596946536309054,0.86135233465097927,-1.5508135062797812,1.5508135062797812,-0.86135233465097927,3.4129832052463165,0.0
729640.0783812654,3950767.5119837918,-47500.0,0.22966321557268191,1.012918529454101,-0.65648923604603571,0.65265749609822743,-1.1765417583072206,-1.3426279758781323,1.7864827055508934,0.99532489440861527,-1.5884138987073828,1.5884138987073828,-0.99532489440861527,3.2206714913131029,0.0
734640.0783812654,3950767.5119837918,-47500.0,0.057688124053145502,1.1865953015417838,-0.30755202506130686,0.8438212207925595,-0.79731528180863043,-1.0218624320411953,1.7125834337834283,1.0769579581748343,-1.5134802880640472,1.5134802880640472,-1.0769579581748343,3.0284975691460665,0.0
739640.0783812654,3950767.5119837918,-47500.0,-0.15439749905434283,1.2624168598709826,0.083657388171541863,0.94744427865252479,-0.36706307876934319,-0.65260581413709151,1.6547456948254329,1.0893599337373598,-1.3199208553996837,1.3199208553996837,-1.0893599337373598,2.8812721943461663,0.0
744640.0783812654,3950767.5119837918,-47500.0,-0.37199159289249595,1.230043064217667,0.48046847133877152,0.9522991036150491,0.078161207854321249,-0.26399338042818077,1.6251269112105327,1.0247843612742398,-1.0186112645463945,1.0186112645463945,-1.0247843612742398,2.8150050981904546,0.0
749640.0783812654,3950767.5119837918,-47500.0,-0.55975743179620674,1.0953420952860455,0.84583122774715547,0.86138397062973138,0.50110105537684635,0.11322237401632933,1.6262919978722026,0.88663340224253295,-0.63601453186381429,0.63601453186381429,-0.88663340224253295,2.8392296966794279,0.0
754640.0783812654,3950767.5119837918,-47500.0,-0.6891574302473219,0.87853094682338029,1.1490039283235156,0.69066108385515901,0.86961131664238933,0.45172674022828102,1.6504930476789037,0.68870884563018664,-0.20902563661447485,0.20902563661447485,-0.68870884563018664,2.9323172188124578,0.0
759640.0783812654,3950767.5119837918,-47500.0,-0.74366136241689718,0.60908278105252134,1.370251481229934,0.46495351658786715,1.1613320927483024,0.73153762971944225,1.6839422392979475,0.45203332443136951,0.22228972000590402,-0.22228972000590402,-0.45203332443136951,3.0551538406029546,0.0
764640.0783812654,3950767.5119837918,-47500.0,-0.72036003898626288,0.3192465266601226,1.5025053066012235,0.21248407989458465,1.3656979212821516,0.94188794360091954,1.7126163853084992,0.20039306920649674,0.62180739452671641,-0.62180739452671641,-0.20039306920649674,3.1695175007445444,0.0
769640.0783812654,3950767.5119837918,-47500.0,-0.6281605799502602,0.038177049267239992,1.5500993467471891,-0.040270618723668376,1.4832635062890205,1.0810026088483298,1.7261257955039939,-0.043989301768638245,0.96244497715401589,-0.96244497715401589,0.043989301768638245,3.2484616280001775,0.0
774640.0783812654,3950767.5119837918,-47500.0,-0.48381355102531787,-0.21196444730580744,1.5255705230150325,-0.27220825134684967,1.5231252582582737,1.1543082532780355,1.7189040210508559,-0.2635741542043476,1.2284022037423497,-1.2284022037423497,0.2635741542043476,3.2781491686525746,0.0
779640.0783812654,3950767.5119837918,-47500.0,-0.3073526267597736,-0.41753557427659371,1.4458046859258911,-0.46927372570597231,1.4995380595140964,1.1718958101758923,1.6896562441634009,-0.44697354329567196,1.4147517031056394,-1.4147517031056394,0.44697354329567196,3.2554394202280097,0.0
784640.0783812654,3950767.5119837918,-47500.0,-0.11820668583050771,-0.5729497918212817,1.3285817778260474,-0.62440869336113725,1.4286911269921367,1.1459906845309933,1.6401204419379267,-0.5889196346796548,1.5252539550051769,-1.5252539550051769,0.5889196346796548,3.1843859264372902,0.0
789640.0783812654,3950767.5119837918,-47500.0,0.067372939976903398,-0.67899817076730062,1.1901009756797865,-0.73636913535666915,1.3262298425443642,1.0889194565740663,1.5737854927740345,-0.68922487192912407,1.569431541756874,-1.569431541756874,0.68922487192912407,3.0730518150148964,0.0
794640.0783812654,3950767.5119837918,-47500.0,0.23750225154054649,-0.74073361495966938,1.0436063818736219,-0.80805002591916697,1.2057121210808446,1.0117624476693736,1.4948508223826007,-0.75129155096312217,1.5597314421687469,-1.5597314421687469,0.75129155096312217,2.9310863059826326,0.0
799640.0783812654,3950767.5119837918,-47500.0,0.38475912613583851,-0.76548326977625636,0.89893927458553846,-0.84481158020645952,1.0779112721918835,0.92366098824977727,1.4075090750462613,-0.78061427604344324,1.5092605695343462,-1.5092605695343462,0.78061427604344324,2.7681032606855345,0.0
804640.0783812654,3950767.5119837918,-47500.0,0.50559442694128365,-0.76128607410755467,0.76271710348453758,-0.85309165024063305,0.95073767025587352,0.8316270809166475,1.3155244274503541,-0.78353595012365296,1.4302533100056551,-1.4302533100056551,0.78353595012365296,2.5927303904517682,0.0
809640.0783812654,3950767.5119837918,-47500.0,0.59943557338983988,-0.73583723312134264,0.63884989987865148,-0.83940947365779239,0.8295357845703264,0.74067731815657256,1.2220397393455815,-0.76635692332980554,1.3332200057560324,-1.3332200057560324,0.76635692332980554,2.4121605915331856,0.0
664640.0783812654,3955767.5119837918,-47500.0,-0.95241598836214991,-0.43681776193884181,-0.058683265048292729,-0.90011763085467189,-0.45872652980989354,-0.67418006559612498,1.063904232885176,0.050205162985861342,0.047529562300478813,-0.047529562300478813,-0.050205162985861342,2.0644271523786886,0.0
669640.0783812654,3955767.5119837918,-47500.0,-0.95051536445111917,-0.50939013308571046,-0.1329471932284044,-0.99119073801103252,-0.5836726602815544,-0.81043353392901818,1.1904091654809272,0.037673564364232463,0.041323555338709787,-0.041323555338709787,-0.037673564364232463,2.3068046452462405,0.0
674640.0783812654,3955767.5119837918,-47500.0,-0.92043740738717039,-0.5774002197422049,-0.22692269532080186,-1.0746124089315541,-0.73116156516627284,-0.96762984532561025,1.3266728804535723,0.028249987300150818,0.020180259002955052,-0.020180259002955052,-0.028249987300150818,2.5659810335918141,0.0
679640.0783812654,3955767.5119837918,-47500.0,-0.85630734306852574,-0.63331555151794205,-0.3416694407752881,-1.1421321787223573,-0.90102210158958929,-1.1451518026209642,1.4702496602794821,0.025595753737492701,-0.022193760762075663,0.022193760762075663,-0.025595753737492701,2.8370970350175613,0.0
684640.0783812654,3955767.5119837918,-47500.0,-0.75374801805019687,-0.66726787948972077,-0.47625068649344998,-1.183294676343283,-1.0905914492162387,-1.3400502104046845,1.617260592738498,0.034622278869400142,-0.092871822133476917,0.092871822133476917,-0.034622278869400142,3.1125423038312188,0.0
689640.0783812654,3955767.5119837918,-47500.0,-0.61144297846765594,-0.66736816382004926,-0.62663240372232631,-1.1858411944797556,-1.2936029085097995,-1.5460760801157283,1.7621861556877592,0.06136142493423774,-0.19887566156373188,0.19887566156373188,-0.06136142493423774,3.3815081668140374,0.0
694640.0783812654,3955767.5119837918,-47500.0,-0.43298838962643504,-0.62072240737279949,-0.78451944792766026,-1.1367875604592697,-1.4990781149411909,-1.7527336343968833,1.8978264753052998,0.11244046713546912,-0.3457220857075281,0.3457220857075281,-0.11244046713546912,3.6298515853183573,0.0
699640.0783812654,3955767.5119837918,-47500.0,-0.2286668417185983,-0.51538263339813384,-0.93643850651277449,-1.0243780566986076,-1.6905496606897821,-1.9446376387108735,2.0155801801419355,0.19400070228047397,-0.53529850152267866,0.53529850152267866,-0.19400070228047397,3.8405422077133142,0.0
704640.0783812654,3955767.5119837918,-47500.0,-0.016496580204838653,-0.34329628836265663,-1.0635546263590026,-0.84094754765805879,-1.8461000030260353,-2.1015911470585782,2.1062122177445159,0.30998455492716082,-0.76325128771660966,0.76325128771660966,-0.30998455492716082,3.9950126262113166,0.0
709640.0783812654,3955767.5119837918,-47500.0,0.17829930936605415,-0.1039520023539227,-1.1428110001216172,-0.58638466615607199,-1.9397795240775979,-2.1998611216271358,2.1612448723152138,0.45992687354663814,-1.0164397174150159,1.0164397174150159,-0.45992687354663814,4.0757036220702787,0.0
714640.0783812654,3955767.5119837918,-47500.0,0.32620022006962607,0.19211307139847936,-1.1498732049490956,-0.27140697774292222,-1.944833819376635,-2.2150127399904167,2.1749718572356422,0.63672145503386401,-1.2714257402256623,1.2714257402256623,-0.63672145503386401,4.0699364173225456,0.0
719640.0783812654,3955767.5119837918,-47500.0,0.39892856019726242,0.52129716600735787,-1.0639053286355638,0.080597756796191633,-1.8387102866619114,-2.126274148568061,2.1468334149555148,0.8251960872217412,-1.4952125276696087,1.4952125276696087,-0.8251960872217412,3.9749070887269506,0.0
724640.0783812654,3955767.5119837918,-47500.0,0.37681569514334357,0.84791929532551036,-0.87340384789826653,0.43453506621813942,-1.609037544436748,-1.9217500562292786,2.0835295642353815,1.0025026523526046,-1.6492012173768824,1.6492012173768824,-1.0025026523526046,3.8030396552693007,0.0
729640.0783812654,3955767.5119837918,-47500.0,0.25591536693490724,1.1291404116527897,-0.58142407244009908,0.74821186385472827,-1.2589303312421036,-1.6030951552683577,1.9998790726395095,1.1410481599245856,-1.6963890655658584,1.6963890655658584,-1.1410481599245856,3.5860129048884692,0.0
734640.0783812654,3955767.5119837918,-47500.0,0.052027347033904131,1.3233606089255723,-0.20807556186923309,0.9801742688731121,-0.80955390813949679,-1.1878967028367233,1.9171332746086711,1.2138428384301936,-1.6103466566663929,1.6103466566663929,-1.2138428384301936,3.3741316819115621,0.0
739640.0783812654,3955767.5119837918,-47500.0,-0.20069491525760297,1.399903255558443,0.21134237157331254,1.0988085029074668,-0.29836340755796592,-0.70839694964416855,1.8575657339956735,1.2009730030069821,-1.3831672406628521,1.3831672406628521,-1.2009730030069821,3.2256965406079114,0.0
744640.0783812654,3955767.5119837918,-47500.0,-0.45693514864605089,1.3467045777536082,0.63267897978810372,1.0897402292404039,0.2271286755264908,-0.20636543243780003,1.8359848973763433,1.0950427289604132,-1.0293001315268175,1.0293001315268175,-1.0950427289604132,3.183586514493892,0.0
749640.0783812654,3955767.5119837918,-47500.0,-0.67104812027676863,1.1731257907199655,1.0119685108248839,0.9588784120638556,0.71840171512229933,0.27456353806380651,1.8528412992661729,0.90350757415987282,-0.58345416283946117,0.58345416283946117,-0.90350757415987282,3.2512405484982017,0.0
754640.0783812654,3955767.5119837918,-47500.0,-0.80770514181703112,0.90689980898967892,1.3141885343991686,0.73009357814240794,1.1349519615782653,0.69674287249315625,1.8947778932343775,0.646976535921304,-0.09310209712940537,0.09310209712940537,-0.646976535921304,3.3918103466451832,0.0
759640.0783812654,3955767.5119837918,-47500.0,-0.84873561289983768,0.58660782601766148,1.5189759407527181,0.43864411171821205,1.4505692723356227,1.0342341927552208,1.9421712818741608,0.35419823937693173,0.39174084207074256,-0.39174084207074256,-0.35419823937693173,3.5518037336941397,0.0
764640.0783812654,3955767.5119837918,-47500.0,-0.7944549101330366,0.25262589417864939,1.6219886524243103,0.12290787257959439,1.6554424253093094,1.2750975513554204,1.9772745173077997,0.055656492850909567,0.82801878882026436,-0.82801878882026436,-0.055656492850909567,3.6850424138856255,0.0
769640.0783812654,3955767.5119837918,-47500.0,-0.66013496487383472,-0.060504643962546921,1.6323847849957958,-0.1828999638361361,1.7543500596248862,1.4203284017051039,1.9885186639827555,-0.22210606325115068,1.1858076977336158,-1.1858076977336158,0.22210606325115068,3.7628504205869273,0.0
774640.0783812654,3955767.5119837918,-47500.0,-0.46982343958840928,-0.32853250161647446,1.5680724798849197,-0.45332140088703315,1.7623853949541768,1.4805508506746283,1.9710525143639028,-0.46003957896853448,1.4502671884400926,-1.4502671884400926,0.46003957896853448,3.7736757114989903,0.0
779640.0783812654,3955767.5119837918,-47500.0,-0.24994999761244779,-0.53855756374407826,1.450592505314346,-0.67319676165611875,1.6999757576187251,1.4719074926701039,1.9253245091883733,-0.64768212177100315,1.6200609665027281,-1.6200609665027281,0.64768212177100315,3.7186036751015989,0.0
784640.0783812654,3955767.5119837918,-47500.0,-0.024408236703887816,-0.68756719636015184,1.3009689757502818,-0.8367983318617066,1.5885582093885018,1.4123191399954951,1.8551451713046243,-0.78230558092690505,1.7037477893165318,-1.7037477893165318,0.78230558092690505,3.6063965993304108,0.0
789640.0783812654,3955767.5119837918,-47500.0,0.18824786835702434,-0.77969604098736423,1.13709361455066,-0.94561571016769619,1.4475873024153183,1.3187522267703475,1.7659598493375794,-0.86697800361781718,1.7156529251441284,-1.7156529251441284,0.86697800361781718,3.4494269176504644,0.0
794640.0783812654,3955767.5119837918,-47500.0,0.37567777906409855,-0.82328502449177277,0.97258576118764395,-1.0057679789233573,1.2929487529931403,1.2056310868857574,1.6635877081498729,-0.90834996509265287,1.6722660234128019,-1.6722660234128019,0.90834996509265287,3.2608231611968561,0.0
799640.0783812654,3955767.5119837918,-47500.0,0.53128821112433822,-0.82840295895520932,0.81674167037516565,-1.0256908724504477,1.1364973843661377,1.0842154250518232,1.5534377054948458,-0.91470339996589878,1.5896466373304632,-1.5896466373304632,0.91470339996589878,3.0527259611837563,0.0
804640.0783812654,3955767.5119837918,-47500.0,0.65306979470459092,-0.80509216810332562,0.67511759223367929,-1.0143981691111785,0.98632216864121114,0.96264030074534546,1.4401073054312661,-0.89450802885452063,1.4818839450004799,-1.4818839450004799,0.89450802885452063,2.8354047419583028,0.0
809640.0783812654,3955767.5119837918,-47500.0,0.74223854744539153,-0.76232543035955003,0.55037044568418192,-0.98036073285205561,0.84737871271811205,0.84632459523484316,1.327244164656288,-0.8555142283030337,1.360418159597355,-1.360418159597355,0.8555142283030337,2.6169661441072862,0.0
814640.0783812654,3955767.5119837918,-47500.0,0.80199081701938779,-0.70752671756334085,0.44310847055687147,-0.93090706224348918,0.72223043572631085,0.73852448416221728,1.2175663759795041,-0.80429346838416893,1.2339544694062059,-1.2339544694062059,0.80429346838416893,2.4034233955385709,0.0
659640.0783812654,3960767.5119837918,-47500.0,-0.99701493709056344,-0.28335409946967965,0.096259557763216666,-0.84595832746527022,-0.28726187463489972,-0.57728975213257461,0.97510958186393304,0.1239499796898591,0.019718073010448783,-0.019718073010448783,-0.1239499796898591,1.8835888029933852,0.0
664640.0783812654,3960767.5119837918,-47500.0,-1.034498237288513,-0.35710116564472805,0.055680706593364569,-0.95595169813592651,-0.3878780938655299,-0.70672695897946147,1.099484051480492,0.1161706810798068,0.029143270491746115,-0.029143270491746115,-0.1161706810798068,2.124626488743282,0.0
669640.0783812654,3960767.5119837918,-47500.0,-1.0503304466476093,-0.43480024680759233,-0.0018616329324953448,-1.0679292024212688,-0.51221467889951977,-0.86121253153008759,1.2376388687882829,0.10849158712332425,0.030920574733440689,-0.030920574733440689,-0.10849158712332425,2.3900694431126177,0.0
674640.0783812654,3960767.5119837918,-47500.0,-1.0367676018132352,-0.51158043808250042,-0.079463282162294951,-1.175517264103793,-0.66285579434967801,-1.0428163260324708,1.3887862683185479,0.10320881602589625,0.019778868603898811,-0.019778868603898811,-0.10320881602589625,2.6778831524402924,0.0
679640.0783812654,3960767.5119837918,-47500.0,-0.98586524651439844,-0.57998517402557981,-0.17946978826161925,-1.2695217466520006,-0.84097588832867354,-1.2520368295605262,1.5507842709711619,0.10387105352215234,-0.011121044844976585,0.011121044844976585,-0.10387105352215234,2.983569445912468,0.0
684640.0783812654,3960767.5119837918,-47500.0,-0.89071647645276109,-0.62958624600818702,-0.30253467363497794,-1.337624941624455,-1.0451970493048641,-1.4866822384756428,1.7197453903547031,0.11548704033506657,-0.069993132713431272,0.069993132713431272,-0.11548704033506657,3.2993693081369493,0.0
689640.0783812654,3960767.5119837918,-47500.0,-0.74733121530575808,-0.64702451176389519,-0.44633881950157672,-1.3645677224481096,-1.2701265935912935,-1.7404677358078475,1.8896855871678664,0.14450775738296728,-0.16570627523297432,0.16570627523297432,-0.14450775738296728,3.6135253100689004,0.0
694640.0783812654,3960767.5119837918,-47500.0,-0.5570903096775347,-0.61684214016059769,-0.60407809311928906,-1.3331805429116297,-1.5047329717559188,-2.0014896442959205,2.052329368017674,0.19837143984608874,-0.30628473655834088,0.30628473655834088,-0.19837143984608874,3.9098447377097596,0.0
699640.0783812654,3960767.5119837918,-47500.0,-0.32940300183438748,-0.52350232793290608,-0.76303136029131557,-1.2266415050413337,-1.7309396990785457,-2.250943224158656,2.197270599762783,0.28436950709784503,-0.49645019645014166,0.49645019645014166,-0.28436950709784503,4.167935337815921,0.0
704640.0783812654,3960767.5119837918,-47500.0,-0.083762328882719686,-0.35484788929666966,-0.90378909163432541,-1.0321746129574751,-1.9230889146562715,-2.4626985373386181,2.312749972430697,0.40766081732681614,-0.7342831551664768,0.7342831551664768,-0.40766081732681614,4.364597038359542,0.0
709640.0783812654,3960767.5119837918,-47500.0,0.15003443250700618,-0.10681483981112058,-1.0009543044539544,-0.74595310005930249,-2.0491381825457187,-2.6045355282757314,2.3873077882971985,0.5685083720707067,-1.0075742724584908,1.0075742724584908,-0.5685083720707067,4.4768761349183945,0.0
714640.0783812654,3960767.5119837918,-47500.0,0.33485375183716981,0.21153934798065899,-1.0261238383587692,-0.3782222884970346,-2.0743994790120777,-2.6417777289743567,2.4124383300451044,0.75927127067540512,-1.2910973359019415,1.2910973359019415,-0.75927127067540512,4.4871225540734132,0.0
719640.0783812654,3960767.5119837918,-47500.0,0.43314936625261247,0.57451288565979763,-0.95347305302561747,0.043191909359485893,-1.9680681836713949,-2.5435388407034316,2.3860337695720615,0.96225435985096031,-1.5465732401821235,1.5465732401821235,-0.96225435985096031,4.3899340233445994,0.0
724640.0783812654,3960767.5119837918,-47500.0,0.41708798349546672,0.94004841212751888,-0.76719136644073183,0.47326698489330238,-1.71163488565768,-2.2907332098283906,2.3158147434638057,1.1498858934914522,-1.7269951704088604,1.7269951704088604,-1.1498858934914522,4.2000114743804735,0.0
729640.0783812654,3960767.5119837918,-47500.0,0.27902777146156066,1.2555532814129833,-0.46863447960842558,0.85573452282727058,-1.3068405484500811,-1.883691836653997,2.2211390880456623,1.2884079938100392,-1.7857744592087081,1.7857744592087081,-1.2884079938100392,3.9584030415890674,0.0
734640.0783812654,3960767.5119837918,-47500.0,0.037977972329451298,1.4689835728505327,-0.080156348721887163,1.1343225416891236,-0.77993438004962412,-1.3463927769972017,2.1307764547389256,1.3450500815765694,-1.6889200193283977,1.6889200193283977,-1.3450500815765694,3.7317007382777909,0.0
739640.0783812654,3960767.5119837918,-47500.0,-0.26184136552114357,1.5421696291261959,0.35691229180689155,1.2663353107911848,-0.17955080681234492,-0.72479661883384605,2.0744062957494718,1.2968392002419029,-1.4261998163313887,1.4261998163313887,-1.2968392002419029,3.5952790212918813,0.0
744640.0783812654,3960767.5119837918,-47500.0,-0.56120068454836847,1.4614564921258819,0.79049227293242408,1.2337443436743745,0.43220644808064568,-0.078811602761631239,2.0693509870822471,1.1378108297000309,-1.0165593008779665,1.0165593008779665,-1.1378108297000309,3.5975101036657469,0.0
749640.0783812654,3960767.5119837918,-47500.0,-0.8014864155986321,1.2412510010253126,1.1696591967808903,1.0473986127814703,0.99287904579999642,0.52985469305042288,2.1113775885417327,0.88153852039313518,-0.50497844553018023,0.50497844553018023,-0.88153852039313518,3.7288452758813504,0.0
754640.0783812654,3960767.5119837918,-47500.0,-0.93966199754721058,0.91910142052331889,1.4558721847198641,0.74282224277141207,1.4524165824079192,1.0498541224276792,2.178392308384506,0.55782103256490045,0.048319060444236339,-0.048319060444236339,-0.55782103256490045,3.9305143736832986,0.0
759640.0783812654,3960767.5119837918,-47500.0,-0.95702778420678769,0.54471583516907407,1.6296407340788708,0.36972311535079322,1.781378499288369,1.4484510284287531,2.2431655078981327,0.20497474202213051,0.58205928440410071,-0.58205928440410071,-0.20497474202213051,4.1322107482542147,0.0
764640.0783812654,3960767.5119837918,-47500.0,-0.85960063367254591,0.16754713587281461,1.6911030294488862,-0.020396248424257541,1.9726961946023167,1.713958263716022,2.2840920016590673,-0.13912129084629521,1.0463233167771269,-1.0463233167771269,0.13912129084629521,4.2807666890667457,0.0
769640.0783812654,3960767.5119837918,-47500.0,-0.67176016147222983,-0.17279484682028656,1.6556518645017197,-0.38430017093515856,2.0378784126202749,1.8529311655567944,2.2892705884214699,-0.44414512099739201,1.4096327483853988,-1.4096327483853988,0.44414512099739201,4.3481485018684412,0.0
774640.0783812654,3960767.5119837918,-47500.0,-0.42693155649644865,-0.45121452085404001,1.5472386161774916,-0.69248309304938882,2.000234337451916,1.8843129237679754,2.2557427627652862,-0.69096053546808411,1.6600078209492555,-1.6600078209492555,0.69096053546808411,4.3276556415297645,0.0
779640.0783812654,3960767.5119837918,-47500.0,-0.15893289783134451,-0.65715146665715485,1.3919261730550296,-0.93002199551850839,1.8878255550800564,1.8329808173252986,2.1868175095944635,-0.87178983721928993,1.8015474010129164,-1.8015474010129164,0.87178983721928993,4.2267871390548679,0.0
784640.0783812654,3960767.5119837918,-47500.0,0.10390979528626151,-0.79160657288501735,1.2132422253549331,-1.0942423661472456,1.7279490609461239,1.7244260656749171,2.0892610547890769,-0.98805219241075903,1.8489408391278461,-1.8489408391278461,0.98805219241075903,4.0605967552556832,0.0
789640.0783812654,3960767.5119837918,-47500.0,0.34145712347098328,-0.86305284461706022,1.0297287291749089,-1.1909719577764815,1.5437962038514936,1.5812917843983703,1.9710819329720843,-1.0472436939069054,1.8219793040225747,-1.8219793040225747,1.0472436939069054,3.8467269469361605,0.0
794640.0783812654,3960767.5119837918,-47500.0,0.54192254680961316,-0.88360717968214897,0.85431383754090706,-1.2307749098923344,1.353086665166088,1.4217094098339029,1.8400694218682234,-1.0599240472410891,1.7412616707295399,-1.7412616707295399,1.0599240472410891,3.6022231524346355,0.0
799640.0783812654,3960767.5119837918,-47500.0,0.70054108941342608,-0.86614686123451112,0.6948422811283167,-1.2259347473607627,1.1680886352428164,1.2589742427587258,1.7029874384276584,-1.0373785527556714,1.6254574574480736,-1.6254574574480736,1.0373785527556714,3.3418160954847536,0.0
804640.0783812654,3960767.5119837918,-47500.0,0.81765766440404586,-0.82250678389941323,0.55514262960383409,-1.1884212577076658,0.99640195184109548,1.1020215612663951,1.5652452506834862,-0.9901051233998861,1.4899589654394889,-1.4899589654394889,0.9901051233998861,3.0772495515492326,0.0
809640.0783812654,3960767.5119837918,-47500.0,0.89684597165504409,-0.76258805923301032,0.43619614706138365,-1.1287508747858011,0.84202301904989507,0.95626047155882177,1.4308707412188506,-0.92702551790654131,1.3465348806429347,-1.3465348806429347,0.92702551790654131,2.8172616443506135,0.0
814640.0783812654,3960767.5119837918,-47500.0,0.94336541987377864,-0.69410460686384667,0.33716725560492,-1.0555153968333815,0.70639333352178912,0.82447182158267318,1.3026498703998317,-0.8552227815629635,1.2035854351031174,-1.2035854351031174,0.8552227815629635,2.5679165330376432,0.0
819640.0783812654,3960767.5119837918,-47500.0,0.96304727161653592,-0.62270921084044029,0.25620336392735776,-0.97534144858847027,0.58928609238850049,0.70761230737526393,1.1823393066133874,-0.78000536807377707,1.0666851908020389,-1.0666851908020389,0.78000536807377707,2.3330816716003673,0.0
654640.0783812654,3965767.5119837918,-47500.0,-0.97385105251557635,-0.11498813600031578,0.20232323435246963,-0.74930613805199764,-0.12996591426981213,-0.46821182872784994,0.87826634349948518,0.18590345635121258,-0.032266593795067827,0.032266593795067827,-0.18590345635121258,1.6790045922262433,0.0
659640.0783812654,3965767.5119837918,-47500.0,-1.0428078552515962,-0.17694152594181708,0.19254802295136011,-0.8657672829696258,-0.20104232974895631,-0.5827758727347101,0.99432042334635495,0.18617677703954905,-0.016708551744907915,0.016708551744907915,-0.18617677703954905,1.9061133984177763,0.0
664640.0783812654,3965767.5119837918,-47500.0,-1.0992431122507855,-0.24792428011741857,0.17128520307405282,-0.99222668596732555,-0.29330431834537368,-0.7234301806906801,1.1258962729275006,0.18522158828514168,-0.0027299410127096385,0.0027299410127096385,-0.18522158828514168,2.1619481014330759,0.0
669640.0783812654,3965767.5119837918,-47500.0,-1.1355374587974612,-0.32596426161195446,0.13494389670512361,-1.1250606599908823,-0.41091391695281521,-0.89434782165795434,1.2738294424706911,0.18407306508898394,0.0062892118189258606,-0.0062892118189258606,-0.18407306508898394,2.4471333608072015,0.0
674640.0783812654,3965767.5119837918,-47500.0,-1.1425640376899158,-0.4070172579728949,0.079688289334205645,-1.2579733005956157,-0.55776410031768586,-1.0991469569894197,1.4380363161577399,0.18470727438894316,0.0053162069487799057,-0.0053162069487799057,-0.18470727438894316,2.7605255225411076,0.0
679640.0783812654,3965767.5119837918,-47500.0,-1.1102596393789346,-0.48421245197444618,0.0019586812500835969,-1.3811853993016197,-0.73664528676961649,-1.3399391703934107,1.6169675592515924,0.19039623774583919,-0.012634246903102539,0.012634246903102539,-0.19039623774583919,3.0983187885062047,0.0
684640.0783812654,3965767.5119837918,-47500.0,-1.0288634192357298,-0.54716164451000604,-0.1006257929735624,-1.4807596881800238,-0.94795300783083158,-1.6159054189315945,1.8070266889675151,0.20602565395993977,-0.056547055799170798,0.056547055799170798,-0.20602565395993977,3.4529853671543234,0.0
689640.0783812654,3965767.5119837918,-47500.0,-0.89103649216203828,-0.58162320161604386,-0.22790374914024997,-1.5384035500009043,-1.1878882182133912,-1.9213681352672887,2.0020184715236065,0.2382169823498263,-0.13692068664548573,0.13692068664548573,-0.2382169823498263,3.8121809150691024,0.0
694640.0783812654,3965767.5119837918,-47500.0,-0.69492595666669388,-0.56998028699323522,-0.37537803574149559,-1.5322630399973856,-1.4462540953042518,-2.2434917484463144,2.1927400174092213,0.29499788121378767,-0.26438147676529822,0.26438147676529822,-0.29499788121378767,4.1578940875013206,0.0
699640.0783812654,3965767.5119837918,-47500.0,-0.44787240743649787,-0.49311901993875074,-0.53225412119585613,-1.4393346941057938,-1.7042413135602363,-2.5600429468044545,2.3669468476125335,0.38468763796841127,-0.44704210344863932,0.44704210344863932,-0.38468763796841127,4.4663210413168324,0.0
704640.0783812654,3965767.5119837918,-47500.0,-0.16984329616322341,-0.33422851097020806,-0.6799320237059473,-1.2400153688708186,-1.9330097734013336,-2.838062558559789,2.5100593829499949,0.5136935206480262,-0.68648499914707406,0.68648499914707406,-0.5136935206480262,4.7091588170041776,0.0
709640.0783812654,3965767.5119837918,-47500.0,0.10507194885409271,-0.0845892133650816,-0.79197353052724462,-0.92477657180358497,-2.0942990863462625,-3.0347154665074418,2.6070438600311436,0.68317483080294772,-0.97284832939787869,0.97284832939787869,-0.68317483080294772,4.8571381096391102,0.0
714640.0783812654,3965767.5119837918,-47500.0,0.33123808096295548,0.24957673288136001,-0.83675435109566787,-0.50185509344856161,-2.1444339671434842,-3.1016934372921123,2.6458055080984333,0.88512346567036559,-1.280452550053079,1.280452550053079,-0.88512346567036559,4.8864935748286875,0.0
719640.0783812654,3965767.5119837918,-47500.0,0.45976290398631331,0.64149462155786141,-0.78359222478708412,-0.0033873138114890317,-2.0424995404850792,-2.9939161281778617,2.622033937737402,1.0992575593303888,-1.5664004463669414,1.5664004463669414,-1.0992575593303888,4.7884940100695497,0.0
724640.0783812654,3965767.5119837918,-47500.0,0.45209606778652256,1.0428249338675633,-0.61180860578117613,0.51366175930575619,-1.7618414111926002,-2.6816236141703875,2.5445744032448601,1.292809211998067,-1.7748396831049875,1.7748396831049875,-1.292809211998067,4.5808695021605432,0.0
729640.0783812654,3965767.5119837918,-47500.0,0.29520405774353364,1.3901960537262592,-0.32016122377830131,0.97490943564083798,-1.3017129943029968,-2.1626067552558097,2.4388972270709699,1.4250745595600036,-1.8481739447162799,1.8481739447162799,-1.4250745595600036,4.3173727618118427,0.0
734640.0783812654,3965767.5119837918,-47500.0,0.011716407733801363,1.6195242312492797,0.067527766636581832,1.3045130308169997,-0.69411339210499268,-1.469542008793987,2.3442818051942025,1.4569093749188884,-1.7432432405299418,1.7432432405299418,-1.4569093749188884,4.0864570965878082,0.0
739640.0783812654,3965767.5119837918,-47500.0,-0.34134011938261283,1.68408090997231,0.50436273703062051,1.4453212619914735,-0.0013646150434118538,-0.66788629654665133,2.3002127775248673,1.3625743794092313,-1.4467806587333991,1.4467806587333991,-1.3625743794092313,3.9841258179882337,0.0
744640.0783812654,3965767.5119837918,-47500.0,-0.6869762225752325,1.5690192573073436,0.93077190740166182,1.37540115615123,0.69650581889145691,0.15673303589421259,2.3253230786774322,1.1391225535830949,-0.98301923468529795,0.98301923468529795,-1.1391225535830949,4.0595634774464262,0.0
749640.0783812654,3965767.5119837918,-47500.0,-0.95068674462457525,1.2956970196677524,1.2897903001489026,1.1136986822010781,1.3205489144881755,0.91774517895398389,2.4060148542420281,0.8088160901245236,-0.40910361146708163,0.40910361146708163,-0.8088160901245236,4.2794405332834451,0.0
754640.0783812654,3965767.5119837918,-47500.0,-1.081259824220135,0.9139441746160385,1.541014472398283,0.71257340696535731,1.8106268823124572,1.5463036809486779,2.5070665021619147,0.41322839226740277,0.2001712064626367,-0.2001712064626367,-0.41322839226740277,4.5557100196136142,0.0
759640.0783812654,3965767.5119837918,-47500.0,-1.0615654097812532,0.48634202004402383,1.6679225041505925,0.24121227321239672,2.1357083204815592,2.0028476275686127,2.5920092103476562,0.0017659442752726573,0.77166189166665222,-0.77166189166665222,-0.0017659442752726573,4.8004519621788821,0.0
764640.0783812654,3965767.5119837918,-47500.0,-0.90680465989651371,0.071654378538860933,1.6769835571323426,-0.23261614587204607,2.2944437758081579,2.2789289687212677,2.6360664997655152,-0.38039682988711077,1.2495675510161872,-1.2495675510161872,0.38039682988711077,4.9562838776279774,0.0
769640.0783812654,3965767.5119837918,-47500.0,-0.65376062975538807,-0.28666169420137677,1.5908006291310883,-0.65597929198158633,2.3081593001369223,2.3910777385554485,2.6287307460857758,-0.7006940258415979,1.6029575961234743,-1.6029575961234743,0.7006940258415979,4.9995018784544056,0.0
774640.0783812654,3965767.5119837918,-47500.0,-0.34726158925963169,-0.56467164890274391,1.4392355135931001,-0.99662564487902461,2.2106314951350683,2.3708669015892321,2.5707987550025297,-0.94217961295481945,1.8250529905197739,-1.8250529905197739,0.94217961295481945,4.9316215163318358,0.0
779640.0783812654,3965767.5119837918,-47500.0,-0.028998293577513316,-0.75615345730525707,1.2518271930006082,-1.2421698973903263,2.038601919643531,2.2551688082790342,2.4699863135313023,-1.1020077220283595,1.9272010276828075,-1.9272010276828075,1.1020077220283595,4.7690952508694666,0.0
784640.0783812654,3965767.5119837918,-47500.0,0.26897916475052502,-0.86757530652770765,1.0530788048643542,-1.3953794026805113,1.8251991539459558,2.0789720283026578,2.3370838500562452,-1.1874384064705579,1.9311471226610362,-1.9311471226610362,1.1874384064705579,4.5348692685982206,0.0
789640.0783812654,3965767.5119837918,-47500.0,0.52626323837652689,-0.91247707739618211,0.86060639526956373,-1.468333330962599,1.5966285121956478,1.8713602779278287,2.1832572692504151,-1.2113466534674833,1.8622153242844386,-1.8622153242844386,1.2113466534674833,4.2526305720666215,0.0
794640.0783812654,3965767.5119837918,-47500.0,0.73303049841523749,-0.90684448026521636,0.68532028692233615,-1.4772808768910335,1.3714256020253555,1.654133412663628,2.0184738859846703,-1.188479738667553,1.7445753121269609,-1.7445753121269609,1.188479738667553,3.9435078933965904,0.0
799640.0783812654,3965767.5119837918,-47500.0,0.88752487851561046,-0.86603278780429527,0.532666860345266,-1.4389694293002513,1.1612540137352183,1.4421425540331645,1.8507944900887559,-1.1329293178402533,1.5986661642913351,-1.5986661642913351,1.1329293178402533,3.624611094382328,0.0
804640.0783812654,3965767.5119837918,-47500.0,0.99327159251990083,-0.80313425335508026,0.4041818780485894,-1.3684778893914136,0.97237001819879132,1.2444759722882455,1.6862334888956483,-1.0567628268965144,1.440287897543362,-1.440287897543362,1.0567628268965144,3.3087598421968196,0.0
809640.0783812654,3965767.5119837918,-47500.0,1.0566792916260919,-0.72840416268437425,0.29891826489284123,-1.2782353120962351,0.80717740021459738,1.0658877034798722,1.5289369781194984,-0.96952457058869379,1.2807417363074605,-1.2807417363074605,0.96952457058869379,3.0048701839304544,0.0
814640.0783812654,3965767.5119837918,-47500.0,1.0852699575943958,-0.6493327100031796,0.21456446071666213,-1.1778222632000812,0.66557500463345676,0.90812448338076324,1.3815013826058462,-0.8782813084257497,1.1274965832515105,-1.1274965832515105,0.8782813084257497,2.7186268702178742,0.0
819640.0783812654,3965767.5119837918,-47500.0,1.0865294346906871,-0.57103797444372761,0.14822735235304918,-1.0742111790402684,0.54599471285130752,0.77100559298825888,1.2453254412577903,-0.78794891227702135,0.98502832901125337,-0.98502832901125337,0.78794891227702135,2.4532187367590419,0.0
654640.0783812654,3970767.5119837918,-47500.0,-0.97696261566991049,0.0051819986344031196,0.27157427387802446,-0.73440489690725441,-0.040006749716543534,-0.45151045862006545,0.8861014981819868,0.23826334038604446,-0.081604367660908214,0.081604367660908214,-0.23826334038604446,1.6738673093597811,0.0
659640.0783812654,3970767.5119837918,-47500.0,-1.0617629041278973,-0.046747080817298441,0.27975831968257342,-0.86051762830675493,-0.09746709422428107,-0.57018280321845682,1.0056285266024452,0.24615456296817084,-0.065964280656771165,0.065964280656771165,-0.24615456296817084,1.9074569952991365,0.0
664640.0783812654,3970767.5119837918,-47500.0,-1.1373025298919937,-0.10924292055573821,0.27969996865261609,-1.0008121752306149,-0.17552323600188169,-0.71842337803235956,1.1421642156729341,0.25308531134169371,-0.049595054878205189,0.049595054878205189,-0.25308531134169371,2.173224635523173,0.0
669640.0783812654,3970767.5119837918,-47500.0,-1.1955462699671886,-0.18137116856868196,0.26778248505067936,-1.1524618320892603,-0.2791552500545213,-0.90189771074837699,1.2971657323517909,0.25977099295796741,-0.035161849310468007,0.035161849310468007,-0.25977099295796741,2.4728183167288074,0.0
674640.0783812654,3970767.5119837918,-47500.0,-1.2263048888411299,-0.26025889582076606,0.23977037594390216,-1.3097126693244738,-0.41350712443168025,-1.1260724969546572,1.4713549510687403,0.26778305629364085,-0.02704879557532458,0.02704879557532458,-0.26778305629364085,2.8061869711262482,0.0
679640.0783812654,3970767.5119837918,-47500.0,-1.2175876087498048,-0.34017009934123876,0.19116433006463812,-1.4627409496404864,-0.58310364766572365,-1.3951627683174606,1.6640455904581088,0.27995326521144248,-0.031859230187561136,0.031859230187561136,-0.27995326521144248,3.1705337486330762,0.0
684640.0783812654,3970767.5119837918,-47500.0,-1.1567054556405663,-0.41151135946932343,0.11795228827115299,-1.5965121016729023,-0.79050306250890534,-1.7104210320906095,1.8723158254518006,0.30079205825660216,-0.058756737327214967,0.058756737327214967,-0.30079205825660216,3.5589905726136637,0.0
689640.0783812654,3970767.5119837918,-47500.0,-1.0324846791592543,-0.46005059089042322,0.017906913536854047,-1.690027265366532,-1.0342420475100729,-2.0676328142106879,2.0901574314804932,0.33676550877060057,-0.11933791327075666,0.11933791327075666,-0.33676550877060057,3.9591225047801197,0.0
694640.0783812654,3970767.5119837918,-47500.0,-0.83885043033061046,-0.46687167626393949,-0.10749556706311947,-1.7166246225479305,-1.3060718655300865,-2.4538641247895634,2.3077598714232428,0.39614443547306599,-0.22656753733222823,0.22656753733222823,-0.39614443547306599,4.3515602044892834,0.0
699640.0783812654,3970767.5119837918,-47500.0,-0.57965698802599397,-0.40983699809644547,-0.25068264690129155,-1.646271054620339,-1.5878184101846107,-2.8439013993326769,2.5111858719558962,0.48800336133763922,-0.39221312602298053,0.39221312602298053,-0.48800336133763922,4.7093451080419717,0.0
704640.0783812654,3970767.5119837918,-47500.0,-0.27384455018298215,-0.26741589208445576,-0.39569052506146796,-1.4508227293326879,-1.8487711886636324,-3.1974768505968147,2.682898311697556,0.61990694144320713,-0.62236430042517099,0.62236430042517099,-0.61990694144320713,4.9989296574115007,0.0
709640.0783812654,3970767.5119837918,-47500.0,0.041157622960820747,-0.025354058013843415,-0.51711939443776889,-1.1126937162829551,-2.0452210074837933,-3.4591554498881161,2.8037919631202604,0.79405743081721503,-0.91125447806443205,0.91125447806443205,-0.79405743081721503,5.1840811920474712,0.0
714640.0783812654,3970767.5119837918,-47500.0,0.31090640068930642,0.31451967021290217,-0.58196049044470344,-0.63589700223574874,-2.1242463191663017,-3.5632420691333473,2.8573937211032989,1.0023867013759153,-1.2348680983718625,1.2348680983718625,-1.0023867013759153,5.2339534661816458,0.0
719640.0783812654,3970767.5119837918,-47500.0,0.47329730322270308,0.72602657325890763,-0.55571931795925911,-0.056069261543374896,-2.0333910563474262,-3.4454694094968592,2.8364934913726469,1.2222634435940409,-1.5474368877080367,1.5474368877080367,-1.2222634435940409,5.1359462885694169,0.0
724640.0783812654,3970767.5119837918,-47500.0,0.47626802381744676,1.1555260984277451,-0.41278654076070859,0.55611254206427219,-1.7357812208999412,-3.060808884267086,2.7513094563687757,1.4156428327779369,-1.7848603770439131,1.7848603770439131,-1.4156428327779369,4.9121269541165899,0.0
729640.0783812654,3970767.5119837918,-47500.0,0.29927476500241734,1.5286792493900403,-0.14826728961972269,1.1036759566633167,-1.2266338291456,-2.4027142952070433,2.6357519775476645,1.5344924456605298,-1.8777323328287754,1.8777323328287754,-1.5344924456605298,4.6336334860975645,0.0
734640.0783812654,3970767.5119837918,-47500.0,-0.031163012500201644,1.7683699972258735,0.21415600468761328,1.4856235420908177,-0.54384929000274229,-1.5155154584062576,2.544002167108955,1.5330898557540273,-1.7721697366409421,1.7721697366409421,-1.5330898557540273,4.4178692721118464,0.0
739640.0783812654,3970767.5119837918,-47500.0,-0.44213690679304091,1.8186436487886786,0.62382235284763465,1.6265056573753112,0.23448452244876619,-0.49187878232407234,2.5281505015544479,1.3836403058567122,-1.450773280028423,1.450773280028423,-1.3836403058567122,4.3835683305126194,0.0
744640.0783812654,3970767.5119837918,-47500.0,-0.83460572367494812,1.664140533047535,1.015666291488954,1.500775170544987,1.007578095992542,0.54689547471384004,2.6043496273106053,1.0882069268331129,-0.94322416234623063,0.94322416234623063,-1.0882069268331129,4.5701870226823598,0.0
749640.0783812654,3970767.5119837918,-47500.0,-1.1153326086574216,1.3351470812872632,1.3290781338541708,1.1400961282945705,1.6782912246598185,1.4810647750093706,2.7414372888797081,0.6804792451647661,-0.31989638056332814,0.31989638056332814,-0.6804792451647661,4.9058186504528178,0.0
754640.0783812654,3970767.5119837918,-47500.0,-1.2253491655088478,0.89586425061512043,1.5244897739377763,0.62040081956753967,2.1771223197609877,2.2206617324212834,2.8856439274962589,0.21602503048419081,0.32911370831023684,-0.32911370831023684,-0.21602503048419081,5.2671268193978058,0.0
759640.0783812654,3970767.5119837918,-47500.0,-1.1524881884634617,0.42255585055063205,1.5907474035429223,0.036108273817396237,2.4744097778233916,2.720982916676713,2.9908441986577978,-0.24411968093564362,0.91945972240056473,-0.91945972240056473,0.24411968093564362,5.5507620309250845,0.0
764640.0783812654,3970767.5119837918,-47500.0,-0.92559803096758642,-0.017739191326964589,1.5419732922055123,-0.52605690235790004,2.5783508536645994,2.9821400151957973,3.0315087984307434,-0.64891883538193862,1.3915859818384602,-1.3915859818384602,0.64891883538193862,5.7001345190490627,0.0
769640.0783812654,3970767.5119837918,-47500.0,-0.59735165217369779,-0.38008985296539399,1.4077991688548477,-1.0040642565292657,2.5232432966729785,3.03703023872679,3.001602417109086,-0.96631403926445758,1.7178476840480159,-1.7178476840480159,0.96631403926445758,5.7008760639767111,0.0
774640.0783812654,3970767.5119837918,-47500.0,-0.22543850973314669,-0.64438518395751043,1.222477282788907,-1.3656589327428992,2.3549269512000723,2.9352506670716636,2.9083019732836619,-1.1845414567684989,1.8989463894947574,-1.8989463894947574,1.1845414567684989,5.5666701927072451,0.0
779640.0783812654,3970767.5119837918,-47500.0,0.14103848876330799,-0.81079371932594557,1.0167581439278366,-1.6043780195082897,2.1188235371589244,2.7291140392429734,2.7655158326713609,-1.3080334125132023,1.9546417813922261,-1.9546417813922261,1.3080334125132023,5.3255118758689752,0.0
784640.0783812654,3970767.5119837918,-47500.0,0.46792174976115158,-0.89229402814605685,0.81377633060510945,-1.7313472159155878,1.8527932399630245,2.4646158928557811,2.589005999076111,-1.3511941092384938,1.9137073957487618,-1.9137073957487618,1.3511941092384938,5.0095529631450075,0.0
789640.0783812654,3970767.5119837918,-47500.0,0.73647396083410444,-0.90759089530752723,0.62827564708993999,-1.7668501871141988,1.5844793626284337,2.1773738026562937,2.3933901568608742,-1.3325859470772847,1.8061057409803027,-1.8061057409803027,1.3325859470772847,4.6488675142509388,0.0
794640.0783812654,3970767.5119837918,-47500.0,0.94052241230205302,-0.87599952594332142,0.46780898645199981,-1.7338002421691108,1.3316707057101864,1.8921498072153997,2.1906924270185906,-1.2707487738716656,1.6582675891161687,-1.6582675891161687,1.2707487738716656,4.2684020055105494,0.0
799640.0783812654,3970767.5119837918,-47500.0,1.0825048386183918,-0.8145179307160636,0.33468442964058448,-1.6536458578836601,1.1041472829935,1.6243359339279655,1.9899403294306128,-1.1818181077734755,1.4910538897731527,-1.4910538897731527,1.1818181077734755,3.8870791819959734,0.0
804640.0783812654,3970767.5119837918,-47500.0,1.1697930735061428,-0.73662594558730965,0.22788098695497941,-1.5443569408934572,0.90591386640949778,1.3821570867914041,1.7973606534050988,-1.078570242468158,1.3195181286513651,-1.3195181286513651,1.078570242468158,3.5181434475651061,0.0
809640.0783812654,3970767.5119837918,-47500.0,1.2118831021107073,-0.65218061628970248,0.14457876946187673,-1.4198411501487282,0.73721954163407166,1.168844895503975,1.6168472302037484,-0.97038138705109278,1.1536279751469105,-1.1536279751469105,0.97038138705109278,3.1700787470973935,0.0
814640.0783812654,3970767.5119837918,-47500.0,1.2185357011975873,-0.5678743644304467,0.081225572801449722,-1.2901799263521092,0.59612996957821507,0.98444063059380615,1.4504975312561288,-0.86366075399344189,0.99934538839367704,-0.99934538839367704,0.86366075399344189,2.8476807345160315,0.0
819640.0783812654,3970767.5119837918,-47500.0,1.1987115659965011,-0.48789576498216458,0.034198992505300445,-1.1622382557971342,0.47963267187417846,0.82713974394627165,1.29911104103835,-0.7624562989372633,0.85971430863298959,-0.85971430863298959,0.7624562989372633,2.5530604607007406,0.0
824640.0783812654,3970767.5119837918,-47500.0,1.1600750126253703,-0.41458871618500892,0.00016767322829372292,-1.0403710498797221,0.38435009055823388,0.69421720028447376,1.1626031971943094,-0.66905871496621472,0.7357904200572104,-0.7357904200572104,0.66905871496621472,2.2864817499906387,0.0
649640.0783812654,3975767.5119837918,-47500.0,-0.84982020184112517,0.16698867003138601,0.29727498347385273,-0.57942634342899169,0.08510026702484999,-0.32465533893710097,0.78351312476851076,0.26749829047062457,-0.14994153663708834,0.14994153663708834,-0.26749829047062457,1.4497578722483733,0.0
654640.0783812654,3975767.5119837918,-47500.0,-0.94758092336857647,0.14029224210868044,0.32451661138150095,-0.69265808630118131,0.059646682667551298,-0.41711253663185377,0.88858586076835144,0.28358545063137564,-0.14040741854679001,0.14040741854679001,-0.28358545063137564,1.6534406289964774,0.0
659640.0783812654,3975767.5119837918,-47500.0,-1.045723565018273,0.10359543012125044,0.34988044749975067,-0.82388999397577711,0.020277205883382977,-0.53535083683747298,1.0095108440449905,0.29921452380083535,-0.1274182474262292,0.1274182474262292,-0.29921452380083535,1.8883130977885463,0.0
664640.0783812654,3975767.5119837918,-47500.0,-1.1386773762588309,0.055856720856077173,0.37097846996450606,-0.97329059849540667,-0.037603851748278939,-0.68572109162358508,1.1483309370706847,0.3143787368411704,-0.11162930769434148,0.11162930769434148,-0.3143787368411704,2.157755292612118,0.0
669640.0783812654,3975767.5119837918,-47500.0,-1.2184627124350877,-0.0030827675239779315,0.38455589162498793,-1.1391617714976765,-0.1194802357833494,-0.87538539850531816,1.3069749388250094,0.32947264499931816,-0.094753156124270627,0.094753156124270627,-0.32947264499931816,2.4644137410256679,0.0
674640.0783812654,3975767.5119837918,-47500.0,-1.2743529453590234,-0.071758026543804435,0.38643525812522872,-1.316798433898613,-0.23148217886471298,-1.1118047868384664,1.4868837025669575,0.34560505335934444,-0.080123917504934944,0.080123917504934944,-0.34560505335934444,2.8094047916901568,0.0
679640.0783812654,3975767.5119837918,-47500.0,-1.292918566181402,-0.14606335311884869,0.37165102083488255,-1.4970217679051756,-0.37974954408220318,-1.4016632510333509,1.6883369745954564,0.36502210143752117,-0.073368451473585117,0.073368451473585117,-0.36502210143752117,3.1911574060939141,0.0
684640.0783812654,3975767.5119837918,-47500.0,-1.2588405940606704,-0.21801586069036533,0.33493810831188731,-1.6645194104435477,-0.56916769740532769,-1.7489438604288818,1.9094393972567114,0.39160009160780906,-0.083053515069725664,0.083053515069725664,-0.39160009160780906,3.6038550005263477,0.0
689640.0783812654,3975767.5119837918,-47500.0,-1.1570059482532651,-0.27453081835918558,0.27178242862932306,-1.796381428687829,-0.80122362259589242,-2.1518726919527191,2.1448908752663174,0.43127262386383525,-0.12101217036983425,0.12101217036983425,-0.43127262386383525,4.0355406337300419,0.0
694640.0783812654,3975767.5119837918,-47500.0,-0.97639593612575981,-0.29673449256373152,0.18022383374685577,-1.8616207938215359,-1.0708261454992745,-2.5986085985136014,2.3848119034402453,0.49209950784458023,-0.20182000491810484,0.20182000491810484,-0.49209950784458023,4.466170884457842,0.0
699640.0783812654,3975767.5119837918,-47500.0,-0.71594550341032381,-0.26072148856553196,0.063434918617206695,-1.8229476308590424,-1.3622694137998701,-3.0620280850162289,2.6139828013117623,0.58348711335964765,-0.34066336592514779,0.34066336592514779,-0.58348711335964765,4.866282287352953,0.0
704640.0783812654,3975767.5119837918,-47500.0,-0.39162937124656827,-0.14096126173096754,-0.067326105938878861,-1.6423777531002421,-1.6452170006321776,-3.4948730194100612,2.8120497417484627,0.71393265308155673,-0.54881790893516424,0.54881790893516424,-0.71393265308155673,5.1974731376862966,0.0
709640.0783812654,3975767.5119837918,-47500.0,-0.042410194107334064,0.082621990957619726,-0.19050947358681822,-1.2918661637874713,-1.8726340397165477,-3.8278413032432526,2.9555826875869187,0.88682068312642759,-0.82649439192277585,0.82649439192277585,-0.88682068312642759,5.4164851088612531,0.0
714640.0783812654,3975767.5119837918,-47500.0,0.26918425266616097,0.41409163558015322,-0.27473283043644819,-0.7683636805887295,-1.9835962894391643,-3.9743622980352606,3.0230969882707792,1.0945710926733832,-1.1542847681477697,1.1542847681477697,-1.0945710926733832,5.4849724030973492,0.0
719640.0783812654,3975767.5119837918,-47500.0,0.46675099931334163,0.83022616672304161,-0.28403471516077633,-0.10919975981039587,-1.9138622492716628,-3.8455458232723796,3.0038856208049594,1.3129844261590753,-1.4867853369865278,1.4867853369865278,-1.3129844261590753,5.3864810941927797,0.0
724640.0783812654,3975767.5119837918,-47500.0,0.48212086358901907,1.2744152056320415,-0.18870067919952921,0.60032076923741506,-1.6146853804613515,-3.3755404418493571,2.9101377544752003,1.4994248403828132,-1.7539790914146971,1.7539790914146971,-1.4994248403828132,5.1496537788354866,0.0
729640.0783812654,3975767.5119837918,-47500.0,0.28481799813787684,1.6627567369777589,0.020915464551290671,1.2363991438575614,-1.0751918393211664,-2.5509597213335917,2.787814247049869,1.5989414357057397,-1.875156292891192,1.875156292891192,-1.5989414357057397,4.8694303361425879,0.0
734640.0783812654,3975767.5119837918,-47500.0,-0.094838504941322774,1.9054490529521426,0.3240639144471737,1.667018991551561,-0.33810296044458205,-1.4311972023690447,2.7125455323746168,1.5596478205795463,-1.784493333436578,1.784493333436578,-1.5596478205795463,4.7003344314034887,0.0
739640.0783812654,3975767.5119837918,-47500.0,-0.56509670338955909,1.9374177632419642,0.67019603936402072,1.794526714892495,0.50228426774283919,-0.14562730848593383,2.7512635714611697,1.3527200816872276,-1.4586090907188944,1.4586090907188944,-1.3527200816872276,4.7814584438704166,0.0
744640.0783812654,3975767.5119837918,-47500.0,-1.0007120185760221,1.7435629935912418,0.99311631832209202,1.590885632535272,1.3234523511145009,1.1367472736404225,2.907841124789182,0.98711432336220872,-0.93120985911145027,0.93120985911145027,-0.98711432336220872,5.1234482684427007,0.0
749640.0783812654,3975767.5119837918,-47500.0,-1.2875981421996394,1.3644179685734223,1.2328800556878914,1.1066171757164149,2.0104015393739521,2.2539216474140691,3.1206953588012016,0.50997454620697991,-0.28490865724752912,0.28490865724752912,-0.50997454620697991,5.5993487386806491,0.0
754640.0783812654,3975767.5119837918,-47500.0,-1.360820536513609,0.87922463767247028,1.354298036432507,0.44910955459567115,2.4868831807145448,3.092507894407154,3.3133904068274758,-0.0083143170641037933,0.37632846329229386,-0.37632846329229386,0.0083143170641037933,6.0490212575839974,0.0
759640.0783812654,3975767.5119837918,-47500.0,-1.2179184320983616,0.37683835971710361,1.3535040208529889,-0.2563991574924947,2.72875462066497,3.6071634526387872,3.4332350664396012,-0.49637949813583271,0.95943432813054597,-0.95943432813054597,0.49637949813583271,6.3598626637350977,0.0
764640.0783812654,3975767.5119837918,-47500.0,-0.90636249092393029,-0.070249630762656376,1.2520258296316173,-0.90303265050933168,2.7576167144213741,3.8147719251176109,3.4589343359578231,-0.90044980371276884,1.4042095963414947,-1.4042095963414947,0.90044980371276884,6.483229727518423,0.0
769640.0783812654,3975767.5119837918,-47500.0,-0.49761441204452295,-0.41908772801310862,1.0842944173300166,-1.4222932759521028,2.6227864820779581,3.7727880027549099,3.3931656840772266,-1.192709720996761,1.6889246286887565,-1.6889246286887565,1.192709720996761,6.4199742908602264,0.0
774640.0783812654,3975767.5119837918,-47500.0,-0.062392837246533127,-0.65618287402130304,0.88557988417660216,-1.7863383608547443,2.3820077745519797,3.5546132789313432,3.2522774059956956,-1.3696179384705247,1.822990275236942,-1.822990275236942,1.3696179384705247,6.1999344850257669,0.0
779640.0783812654,3975767.5119837918,-47500.0,0.34460259495128004,-0.78950710412343106,0.68434960662916788,-1.9988598646476798,2.0875867078408801,3.2307783649255071,3.0577860519731295,-1.4445157339036667,1.8341991220221576,-1.8341991220221576,1.4445157339036667,5.8647430020631246,0.0
784640.0783812654,3975767.5119837918,-47500.0,0.68967970449984761,-0.83857776122939576,0.49951536439183514,-2.0823051538891177,1.7796135465461032,2.8586618558728731,2.8308184436436985,-1.4391584483665878,1.7567838072539499,-1.7567838072539499,1.4391584483665878,5.4563545046598323,0.0
789640.0783812654,3975767.5119837918,-47500.0,0.95812871151750711,-0.82634965994529708,0.34106674479106253,-2.0666583330452499,1.4847482227752793,2.4793856206342269,2.5892220723513502,-1.3770006382257567,1.6232507268944338,-1.6232507268944338,1.3770006382257567,5.0108802587734731,0.0
794640.0783812654,3975767.5119837918,-47500.0,1.1490905248345342,-0.77413913614128926,0.21225852066070072,-1.9818285606805117,1.2181217585601669,2.1190929939965781,2.3465658952429025,-1.2790944578983923,1.4602360771734744,-1.4602360771734744,1.2790944578983923,4.5562657676654812,0.0
799640.0783812654,3975767.5119837918,-47500.0,1.2700978917325987,-0.6992559737848727,0.1120407412359606,-1.8535882924483411,0.98635293468842955,1.7921344461621946,2.1122652756242548,-1.162270428715334,1.2873444784523234,-1.2873444784523234,1.162270428715334,4.1123093818785739,0.0
804640.0783812654,3975767.5119837918,-47500.0,1.332660300536574,-0.61446241457603301,0.037070892841571564,-1.7021035041758685,0.7904821079411577,1.5045492670329506,1.8922335103892212,-1.0388419496330297,1.1176981784274811,-1.1176981784274811,1.0388419496330297,3.6918210055358123,0.0
809640.0783812654,3975767.5119837918,-47500.0,1.3492561150850344,-0.52841581467331278,-0.016879892050654804,-1.5420081675403066,0.62831149571754097,1.2570572053315503,1.6896885028306665,-0.91712150834174055,0.9592116654010967,-0.9592116654010967,0.91712150834174055,3.3021561700418638,0.0
814640.0783812654,3975767.5119837918,-47500.0,1.3315736994212051,-0.44649827622862293,-0.054070363398032027,-1.3832138354335617,0.4960544520494426,1.047311166660468,1.5059150892978961,-0.80224525873862718,0.81598921872303209,-0.81598921872303209,0.80224525873862718,2.9467035309613285,0.0
819640.0783812654,3975767.5119837918,-47500.0,1.2896671229412349,-0.3716893676913931,-0.078341298361452288,-1.2319437974002334,0.38938941857815484,0.87144378257397903,1.3408992861012647,-0.69701546294011096,0.6895517947214006,-0.6895517947214006,0.69701546294011096,2.6261402528235949,0.0
824640.0783812654,3975767.5119837918,-47500.0,1.2316973970729677,-0.30532152475723678,-0.092934184502021705,-1.0917203456191122,0.30407099097404222,0.72504918034217691,1.1938156106311091,-0.60262525434450998,0.57979396715549159,-0.57979396715549159,0.60262525434450998,2.339405940832906,0.0
649640.0783812654,3980767.5119837918,-47500.0,-0.77720474337084533,0.29227348983345408,0.31692687190804719,-0.51027206836678152,0.17131889374825904,-0.27679016573211007,0.78324708934192599,0.29535165657094281,-0.20931922603622583,0.20931922603622583,-0.29535165657094281,1.4231914666814085,0.0
654640.0783812654,3980767.5119837918,-47500.0,-0.88020369195100556,0.28409470222161204,0.35512196071311042,-0.6202912187793006,0.1642583229749196,-0.36276273287169775,0.88759255235237955,0.31765635750927473,-0.20613535673251565,0.20613535673251565,-0.31765635750927473,1.6223199134412529,0.0
659640.0783812654,3980767.5119837918,-47500.0,-0.98735078592164693,0.26735499465204182,0.39492081138694318,-0.75042460672401778,0.14670897756055096,-0.4747590775870093,1.0078084604180209,0.34027525561197003,-0.19877814916743175,0.19877814916743175,-0.34027525561197003,1.85291715725503,0.0
664640.0783812654,3980767.5119837918,-47500.0,-1.0938561309382231,0.24041070843950227,0.4346853518930498,-0.90195806322115046,0.11430076874663712,-0.61994468342723352,1.146056934458771,0.36304747469690957,-0.187100412431041,0.187100412431041,-0.36304747469690957,2.1189168895789989,0.0
669640.0783812654,3980767.5119837918,-47500.0,-1.1923412407228167,0.20210811325717215,0.47188527445851552,-1.0745597906547268,0.0615051420230006,-0.80675988918375674,1.3044954273680354,0.38606498271320011,-0.17172939088127892,0.17172939088127892,-0.38606498271320011,2.4237483595437981,0.0
674640.0783812654,3980767.5119837918,-47500.0,-1.2722419052282232,0.15244292613770519,0.50289365370238193,-1.2650369943544426,-0.018314416523756538,-1.0445412709778794,1.4850038861133226,0.40994636715274446,-0.15464013287521347,0.15464013287521347,-0.40994636715274446,2.7695546430375955,0.0
679640.0783812654,3980767.5119837918,-47500.0,-1.3194885877892479,0.09355689229947238,0.52288268282059647,-1.4656099897325778,-0.13250522154358166,-1.3425288512905547,1.6886351587346626,0.43624261149187304,-0.13992834603543361,0.13992834603543361,-0.43624261149187304,3.1559912825550955,0.0
684640.0783812654,3980767.5119837918,-47500.0,-1.3168900253967302,0.031089136143062867,0.52597223568500273,-1.6617578449009602,-0.28810903823902539,-1.7078670245874326,1.914615898466937,0.46796470337784285,-0.13471643608504041,0.13471643608504041,-0.46796470337784285,3.5785134547948871,0.0
689640.0783812654,3980767.5119837918,-47500.0,-1.2458627996676876,-0.024255729339368159,0.5058627553940257,-1.8299676677051995,-0.48987411900187505,-2.1421325820741566,2.1588383699549265,0.51013502764533114,-0.149959785955674,0.149959785955674,-0.51013502764533114,4.0261520833597908,0.0
694640.0783812654,3980767.5119837918,-47500.0,-1.0902870251475045,-0.055371653549731621,0.45723587552487527,-1.936223955538944,-0.73695835492803174,-2.6360167730810184,2.4121015757441224,0.57009703531123734,-0.20063944535568207,0.20063944535568207,-0.57009703531123734,4.4790144332970767,0.0
699640.0783812654,3980767.5119837918,-47500.0,-0.84307360715246293,-0.038581904011180744,0.3781384094674044,-1.9367968834937874,-1.0182540194042726,-3.1622756743328737,2.6586743507786927,0.65706680292965047,-0.30446211486664332,0.30446211486664332,-0.65706680292965047,4.9062032559959237,0.0
704640.0783812654,3980767.5119837918,-47500.0,-0.51509928300072039,0.053895437411700463,0.2732301050465511,-1.7835875945142421,-1.3070023830530091,-3.6682278328758571,2.8759619826539629,0.78016106429800958,-0.4779218838342657,0.4779218838342657,-0.78016106429800958,5.2655883565475898,0.0
709640.0783812654,3980767.5119837918,-47500.0,-0.14413892277999685,0.24722501629662669,0.15703324648843492,-1.4362753445985141,-1.5567088051583473,-4.0710419382767933,3.0364117242280311,0.94414678245847272,-0.72884813706080587,0.72884813706080587,-0.94414678245847272,5.5078120885765101,0.0
714640.0783812654,3980767.5119837918,-47500.0,0.20145041131756153,0.55237034977381538,0.05525341907286397,-0.88162366834286232,-1.7020128927048983,-4.261271394190195,3.1133036340464058,1.1428835075842967,-1.0460149892870674,1.0460149892870674,-1.1428835075842967,5.5877085211365092,0.0
719640.0783812654,3980767.5119837918,-47500.0,0.43151682669255631,0.95199921499579609,0.0014809554019522856,-0.1555659115786272,-1.6688976803347553,-4.1207299950267648,3.092215218023473,1.3522668701724327,-1.3893591138117631,1.3893591138117631,-1.3522668701724327,5.4861116216329631,0.0
724640.0783812654,3980767.5119837918,-47500.0,0.46022113466278874,1.3906657018352999,0.027422043502868657,0.64290090159788615,-1.3963371987232769,-3.556937738078827,2.9886847312407232,1.5270290787099783,-1.6877738508047098,1.6877738508047098,-1.5270290787099783,5.2418840564450102,0.0
729640.0783812654,3980767.5119837918,-47500.0,0.24476082659356418,1.7788757211599977,0.14834786975141345,1.360577810774098,-0.86478575054694506,-2.5463495716043738,2.8665738076633986,1.606990660921666,-1.8519898266805099,1.8519898266805099,-1.606990660921666,4.982044672759339,0.0
734640.0783812654,3980767.5119837918,-47500.0,-0.18161402089259815,2.0168493008907529,0.35059470548229521,1.8296088615469734,-0.118284566485106,-1.1664044048516888,2.8321878309025439,1.5352566203138931,-1.8038096196773541,1.8038096196773541,-1.5352566203138931,4.9055677599061758,0.0
739640.0783812654,3980767.5119837918,-47500.0,-0.70648446374467821,2.0316947336453826,0.5902792440382264,1.9269496815190421,0.73595792116253833,0.4069307815431879,2.9646647414784848,1.2827636544997321,-1.5107232178124168,1.5107232178124168,-1.2827636544997321,5.1599526183030608,0.0
744640.0783812654,3980767.5119837918,-47500.0,-1.1756223011466087,1.8088734918929874,0.80738295627406031,1.6240520385426491,1.5568664119780593,1.9445651526117453,3.2346747741761179,0.86586892572196261,-1.0059712105023739,1.0059712105023739,-0.86586892572196261,5.6991872707911195,0.0
749640.0783812654,3980767.5119837918,-47500.0,-1.4536544295107205,1.3984277718290605,0.94885422513386686,0.99714064309828876,2.2154710902046912,3.2342229141955867,3.5366693310005042,0.34484231972590718,-0.37958492299131485,0.37958492299131485,-0.34484231972590718,6.3293112954832962,0.0
754640.0783812654,3980767.5119837918,-47500.0,-1.4730985803430339,0.89229373413252622,0.98747407504276219,0.1925722689118185,2.6334754447066673,4.1396985215658173,3.7743900810993036,-0.19711856504962774,0.25541620031536388,-0.25541620031536388,0.19711856504962774,6.8594904580617451,0.0
759640.0783812654,3980767.5119837918,-47500.0,-1.2466792480778912,0.38786794210549896,0.926800488792073,-0.6299228582311136,2.7964430097471187,4.6230294508560066,3.8963853117426885,-0.68208006271036214,0.80166995413778108,-0.80166995413778108,0.68208006271036214,7.1778698109020223,0.0
764640.0783812654,3980767.5119837918,-47500.0,-0.84476373625073176,-0.041628128151972942,0.79274080228936639,-1.3449208590775295,2.7413385047441414,4.7284888094519495,3.8919908466698399,-1.0580043103777821,1.2014929767493094,-1.2014929767493094,1.0580043103777821,7.2520882621067777,0.0
769640.0783812654,3980767.5119837918,-47500.0,-0.35868892290124693,-0.35903425280228202,0.61962684848473581,-1.8825371460829088,2.5315340739266801,4.5467100619272154,3.7765984892264801,-1.3049193725984363,1.4401068945948217,-1.4401068945948217,1.3049193725984363,7.1039116803812705,0.0
774640.0783812654,3980767.5119837918,-47500.0,0.12966180187135251,-0.55931285193525571,0.43860176955084806,-2.2250031138691124,2.2334547515003194,4.1794499742397075,3.5776798993400938,-1.4292138054636023,1.5344012047005058,-1.5344012047005058,1.4292138054636023,6.7823636195506207,0.0
779640.0783812654,3980767.5119837918,-47500.0,0.56327810723178218,-0.65803467361071721,0.27170268772843853,-2.3903651559943593,1.9021628674682232,3.7162549218386074,3.3248427115028596,-1.4528798458976215,1.517363104553195,-1.517363104553195,1.4528798458976215,6.3435672859387688,0.0
784640.0783812654,3980767.5119837918,-47500.0,0.91212410181636483,-0.67966334718590649,0.13100571307281647,-2.4144991200983852,1.5761565243951001,3.2243583242031453,3.0441912557533892,-1.4034142353247907,1.4252461517216013,-1.4252461517216013,1.4034142353247907,5.8387288577368937,0.0
789640.0783812654,3980767.5119837918,-47500.0,1.1677716948849748,-0.64925706972847375,0.020594951452980393,-2.3374446246649372,1.2782502826540461,2.7479446701944688,2.7560250201333116,-1.3069906808997098,1.289913167393951,-1.289913167393951,1.3069906808997098,5.3087678894129633,0.0
794640.0783812654,3980767.5119837918,-47500.0,1.3358271195543463,-0.5880774121517236,-0.060648288249267594,-2.1954064410257188,1.019157205950731,2.3121268246254387,2.4746199537775824,-1.1850623321346363,1.1357493363574396,-1.1357493363574396,1.1850623321346363,4.7832688499356397,0.0
799640.0783812654,3980767.5119837918,-47500.0,1.4291857555603114,-0.51211811497871607,-0.11657710494298643,-2.0173464111396719,0.80150091413805702,1.9282647095543843,2.209048396043289,-1.0534429344771865,0.979494580110986,-0.979494580110986,1.0534429344771865,4.2817036328485951,0.0
804640.0783812654,3980767.5119837918,-47500.0,1.4632114122663047,-0.43231348103800266,-0.15203080912570022,-1.8244663440275013,0.62317020181478744,1.5988263287333704,1.96434969488155,-0.92277360194787839,0.83147731810853831,-0.83147731810853831,0.92277360194787839,3.8155196551298709,0.0
809640.0783812654,3980767.5119837918,-47500.0,1.4528228604455662,-0.35547279177024427,-0.17178815405744979,-1.6311439726451582,0.47971666444786909,1.3211294941882248,1.7426773962272726,-0.79955572988146106,0.69725006265287059,-0.69725006265287059,0.79955572988146106,3.3902968200152772,0.0
814640.0783812654,3980767.5119837918,-47500.0,1.4110350035326271,-0.28536928633269532,-0.18004663138335256,-1.4463796025128077,0.36588273755451506,1.0899216221105972,1.5442611804604602,-0.68726606550232205,0.57910940915639186,-0.57910940915639186,0.68726606550232205,3.0076063994730777,0.0
819640.0783812654,3980767.5119837918,-47500.0,1.348446749481881,-0.22370933255005598,-0.18023822403773748,-1.2752426830572625,0.27647589701845843,0.89900876212495118,1.3681427432206261,-0.58732620403806168,0.47730412647170711,-0.47730412647170711,0.58732620403806168,2.6664600537646166,0.0
824640.0783812654,3980767.5119837918,-47500.0,1.2732667652326843,-0.17088909908205641,-0.17503267056147637,-1.120096582781958,0.20680509456087784,0.74219869338161903,1.2127026261044018,-0.49985443473820401,0.39090765621084567,-0.39090765621084567,0.49985443473820401,2.3643650991491967,0.0
829640.0783812654,3980767.5119837918,-47500.0,1.1915980818432068,-0.12653801723265326,-0.16642910312215467,-0.98154320967081776,0.15284943719912328,0.61378943644556805,1.0760165068700072,-0.42420631216785787,0.3184048511448645,-0.3184048511448645,0.42420631216785787,2.0980530250133449,0.0
644640.0783812654,3985767.5119837918,-47500.0,-0.57572240320372448,0.39839875593015422,0.27357240110685455,-0.33236658495502996,0.23874246784163899,-0.15727673586348737,0.69464495375842095,0.28404850397883458,-0.2610416636195248,0.2610416636195248,-0.28404850397883458,1.2327108153998911,0.0
649640.0783812654,3985767.5119837918,-47500.0,-0.66878180423245215,0.41532277393565298,0.31367828705509182,-0.41466715776457425,0.25484671743932996,-0.21292319196025997,0.783771881903916,0.30966088716753687,-0.26950040281702531,0.26950040281702531,-0.30966088716753687,1.3976187371853523,0.0
654640.0783812654,3985767.5119837918,-47500.0,-0.77127877215603657,0.42800087445960283,0.35860279446205995,-0.51511127142759205,0.26750197619200011,-0.28723463916167491,0.8862618098577344,0.33655825181690352,-0.27475935048339778,0.27475935048339778,-0.33655825181690352,1.5887931165634315,0.0
659640.0783812654,3985767.5119837918,-47500.0,-0.88135983357388503,0.43464205969977299,0.40811320571857435,-0.63648739054752135,0.27405484808612351,-0.38616679282255517,1.0040472552002295,0.36447395504860208,-0.27585236054687606,0.27585236054687606,-0.36447395504860208,1.8102007418552437,0.0
664640.0783812654,3985767.5119837918,-47500.0,-0.99535626481546247,0.43327277838827943,0.46144224282540003,-0.78112888817120008,0.27078188664168518,-0.517254938600331,1.1391793982704217,0.39312776946280653,-0.27192552633683748,0.27192552633683748,-0.39312776946280653,2.065908246545646,0.0
669640.0783812654,3985767.5119837918,-47500.0,-1.1070400473447268,0.4219935756089106,0.51702754690726171,-0.9501432496394947,0.25264724116872661,-0.68972706990240373,1.2937235844245332,0.42233884192854698,-0.26254036877080666,0.26254036877080666,-0.42233884192854698,2.3596706109113859,0.0
674640.0783812654,3985767.5119837918,-47500.0,-1.2068104362085443,0.39947796113996537,0.5722009518512674,-1.1421684997930954,0.21314584200812747,-0.91431948842230193,1.4695598605803815,0.45223939589123524,-0.24818220576210132,0.24818220576210132,-0.45223939589123524,2.6942115296189684,0.0
679640.0783812654,3985767.5119837918,-47500.0,-1.2810138700174973,0.36582165657442378,0.62287507159637712,-1.3515172008741489,0.14439269581881378,-1.2024853843108116,1.6679935644922419,0.48362942220156191,-0.23103469629645665,0.23103469629645665,-0.48362942220156191,3.0700603817153933,0.0
684640.0783812654,3985767.5119837918,-47500.0,-1.3118138719141306,0.32383171514506104,0.66333890871324375,-1.5656554790497828,0.037733945268858003,-1.5645140750406989,1.8889799184418026,0.51849447481082189,-0.21603515738545367,0.21603515738545367,-0.51849447481082189,3.4838069890085257,0.0
689640.0783812654,3985767.5119837918,-47500.0,-1.2783253303120865,0.28073716081984118,0.6863707135917636,-1.7622292241407822,-0.11470848764842306,-2.0059097142093791,2.1296900169228086,0.5606407565407111,-0.21208949457704759,0.21208949457704759,-0.5606407565407111,3.9257052141405961,0.0
694640.0783812654,3985767.5119837918,-47500.0,-1.1600210376807729,0.25002673435203016,0.68398648582321619,-1.9064109577346415,-0.31705876110320241,-2.5213492180957595,2.3823452600936528,0.61624447106607638,-0.23304295746457332,0.23304295746457332,-0.61624447106607638,4.3767801709859473,0.0
699640.0783812654,3985767.5119837918,-47500.0,-0.94344346999340278,0.25260003613179227,0.6491957983820581,-1.9502807554604775,-0.56490268904760532,-3.085945029178335,2.6318819008094061,0.69383440170357202,-0.29754370422998916,0.29754370422998916,-0.69383440170357202,4.8060998159000432,0.0
704640.0783812654,3985767.5119837918,-47500.0,-0.63248488744631859,0.31569452398184172,0.5789777387118662,-1.8371085626397698,-0.83896058103661886,-3.6448418923609207,2.8546791154775484,0.80287181547821374,-0.42640983016857065,0.42640983016857065,-0.80287181547821374,5.1697922228582218,0.0
709640.0783812654,3985767.5119837918,-47500.0,-0.26026250656398531,0.46749231855912371,0.47809604246416826,-1.5140132479297213,-1.0989445323012508,-4.104787898042531,3.0200041188450197,0.9499022611964415,-0.6359468411808139,0.6359468411808139,-0.9499022611964415,5.4147557494387613,0.0
714640.0783812654,3985767.5119837918,-47500.0,0.1032483236220193,0.72583932776392368,0.36223097804459781,-0.95489431074361419,-1.2815588823502391,-4.3348934985442691,3.0964577984975903,1.131780777530234,-0.92672197135019407,0.92672197135019407,-1.131780777530234,5.4915165235854531,0.0
719640.0783812654,3985767.5119837918,-47500.0,0.35741641016589093,1.0823912812152161,0.25762863764296506,-0.1898008346001806,-1.3084066492337132,-4.1860514357794285,3.0665919402580237,1.3273992414348776,-1.2704918901535698,1.2704918901535698,-1.3273992414348776,5.3812865318138909,0.0
724640.0783812654,3985767.5119837918,-47500.0,0.39949776654096625,1.4889851266608018,0.19440637909499497,0.67279585186360891,-1.1081303152011566,-3.5347405928053663,2.9525032866485468,1.4926061920415759,-1.6028396138439431,1.6028396138439431,-1.4926061920415759,5.1387222950072395,0.0
729640.0783812654,3985767.5119837918,-47500.0,0.17263301986687696,1.8579777488197924,0.19357125363243896,1.4518847207493735,-0.64955136273471203,-2.3430311522459686,2.8455197661407787,1.5653858373431009,-1.8318960051482864,1.8318960051482864,-1.5653858373431009,4.9322997467563949,0.0
734640.0783812654,3985767.5119837918,-47500.0,-0.28935300857485891,2.0857832177292437,0.25354448394048584,1.9424969372117524,0.029409268892363651,-0.70665069440780293,2.8905198174958326,1.4855402820133707,-1.8681388757364332,1.8681388757364332,-1.4855402820133707,5.0069329510046838,0.0
739640.0783812654,3985767.5119837918,-47500.0,-0.85460148148747417,2.0945310517704021,0.34601075896782796,1.9949269709667703,0.81857056619852753,1.1455514032914333,3.1609228216548177,1.2230673853530809,-1.6650368010967505,1.6650368010967505,-1.2230673853530809,5.4910134249222082,0.0
744640.0783812654,3985767.5119837918,-47500.0,-1.3406121461202358,1.8690519055529602,0.42696190143652663,1.5821080925982718,1.5685296088373557,2.9160188620022232,3.5671870789338183,0.7986639427620259,-1.2461532052727737,1.2461532052727737,-0.7986639427620259,6.2521543152156651,0.0
749640.0783812654,3985767.5119837918,-47500.0,-1.5930946236334396,1.4641085172047685,0.45746819469496375,0.81090434743471795,2.14514468092427,4.3385973359652876,3.9577966747096012,0.28074114934875538,-0.69840182687682073,0.69840182687682073,-0.28074114934875538,7.0309989569165561,0.0
754640.0783812654,3985767.5119837918,-47500.0,-1.5465587129202039,0.97715661916700225,0.42052611364411269,-0.12950750187405199,2.4739026867543803,5.2589736505898212,4.2277736267956687,-0.24083194596472307,-0.13479525643068518,0.13479525643068518,0.24083194596472307,7.6205668609094435,0.0
759640.0783812654,3985767.5119837918,-47500.0,-1.2333001012459015,0.50652000401722985,0.32417570746290508,-1.0457224112345584,2.5516233445124525,5.6569135493644813,4.3359711661319169,-0.68751452565052085,0.3486617211809786,-0.3486617211809786,0.68751452565052085,7.9216205837174609,0.0
764640.0783812654,3985767.5119837918,-47500.0,-0.74803215288697933,0.12031369011505523,0.19236785215159014,-1.7991081946354017,2.4276760412999465,5.6142494783058607,4.2875837548908526,-1.0131279115877119,0.69818761348672342,-0.69818761348672342,1.0131279115877119,7.9255611770186487,0.0
769640.0783812654,3985767.5119837918,-47500.0,-0.19982053930536239,-0.15271690544282082,0.052218142157982664,-2.3252235601470961,2.1733455739591774,5.2606082361981228,4.1131193273453439,-1.2067953791420154,0.90345689462816536,-0.90345689462816536,1.2067953791420154,7.6787903191619451,0.0
774640.0783812654,3985767.5119837918,-47500.0,0.32250855593616568,-0.31539109223875889,-0.075042924067234298,-2.621673985930002,1.856601794524148,4.7268956684902408,3.8516290689758015,-1.2833329693416189,0.98387213487887881,-0.98387213487887881,1.2833329693416189,7.2502753320530484,0.0
779640.0783812654,3985767.5119837918,-47500.0,0.76386432077158239,-0.38815366287176339,-0.1773161264400907,-2.7233567251622866,1.5290332938295041,4.1191166011228955,3.5401138806696149,-1.2701526702509822,0.97193937266720321,-0.97193937266720321,1.2701526702509822,6.7094910490382844,0.0
784640.0783812654,3985767.5119837918,-47500.0,1.1007978865175911,-0.39694051457585544,-0.25068710738064781,-2.6796035999979266,1.2231855196267698,3.5105538278038475,3.2084749921475972,-1.1967647687442915,0.90092666617701966,-0.90092666617701966,1.1967647687442915,6.1149198278372099,0.0
789640.0783812654,3985767.5119837918,-47500.0,1.332498573601981,-0.36572376882245661,-0.29675651552418736,-2.5390866802084293,0.95561927345168807,2.9448659382616396,2.8782619376567604,-1.0887487692470248,0.79840831395645784,-0.79840831395645784,1.0887487692470248,5.5102566292263964,0.0
794640.0783812654,3985767.5119837918,-47500.0,1.471114312586032,-0.31330793310260618,-0.31996501450431891,-2.3423875726056047,0.73175573109466963,2.4434093407863302,2.563466416088986,-0.96548940972698838,0.68432068428424642,-0.68432068428424642,0.96548940972698838,4.9250384624215906,0.0
799640.0783812654,3985767.5119837918,-47500.0,1.5342434885969869,-0.25284058560056105,-0.32563912614781743,-2.1198516437479791,0.55033844628729589,2.0127799498830998,2.2721106393269448,-0.84021244612275114,0.57153210895782158,-0.57153210895782158,0.84021244612275114,4.3772020065730368,0.0
804640.0783812654,3985767.5119837918,-47500.0,1.5401555926069794,-0.19262915375649209,-0.31884072492748777,-1.892293066330762,0.40673898611840886,1.6508805462092293,2.0079185007812987,-0.72106343621756475,0.46739422460203461,-0.46739422460203461,0.72106343621756475,3.8760690825538497,0.0
809640.0783812654,3985767.5119837918,-47500.0,1.5052599794922414,-0.13735497089865487,-0.30383422557821227,-1.6728411541878339,0.2950862899261204,1.351175226055858,1.7717478913144449,-0.61244369986170355,0.37540203801813909,-0.37540203801813909,0.61244369986170355,3.4250298714846017,0.0
814640.0783812654,3985767.5119837918,-47500.0,1.44309081089304,-0.089223901182876264,-0.28394158062541003,-1.4689650591240562,0.20948172435656731,1.1053877282450835,1.5626897615385735,-0.51621729597187005,0.29658421787047029,-0.29658421787047029,0.51621729597187005,3.0236675772747104,0.0
819640.0783812654,3985767.5119837918,-47500.0,1.364173280775665,-0.048881615999505489,-0.26160182874468679,-1.2842398439511828,0.14459959842711506,0.90506139590479129,1.3788501048321899,-0.43265512851163784,0.23052877934626709,-0.23052877934626709,0.43265512851163784,2.6693120937381698,0.0
824640.0783812654,3985767.5119837918,-47500.0,1.2763263133438931,-0.016070827455876978,-0.2385160482515786,-1.1197194963843449,0.095915463494082392,0.74236515586877483,1.2178727945311725,-0.36111008153192031,0.1760774248016907,-0.1760774248016907,0.36111008153192031,2.3581103265185219,0.0
829640.0783812654,3985767.5119837918,-47500.0,1.1851298419601244,0.0099301305377473142,-0.21581033437324232,-0.9749288885586872,0.059730557389549813,0.61043790756435767,1.0772689347781954,-0.30046868986284453,0.13176395122208967,-0.13176395122208967,0.30046868986284453,2.0857260681569052,0.0
644640.0783812654,3990767.5119837918,-47500.0,-0.44046227632612911,0.49241698473519663,0.24592534103108427,-0.22604056582167434,0.29836405456141102,-0.092033077726296514,0.70075195615055175,0.28070722897686107,-0.30854117717474971,0.30854117717474971,-0.28070722897686107,1.2252114838568247,0.0
649640.0783812654,3990767.5119837918,-47500.0,-0.52478755761722662,0.52756046285543545,0.28608124383966888,-0.29319503385308088,0.32983085370441545,-0.13352989464046561,0.78847898593349175,0.30811466827121636,-0.32580958888034783,0.32580958888034783,-0.30811466827121636,1.3829488152041596,0.0
654640.0783812654,3990767.5119837918,-47500.0,-0.62017458681854709,0.56158759751224474,0.33240579473843662,-0.37719421937589875,0.36184360389668607,-0.19075265812599704,0.88879966324629889,0.33729515773061874,-0.34089673510414026,0.34089673510414026,-0.33729515773061874,1.5647729480533987,0.0
659640.0783812654,3990767.5119837918,-47500.0,-0.72584024299015126,0.5929090271794033,0.38530005094320341,-0.48127392299943034,0.39266456184767057,-0.26927305830964038,1.0033706190765541,0.3679743111104789,-0.35259644855809685,0.35259644855809685,-0.3679743111104789,1.7742123987692386,0.0
664640.0783812654,3990767.5119837918,-47500.0,-0.83947874686159474,0.61953450757109696,0.44481843419088823,-0.60857728937506472,0.41957344683398823,-0.37637124170368275,1.1338830144725973,0.39977820528310787,-0.35955619717800941,0.35955619717800941,-0.39977820528310787,2.0148979499473998,0.0
669640.0783812654,3990767.5119837918,-47500.0,-0.95648775723625201,0.63916916112916411,0.51041306606786929,-0.76151581656234646,0.43852884596499059,-0.52130158877971022,1.2819457164421408,0.43229103398777413,-0.36046266412294636,0.36046266412294636,-0.43229103398777413,2.29021033756649,0.0
674640.0783812654,3990767.5119837918,-47500.0,-1.0690275947372181,0.64949625585563642,0.5805804183422314,-0.94064851085633161,0.44382071287543495,-0.71533735350040739,1.4489002028701701,0.46519888156349187,-0.35441972993330184,0.35441972993330184,-0.46519888156349187,2.6026483867479655,0.0
679640.0783812654,3990767.5119837918,-47500.0,-1.1650547982308406,0.64876799983415978,0.65241487748311733,-1.1428786502194406,0.42782858990010358,-0.97128581626785448,1.6355286142250094,0.49857126569025162,-0.3416167332794286,0.3416167332794286,-0.49857126569025162,2.9527782983006858,0.0
684640.0783812654,3990767.5119837918,-47500.0,-1.2276857851464649,0.63684567388275037,0.72112073483585526,-1.3588042682555315,0.38111796903962547,-1.3019486996769183,1.8415512532385088,0.5333330954572526,-0.32438067500658557,0.32438067500658557,-0.5333330954572526,3.3376043742664487,0.0
689640.0783812654,3990767.5119837918,-47500.0,-1.2355889906466238,0.61678825586593788,0.77962337426533346,-1.5692665256384632,0.29327825200956953,-1.7167387082924073,2.0646492304055766,0.571941596064379,-0.30862947255730572,0.30862947255730572,-0.571941596064379,3.7482418184202557,0.0
694640.0783812654,3990767.5119837918,-47500.0,-1.1655318340737988,0.59689873196340748,0.81855789383773558,-1.7416839112064737,0.15509171119851234,-2.2154756583382236,2.2985772738908556,0.61915896359467448,-0.30551677650219256,0.30551677650219256,-0.61915896359467448,4.1669641208072248,0.0
699640.0783812654,3990767.5119837918,-47500.0,-0.99849079502810556,0.59268183845215694,0.82706805625718438,-1.8278191042348393,-0.037315767607461324,-2.7786009706450789,2.5302652230681391,0.68254330764943405,-0.33259136687989543,0.33259136687989543,-0.68254330764943405,4.5641991588940085,0.0
704640.0783812654,3990767.5119837918,-47500.0,-0.73029036503612121,0.6273794189915336,0.79490388401926215,-1.7661842227502789,-0.27606928161783162,-3.3542871017451885,2.7371327861368075,0.77185432174433988,-0.41307817724143026,0.41307817724143026,-0.77185432174433988,4.8970765545310444,0.0
709640.0783812654,3990767.5119837918,-47500.0,-0.38562246414403883,0.72884295745566319,0.71602075432753987,-1.4936670563155314,-0.53390111361674364,-3.8459486830368781,2.8873383556739185,0.89615554360091543,-0.57122112884666265,0.57122112884666265,-0.89615554360091543,5.1128691971664004,0.0
714640.0783812654,3990767.5119837918,-47500.0,-0.029787485472000972,0.92033349604244941,0.59297050948920282,-0.97019621308251947,-0.7587791321274856,-4.1086042399497904,2.9465953358833303,1.0575523311864554,-0.82191237391633776,0.82191237391633776,-1.0575523311864554,5.1630233393079035,0.0
719640.0783812654,3990767.5119837918,-47500.0,0.2331378552222344,1.2050048747494002,0.43987026487816844,-0.21428412795622886,-0.87720202221238375,-3.967063747337674,2.897005231922146,1.2421736901741063,-1.1555074222112831,1.1555074222112831,-1.2421736901741063,5.0353811236090875,0.0
724640.0783812654,3990767.5119837918,-47500.0,0.28822015845382204,1.5495086380526086,0.28063404157848459,0.66527381411558462,-0.8127931423036967,-3.2665944423711872,2.7753697349671089,1.4126783291640908,-1.5244285155416906,1.5244285155416906,-1.4126783291640908,4.8085750523773987,0.0
729640.0783812654,3990767.5119837918,-47500.0,0.064452968884574191,1.8790555111636049,0.14050375858234743,1.4689853294756889,-0.51997288488142179,-1.9497334625043006,2.7133199198325952,1.5103341671178847,-1.8438460389493221,1.8438460389493221,-1.5103341671178847,4.7003541474545765,0.0
734640.0783812654,3990767.5119837918,-47500.0,-0.40858085564725627,2.0964294061014082,0.033871626509936525,1.9608900524575732,-0.018230647408698376,-0.12357726837914945,2.8770281272991163,1.4732673811284902,-2.0164874154498702,2.0164874154498702,-1.4732673811284902,4.9872042194408275,0.0
739640.0783812654,3990767.5119837918,-47500.0,-0.98674081405587011,2.1232162994947901,-0.043270179428822164,1.9667483542905022,0.59825508236074854,1.9353765850749998,3.3102716702451351,1.2666050231059816,-1.975710145559231,1.975710145559231,-1.2666050231059816,5.7335976521761465,0.0
744640.0783812654,3990767.5119837918,-47500.0,-1.4664262428366819,1.9398370076828173,-0.10910553146533822,1.4605645411623414,1.1912818061118531,3.8647900964358084,3.8552370534378504,0.90623804557102927,-1.7210280526251283,1.7210280526251283,-0.90623804557102927,6.7062748993831756,0.0
749640.0783812654,3990767.5119837918,-47500.0,-1.6804669428879486,1.5952334395543253,-0.18237581293609728,0.57758033267532649,1.6353584320341223,5.3498247773874397,4.3212342328857343,0.45709833823796991,-1.3193238938127172,1.3193238938127172,-0.45709833823796991,7.6023390442985965,0.0
754640.0783812654,3990767.5119837918,-47500.0,-1.5691268014531818,1.1794498213245783,-0.27023875736758907,-0.45528371858257621,1.8642297046821465,6.2259173161532786,4.6069914264623835,0.0053414923634577116,-0.87059878620910347,0.87059878620910347,-0.0053414923634577116,8.2186462358934484,0.0
759640.0783812654,3990767.5119837918,-47500.0,-1.1842503558279402,0.78125252019802804,-0.3660716383157937,-1.4189174034457999,1.8812099518433465,6.4981203468250746,4.6886978004471809,-0.37603487964374532,-0.46414874841387527,0.46414874841387527,0.37603487964374532,8.4788314502009321,0.0
764640.0783812654,3990767.5119837918,-47500.0,-0.64081428362741477,0.4585775042153557,-0.45599737937010287,-2.1699794628378979,1.7373134914441206,6.2891626917342389,4.5900964845802026,-0.64748101751959819,-0.15213534816162616,0.15213534816162616,0.64748101751959819,8.4017884029636392,0.0
769640.0783812654,3990767.5119837918,-47500.0,-0.0592838459687599,0.23224517000922554,-0.52712327323415775,-2.6554251948621537,1.4993910577469396,5.7656050444426246,4.3568651857888518,-0.80348689183463828,0.052344099188574078,-0.052344099188574078,0.80348689183463828,8.0581325369700298,0.0
774640.0783812654,3990767.5119837918,-47500.0,0.47051218649210869,0.095726531881516877,-0.57228328255980521,-2.8902120630842854,1.2265349207527212,5.0818800827520807,4.0382473400963237,-0.86117254203662985,0.16244782578379563,-0.16244782578379563,0.86117254203662985,7.5340216063051795,0.0
779640.0783812654,3990767.5119837918,-47500.0,0.8992097049804848,0.029091383118594657,-0.59056615571604465,-2.9247164622837873,0.95996391597876496,4.3539905128573757,3.6767490531503046,-0.84699417304557723,0.20249749120252569,-0.20249749120252569,0.84699417304557723,6.9087496580120575,0.0
784640.0783812654,3990767.5119837918,-47500.0,1.211307503533342,0.0097874887644014367,-0.58545759961365818,-2.8185976710691412,0.72284673584537618,3.655884430914246,3.304310849335959,-0.78724878513302543,0.19734071186558672,-0.19734071186558672,0.78724878513302543,6.2448330477516594,0.0
789640.0783812654,3990767.5119837918,-47500.0,1.4131516107096189,0.018443050733569999,-0.56251196165193507,-2.6257229999783798,0.52463515136133831,3.0270909192314175,2.9424029902259616,-0.70336247935541762,0.16718620604988138,-0.16718620604988138,0.70336247935541762,5.5862919835017957,0.0
794640.0783812654,3990767.5119837918,-47500.0,1.5220189593245579,0.040807711058149836,-0.52756774333458711,-2.3881499338312238,0.36612468095266054,2.4832638446209514,2.6038855145910849,-0.61066063586014807,0.12630162068151612,-0.12630162068151612,0.61066063586014807,4.9610351832410924,0.0
799640.0783812654,3990767.5119837918,-47500.0,1.5585419551105684,0.067548986664392546,-0.4857344676574944,-2.1355332318618223,0.24353613389426618,2.0254937765583052,2.2952919030594106,-0.51897893319637256,0.083672923230587726,-0.083672923230587726,0.51897893319637256,4.3846109737223218,0.0
804640.0783812654,3990767.5119837918,-47500.0,1.542378941785955,0.093203644388975285,-0.44099748068863048,-1.8870101371746335,0.15124317562832024,1.6471109129131749,2.0188853632876254,-0.43393480351521785,0.04431756796657535,-0.04431756796657535,0.43393480351521785,3.8638814380259343,0.0
809640.0783812654,3990767.5119837918,-47500.0,1.4902354159493139,0.11500833786794845,-0.39620024709462948,-1.653780306178342,0.083355060821468097,1.3380927453305462,1.7742652222256392,-0.35822228387381883,0.010580682123321278,-0.010580682123321278,0.35822228387381883,3.4000400583584529,0.0
814640.0783812654,3990767.5119837918,-47500.0,1.4153157632510094,0.13191710945001592,-0.35320759551894232,-1.4415140450762696,0.03450655597043658,1.0876489192551675,1.5595150622587439,-0.2926718975793916,-0.016836900470478283,0.016836900470478283,0.2926718975793916,2.990856176521413,0.0
819640.0783812654,3990767.5119837918,-47500.0,1.3275204104422196,0.14388211569467005,-0.31312525813099124,-1.2522765698615939,0.00016540668134961754,0.88558133330192002,1.3719702592492657,-0.23702287908910302,-0.038154305394523705,0.038154305394523705,0.23702287908910302,2.6322346056211585,0.0
824640.0783812654,3990767.5119837918,-47500.0,1.2339557509171315,0.15137268214139185,-0.27651067284634301,-1.0859333979473769,-0.02332278792367537,0.72289021691526234,1.2087013230161883,-0.19044285509549277,-0.054041047649397295,0.054041047649397295,0.19044285509549277,2.3192404847809778,0.0
829640.0783812654,3990767.5119837918,-47500.0,1.1395168949208272,0.1550763669871261,-0.24354827182936195,-0.94111452887995417,-0.038814404557727181,0.59195143277747231,1.066799832512024,-0.15185565415327357,-0.0653334914593698,0.0653334914593698,0.15185565415327357,2.046737368547356,0.0
644640.0783812654,3995767.5119837918,-47500.0,-0.27859573202188964,0.56849948963279595,0.19956643066068991,-0.10176168583231252,0.34549020831838784,-0.016727223938633549,0.71360369982454963,0.26287559272953681,-0.3470364708372799,0.3470364708372799,-0.26287559272953681,1.2372268751379765,0.0
649640.0783812654,3995767.5119837918,-47500.0,-0.34844676954252507,0.61996506991891009,0.23512604213004373,-0.14856206661457125,0.39019225401334334,-0.040347344673462834,0.80078561433067386,0.28968572671331627,-0.37299181839338147,0.37299181839338147,-0.28968572671331627,1.3898619163167356,0.0
654640.0783812654,3995767.5119837918,-47500.0,-0.42995406834081912,0.67356501684466941,0.27706851413651085,-0.20941515480634892,0.43923511922368769,-0.075312849008505212,0.8997521687785337,0.3184277372425609,-0.39823477341787505,0.39823477341787505,-0.3184277372425609,1.5640741870685366,0.0
659640.0783812654,3995767.5119837918,-47500.0,-0.52338931046555737,0.7281071765083803,0.32620638520254308,-0.28764499919050629,0.49189736260772449,-0.12625903410339645,1.0117704751546852,0.3488185432230998,-0.42154541401605761,0.42154541401605761,-0.3488185432230998,1.7625700817932648,0.0
664640.0783812654,3995767.5119837918,-47500.0,-0.62792612157114436,0.78186111749707632,0.3831970717711557,-0.38682685649973403,0.54665457248209925,-0.19947270275020765,1.1379823198579979,0.38041365698356994,-0.44136080498637037,0.44136080498637037,-0.38041365698356994,1.9879744444821008,0.0
669640.0783812654,3995767.5119837918,-47500.0,-0.7409281645472392,0.83250028283570354,0.44833289017531885,-0.5103437686357245,0.60078680262435991,-0.30327922091186293,1.2792307160662149,0.41261794981161004,-0.45583342072410493,0.45583342072410493,-0.41261794981161004,2.2424888864345069,0.0
674640.0783812654,3995767.5119837918,-47500.0,-0.85700293068869593,0.87715197151562918,0.52121459036458784,-0.66051194035142757,0.64988568626727738,-0.44831402420423699,1.4358130408928251,0.44476515238407788,-0.46304125664749796,0.46304125664749796,-0.44476515238407788,2.5273141821173897,0.0
679640.0783812654,3995767.5119837918,-47500.0,-0.96688710337571149,0.91266678938145085,0.60027817944739326,-0.83704185904998385,0.68731149641068323,-0.64741392109981999,1.6071577208259895,0.4763246003237927,-0.46146466863505226,0.46146466863505226,-0.4763246003237927,2.8417236607108167,0.0
684640.0783812654,3995767.5119837918,-47500.0,-1.0564132659372909,0.9362685640333559,0.68216677961502392,-1.0345826581336515,0.70374856196380764,-0.91463201140317429,1.7914311875610358,0.50731298536123093,-0.45088079199946585,0.45088079199946585,-0.50731298536123093,3.1816553640967893,0.0
689640.0783812654,3995767.5119837918,-47500.0,-1.1061429542385923,0.94677020895122865,0.76100035016658507,-1.2392147935081448,0.6871792226268234,-1.2625525363020784,1.9850399280724349,0.5389853971353854,-0.43382217288625513,0.43382217288625513,-0.5389853971353854,3.5377188174715051,0.0
694640.0783812654,3995767.5119837918,-47500.0,-1.0927470938735624,0.94646819644811964,0.82772045513004211,-1.424193674433671,0.62384390554546143,-1.6967418763734869,2.1817573090509703,0.57480722376942284,-0.41762272801619332,0.41762272801619332,-0.57480722376942284,3.8926713638110004,0.0
699640.0783812654,3995767.5119837918,-47500.0,-0.99371897279826182,0.94352753990806781,0.86988565437127885,-1.5462608896113366,0.50100127403415085,-2.2061169976413506,2.3707552604047848,0.62148870264322342,-0.41670040539129083,0.41670040539129083,-0.62148870264322342,4.2188706365319266,0.0
704640.0783812654,3995767.5119837918,-47500.0,-0.79699189663467329,0.95398859186940299,0.87251868018170198,-1.5455952583403028,0.31229177336553487,-2.748925954792945,2.5331764784345525,0.68942133549404938,-0.45397120021870674,0.45397120021870674,-0.68942133549404938,4.4772248047246475,0.0
709640.0783812654,3995767.5119837918,-47500.0,-0.51542905952248474,1.0014693615644379,0.820680099942379,-1.3545395482683682,0.065719746364785628,-3.2369912295489587,2.6398242091100781,0.79124134551511027,-0.55922201177169384,0.55922201177169384,-0.79124134551511027,4.6210934355262054,0.0
714640.0783812654,3995767.5119837918,-47500.0,-0.20169773029277874,1.1117689770711794,0.70401525726254643,-0.92069474705110632,-0.2079199072358095,-3.5266302320314269,2.6568028800296668,0.93690331179707964,-0.76157579716894086,0.76157579716894086,-0.93690331179707964,4.6116966505685264,0.0
719640.0783812654,3995767.5119837918,-47500.0,0.047907084497480781,1.3004474717130918,0.52225993249024905,-0.244960353499873,-0.45183332036694085,-3.4315147109966837,2.5712392832345543,1.1246384240069693,-1.0745242390912633,1.0745242390912633,-1.1246384240069693,4.4550901164865531,0.0
724640.0783812654,3995767.5119837918,-47500.0,0.11626896111842595,1.5560296067992796,0.2888918338947018,0.57874548233191359,-0.59328167307077495,-2.77340846172121,2.4580568452314626,1.3306513059946339,-1.477267454777943,1.477267454777943,-1.3306513059946339,4.2665362444110926,0.0
729640.0783812654,3995767.5119837918,-47500.0,-0.079104799876463364,1.8291782489153749,0.029404412055452946,1.3531468982419621,-0.57101511341862277,-1.4695773246569892,2.4867846359848294,1.5055013567175282,-1.9042180140032188,1.9042180140032188,-1.5055013567175282,4.3133444949318456,0.0
734640.0783812654,3995767.5119837918,-47500.0,-0.52101169478689291,2.0419715549534856,-0.22675611718031935,1.8291700318127881,-0.37066798085051367,0.381526530271522,2.7572924310190028,1.5864501840255585,-2.2577047677179642,2.2577047677179642,-1.5864501840255585,4.8573965713707636,0.0
739640.0783812654,3995767.5119837918,-47500.0,-1.0692123533603355,2.1210468069471178,-0.45625966687795566,1.814908998506777,-0.043859615154622333,2.4837699086014493,3.3527153249752626,1.5258229175654447,-2.4467302153252595,2.4467302153252595,-1.5258229175654447,5.8485517536460394,0.0
744640.0783812654,3995767.5119837918,-47500.0,-1.5156070396745889,2.0361482424396375,-0.64697692643346882,1.2786111442908294,0.30973122400397474,4.4365603611801152,4.0265474356102802,1.3189357139588693,-2.4306338013150999,2.4306338013150999,-1.3189357139588693,6.9744262747444239,0.0
749640.0783812654,3995767.5119837918,-47500.0,-1.6898053123960846,1.8148700315521349,-0.79553777285890404,0.36707183546719169,0.58976727941886464,5.894172564244907,4.5481300300307224,1.0095185178833879,-2.2358271840708417,2.2358271840708417,-1.0095185178833879,7.9286373894307349,0.0
754640.0783812654,3995767.5119837918,-47500.0,-1.5374872769796304,1.5229746184601507,-0.90188377533223463,-0.67493328838155986,0.73851174243988338,6.6878626906203573,4.8357311793713516,0.66754030406648057,-1.9344422498163896,1.9344422498163896,-0.66754030406648057,8.5319090089501444,0.0
759640.0783812654,3995767.5119837918,-47500.0,-1.121573946958657,1.228866632647398,-0.96646099853927947,-1.6188695938973228,0.75284084726619815,6.8429605159197902,4.8876315687033181,0.35720929520839706,-1.6051313710953941,1.6051313710953941,-0.35720929520839706,8.7358646238593227,0.0
764640.0783812654,3995767.5119837918,-47500.0,-0.56555681146933157,0.97817088440689481,-0.99089555763471437,-2.3253306490376602,0.66712307324482201,6.5105342779129396,4.7453776091524844,0.11659471179126613,-1.3041514763584052,1.3041514763584052,-0.11659471179126613,8.5842190192158583,0.0
769640.0783812654,3995767.5119837918,-47500.0,0.0088346417177793037,0.78824990568252729,-0.97940640856947125,-2.7533384799237477,0.52734818333347655,5.8790343029199379,4.4669227395837403,-0.04447935495070765,-1.0577578009917359,1.0577578009917359,0.04447935495070765,8.1656571768805239,0.0
774640.0783812654,3995767.5119837918,-47500.0,0.51663580895825112,0.65604564479161964,-0.93887616386978689,-2.9304099113856528,0.37279430318734486,5.1132458930187683,4.1084038876228988,-0.13529501019886991,-0.869303129620427,0.869303129620427,0.13529501019886991,7.5767923006747084,0.0
779640.0783812654,3995767.5119837918,-47500.0,0.91572423937384528,0.5689034629624079,-0.87761912842021861,-2.9154727478313451,0.22908581037391115,4.3300609115099027,3.7150721445446311,-0.17329897268316574,-0.73017472485518931,0.73017472485518931,0.17329897268316574,6.9011007656744852,0.0
784640.0783812654,3995767.5119837918,-47500.0,1.1971102955754758,0.51251177811667425,-0.80384651423475428,-2.7719718490763379,0.10896274169106759,3.59918003186278,3.3190428475375162,-0.1764197335372075,-0.6282060247985356,0.6282060247985356,0.1764197335372075,6.2012347456572687,0.0
789640.0783812654,3995767.5119837918,-47500.0,1.3715348325374339,0.47487414333496303,-0.72455822726485819,-2.5540090462914922,0.016057633950897716,2.9542659708945944,2.9406883738430154,-0.15935579592138699,-0.55218619784509304,0.55218619784509304,0.15935579592138699,5.5192728009027689,0.0
794640.0783812654,3995767.5119837918,-47500.0,1.4584934217393719,0.44744868810911126,-0.64506065991235317,-2.3019386931733328,-0.05122864194098764,2.4054853838402472,2.5913619368244922,-0.13262865134184754,-0.49347685001847263,0.49347685001847263,0.13262865134184754,4.8804765859502561,0.0
799640.0783812654,3995767.5119837918,-47500.0,1.4792029208450879,0.42484559123533455,-0.56896457306062231,-2.0430155480354224,-0.096861565866054031,1.9495956783844004,2.2761399814276069,-0.10302343053384527,-0.44608293077664279,0.44608293077664279,0.10302343053384527,4.2977980398506315,0.0
804640.0783812654,3995767.5119837918,-47500.0,1.4529123722920818,0.40403635921742803,-0.49844489478258075,-1.7940116143837419,-0.12541805947937151,1.5768409393853375,1.996069479020532,-0.074491432555720577,-0.40612948963884066,0.40612948963884066,0.074491432555720577,3.7758893798380107,0.0
809640.0783812654,3995767.5119837918,-47500.0,1.3954384011466738,0.38355613031860042,-0.43458707105619349,-1.5641298670442825,-0.14117540669672388,1.2751623594767538,1.7498141327636847,-0.049046499616720696,-0.37123954876768117,0.37123954876768117,0.049046499616720696,3.3142111368743863,0.0
814640.0783812654,3995767.5119837918,-47500.0,1.3189561004140355,0.3628758984095844,-0.37771822121432991,-1.3575042751980841,-0.14773545517252262,1.0325150869055497,1.5347732936441476,-0.02748127054880109,-0.34001073380593472,0.34001073380593472,0.02748127054880109,2.9092477918252002,0.0
819640.0783812654,3995767.5119837918,-47500.0,1.2323861075902514,0.3419691411122916,-0.32767851751058141,-1.1750932572396784,-0.14794503812243695,0.83798424510041036,1.3477971184540687,-0.0098773779610936141,-0.31163571394274264,0.31163571394274264,0.0098773779610936141,2.5559903057028652,0.0
824640.0783812654,3995767.5119837918,-47500.0,1.1419932412609477,0.32103963280556913,-0.28402402037194729,-1.0160085675452382,-0.14395843915843085,0.68220277197383461,1.1856197847921863,0.0040581816652331681,-0.28565088278970407,0.28565088278970407,-0.0040581816652331681,2.2488786143923174,0.0
829640.0783812654,3995767.5119837918,-47500.0,1.0519951418097915,0.30036409828382643,-0.24616764623652088,-0.87839434594766663,-0.1373528818881917,0.55739431196802725,1.045103382359478,0.014784920991740225,-0.26178020663734347,0.26178020663734347,-0.014784920991740225,1.9823640712522921,0.0
834640.0783812654,3995767.5119837918,-47500.0,0.96509482329472462,0.28020978896354037,-0.21347154058772333,-0.75998077078744275,-0.12925155699895718,0.45723809624002121,0.92336254172350707,0.022807870034855696,-0.23984355477387054,0.23984355477387054,-0.022807870034855696,1.7512215911941795,0.0
644640.0783812654,4000767.5119837918,-47500.0,-0.095773880108525763,0.62008075741557145,0.13775801521519401,0.036393399212430864,0.37596689799335481,0.066267210064632029,0.73489821757695517,0.23115238260788307,-0.372327549417243,0.372327549417243,-0.23115238260788307,1.2745508616605634,0.0
649640.0783812654,4000767.5119837918,-47500.0,-0.14615231477987026,0.68411069562368998,0.1645149324061827,0.014307717465354938,0.43031463109730012,0.063577281061248936,0.82319910443711286,0.25498798387063298,-0.40579078741874314,0.40579078741874314,-0.25498798387063298,1.4267070599107037,0.0
654640.0783812654,4000767.5119837918,-47500.0,-0.2077290316993633,0.75313402852425781,0.19670290591526088,-0.017665572875216713,0.49206553926235103,0.055192111924277878,0.92276883063926762,0.28057437547672481,-0.44023892924164076,0.44023892924164076,-0.28057437547672481,1.5985347382270825,0.0
659640.0783812654,4000767.5119837918,-47500.0,-0.28173594198232177,0.82643930130592658,0.23525420408115538,-0.062552719878254254,0.56142821748781135,0.037944178384330139,1.0344961165924569,0.30762505816588614,-0.47465706276565955,0.47465706276565955,-0.30762505816588614,1.7918013095928456,0.0
664640.0783812654,4000767.5119837918,-47500.0,-0.36882581151584104,0.90272248987904558,0.28109972670674421,-0.12391963072283374,0.63802761992499113,0.0072763421452518061,1.1589490452097895,0.33566729251271232,-0.50758673180122837,0.50758673180122837,-0.33566729251271232,2.0078464278362369,0.0
669640.0783812654,4000767.5119837918,-47500.0,-0.46851071222913898,0.97990638443441813,0.33503169989330456,-0.2056690679727623,0.72050009403977588,-0.043213082568056616,1.296110087880066,0.36402565540783993,-0.53707588710697329,0.53707588710697329,-0.36402565540783993,2.2471590550135518,0.0
674640.0783812654,4000767.5119837918,-47500.0,-0.57834122047034942,1.0549859577067686,0.39746330933439156,-0.31151680893803646,0.80591558821118814,-0.12223191309791001,1.4450012985248559,0.39186063815148298,-0.56072434326830056,0.56072434326830056,-0.39186063815148298,2.5087388740226948,0.0
679640.0783812654,4000767.5119837918,-47500.0,-0.69281597015972485,1.1239839534601621,0.46803914621075643,-0.44392115372608626,0.88900984021642626,-0.24108490917964465,1.6031956305262824,0.4183231561932963,-0.57593393081062194,0.57593393081062194,-0.4183231561932963,2.78917272365566,0.0
684640.0783812654,4000767.5119837918,-47500.0,-0.80213720348332218,1.1821661282650595,0.54505016878705459,-0.60217182503090094,0.96127195676001265,-0.41341142369284217,1.766261935095754,0.44291965159475027,-0.58053569126970406,0.58053569126970406,-0.44291965159475027,3.0813713498478568,0.0
689640.0783812654,4000767.5119837918,-47500.0,-0.89119805580481604,1.224740894025401,0.62463234922393929,-0.7793557869075981,1.0100728420655367,-0.65365644779103105,1.9272959267584866,0.46620980840630299,-0.57402482689341083,0.57402482689341083,-0.46620980840630299,3.3729799257554509,0.0
694640.0783812654,4000767.5119837918,-47500.0,-0.93965626981432182,1.2483098971517645,0.69980833508950147,-0.95817128217261194,1.0182766085882566,-0.97312775529547013,2.0768108018376892,0.49094060584138527,-0.55962676966094538,0.55962676966094538,-0.49094060584138527,3.6446688488131174,0.0
699640.0783812654,4000767.5119837918,-47500.0,-0.92456794988160829,1.2532342167795953,0.75960265699843432,-1.1063366998180932,0.96515117918422644,-1.3721566349980661,2.203074257076846,0.52357339275036086,-0.54721055202023849,0.54721055202023849,-0.52357339275036086,3.86896149554696,0.0
704640.0783812654,4000767.5119837918,-47500.0,-0.82746065677505298,1.2466456582425636,0.78874030259940908,-1.1739503485802489,0.82975291794771733,-1.8272355117910013,2.291717191494707,0.57575872382039239,-0.55644620638278652,0.55644620638278652,-0.57575872382039239,4.0112113570103425,0.0
709640.0783812654,4000767.5119837918,-47500.0,-0.64695441691074196,1.2448795018144607,0.76875322278200575,-1.0975343444938122,0.59787404299470048,-2.2742115615090541,2.3223055119084668,0.66457777261781914,-0.61840296877749801,0.61840296877749801,-0.66457777261781914,4.0362351585465674,0.0
714640.0783812654,4000767.5119837918,-47500.0,-0.41455973935075618,1.272779841888515,0.68140110424187439,-0.81724245517116634,0.27232184276875615,-2.5940158549606784,2.2664648636668447,0.80952814538515638,-0.77227583894599916,0.77227583894599916,-0.80952814538515638,3.9275687799321215,0.0
719640.0783812654,4000767.5119837918,-47500.0,-0.20435292710662517,1.356703146884374,0.51467155557657351,-0.31102997267456045,-0.1169504047273917,-2.615556709343986,2.1170097331725777,1.0242506953868722,-1.0535063099056152,1.0535063099056152,-1.0242506953868722,3.7306562221467137,0.0
724640.0783812654,4000767.5119837918,-47500.0,-0.12048429748409462,1.5103242286635123,0.26989238990695075,0.3625198118492759,-0.51056848392165155,-2.1551371715144496,2.0566145008650807,1.3035664321619582,-1.4729045556832463,1.4729045556832463,-1.3035664321619582,3.6202247891738701,0.0
729640.0783812654,4000767.5119837918,-47500.0,-0.25092795463306367,1.7189826128678365,-0.03370412548467993,1.041273929556771,-0.83379269002710277,-1.0995443661214637,2.2259817603537089,1.6122151488519942,-1.9950946184975691,1.9950946184975691,-1.6122151488519942,3.8929120618319266,0.0
734640.0783812654,4000767.5119837918,-47500.0,-0.60218929204832483,1.9354219960939349,-0.36107616424931122,1.4947574058827544,-1.0266708860412899,0.49810979730761085,2.467834092968539,1.886806913324232,-2.5337164793246596,2.5337164793246596,-1.886806913324232,4.7017156881756099,0.0
739640.0783812654,4000767.5119837918,-47500.0,-1.0641912767805595,2.0970059563210617,-0.6708797528634981,1.5254536789222566,-1.0737844760097865,2.3812627268511499,3.269623084589508,2.0580595379931159,-2.9772566257811954,2.9772566257811954,-2.0580595379931159,5.8568830025997967,0.0
744640.0783812654,4000767.5119837918,-47500.0,-1.4512154637659809,2.1571070240279688,-0.92773997311346312,1.0792061030365294,-1.0101010450218215,4.1681760130884262,4.0450788238983746,2.0835552590277842,-3.2365008131850606,3.2365008131850606,-2.0835552590277842,7.0302400663300055,0.0
749640.0783812654,4000767.5119837918,-47500.0,-1.6015907520625343,2.1073337994532335,-1.1106355941605712,0.2776816780712279,-0.89667607962999274,5.5130775441510025,4.5908552057395724,1.9675419301221637,-3.2817167625540433,3.2817167625540433,-1.9675419301221637,7.9581738722356503,0.0
754640.0783812654,4000767.5119837918,-47500.0,-1.4588772317816738,1.9744018805917483,-1.2143897079092678,-0.65388412432831533,-0.7864909007390174,6.2397414242306244,4.8678633878015747,1.753226922755529,-3.1441991809433936,3.1441991809433936,-1.753226922755529,8.5017335091625785,0.0
759640.0783812654,4000767.5119837918,-47500.0,-1.077874807262482,1.7990070737963482,-1.2461145695829532,-1.5002069807757443,-0.7055439286398173,6.366164451131576,4.895383148486613,1.4969157827789696,-2.8880830571539433,2.8880830571539433,-1.4969157827789696,8.6399610826443158,0.0
764640.0783812654,4000767.5119837918,-47500.0,-0.57136425750630282,1.6157969759156985,-1.2199918272885919,-2.1301196874749873,-0.65516395549754902,6.0366727025910354,4.7270620605097395,1.2446890111814284,-2.578139261990986,2.578139261990986,-1.2446890111814284,8.4324002408296401,0.0
769640.0783812654,4000767.5119837918,-47500.0,-0.050383722341488218,1.4451008493882653,-1.1526048927957391,-2.5062144973745828,-0.62448941405648983,5.4320432125722089,4.4270947049517435,1.0230058076136661,-2.2617016815072906,2.2617016815072906,-1.0230058076136661,7.9745211416398369,0.0
774640.0783812654,4000767.5119837918,-47500.0,0.40859686453317967,1.2945273101131114,-1.0596552086182618,-2.6552653400753083,-0.60136047368188195,4.7085832127037781,4.0537752282940236,0.8409834487116602,-1.965786238578846,1.965786238578846,-0.8409834487116602,7.3636077313646933,0.0
779640.0783812654,4000767.5119837918,-47500.0,0.76861827077739653,1.1641266772665175,-0.95414254176856039,-2.6323976443295587,-0.57745729127794021,3.9752774656998859,3.652115079371884,0.69708339025227251,-1.7020010178047933,1.7020010178047933,-0.69708339025227251,6.6805217173035176,0.0
784640.0783812654,4000767.5119837918,-47500.0,1.0226375219978026,1.0508875997122955,-0.84574195525805906,-2.495889079314729,-0.54898802216696962,3.2956421246827197,3.2529291991897926,0.58512963536679496,-1.4727705620924416,1.4727705620924416,-0.58512963536679496,5.9841349936382207,0.0
789640.0783812654,4000767.5119837918,-47500.0,1.1810084259026037,0.95134306108350142,-0.74096419817946613,-2.2947171024228874,-0.51543017148248638,2.6992524869753671,2.8750752652997154,0.49803519180305078,-1.2760272664790688,1.2760272664790688,-0.49803519180305078,5.3128535368345631,0.0
794640.0783812654,4000767.5119837918,-47500.0,1.2615387258840902,0.86263998077893089,-0.64371229311916589,-2.0649434416347394,-0.47799666284939096,2.1940345131862582,2.528580455066507,0.42953784103399395,-1.1080032591431319,1.1080032591431319,-0.42953784103399395,4.6889261326634468,0.0
799640.0783812654,4000767.5119837918,-47500.0,1.2832788709907221,0.78274817624611359,-0.55594717237320779,-1.8306215388882381,-0.43849402409872146,1.7758580939431707,2.2175133764433594,0.37472434183245451,-0.96463436622198084,0.96463436622198084,-0.37472434183245451,4.1230804103766916,0.0
804640.0783812654,4000767.5119837918,-47500.0,1.2633490210922205,0.71031802705226432,-0.47830046024287642,-1.6063520326782199,-0.39866656353133201,1.434940728277029,1.9422205073745598,0.32997932735041707,-0.84215765165180634,0.84215765165180634,-0.32997932735041707,3.6184527054526345,0.0
809640.0783812654,4000767.5119837918,-47500.0,1.2157320018073301,0.64445956299076135,-0.41056628482776647,-1.3999984648101385,-0.35990720559690115,1.1596729956782479,1.700910214449199,0.29273306267165328,-0.73730341246523023,0.73730341246523023,-0.29273306267165328,3.173545516136,0.0
814640.0783812654,4000767.5119837918,-47500.0,1.1511497753102817,0.58455412614623126,-0.35206155304954395,-1.2149641095613746,-0.32318826578855098,0.93867338776433529,1.4907029672037693,0.26118670691217749,-0.64730846758484895,0.64730846758484895,-0.26118670691217749,2.7842897671375053,0.0
819640.0783812654,4000767.5119837918,-47500.0,1.0774414173939053,0.53012568666168891,-0.30187178222141609,-1.0518908127704127,-0.28910074084811338,0.76174494033954354,1.3082903114335289,0.23408183168137103,-0.56986321787866911,0.56986321787866911,-0.23408183168137103,2.4454008142652643,0.0
824640.0783812654,4000767.5119837918,-47500.0,1.0001083524797445,0.48076509837407655,-0.25900820290107313,-0.90983607197968119,-0.2579336775871619,0.62020489255849365,1.1503255427668608,0.21052821006087744,-0.50304257643612393,0.50304257643612393,-0.21052821006087744,2.1512224483376796,0.0
829640.0783812654,4000767.5119837918,-47500.0,0.92285796510359164,0.43609159237707124,-0.22250140906281052,-0.78704427608825256,-0.22975780901187773,0.5068866414838088,1.0136391661235449,0.18988307075412084,-0.44524035646300242,0.44524035646300242,-0.18988307075412084,1.8962207793329582,0.0
834640.0783812654,4000767.5119837918,-47500.0,0.8480737920739988,0.39573698991888034,-0.19145213522818597,-0.68142731794280298,-0.20449780184232172,0.41599081054457981,0.89534433601072239,0.1716696335139074,-0.39511305588109025,0.39511305588109025,-0.1716696335139074,1.6752490297792493,0.0
644640.0783812654,4005767.5119837918,-47500.0,0.10014924496064864,0.6420516510260782,0.065657937967198293,0.18290770242783044,0.38659953741988784,0.15377750832670725,0.76489497020327524,0.18753574502384451,-0.38087304948484746,0.38087304948484746,-0.18753574502384451,1.3384130929436904,0.0
649640.0783812654,4005767.5119837918,-47500.0,0.072804791356181217,0.71330657777594886,0.080516685916167591,0.18848464760072475,0.44578990597928586,0.1740170667065917,0.8564271088060057,0.20641971096190528,-0.41964673352972348,0.41964673352972348,-0.20641971096190528,1.4962309277853838,0.0
654640.0783812654,4005767.5119837918,-47500.0,0.035587112156734824,0.7915331123338879,0.098902104757887827,0.18936608275660285,0.51423087501128961,0.19511883204691013,0.95927666113746968,0.22662957922239169,-0.46106015966111147,0.46106015966111147,-0.22662957922239169,1.6732636165225103,0.0
659640.0783812654,4005767.5119837918,-47500.0,-0.01356850751658074,0.87645149342403905,0.12158883591293174,0.18315148258936029,0.59278412048770512,0.21579711377821495,1.0741074794037719,0.247913486458579,-0.50447550776505412,0.50447550776505412,-0.247913486458579,1.870612131328534,0.0
664640.0783812654,4005767.5119837918,-47500.0,-0.076717864743193878,0.96720263925875194,0.14944648869283167,0.16668070740655616,0.68192007855733749,0.23381650319714925,1.2011031813790356,0.26986238490571812,-0.54882192154154885,0.54882192154154885,-0.26986238490571812,2.0885845195594128,0.0
669640.0783812654,4005767.5119837918,-47500.0,-0.15556529880906847,1.0620946633609285,0.18338658758591125,0.13597229148480905,0.78133051472698622,0.24552730703736556,1.3396115625833716,0.29189633103596246,-0.59248000597208939,0.59248000597208939,-0.29189633103596246,2.3261223738422414,0.0
674640.0783812654,4005767.5119837918,-47500.0,-0.25087899749556059,1.1583114881184398,0.22424698798269965,0.086324973769335664,0.88932598080384051,0.24526771950493959,1.4876311388763277,0.31330050243185525,-0.63320638146470942,0.63320638146470942,-0.31330050243185525,2.5799784268901993,0.0
679640.0783812654,4005767.5119837918,-47500.0,-0.36158644628966419,1.2516365435841932,0.2725747223251429,0.012760381612206493,1.0019488564928225,0.22468772927664676,1.6411121769459767,0.33337018731826173,-0.66818332880955889,0.66818332880955889,-0.33337018731826173,2.843599937968365,0.0
684640.0783812654,4005767.5119837918,-47500.0,-0.48352168556744685,1.3363110161242067,0.32825621588809573,-0.088914321508442584,1.1117581303078155,0.17218558576643303,1.7930904472017142,0.35176313865039982,-0.69434776708357804,0.69434776708357804,-0.35176313865039982,3.1057307997230486,0.0
689640.0783812654,4005767.5119837918,-47500.0,-0.60795333338145485,1.4052480660382216,0.38994139415708567,-0.22005325510011753,1.2063359991531508,0.072910875650541468,1.932800384411673,0.36920227046691817,-0.70924510963798859,0.70924510963798859,-0.36920227046691817,3.3488976498452003,0.0
694640.0783812654,4005767.5119837918,-47500.0,-0.72036846953188471,1.4509458983401859,0.45423469611438883,-0.3757793303744455,1.2667905961257364,-0.089778902400288005,2.0452216559507219,0.38869072901376134,-0.71273189320281349,0.71273189320281349,-0.38869072901376134,3.5482785763780722,0.0
699640.0783812654,4005767.5119837918,-47500.0,-0.8005792054727231,1.4675119418381313,0.51471645899677965,-0.54027010191275715,1.2669489399696301,-0.3299695383722886,2.1121607477096256,0.41731993412336188,-0.70981362785366409,0.70981362785366409,-0.41731993412336188,3.6721129320585386,0.0
704640.0783812654,4005767.5119837918,-47500.0,-0.82593411881125289,1.4540502477222148,0.56105542561507582,-0.68182534289324725,1.1745469164038371,-0.65017526464363129,2.1168797954390959,0.46842653191876549,-0.71453394951568239,0.71453394951568239,-0.46842653191876549,3.6860521724379183,0.0
709640.0783812654,4005767.5119837918,-47500.0,-0.77964986338540865,1.4189829262243645,0.57879121374853792,-0.75094535884223046,0.95627567450555018,-1.0266796365307069,2.0525437061406433,0.56311759286472385,-0.75382143273557478,0.75382143273557478,-0.56311759286472385,3.5661807564371557,0.0
714640.0783812654,4005767.5119837918,-47500.0,-0.66464528259869904,1.3834498989280675,0.55069917353866493,-0.68735831258521285,0.58828748901345906,-1.391765690551775,1.9211489992976141,0.72905136044056218,-0.86841899203593198,0.86841899203593198,-0.72905136044056218,3.3296996439374644,0.0
719640.0783812654,4005767.5119837918,-47500.0,-0.51808188478249284,1.3801698465106551,0.46065095563445679,-0.4426346576963765,0.071455479692206003,-1.6227961071072672,1.7105162687030691,0.99352082655238361,-1.1062189956624882,1.1062189956624882,-0.99352082655238361,3.0947103204581232,0.0
724640.0783812654,4005767.5119837918,-47500.0,-0.41381156354150417,1.4438879935356461,0.29998997423033835,-0.018364425237654032,-0.55436303219937533,-1.5567237481029856,1.703332538966793,1.3691560988258435,-1.504011090724658,1.504011090724658,-1.3691560988258435,3.1319287757231442,0.0
729640.0783812654,4005767.5119837918,-47500.0,-0.43688412096644341,1.5936652043261563,0.074393838260252587,0.49787085112665663,-1.2081473571730348,-1.0471663453205717,2.1324769745084469,1.8360023325098069,-2.0603401052260848,2.0603401052260848,-1.8360023325098069,3.6996845823327758,0.0
734640.0783812654,4005767.5119837918,-47500.0,-0.62986786834889086,1.8159460202217037,-0.19293690465261948,0.93508395117028564,-1.7872781154809128,-0.054265361613694212,2.6226060590009803,2.3318878230273459,-2.7143866493919724,2.7143866493919724,-2.3318878230273459,4.7296874498574883,0.0
739640.0783812654,4005767.5119837918,-47500.0,-0.94493697768788654,2.0629664663234273,-0.46556441248704294,1.1060005251955523,-2.2046681864898714,1.2884314422687453,3.3231112121695991,2.7650711450560297,-3.352421596580927,3.352421596580927,-2.7650711450560297,5.9300932415349665,0.0
744640.0783812654,4005767.5119837918,-47500.0,-1.251790875603239,2.2727204550313256,-0.70501526102355261,0.90964056596031895,-2.4216211348576335,2.6995291031782238,4.0216777030623607,3.0495235093594761,-3.8489316365017743,3.8489316365017743,-3.0495235093594761,7.0229813596406503,0.0
749640.0783812654,4005767.5119837918,-47500.0,-1.409526747227086,2.397794975276168,-0.88300303928394575,0.39049974895912998,-2.4541277786820488,3.8721778427895819,4.5138068215972051,3.1415629154204039,-4.1192140021365367,4.1192140021365367,-3.1415629154204039,7.8209110569498534,0.0
754640.0783812654,4005767.5119837918,-47500.0,-1.3454647940667914,2.4221720471031825,-0.98797914144577814,-0.29503762444560333,-2.3521796167751288,4.6072845685832382,4.7503035456602793,3.052173729704128,-4.1472209295071547,4.1472209295071547,-3.052173729704128,8.2398506783254692,0.0
759640.0783812654,4005767.5119837918,-47500.0,-1.0793276623962595,2.3579771418820639,-1.0239588614832493,-0.96927258795575733,-2.1717280855322048,4.8661444927662378,4.751143950853292,2.8305702972200493,-3.9749538019790798,3.9749538019790798,-2.8305702972200493,8.2867578988712172,0.0
764640.0783812654,4005767.5119837918,-47500.0,-0.69015501993760031,2.2311413465057366,-1.0046070196990684,-1.5071414873658526,-1.9569674788379052,4.7329124385986292,4.5696831815305696,2.536575935548647,-3.670697428654305,3.670697428654305,-2.536575935548647,8.0281630389482359,0.0
769640.0783812654,4005767.5119837918,-47500.0,-0.26712396648980641,2.0683310623036371,-0.94683268365430584,-1.8579321965833089,-1.736077987141879,4.3420215538345079,4.267806357317375,2.2202934530070073,-3.3005345860263851,3.3005345860263851,-2.2202934530070073,7.5545164888328857,0.0
774640.0783812654,4005767.5119837918,-47500.0,0.12236484499632461,1.8904083838338261,-0.8663619613799215,-2.0283221649278822,-1.5244459820038516,3.8212579238437137,3.9005591601470222,1.9147235130899638,-2.9141645301660173,2.9141645301660173,-1.9147235130899638,6.9535311957833317,0.0
779640.0783812654,4005767.5119837918,-47500.0,0.44140835349850566,1.7112683766244454,-0.77565706498368914,-2.0544891308085718,-1.329395169707231,3.2657377417716824,3.5098207571133813,1.6372877211557655,-2.5428134544182011,2.5428134544182011,-1.6372877211557655,6.2964631376081339,0.0
784640.0783812654,4005767.5119837918,-47500.0,0.67837682035430835,1.5391552982301229,-0.68350591813353845,-1.9801647224922081,-1.153773423107483,2.7347117924215718,3.1239250972392076,1.3945612460965569,-2.2029406327812762,2.2029406327812762,-1.3945612460965569,5.6344883201733857,0.0
789640.0783812654,4005767.5119837918,-47500.0,0.83757268376942007,1.3784532609864486,-0.59547743964400668,-1.8445624734953674,-0.99807717925160244,2.2587887603013979,2.7600175989565345,1.186803819187261,-1.9011232971980871,1.9011232971980871,-1.186803819187261,5.0006267774712558,0.0
794640.0783812654,4005767.5119837918,-47500.0,0.93105441640168751,1.2311373705577091,-0.51467440820606425,-1.6779012638561823,-0.86157708098686525,1.8493193855113741,2.4270700512472869,1.0111668995569154,-1.6380956116254848,1.6380956116254848,-1.0111668995569154,4.4137291886807537,0.0
799640.0783812654,4005767.5119837918,-47500.0,0.97316303914393987,1.0977512680869308,-0.44247897217649829,-1.5011810146285784,-0.74290701147789939,1.506307453501033,2.1285768131293201,0.86361923072037849,-1.4115176364652509,1.4115176364652509,-0.86361923072037849,3.8825978726559627,0.0
804640.0783812654,4005767.5119837918,-47500.0,0.97749716424581234,0.97801379412454414,-0.37916532575135514,-1.3277509097282072,-0.64039258950574474,1.2239611853880661,1.8646274291142282,0.73996885347281427,-1.2176790541407889,1.2176790541407889,-0.73996885347281427,3.4094360975868154,0.0
809640.0783812654,4005767.5119837918,-47500.0,0.95558001678878424,0.87118545417342919,-0.32435283043356361,-1.1652945987064192,-0.55225083253444462,0.99415830119502213,1.633365966425242,0.63633914449935125,-1.0524678326452825,1.0524678326452825,-0.63633914449935125,2.9924344151452309,0.0
814640.0783812654,4005767.5119837918,-47500.0,0.91651858820720511,0.77629037718550276,-0.27731711547743115,-1.0176157031786444,-0.47671721430978042,0.80840285040947735,1.4319564251384969,0.54934643220734802,-0.91187946740731785,0.91187946740731785,-0.54934643220734802,2.6275737071861878,0.0
819640.0783812654,4005767.5119837918,-47500.0,0.86716238572190296,0.69225268144005503,-0.23719039109767265,-0.88602787801394844,-0.41212484987094294,0.65880903969982663,1.257188080117164,0.47612843308613717,-0.79225658181650782,0.79225658181650782,-0.47612843308613717,2.3098114162434462,0.0
824640.0783812654,4005767.5119837918,-47500.0,0.81246300744653643,0.61798073666451503,-0.2030825998820443,-0.77034953139658258,-0.35694952749056208,0.53850804021137166,1.1058342357766067,0.41430569582972548,-0.69037802199188625,0.69037802199188625,-0.41430569582972548,2.0338203241232837,0.0
829640.0783812654,4005767.5119837918,-47500.0,0.75587391111065549,0.55241857593792087,-0.17414899992043875,-0.66957434868236188,-0.30983021225597845,0.44173890367247981,0.97484946269716555,0.36191871666483738,-0.60346836146813643,0.60346836146813643,-0.36191871666483738,1.7944200231579923,0.0
834640.0783812654,4005767.5119837918,-47500.0,0.69971545530900425,0.49457581820444635,-0.14962355688302131,-0.58230181061165476,-0.26957289551706626,0.36378317588104092,0.86146545072096115,0.31736121124502026,-0.52916859252130444,0.52916859252130444,-0.31736121124502026,1.5868073031704963,0.0
644640.0783812654,4010767.5119837918,-47500.0,0.29972349265206821,0.63149486131868604,-0.010163167960989884,0.33123213804981788,0.37560614304348927,0.24206080599771063,0.80221724525338034,0.13530757447639463,-0.37030221571571509,0.37030221571571509,-0.13530757447639463,1.4248604219262018,0.0
649640.0783812654,4010767.5119837918,-47500.0,0.29698681261239612,0.70362372824605512,-0.0086432305716064289,0.36556988170477517,0.4340843580438547,0.2858842414692504,0.89898708628545609,0.14802293123786564,-0.41139241010771171,0.41139241010771171,-0.14802293123786564,1.5942429140069314,0.0
654640.0783812654,4010767.5119837918,-47500.0,0.28619861491616833,0.783473167277282,-0.0060219701874025238,0.40089472570871287,0.50211814450722125,0.33751607035514303,1.0077643937705549,0.1615921958279592,-0.456477809120929,0.456477809120929,-0.1615921958279592,1.7841049902988366,0.0
659640.0783812654,4010767.5119837918,-47500.0,0.26457030776421109,0.87103695529532776,-0.0018589854112471278,0.43562126730250994,0.58080253138551707,0.39776311494752176,1.1292196531397118,0.17589229217527505,-0.50540009489163584,0.50540009489163584,-0.17589229217527505,1.995399683537592,0.0
664640.0783812654,4010767.5119837918,-47500.0,0.22874082889818639,0.96578933034669123,0.0044299259350733134,0.46723781674673631,0.67094975978175087,0.4670272670631011,1.2634752046706081,0.19074348692207799,-0.55768391158877806,0.55768391158877806,-0.19074348692207799,2.2280591146540418,0.0
669640.0783812654,4010767.5119837918,-47500.0,0.17486397573701326,1.0664183224404948,0.013604242225003685,0.49197506008630038,0.77273437357162489,0.54487340777529136,1.4096980961881287,0.20593396644499024,-0.61241222973374509,0.61241222973374509,-0.20593396644499024,2.4802816442302729,0.0
674640.0783812654,4010767.5119837918,-47500.0,0.098891987891337352,1.1704924732344262,0.026623920187828491,0.50445361597024763,0.88511713136397585,0.6293407575737352,1.5655037897121495,0.22129819084151747,-0.6681016725068083,0.6681016725068083,-0.22129819084151747,2.7475094774834727,0.0
679640.0783812654,4010767.5119837918,-47500.0,-0.0028101744960736101,1.2740922555522409,0.044653283534050014,0.49741326885753656,1.0049573207786571,0.71591119447819607,1.7261247370793611,0.23689981714230063,-0.72262820232895564,0.72262820232895564,-0.23689981714230063,3.0210446771568642,0.0
684640.0783812654,4010767.5119837918,-47500.0,-0.13235122357141715,1.3714966853772024,0.069016513399102836,0.46174352908903021,1.1257254911973864,0.79608434238579495,1.8833278524232728,0.25340198491376109,-0.77330767885665053,0.77330767885665053,-0.25340198491376109,3.2863336676835928,0.0
689640.0783812654,4010767.5119837918,-47500.0,-0.28854857017139007,1.4551176929615421,0.10106035781711005,0.38721763956695676,1.23578796779963,0.85564942971788061,2.0241568238953009,0.27274366551424339,-0.81731830374910963,0.81731830374910963,-0.27274366551424339,3.5211681484892354,0.0
694640.0783812654,4010767.5119837918,-47500.0,-0.46451910303189059,1.5160217570302514,0.14186028037390164,0.26455777370246913,1.3164149107731897,0.87308916869344277,2.1297941757259951,0.29926020531372505,-0.85275360095887853,0.85275360095887853,-0.29926020531372505,3.6945333627299641,0.0
699640.0783812654,4010767.5119837918,-47500.0,-0.64508284413431216,1.5455270075474363,0.19169542542767681,0.089601173653561419,1.3400581504941984,0.81922823120990707,2.1753321914751163,0.34133076500670551,-0.88065843940944255,0.88065843940944255,-0.34133076500670551,3.767813020083878,0.0
704640.0783812654,4010767.5119837918,-47500.0,-0.80533001237694501,1.5383718078197184,0.24924139115578414,-0.12995178389900644,1.2701218410902766,0.66028348634543577,2.1325511865556459,0.41339348741116355,-0.90827932097053221,0.90827932097053221,-0.41339348741116355,3.7019729898724094,0.0
709640.0783812654,4010767.5119837918,-47500.0,-0.9129575688112751,1.4975214785154705,0.31053398344369937,-0.366101329075604,1.0642947499765876,0.36750188714449361,1.983298501404994,0.53758855217185675,-0.95318168594737218,0.95318168594737218,-0.53758855217185675,3.4781962134417288,0.0
714640.0783812654,4010767.5119837918,-47500.0,-0.93773216480687682,1.439431865091011,0.36799389810932071,-0.56449424273750037,0.68392743996909577,-0.063823341018504828,1.7793325418135564,0.74330427345704975,-1.0465451181898016,1.0465451181898016,-0.74330427345704975,3.1468516676574461,0.0
719640.0783812654,4010767.5119837918,-47500.0,-0.86941398355243971,1.3965018644157492,0.4101696196779796,-0.64933018172164636,0.11058251415607642,-0.58780106859013304,1.6840362522485852,1.0618863814781796,-1.2319378040254159,1.2319378040254159,-1.0618863814781796,2.9169366923248861,0.0
724640.0783812654,4010767.5119837918,-47500.0,-0.7378359559069031,1.411782974839574,0.42316111817844654,-0.54942518205015944,-0.63376803529889958,-1.0870165805468102,1.6678227002178438,1.5140281652395076,-1.5545734363540209,1.5545734363540209,-1.5140281652395076,3.1567740435523657,0.0
729640.0783812654,4010767.5119837918,-47500.0,-0.61726672529279636,1.5228417483756813,0.39443498705076468,-0.24547476403544943,-1.4736987722367654,-1.3837190276796676,2.2397598172722928,2.0910272034411523,-2.0387289674916858,2.0387289674916858,-2.0910272034411523,4.0049580969526284,0.0
734640.0783812654,4010767.5119837918,-47500.0,-0.59542830579103878,1.7395049470366453,0.31838213027034629,0.18743330830257479,-2.289019415802084,-1.3055859359257025,2.9915142133962798,2.7388505974856394,-2.6605887167386615,2.6605887167386615,-2.7388505974856394,5.1855740860192361,0.0
739640.0783812654,4010767.5119837918,-47500.0,-0.71380990007999634,2.0299932730338215,0.2008591019652233,0.58824812566034246,-2.9507177339007931,-0.78675164752863758,3.6648385854099881,3.3603710733218062,-3.3359354099204044,3.3359354099204044,-3.3603710733218062,6.3584265750542288,0.0
744640.0783812654,4010767.5119837918,-47500.0,-0.92660718429052746,2.3295376151388916,0.059141226261333349,0.78800474412244947,-3.3683168467033577,0.069897093092764484,4.1955640152827804,3.8447733052028217,-3.9412985892114745,3.9412985892114745,-3.8447733052028217,7.2912402420223685,0.0
749640.0783812654,4010767.5119837918,-47500.0,-1.1240076761876006,2.5689732704463606,-0.083775733573110966,0.70593831047431488,-3.5190215420497344,1.0342113705382474,4.5349815330225889,4.1114056502093552,-4.3631256223332722,4.3631256223332722,-4.1114056502093552,7.8701587712156353,0.0
754640.0783812654,4010767.5119837918,-47500.0,-1.2032498594421082,2.703323776669186,-0.20730855013884431,0.38404198025084302,-3.4418864964504978,1.8677162585985003,4.6631449687846747,4.1390439974089492,-4.5425819789022075,4.5425819789022075,-4.1390439974089492,8.079004950422263,0.0
759640.0783812654,4010767.5119837918,-47500.0,-1.1238479415262532,2.7224080290094248,-0.29902593009813999,-0.058529884596571151,-3.2077704440404453,2.4250387289432709,4.5982411561815315,3.9628135890758505,-4.4870502719811629,4.4870502719811629,-3.9628135890758505,7.9662974740403349,0.0
764640.0783812654,4010767.5119837918,-47500.0,-0.91069244173427699,2.6429526783373163,-0.35571781407291342,-0.49846040125371488,-2.8885770306614829,2.6779195434274663,4.3845902941188211,3.6478953566218606,-4.249532267263894,4.249532267263894,-3.6478953566218606,7.6109894821861817,0.0
769640.0783812654,4010767.5119837918,-47500.0,-0.62227384629571425,2.493693580661164,-0.38098231864891946,-0.85440521371914047,-2.5400600340375461,2.6785532435734996,4.0739905618548207,3.2615433644546075,-3.8980870653615192,3.8980870653615192,-3.2615433644546075,7.096371060439556,0.0
774640.0783812654,4010767.5119837918,-47500.0,-0.31766124713985894,2.3034879078959567,-0.38179457833612651,-1.0946155802667088,-2.1981699165520996,2.509260645518641,3.7126999439862329,2.8567142519713804,-3.4936478250624519,3.4936478250624519,-2.8567142519713804,6.4950344700109666,0.0
779640.0783812654,4010767.5119837918,-47500.0,-0.039031540278480839,2.0954757533093247,-0.36575445588448741,-1.222835816906698,-1.8825620760929607,2.24771573484405,3.3359688937010117,2.4678496619808055,-3.0807554115198474,3.0807554115198474,-2.4678496619808055,5.8629558940287367,0.0
784640.0783812654,4010767.5119837918,-47500.0,0.19133908678182004,1.885817311959707,-0.33951522704927078,-1.260445477447854,-1.6018341011294082,1.9521977911502304,2.9676463356944867,2.1135553234243623,-2.6872854950678922,2.6872854950678922,-2.1135553234243623,5.2392648137180755,0.0
789640.0783812654,4010767.5119837918,-47500.0,0.36676450270288247,1.6846433434019727,-0.30819032639882071,-1.2334011276140435,-1.3579504619369087,1.6600115204255288,2.6221126722185657,1.8013637630439605,-2.3280417898279087,2.3280417898279087,-1.8013637630439605,4.6487555506219085,0.0
794640.0783812654,4010767.5119837918,-47500.0,0.49018286545108303,1.4976153030499819,-0.27534755747568451,-1.1652148820059152,-1.1492866528103407,1.3916276510768639,2.3067899603143247,1.5320691253405991,-2.0089647007659721,2.0089647007659721,-1.5320691253405991,4.1052447333210491,0.0
799640.0783812654,4010767.5119837918,-47500.0,0.56921320955955179,1.3273629091848311,-0.24326771040704873,-1.0743105760292935,-0.97251313147043028,1.1559883835916782,2.0244085740613,1.302867153668215,-1.7305991298929255,1.7305991298929255,-1.302867153668215,3.6147788141700579,0.0
804640.0783812654,4010767.5119837918,-47500.0,0.61289359697871726,1.1745860256134473,-0.21326998238088946,-0.97380570937081867,-0.82368621564369626,0.95501335697255163,1.7747672745600847,1.1093561204733446,-1.4905396802809063,1.4905396802809063,-1.1093561204733446,3.1782803045920547,0.0
809640.0783812654,4010767.5119837918,-47500.0,0.62986907119748636,1.0388279505227522,-0.18600852028863835,-0.87233630709900645,-0.69884361372836179,0.78681495207930618,1.5559850852814883,0.94669669911461285,-1.2849988796522165,1.2849988796522165,-0.94669669911461285,2.7935437173705635,0.0
814640.0783812654,4010767.5119837918,-47500.0,0.62757251196038777,0.91899159133620634,-0.16170661167068143,-0.77515117659965893,-0.59430470987453654,0.64775647574289164,1.3653381423730524,0.8102242790001164,-1.1097423620479285,1.1097423620479285,-0.8102242790001164,2.4566458124377828,0.0
819640.0783812654,4010767.5119837918,-47500.0,0.61199159861789887,0.81367094183943556,-0.14032634286110965,-0.68511974903627126,-0.50679969513914502,0.5336583512041595,1.1997884542146737,0.69573129958413837,-0.96060588366049038,0.96060588366049038,-0.69573129958413837,2.1628853609466931,0.0
824640.0783812654,4010767.5119837918,-47500.0,0.58773769569110756,0.72135725892728675,-0.12168438002646002,-0.60353409072798403,-0.4335035543923364,0.44044323749701531,1.0563000898157213,0.5995643716494008,-0.83375411544358835,0.83375411544358835,-0.5995643716494008,1.9073768570218532,0.0
829640.0783812654,4010767.5119837918,-47500.0,0.55824227830573481,0.64056145069869419,-0.10552704433878816,-0.53069572740997684,-0.37201952959594631,0.36443824298642585,0.93201376623860199,0.51862378930990227,-0.72578669722811451,0.72578669722811451,-0.51862378930990227,1.6854005213538923,0.0
834640.0783812654,4010767.5119837918,-47500.0,0.5259856674154626,0.56988226755038163,-0.091576723668385859,-0.46632172679003869,-0.32033868026705548,0.3024819079261683,0.82433180472591827,0.45031707063863113,-0.63375934357818486,0.63375934357818486,-0.45031707063863113,1.4925902273299099,0.0
644640.0783812654,4015767.5119837918,-47500.0,0.4927904968613282,0.58816861980497881,-0.082474125921278854,0.47437160881664864,0.34291310001780712,0.32713048683406132,0.84413301924482576,0.078706839918639443,-0.33980641394225308,0.33980641394225308,-0.078706839918639443,1.5260257894885612,0.0
649640.0783812654,4015767.5119837918,-47500.0,0.51396482076564043,0.65458698211482802,-0.093791398479860066,0.53650210200562898,0.39498442042637466,0.39370586250809175,0.94751642229707445,0.085048944022229345,-0.37980259640720526,0.37980259640720526,-0.085048944022229345,1.7110627265656897,0.0
654640.0783812654,4015767.5119837918,-47500.0,0.52892772601256277,0.72812977030507819,-0.10639409946999044,0.60515122127752419,0.45528116932397766,0.47482190183435868,1.0640904044432848,0.09198320336956492,-0.42467071904208287,0.42467071904208287,-0.09198320336956492,1.9191592871973895,0.0
659640.0783812654,4015767.5119837918,-47500.0,0.53422201743082298,0.80885954610022881,-0.12019562624910936,0.67955024604528946,0.52466069166588092,0.57333452795466577,1.1947355966454105,0.099672215485913651,-0.4747649038367846,0.4747649038367846,-0.099672215485913651,2.1515858311035374,0.0
664640.0783812654,4015767.5119837918,-47500.0,0.52526079074329945,0.89641274571145779,-0.13493206937098151,0.75785579416337623,0.60369730022198442,0.69224166551840982,1.3398099439760109,0.10840428813225997,-0.53032268579613739,0.53032268579613739,-0.10840428813225997,2.4085331103261813,0.0
669640.0783812654,4015767.5119837918,-47500.0,0.4961622840479824,0.9897815313680427,-0.15005209338849251,0.83655877521115296,0.69236627517955196,0.83429393493002912,1.4987356169737527,0.11868886071817197,-0.59138713651334363,0.59138713651334363,-0.11868886071817197,2.68831526032166,0.0
674640.0783812654,4015767.5119837918,-47500.0,0.439729297428752,1.0870433555927457,-0.16455632006797077,0.90968846811630943,0.78953875969014709,1.0012329198181631,1.6693884088135902,0.13141365214200706,-0.65771143085214734,0.65771143085214734,-0.13141365214200706,2.9862115540761054,0.0
679640.0783812654,4015767.5119837918,-47500.0,0.34775768131050205,1.1850650994384107,-0.17677339039851508,0.9678334361549954,0.8922137195279245,1.192429270473127,1.8472353899458744,0.14809482119703393,-0.72865925907909768,0.72865925907909768,-0.14809482119703393,3.2928768496124459,0.0
684640.0783812654,4015767.5119837918,-47500.0,0.21197443744919317,1.2792561404010163,-0.18406780343464746,0.99712735950397469,0.99441776727950226,1.4026252324141848,2.0241864597444286,0.1712588372034532,-0.80313601039051941,0.80313601039051941,-0.1712588372034532,3.5923424948328346,0.0
689640.0783812654,4015767.5119837918,-47500.0,0.026030468151991372,1.3635245856319571,-0.18249934335055257,0.9786098003620638,1.0857559131792327,1.6184873338638077,2.187189816145183,0.20499214708173091,-0.87962218580640372,0.87962218580640372,-0.20499214708173091,3.8598841046648347,0.0
694640.0783812654,4015767.5119837918,-47500.0,-0.21098703478295311,1.4307019018671463,-0.16650968993203272,0.88883432106131588,1.1497478866048951,1.8139018712177453,2.3167477520297708,0.25566657490177835,-0.9564347204643644,0.9564347204643644,-0.25566657490177835,4.0606225371066396,0.0
699640.0783812654,4015767.5119837918,-47500.0,-0.48933204492305837,1.4738061219770129,-0.12881647978782582,0.70325060670801953,1.1624046969812112,1.9446943993929313,2.3858047329925256,0.33276884765307263,-1.0324061202654369,1.0324061202654369,-0.33276884765307263,4.150964168351245,0.0
704640.0783812654,4015767.5119837918,-47500.0,-0.78248426022615591,1.4885009087495247,-0.060854269722058166,0.4044514722198434,1.0920336905108956,1.9451512009362519,2.3599127322380395,0.44960451600672729,-1.1082141540246941,1.1082141540246941,-0.44960451600672729,4.0875007143813145,0.0
709640.0783812654,4015767.5119837918,-47500.0,-1.0431646968078172,1.4767609766731304,0.045732821262714794,-0.0030849828444722404,0.90190114945510624,1.7315904694516526,2.2002069935147004,0.62340928147839736,-1.1885385762414249,1.1885385762414249,-0.62340928147839736,3.8530915602859697,0.0
714640.0783812654,4015767.5119837918,-47500.0,-1.2076774313835614,1.4508308705585087,0.19604328946136138,-0.47348319687595919,0.55766172953833648,1.2212413661636177,1.8714249419659299,0.87414556016256395,-1.2849087563143033,1.2849087563143033,-0.87414556016256395,3.5186366981665067,0.0
719640.0783812654,4015767.5119837918,-47500.0,-1.2162711399116559,1.435121832417916,0.38732786314107603,-0.90502049462356438,0.040422541183638021,0.3736473075625748,1.8682593955315054,1.2211042540894415,-1.4182667451002571,1.4182667451002571,-1.2211042540894415,3.3452340798704516,0.0
724640.0783812654,4015767.5119837918,-47500.0,-1.0507300275296771,1.4626546649408201,0.60424338248859011,-1.1509885288673705,-0.63704024545816973,-0.75106933714035595,2.1177782249046548,1.6764676224867183,-1.618660545252907,1.618660545252907,-1.6764676224867183,3.7339876342835572,0.0
729640.0783812654,4015767.5119837918,-47500.0,-0.77083389546447478,1.5639363826677848,0.81723445550780438,-1.0755098330236641,-1.4184860486600182,-1.9508512613929951,2.5858200689588573,2.2354792722226331,-1.9177371115758235,1.9177371115758235,-2.2354792722226331,4.757364138291134,0.0
734640.0783812654,4015767.5119837918,-47500.0,-0.51065434856564151,1.7510598771049322,0.98788999481529527,-0.64289473666977881,-2.2073517055253729,-2.9135905080410085,3.4457031351628249,2.8649915000087174,-2.3309875203725308,2.3309875203725308,-2.8649915000087174,6.0561061241916168,0.0
739640.0783812654,4015767.5119837918,-47500.0,-0.41004256168804004,2.0059396346968041,1.0817902998416284,0.0233406301004844,-2.890423807031492,-3.3476196483046992,4.1751567625352068,3.4972751150850656,-2.8354493652268906,2.8354493652268906,-3.4972751150850656,7.2369858103766322,0.0
744640.0783812654,4015767.5119837918,-47500.0,-0.52066053484682151,2.2824452667906745,1.082797893438032,0.68360253642401603,-3.3742521623917674,-3.141174031137655,4.6443683868546035,4.0400738950638972,-3.3608702190664985,3.3608702190664985,-4.0400738950638972,8.0515460505954977,0.0
749640.0783812654,4015767.5119837918,-47500.0,-0.77137443010163598,2.5237273117402244,0.99934169308835263,1.1140689253958254,-3.6148057729093983,-2.4214871281805319,4.8410625317682543,4.4062280253969117,-3.8101683011349632,3.8101683011349632,-4.4062280253969117,8.4149687067808401,0.0
754640.0783812654,4015767.5119837918,-47500.0,-1.0259158412310252,2.6843538613364841,0.85850769896215284,1.2201201112796514,-3.6238770942260117,-1.4636530219436372,4.8102221211921457,4.547282687021406,-4.1003270384645667,4.1003270384645667,-4.547282687021406,8.3694892296123076,0.0
759640.0783812654,4015767.5119837918,-47500.0,-1.1724951312844907,2.743814003410205,0.69308279986915822,1.0481983646129296,-3.4524626635654796,-0.53719580374900922,4.6151720531324489,4.4678930638308554,-4.194258683305522,4.194258683305522,-4.4678930638308554,8.0211586736736482,0.0
764640.0783812654,4015767.5119837918,-47500.0,-1.1707088999334994,2.7062724125784872,0.53029504135792704,0.71789630126603565,-3.1654298804218604,0.19291037432005728,4.3142386996622903,4.2141508244652259,-4.1044207468400691,4.1044207468400691,-4.2141508244652259,7.4840527502447278,0.0
769640.0783812654,4015767.5119837918,-47500.0,-1.0420406583861037,2.5914432362719673,0.38692455934227427,0.34749661074975102,-2.8217151839217927,0.67678446307912199,3.9544763231510558,3.8491121360737548,-3.874597057416695,3.874597057416695,-3.8491121360737548,6.8509404930386868,0.0
774640.0783812654,4015767.5119837918,-47500.0,-0.83603280444827721,2.4242810716585215,0.26994754726476111,0.015894315045320642,-2.4651751460884554,0.93987259512954624,3.5715884387427783,3.4319072541014735,-3.5575359696675952,3.5575359696675952,-3.4319072541014735,6.1867887940211084,0.0
779640.0783812654,4015767.5119837918,-47500.0,-0.60203144391228758,2.2279636198774702,0.17964952394047917,-0.24084175734435315,-2.1237459343606888,1.0381854570474864,3.1908615055761453,3.0072969287748124,-3.1998766933247089,3.1998766933247089,-3.0072969287748124,5.5331347891536131,0.0
784640.0783812654,4015767.5119837918,-47500.0,-0.3758780890578331,2.0207469602137551,0.1128134734003252,-0.41689266111162243,-1.8125625107612404,1.0291679770571625,2.8286639337856019,2.6039917017298655,-2.8360684792099735,2.8360684792099735,-2.6039917017298655,4.9146863179967504,0.0
789640.0783812654,4015767.5119837918,-47500.0,-0.1779647039911407,1.8154497917506964,0.064987466721365073,-0.52238234568482655,-1.5379200434129339,0.95892987381947259,2.4943689308557948,2.2374431588010375,-2.4882347760723929,2.4882347760723929,-2.2374431588010375,4.3447856100048172,0.0
794640.0783812654,4015767.5119837918,-47500.0,-0.016526397344400968,1.6202003074208615,0.0317645784430165,-0.57310125004972656,-1.3006522345305802,0.85969181176361975,2.1922983938060439,1.913813464958344,-2.1686277186121865,2.1686277186121865,-1.913813464958344,3.8292751113609285,0.0
799640.0783812654,4015767.5119837918,-47500.0,0.1079765802241805,1.439559319488416,0.009351974967349002,-0.58478604893136188,-1.0985672923823691,0.75178531470574084,1.9233923535157265,1.6334990408304424,-1.8825802911005651,1.8825802911005651,-1.6334990408304424,3.3691511455239076,0.0
804640.0783812654,4015767.5119837918,-47500.0,0.19922184392947015,1.2755894841584967,-0.0052730609617754973,-0.57065502515543476,-0.92803851789320291,0.64686236050844093,1.6864982804048954,1.3937214411655141,-1.6310339742168578,1.6310339742168578,-1.3937214411655141,2.9624034068043064,0.0
809640.0783812654,4015767.5119837918,-47500.0,0.26256575925846143,1.1287150948875095,-0.014407435998070667,-0.54079495086180918,-0.78496454648698444,0.55083029534575956,1.4792909214764933,1.1902271947831879,-1.4123961661861046,1.4123961661861046,-1.1902271947831879,2.6052890423010013,0.0
814640.0783812654,4015767.5119837918,-47500.0,0.30360448914133659,0.99836212004859448,-0.019742275653107828,-0.50241819480285865,-0.66531074037512528,0.46607274183483893,1.2988996183651049,1.0183188253794182,-1.2237942399341561,1.2237942399341561,-1.0183188253794182,2.2932184123525432,0.0
819640.0783812654,4015767.5119837918,-47500.0,0.32744601465005674,0.88339601124158729,-0.022495387153459206,-0.46041895525655724,-0.56537662125419585,0.39295965772384206,1.1422982113905202,0.87341802262979895,-1.0618512427541258,1.0618512427541258,-0.87341802262979895,2.0213241973798248,0.0
824640.0783812654,4015767.5119837918,-47500.0,0.33842044736875632,0.78241673606287299,-0.023529485628663836,-0.41795919982507806,-0.48190796053178248,0.33080993871121434,1.0065435577355697,0.7513472421417452,-0.92314531483728024,0.92314531483728024,-0.7513472421417452,1.7848289617722459,0.0
829640.0783812654,4015767.5119837918,-47500.0,0.34003096106386071,0.69394376068360175,-0.023447780609064682,-0.37696971972260163,-0.41211683984893838,0.27846918082814542,0.8889032675443288,0.64843801401132695,-0.80445469872959119,0.80445469872959119,-0.64843801401132695,1.5792540824130352,0.0
834640.0783812654,4015767.5119837918,-47500.0,0.33502181471860892,0.616527154471744,-0.022667195793278621,-0.3385395806382327,-0.35365522212454414,0.23463832850927346,0.78691483733132384,0.56154520431987587,-0.70287260279543551,0.70287260279543551,-0.56154520431987587,1.4005258264943392,0.0
644640.0783812654,4020767.5119837918,-47500.0,0.66952092716533351,0.51462860357199114,-0.14428238718277983,0.60556497580209623,0.29022726831969126,0.40513407952402464,0.88714702558305913,0.0224362459025709,-0.29032450842722102,0.29032450842722102,-0.0224362459025709,1.6322890574882929,0.0
649640.0783812654,4020767.5119837918,-47500.0,0.71169540170486478,0.56936396897745134,-0.16603903745035661,0.69251118419468227,0.33071533490042915,0.49218498735460359,0.9975742827682913,0.023292901868697397,-0.32586901796809853,0.32586901796809853,-0.023292901868697397,1.834472628219685,0.0
654640.0783812654,4020767.5119837918,-47500.0,0.74904259337533596,0.62943415496724631,-0.19087410181043349,0.79072609687704909,0.3766349267382505,0.59970392244294091,1.1225732852828814,0.024943219708478542,-0.36662496993890692,0.36662496993890692,-0.024943219708478542,2.0628248771432816,0.0
659640.0783812654,4020767.5119837918,-47500.0,0.77743496572472959,0.69479864146991088,-0.2189141805743906,0.90007125085860906,0.42819271174635887,0.73229988696653603,1.2633336077943926,0.028036224500259554,-0.41344266299743737,0.41344266299743737,-0.028036224500259554,2.3191476281355121,0.0
664640.0783812654,4020767.5119837918,-47500.0,0.79111556943258199,0.76511983557043162,-0.25005545334702312,1.019166690704391,0.48522130003545372,0.89516866588278543,1.420597535028175,0.033604354094931621,-0.46731220765667086,0.46731220765667086,-0.033604354094931621,2.6041980844608434,0.0
669640.0783812654,4020767.5119837918,-47500.0,0.78232250618530264,0.8396505066023896,-0.28378596551229346,1.1445646262610887,0.54691152677888344,1.0937232186184331,1.5942634303821077,0.043247864190126606,-0.52937563198775295,0.52937563198775295,-0.043247864190126606,2.9168484259376943,0.0
674640.0783812654,4020767.5119837918,-47500.0,0.74102479738974736,0.91712186137652196,-0.31891599462933579,1.2695626364957739,0.61142353984745379,1.3327459863503639,1.7827891496596304,0.0593818009332025,-0.60092428140411402,0.60092428140411402,-0.0593818009332025,3.2528479058778141,0.0
679640.0783812654,4020767.5119837918,-47500.0,0.65500417801954958,0.99566978504407511,-0.35318736994456695,1.3826158409972484,0.67535394078177557,1.6147162683774456,1.982330091720155,0.085541105509864546,-0.68335984100004321,0.68335984100004321,-0.085541105509864546,3.6031006926826734,0.0
684640.0783812654,4020767.5119837918,-47500.0,0.5107036313536587,1.072868294062256,-0.38274182268590012,1.4654478862177767,0.73306513679938756,1.9368153723166823,2.1855552423681903,0.12670580078767874,-0.7780762672495205,0.7780762672495205,-0.12670580078767874,3.9514677860533194,0.0
689640.0783812654,4020767.5119837918,-47500.0,0.29550386759419656,1.1459760405136459,-0.40146425852004702,1.4912978045953957,0.77595347916173307,2.2860088396051323,2.3801388103414034,0.18954137918580777,-0.88618607087959278,0.88618607087959278,-0.18954137918580777,4.2723758285665525,0.0
694640.0783812654,4020767.5119837918,-47500.0,0.0022815501696639632,1.2125225307774861,-0.40030471301046294,1.4244057327229802,0.79186824332804817,2.6317516832252523,2.5470920239437147,0.28234110984563465,-1.0079733155892168,1.0079733155892168,-0.28234110984563465,4.5291689211696493,0.0
699640.0783812654,4020767.5119837918,-47500.0,-0.36305818024487618,1.2713121526740021,-0.36685338595898442,1.2229129019398859,0.76509700073757037,2.9166952621612539,2.6595133817380452,0.41433072473969229,-1.1419416997398275,1.1419416997398275,-0.41433072473969229,4.6755337997904105,0.0
704640.0783812654,4020767.5119837918,-47500.0,-0.77153768865563821,1.3237224893438151,-0.2857073201489489,0.84857463838352798,0.67754011924784385,3.0480146987476666,2.6832934666997015,0.59396186940190465,-1.2834423742819401,1.2834423742819401,-0.59396186940190465,4.6651365810506542,0.0
709640.0783812654,4020767.5119837918,-47500.0,-1.1620496759712426,1.374758992287495,-0.1404539515960711,0.28687346714044931,0.51169518337547426,2.8962832828740357,2.5839960444401813,0.82613360164030025,-1.4233182795501675,1.4233182795501675,-0.82613360164030025,4.4799576483720074,0.0
714640.0783812654,4020767.5119837918,-47500.0,-1.4418834695706086,1.432845305474715,0.081862343250226774,-0.422499691261156,0.2555014030552013,2.3143725765595535,2.3608038385413859,1.1092583060849128,-1.5479869658913568,1.5479869658913568,-1.1092583060849128,4.1950183838100497,0.0
719640.0783812654,4020767.5119837918,-47500.0,-1.5095461865652062,1.5073579723859578,0.38363805460960682,-1.1557853429274467,-0.092243651610555102,1.1903839686553628,2.2781245397242813,1.4345639658704528,-1.6435586952373367,1.6435586952373367,-1.4345639658704528,4.0757495400573109,0.0
724640.0783812654,4020767.5119837918,-47500.0,-1.3067480497749659,1.6042767110518295,0.74876293594252841,-1.7038815111831132,-0.51856684567789102,-0.46543424035440384,2.6098556788028597,1.7903267219059764,-1.7060783980710397,1.7060783980710397,-1.7903267219059764,4.5211820567480991,0.0
729640.0783812654,4020767.5119837918,-47500.0,-0.88069781876919617,1.7227274826893673,1.1383162432004148,-1.8340239476692839,-0.99725113092938744,-2.4383336842965515,3.2100735031056487,2.1698655207033899,-1.7546572692391535,1.7546572692391535,-2.1698655207033899,5.6236435611682349,0.0
734640.0783812654,4020767.5119837918,-47500.0,-0.40311057411632145,1.8557473604717114,1.4954660355089171,-1.4145788445925429,-1.4927833717575292,-4.3113821971866262,4.0384606102511196,2.574587458140333,-1.8348931663884966,1.8348931663884966,-2.574587458140333,7.0227512141128017,0.0
739640.0783812654,4020767.5119837918,-47500.0,-0.097088156891542376,1.9944750672562783,1.7613967570372946,-0.52810499106031061,-1.9636120287694905,-5.6115812463959287,4.7766499146515606,3.0023176727215657,-1.9985257646169932,1.9985257646169932,-3.0023176727215657,8.2734512779948961,0.0
744640.0783812654,4020767.5119837918,-47500.0,-0.10229367928954146,2.1302579245194675,1.8960004914496795,0.5377933055139289,-2.3646263449190674,-6.0396077708497664,5.2238370805805801,3.4268194924112239,-2.2652341568116592,2.2652341568116592,-3.4268194924112239,9.0755392677360671,0.0
749640.0783812654,4020767.5119837918,-47500.0,-0.39012908544710689,2.2521603555503735,1.8914840948981417,1.4422981778471906,-2.6539088858860755,-5.613059352185755,5.3388100265541638,3.7919173398703561,-2.598533777557559,2.598533777557559,-3.7919173398703561,9.3267633099115557,0.0
754640.0783812654,4020767.5119837918,-47500.0,-0.80296984585713338,2.3450434606964539,1.7709879504710992,1.9664286730203995,-2.8048037839877478,-4.6124393286083789,5.1789428407386877,4.0332263434242384,-2.921122026596461,2.921122026596461,-4.0332263434242384,9.0907488485935986,0.0
759640.0783812654,4020767.5119837918,-47500.0,-1.1674774494357181,2.3932140096962033,1.5749953222481998,2.0792631386506248,-2.8152036379089704,-3.3986695498931332,4.842171433081675,4.1101565129849265,-3.1563774492985153,3.1563774492985153,-4.1101565129849265,8.517446726163417,0.0
764640.0783812654,4020767.5119837918,-47500.0,-1.3801071383046786,2.3869701550900531,1.3453186668380608,1.8840960603495618,-2.7063295347147394,-2.254367162053001,4.4187933642815747,4.0216799612939802,-3.2612607782630585,3.2612607782630585,-4.0216799612939802,7.7646635050557578,0.0
769640.0783812654,4020767.5119837918,-47500.0,-1.4218946545941906,2.3262108860589166,1.1146034007876495,1.5250656569665435,-2.5126747911930112,-1.3270896518455892,3.9701426887897595,3.7991576768397324,-3.2327496281942758,3.2327496281942758,-3.7991576768397324,6.953717604326024,0.0
774640.0783812654,4020767.5119837918,-47500.0,-1.328025492025009,2.2192109450190336,0.90312328213962123,1.1223339773893342,-2.2704960115565673,-0.65226071423108589,3.5308959471203081,3.4883180443487856,-3.095157293263199,3.095157293263199,-3.4883180443487856,6.1600324571492315,0.0
779640.0783812654,4020767.5119837918,-47500.0,-1.1514111646762859,2.0787447407455524,0.72042398783499539,0.75036060467683652,-2.0101850838857258,-0.20188831756357467,3.1188670258322473,3.1335769335177521,-2.8833622951828626,2.8833622951828626,-3.1335769335177521,5.4224721897989134,0.0
784640.0783812654,4020767.5119837918,-47500.0,-0.93967132388312791,1.9182804013311003,0.56871043930180742,0.44312429609196885,-1.7534265354051275,0.075107472072342849,2.7424284741951208,2.7698028782861295,-2.6308505774139297,2.6308505774139297,-2.7698028782861295,4.7567118983270626,0.0
789640.0783812654,4020767.5119837918,-47500.0,-0.72648859989513603,1.7495476363127664,0.44603449057359051,0.20804145900752971,-1.5135884672754523,0.22983913518681667,2.4045834492539537,2.4204103135737007,-2.3641042869176889,2.3641042869176889,-2.4204103135737007,4.1657534095429281,0.0
794640.0783812654,4020767.5119837918,-47500.0,-0.53159446421398027,1.5815251305807518,0.34858071852734424,0.038647121665134357,-1.2975288413015,0.30402343432827106,2.1051737182629342,2.0988703070066457,-2.1014541842967898,2.1014541842967898,-2.0988703070066457,3.6464180761630418,0.0
799640.0783812654,4020767.5119837918,-47500.0,-0.36412007962067311,1.4203825229673799,0.27204852284141445,-0.076898196851940853,-1.1076270988924166,0.32820386561107612,1.8422038855021079,1.8113375492908608,-1.8541460291760306,1.8541460291760306,-1.8113375492908608,3.1928515597352738,0.0
804640.0783812654,4020767.5119837918,-47500.0,-0.22634920122375765,1.2698971441515809,0.21237051764329831,-0.15110791975278889,-0.94349634015101502,0.32323697686100034,1.6126948307137938,1.5591701679375338,-1.6281025679435663,1.6281025679435663,-1.5591701679375338,2.7982813971018325,0.0
809640.0783812654,4020767.5119837918,-47500.0,-0.11671508935679931,1.1320189424304536,0.16601704056485586,-0.19503292821964391,-0.80323247700942424,0.30265241829960504,1.4132411856375646,1.3408954411635099,-1.4256184718177849,1.4256184718177849,-1.3408954411635099,2.4558703790734371,0.0
814640.0783812654,4020767.5119837918,-47500.0,-0.031835172376155074,1.0074105790743233,0.13007239168194981,-0.21757892656978253,-0.68424218813203763,0.27485198997172505,1.2403667977176411,1.1535760368795467,-1.2467110828414656,1.2467110828414656,-1.1535760368795467,2.1591267243675416,0.0
819640.0783812654,4020767.5119837918,-47500.0,0.032255226888290883,0.89589049568485024,0.10219967327739088,-0.22553408855692231,-0.58374858594443302,0.2448273783534122,1.0907378325299688,0.99368221113725652,-1.0900895924789749,1.0900895924789749,-0.99368221113725652,1.9020920993901795,0.0
824640.0783812654,4020767.5119837918,-47500.0,0.079430060523263873,0.79676670779649539,0.080561298744533064,-0.22388059863173454,-0.49907520389824706,0.21538699771812636,0.96128000840193284,0.85760912261660704,-0.95380408333838129,0.95380408333838129,-0.85760912261660704,1.6794162895230769,0.0
829640.0783812654,4020767.5119837918,-47500.0,0.11315403086531803,0.70907229849834685,0.063729526830294606,-0.21617353978666112,-0.42778703370264037,0.18798582541327832,0.8492316142395393,0.7419570312657362,-0.83565466367276731,0.83565466367276731,-0.7419570312657362,1.4863680275837285,0.0
834640.0783812654,4020767.5119837918,-47500.0,0.13636985925635214,0.63172323405127051,0.05060313467643842,-0.20489137850579692,-0.36774524925091234,0.16326631880897213,0.75215625518985751,0.64366326230105553,-0.73343445022972709,0.73343445022972709,-0.64366326230105553,1.3188100853188489,0.0
644640.0783812654,4025767.5119837918,-47500.0,0.8214281923359571,0.41595024882437021,-0.18971504698151054,0.7189494096642759,0.22086180822791343,0.47272286731407037,0.92764479250763476,-0.028912058402412205,-0.22447603660654528,0.22447603660654528,0.028912058402412205,1.7342039749315159,0.0
649640.0783812654,4025767.5119837918,-47500.0,0.879870205368812,0.45439050667733405,-0.21799424900283107,0.82605294045190958,0.24569436257086763,0.57675145619149992,1.0445431538343095,-0.031677200148952103,-0.252728922026282,0.252728922026282,0.031677200148952103,1.9524353445020157,0.0
654640.0783812654,4025767.5119837918,-47500.0,0.93405526886011581,0.49556561534610466,-0.25013425425106167,0.94789127292101538,0.2721032270999148,0.70588713707885564,1.1772674413380879,-0.032805520282196965,-0.28606584530004742,0.28606584530004742,0.032805520282196965,2.1996684167432443,0.0
659640.0783812654,4025767.5119837918,-47500.0,0.97915647225665559,0.53925912149297994,-0.28622635087574633,1.0846320661392592,0.29938317559967487,0.86599825020037258,1.3272931059263815,-0.030959709881996256,-0.32579685300330563,0.32579685300330563,0.030959709881996256,2.4781812315366238,0.0
664640.0783812654,4025767.5119837918,-47500.0,1.0083103864181022,0.58513458300686827,-0.32604192287815842,1.2349967215359436,0.32632607345412179,1.0638061089886555,1.4957198879998093,-0.024115148251955598,-0.37365482750083157,0.37365482750083157,0.024115148251955598,2.7892455919243435,0.0
669640.0783812654,4025767.5119837918,-47500.0,1.0121062517825221,0.6327735738957011,-0.36880709940628364,1.3952402007316524,0.35102216154941718,1.306491673918291,1.6828867930811793,-0.0092928525702377918,-0.43192006975943342,0.43192006975943342,0.0092928525702377918,3.1322592061405108,0.0
674640.0783812654,4025767.5119837918,-47500.0,0.97818942523757402,0.68179005496307876,-0.41287270972977158,1.5576664999687395,0.37063656207753382,1.6007348376182065,1.8877772913102349,0.017751191981763448,-0.50354367231703412,0.50354367231703412,-0.017751191981763448,3.5034580346047584,0.0
679640.0783812654,4025767.5119837918,-47500.0,0.8912657308838452,0.73207334250230827,-0.45525628082760927,1.7086136011651292,0.38121035415226656,1.9507607711424391,2.1071362769012336,0.062822230889670483,-0.59221495648574174,0.59221495648574174,-0.062822230889670483,3.8941140345871923,0.0
684640.0783812654,4025767.5119837918,-47500.0,0.734029112857012,0.78421943818434037,-0.49105341318985124,1.8260075502773794,0.37759631594456078,2.3547764720512809,2.3342297197367792,0.13342700997945528,-0.70225235479517734,0.70225235479517734,-0.13342700997945528,4.2882218346278735,0.0
689640.0783812654,4025767.5119837918,-47500.0,0.48984304028754067,0.8401855111502512,-0.51277080176957801,1.8769923552093684,0.3537324394902841,2.7990388944845823,2.557255149213109,0.23847794787033411,-0.83808752200794312,0.83808752200794312,-0.23847794787033411,4.6599643385964997,0.0
694640.0783812654,4025767.5119837918,-47500.0,0.14826190897435865,0.90409631203248031,-0.50974541208619972,1.8169547223183979,0.30356275792974241,3.2489459695587324,2.7576498977051824,0.38709706601581817,-1.0029655553444876,1.0029655553444876,-0.38709706601581817,4.9719294994453511,0.0
699640.0783812654,4025767.5119837918,-47500.0,-0.28569459866759839,0.98287571663356943,-0.46800025352802377,1.5925760777893199,0.22295185791953309,3.6374976618463686,2.9091093169274007,0.58591872808644696,-1.1963743747300168,1.1963743747300168,-0.58591872808644696,5.1764896701800485,0.0
704640.0783812654,4025767.5119837918,-47500.0,-0.77898391238641995,1.0859348086305369,-0.37111977172655214,1.1530549112982089,0.11270422098662546,3.8540839680278594,2.9793647631785323,0.83447374907126115,-1.4098768745320762,1.4098768745320762,-0.83447374907126115,5.225560805078854,0.0
709640.0783812654,4025767.5119837918,-47500.0,-1.2588208406937436,1.2226804484350509,-0.20287080811820213,0.4739454163100551,-0.018030249410139622,3.7415780476662635,2.9398132589054811,1.1192590027238338,-1.6219276426041287,1.6219276426041287,-1.1192590027238338,5.0988762119230886,0.0
714640.0783812654,4025767.5119837918,-47500.0,-1.612032548738535,1.3967499728302222,0.047955706110332612,-0.40606884445021302,-0.15027902924806902,3.1161911042305701,2.7990193438872195,1.4094531286387306,-1.7944532870607171,1.7944532870607171,-1.4094531286387306,4.8660068564998626,0.0
719640.0783812654,4025767.5119837918,-47500.0,-1.7107182425406517,1.5977914810942386,0.38101779873110025,-1.3477097933869726,-0.25959945769115689,1.8265774109221249,2.7142407128467525,1.6602970282677918,-1.8770958930406823,1.8770958930406823,-1.6602970282677918,4.7747968488120964,0.0
724640.0783812654,4025767.5119837918,-47500.0,-1.4730605593281407,1.7958454431441064,0.77848606047089042,-2.1046829621872787,-0.32907239265062355,-0.14638735041993176,2.9961565327865642,1.8303288643655933,-1.8258632586637222,1.8258632586637222,-1.8303288643655933,5.2087980384183705,0.0
729640.0783812654,4025767.5119837918,-47500.0,-0.93921738742632876,1.946997603068048,1.2033728793662055,-2.3882991616759646,-0.36671673122095239,-2.5895109035849204,3.6394101302603485,1.9099894052151181,-1.6352026564300799,1.6352026564300799,-1.9099894052151181,6.3037945481129123,0.0
734640.0783812654,4025767.5119837918,-47500.0,-0.30226904859386172,2.0145177557747145,1.6050135105191428,-2.0076410840336338,-0.41260852012101262,-5.0438050134751657,4.4678502972394281,1.9419156817557823,-1.3644410427282185,1.3644410427282185,-1.9419156817557823,7.7421437483624693,0.0
739640.0783812654,4025767.5119837918,-47500.0,0.16469540623911444,1.9940726546601342,1.9310671303579836,-1.0084555745234931,-0.52067161760659697,-6.9482466310706537,5.209750833939756,2.00588334555442,-1.127587821975609,1.127587821975609,-2.00588334555442,9.0593231081351338,0.0
744640.0783812654,4025767.5119837918,-47500.0,0.26155299072808308,1.9198080679528657,2.1415301458064624,0.3121380513589494,-0.721269965329153,-7.8911402256682202,5.6626308471011999,2.1669146899406146,-1.0369259005166787,1.0369259005166787,-2.1669146899406146,9.9114866904408139,0.0
749640.0783812654,4025767.5119837918,-47500.0,-0.02431670058315313,1.8416810265112633,2.2190018522747335,1.5543818830948057,-0.99533241281130591,-7.7954589111071666,5.7611456379503636,2.4269584747527597,-1.1379702916547569,1.1379702916547569,-2.4269584747527597,10.161299761607426,0.0
754640.0783812654,4025767.5119837918,-47500.0,-0.53650667126721285,1.7935239126311477,2.1711832045016806,2.4162699044722409,-1.2838964554816992,-6.9028334686280637,5.5504673677656111,2.723575224154982,-1.3892562994987303,1.3892562994987303,-2.723575224154982,9.8595220535123271,0.0
759640.0783812654,4025767.5119837918,-47500.0,-1.0668936130613684,1.7788177622138623,2.0251382976437831,2.7969874022775096,-1.5224332200241542,-5.5985385992785544,5.1334936768508719,2.9722015026250417,-1.6977246927634391,1.6977246927634391,-2.9722015026250417,9.1664530070576422,0.0
764640.0783812654,4025767.5119837918,-47500.0,-1.4638303704801257,1.7794495069366945,1.8167221247124532,2.7661796432611752,-1.6702023808852808,-4.2289148665983172,4.6182182385306092,3.111344449963835,-1.9722761677409908,1.9722761677409908,-3.111344449963835,8.264503667279735,0.0
769640.0783812654,4025767.5119837918,-47500.0,-1.6690490456985072,1.7728678229910089,1.5803686921894944,2.4699019912199787,-1.7182832619383905,-3.0117927234720296,4.0851932261751305,3.1209828434654856,-2.1569973911711484,2.1569973911711484,-3.1209828434654856,7.3015568162109767,0.0
774640.0783812654,4025767.5119837918,-47500.0,-1.6967807796580201,1.7437540210682192,1.3428371172605384,2.0510581859680941,-1.6810330421933604,-2.0376663592159678,3.5800787795845324,3.0152951158181178,-2.2354451377302569,2.2354451377302569,-3.0152951158181178,6.3727397104806087,0.0
779640.0783812654,4025767.5119837918,-47500.0,-1.5955222555599351,1.6869456100747924,1.1214263990055087,1.6124094045369954,-1.5830104296936796,-1.3120677432048493,3.1223608051816116,2.825650600667621,-2.2184432146294517,2.2184432146294517,-2.825650600667621,5.5269105199263509,0.0
784640.0783812654,4025767.5119837918,-47500.0,-1.4185561749399975,1.6050156542800464,0.92513880116512937,1.2125520026552705,-1.4490671109205506,-0.79917684172970971,2.717107466189943,2.5861273176187209,-2.1292731201404616,2.1292731201404616,-2.5861273176187209,4.7815645946297716,0.0
789640.0783812654,4025767.5119837918,-47500.0,-1.209257944958452,1.5045029621194141,0.75699786738773045,0.87657129483505936,-1.2993792771918957,-0.45115690469089564,2.3628459305799794,2.3254945147543391,-1.9930780301211573,1.9930780301211573,-2.3254945147543391,4.1365610405166313,0.0
794640.0783812654,4025767.5119837918,-47500.0,-0.99724061289757859,1.3929060777245348,0.61633274852913433,0.60896797819629567,-1.1481539696122267,-0.22314995327795689,2.0554658472712042,2.0645711023943538,-1.8314095201947451,1.8314095201947451,-2.0645711023943538,3.5835239510327015,0.0
799640.0783812654,4025767.5119837918,-47500.0,-0.79991413716802884,1.2769466928228421,0.5005358521798966,0.40374880711636085,-1.0042512532291323,-0.07882168282246263,1.789965881124929,1.816629606329129,-1.660448208062677,1.660448208062677,-1.816629606329129,3.1112343906319007,0.0
804640.0783812654,4025767.5119837918,-47500.0,-0.62575251516663621,1.161858536409162,0.40622700983235666,0.25083802364459151,-0.87246622157530651,0.0089835876701037098,1.5612437088323574,1.5890006036292759,-1.4911968355926382,1.4911968355926382,-1.5890006036292759,2.7083082985369886,0.0
809640.0783812654,4025767.5119837918,-47500.0,-0.47745159417789079,1.0512987488881955,0.32993756309356187,0.13958333771397644,-0.75481447540389635,0.05957247324441918,1.3644633603770475,1.3848412872524416,-1.330459176678084,1.330459176678084,-1.3848412872524416,2.3643301526270135,0.0
814640.0783812654,4025767.5119837918,-47500.0,-0.35435669786589774,0.94755703712155548,0.26846346541894672,0.060386998157427346,-0.65156903808462585,0.086219249543372525,1.1952194888134575,1.2046283792458266,-1.1819587129750488,1.1819587129750488,-1.2046283792458266,2.0702106067575907,0.0
819640.0783812654,4025767.5119837918,-47500.0,-0.25411131326312264,0.85186139091443958,0.21901341979567576,0.0052753128854350646,-0.56200583720457464,0.097834256211834725,1.0495961248687187,1.0472650521150169,-1.0473163452764209,1.0473163452764209,-1.0472650521150169,1.8181961393706012,0.0
824640.0783812654,4025767.5119837918,-47500.0,-0.17368156965025719,0.76467715125371916,0.17924135758449319,-0.032065619953826237,-0.48489958273005351,0.10028808941062091,0.92416877147672438,0.910836262334207,-0.92680545154521266,0.92680545154521266,-0.910836262334207,1.6017442547103227,0.0
829640.0783812654,4025767.5119837918,-47500.0,-0.10994269051821466,0.68595703660034058,0.14722016056576945,-0.056483530511815143,-0.41883322341182233,0.097386703192698723,0.8159764430176526,0.79309155516295093,-0.81989282809327668,0.81989282809327668,-0.79309155516295093,1.4153610615021097,0.0
834640.0783812654,4025767.5119837918,-47500.0,-0.059982819215621513,0.61533273295346569,0.12139030272535802,-0.071623408274821429,-0.36237903648430603,0.091558490292484654,0.72247935741663005,0.69173505108523292,-0.72560616385043741,0.72560616385043741,-0.69173505108523292,1.2544417125805689,0.0
644640.0783812654,4030767.5119837918,-47500.0,0.94218612647842037,0.29909968647085056,-0.21471653004688249,0.81010000888905831,0.13934469539860805,0.5273534143265356,0.96240796568971132,-0.071405344561136452,-0.14625059639526544,0.14625059639526544,0.071405344561136452,1.8237345316681133,0.0
649640.0783812654,4030767.5119837918,-47500.0,1.0109895304292424,0.3185029712423551,-0.24470808089611687,0.93155861806454243,0.14596313734529903,0.64400588984083529,1.0843460570320806,-0.075242242090567971,-0.16525623488803209,0.16525623488803209,0.075242242090567971,2.0548200699326502,0.0
654640.0783812654,4030767.5119837918,-47500.0,1.0751297891891318,0.33774953839796751,-0.27814719436456614,1.0696447376971865,0.14978907230979419,0.78881260175542034,1.2229711633542932,-0.07590595733690525,-0.1889217899506247,0.1889217899506247,0.07590595733690525,2.3168564503547757,0.0
659640.0783812654,4030767.5119837918,-47500.0,1.1290730715579038,0.35650105247780983,-0.31482030461818461,1.2244541273440657,0.14914583945291543,0.96830230749929291,1.3799263371318999,-0.071221813846858245,-0.21898437721701705,0.21898437721701705,0.071221813846858245,2.6123582553845157,0.0
664640.0783812654,4030767.5119837918,-47500.0,1.164970301453893,0.37453442149377136,-0.35408011070507295,1.3944019356432753,0.14175352306200387,1.1899152269743714,1.5565083537219389,-0.058026675460015914,-0.2578866030615149,0.2578866030615149,0.058026675460015914,2.9428233994435229,0.0
669640.0783812654,4030767.5119837918,-47500.0,1.1721062419341977,0.39195450733539755,-0.39460537960196174,1.5750692742743764,0.12462989248562738,1.4615429965689344,1.7532763492847256,-0.031853318904961125,-0.30901242802574735,0.30901242802574735,0.031853318904961125,3.3078445189020105,0.0
674640.0783812654,4030767.5119837918,-47500.0,1.1365062512747359,0.40955915615557753,-0.43407883514072104,1.7575473127788217,0.094078542601227444,1.7904385709730164,1.9694386058851527,0.013381545366314973,-0.37693322560222464,0.37693322560222464,-0.013381545366314973,3.7037963544091483,0.0
679640.0783812654,4030767.5119837918,-47500.0,1.0410358809651143,0.42941291966186707,-0.46878844341387804,1.9262292276928805,0.045886080833594071,2.1810431158428809,2.2019404669647917,0.085561554242337107,-0.46757651865790284,0.46757651865790284,-0.085561554242337107,4.1220112464744609,0.0
684640.0783812654,4030767.5119837918,-47500.0,0.86658483685327048,0.45565972969237861,-0.49319581509981669,2.0561986668972718,-0.024066504802908582,2.6310917698301339,2.4442044005741543,0.19417434181025395,-0.58812407723373394,0.58812407723373394,-0.19417434181025395,4.5464606406136454,0.0
689640.0783812654,4030767.5119837918,-47500.0,0.59524125135096362,0.49550547157282182,-0.49958894860879732,2.1108240960259637,-0.11847865715228074,3.1252505664069874,2.6845849284305698,0.34928954922906458,-0.74627329845537638,0.74627329845537638,-0.34928954922906458,4.9512578797802629,0.0
694640.0783812654,4030767.5119837918,-47500.0,0.21657772871647563,0.56006373826846678,-0.47805012578563921,2.0410424546168011,-0.23624967654013662,3.6257636955288977,2.9048804561460351,0.55905352239502681,-0.94827019816028546,0.94827019816028546,-0.55905352239502681,5.2989801993116394,0.0
699640.0783812654,4030767.5119837918,-47500.0,-0.26213819475625622,0.66431984354199669,-0.41710170966785365,1.7891523156957343,-0.36887382462610024,4.0606736919806554,3.0798363800147661,0.82498095982405117,-1.1949598023084527,1.1949598023084527,-0.82498095982405117,5.5421980033800811,0.0
704640.0783812654,4030767.5119837918,-47500.0,-0.80263531556062639,0.8248785147285892,-0.305450325861296,1.3013260360792054,-0.4961226567410647,4.3128996203665011,3.1797528145505898,1.1348247813917167,-1.4753381866753426,1.4753381866753426,-1.1348247813917167,5.6331659420399296,0.0
709640.0783812654,4030767.5119837918,-47500.0,-1.323985006736645,1.0538200983215109,-0.13504024144636248,0.55297098327439398,-0.58304056346317423,4.2183660693302993,3.180712977341575,1.4545355883548814,-1.7583851866993967,1.7583851866993967,-1.4545355883548814,5.550715794007167,0.0
714640.0783812654,4030767.5119837918,-47500.0,-1.7034090116799492,1.347926780934775,0.095077994764747473,-0.41360520936603018,-0.58247585985217298,3.5871756497594172,3.0925239756952321,1.7242112847836786,-1.9869997580376098,1.9869997580376098,-1.7242112847836786,5.3564499262079242,0.0
719640.0783812654,4030767.5119837918,-47500.0,-1.8045000394195341,1.6761530287772834,0.37569960836044808,-1.4523636500359465,-0.44858381551599202,2.2626421150865941,3.024331133043261,1.8666881217118272,-2.0821244131305545,2.0821244131305545,-1.8666881217118272,5.2714289977689139,0.0
724640.0783812654,4030767.5119837918,-47500.0,-1.5401435855359693,1.9743478966241768,0.68759278853589578,-2.3086094185611477,-0.16312228925102032,0.21770949619162236,3.2287846007296346,1.8165307602013256,-1.9665941373907487,1.9665941373907487,-1.8165307602013256,5.647993572564979,0.0
729640.0783812654,4030767.5119837918,-47500.0,-0.94885707332790947,2.159707717655496,1.0058932496665869,-2.682813534748707,0.23530279597364198,-2.3498092185961976,3.8150461715181816,1.5645240487303327,-1.6091786986752696,1.6091786986752696,-1.5645240487303327,6.6538565718097393,0.0
734640.0783812654,4030767.5119837918,-47500.0,-0.22664057738998544,2.1684653493540558,1.3063355047310898,-2.3658240024924604,0.64289624700767889,-5.0013933976800971,4.6008366539449508,1.1900053626557698,-1.0670438801805113,1.0670438801805113,-1.1900053626557698,8.0377798137529357,0.0
739640.0783812654,4030767.5119837918,-47500.0,0.34108202205489235,1.9972858374634068,1.5685614549248947,-1.3752238594343227,0.92453613351604946,-7.1840142742594706,5.3263689731862716,0.84360230345699216,-0.48723558316859883,0.48723558316859883,-0.84360230345699216,9.3582133063856556,0.0
744640.0783812654,4030767.5119837918,-47500.0,0.52763816764323068,1.7135696986539188,1.7749796245854448,0.018712815942954545,0.97948702743778082,-8.4588099586684766,5.7934121111135219,0.67410545069812666,-0.046759533166038758,0.046759533166038758,-0.67410545069812666,10.257167166978419,0.0
749640.0783812654,4030767.5119837918,-47500.0,0.28625517371822573,1.419831176797977,1.9096334922411717,1.4197362896333587,0.79326951162056891,-8.6851248442320728,5.9199754774169318,0.74800142197199082,0.13501555399460541,-0.13501555399460541,-0.74800142197199082,10.567284658900189,0.0
754640.0783812654,4030767.5119837918,-47500.0,-0.24956285073647,1.1990563491721236,1.9614952746612155,2.4952284595935423,0.43647993613769998,-8.0342586316648035,5.730391249697977,1.023848864201218,0.046790753241215954,-0.046790753241215954,-1.023848864201218,10.308536709047514,0.0
759640.0783812654,4030767.5119837918,-47500.0,-0.86892424191288709,1.0825619342173205,1.929950286692713,3.0937383767829951,0.01805176536826391,-6.8503835205758614,5.3135685559710426,1.3928892127951533,-0.23195219395912792,0.23195219395912792,-1.3928892127951533,9.6220246207858704,0.0
764640.0783812654,4030767.5119837918,-47500.0,-1.3950531189609796,1.0547834858591187,1.8267097139272017,3.2400536558999473,-0.36655666488259347,-5.4807769638047175,4.7753373335832503,1.7429062058123657,-0.58819641262522482,0.58819641262522482,-1.7429062058123657,8.6873912866655001,0.0
769640.0783812654,4030767.5119837918,-47500.0,-1.7376166214250341,1.0781671744813979,1.6721677386570049,3.057396558276734,-0.66196223335460314,-4.173652582275726,4.2043590923184464,2.0002738583959951,-0.92633416029867011,0.92633416029867011,-2.0002738583959951,7.6623882968668617,0.0
774640.0783812654,4030767.5119837918,-47500.0,-1.8856158005967534,1.1159769896877638,1.4891124822388411,2.6880157932932698,-0.85241410532207307,-3.0586356646260939,3.6580009113827052,2.1381950352053161,-1.1901778426958927,1.1901778426958927,-2.1381950352053161,6.65700532944218,0.0
779640.0783812654,4030767.5119837918,-47500.0,-1.8744255226509428,1.1434002560956802,1.297503584109561,2.2473767368523898,-0.94805097966124197,-2.1745745038427713,3.1642510317352466,2.1641027213278941,-1.360626192864226,1.360626192864226,-2.1641027213278941,5.7335744495119849,0.0
784640.0783812654,4030767.5119837918,-47500.0,-1.7547517372619108,1.1487264032089148,1.1119253450935256,1.8109367980824449,-0.97037281192364988,-1.5078518631919062,2.7314395461389718,2.1024412947824374,-1.442969183467258,1.442969183467258,-2.1024412947824374,4.9186459846467647,0.0
789640.0783812654,4030767.5119837918,-47500.0,-1.5738126730625916,1.1298601665551093,0.9413548959260164,1.4190710494107992,-0.94238049149196956,-1.0224658703025702,2.3578999460126258,1.9815897860829061,-1.4541289242851281,1.4541289242851281,-1.9815897860829061,4.2164682483570957,0.0
794640.0783812654,4030767.5119837918,-47500.0,-1.3677139500429909,1.0900912531939937,0.79018163042456635,1.0877483045140615,-0.88369642091695211,-0.67801548265570699,2.0380059003362789,1.826713030332332,-1.4138750319292557,1.4138750319292557,-1.826713030332332,3.6195502584301287,0.0
799640.0783812654,4030767.5119837918,-47500.0,-1.1605818609516216,1.034845966819294,0.65958293642357202,0.81849577443843891,-0.8090699696434569,-0.43824357825144822,1.7650559501037781,1.6571216460321745,-1.3401503041045033,1.3401503041045033,-1.6571216460321745,3.115494333340155,0.0
804640.0783812654,4030767.5119837918,-47500.0,-0.96664673451706307,0.96972497785745038,0.54876401979956257,0.60558207424180677,-0.72863439759923621,-0.27390025203110752,1.5324747683587971,1.4861824967391353,-1.2472693792595033,1.2472693792595033,-1.4861824967391353,2.6908334719536713,0.0
809640.0783812654,4030767.5119837918,-47500.0,-0.7930309484700323,0.89955303861838987,0.4558881523353242,0.44047112097424362,-0.64882569913980426,-0.16278618969955727,1.3342733731969219,1.3223213623972276,-1.1457197849805485,1.1457197849805485,-1.3223213623972276,2.332903438978053,0.0
814640.0783812654,4030767.5119837918,-47500.0,-0.64223150534094198,0.82806383790805804,0.37869602116842344,0.3142657227728673,-0.57339153003400833,-0.088682042602229672,1.1651929009652875,1.1702860375777828,-1.0426792770371172,1.0426792770371172,-1.1702860375777828,2.0305830864349224,0.0
819640.0783812654,4030767.5119837918,-47500.0,-0.51399356412779496,0.75792047733541712,0.31487881148301694,0.21887246936684038,-0.50425290153177993,-0.04002737648130026,1.0207094390176106,1.0322887142019985,-0.9427445981275373,0.9427445981275373,-1.0322887142019985,1.7744505267017239,0.0
824640.0783812654,4030767.5119837918,-47500.0,-0.40659247454911657,0.69087979921307763,0.26227951718204351,0.14743403757934476,-0.44215814917614538,-0.0087175900056130056,0.89697887657403053,0.90890329196216113,-0.84862992856021191,0.84862992856021191,-0.90890329196216113,1.5566738137548504,0.0
829640.0783812654,4030767.5119837918,-47500.0,-0.31764946508454522,0.62799432604313632,0.21898453874077473,0.09438099530779645,-0.38714459260763473,0.010865466307889116,0.79075892466468534,0.79971414857514345,-0.76174367901810991,0.76174367901810991,-0.79971414857514345,1.3708036239625394,0.0
834640.0783812654,4030767.5119837918,-47500.0,-0.24461714725605044,0.56980111689384638,0.18335042736066398,0.055310164917156998,-0.33884836835879351,0.022585654760807702,0.69932686463203153,0.70375902338389895,-0.68262782176812331,0.68262782176812331,-0.70375902338389895,1.2115492886825496,0.0
644640.0783812654,4035767.5119837918,-47500.0,1.0281223193847449,0.1720753121835725,-0.21744163498376745,0.87636257099544213,0.050883616918115514,0.56747582091702586,0.98893854516934621,-0.10219502816227617,-0.060514565005548873,0.060514565005548873,0.10219502816227617,1.8948591823409171,0.0
649640.0783812654,4035767.5119837918,-47500.0,1.1009782749927479,0.17176009363934927,-0.24417749624605434,1.0058763810607145,0.03841494254555175,0.69198517193740761,1.1138831216241289,-0.10426425224293064,-0.069403304266287782,0.069403304266287782,0.10426425224293064,2.1342102916378374,0.0
654640.0783812654,4035767.5119837918,-47500.0,1.1678433373322403,0.16863548934937428,-0.27282510610178029,1.1522936538493218,0.018851361899378315,0.84601196582211202,1.2558173415488947,-0.10102315273187695,-0.082446948078092441,0.082446948078092441,0.10102315273187695,2.4052381576463309,0.0
659640.0783812654,4035767.5119837918,-47500.0,1.2225364417691613,0.16240412184359859,-0.30266363057635232,1.3152963921135832,-0.010318219835569631,1.0361456728357574,1.4163823691694286,-0.089409678072484872,-0.10179036608427552,0.10179036608427552,0.089409678072484872,2.7103785816455059,0.0
664640.0783812654,4035767.5119837918,-47500.0,1.2564402673527444,0.15317202448085185,-0.33243587079679576,1.4926553717587798,-0.052226044887433154,1.2697584059457085,1.5968465446948348,-0.06513165036955304,-0.1305417609168279,0.1305417609168279,0.06513165036955304,3.0509823812793431,0.0
669640.0783812654,4035767.5119837918,-47500.0,1.258007798471517,0.1418323728278027,-0.36013756014062026,1.6790203286652059,-0.11059435796758291,1.5544543110257028,1.7976958568032764,-0.022358054384377171,-0.17309697986652378,0.17309697986652378,0.022358054384377171,3.4264177910715414,0.0
674640.0783812654,4035767.5119837918,-47500.0,1.2125002281329034,0.13065491211443522,-0.3827801630737,1.8642364754516316,-0.18950771668802821,1.8968637316468202,2.0180044994802824,0.046511462586296987,-0.23547256876689618,0.23547256876689618,-0.046511462586296987,3.8327678198096122,0.0
679640.0783812654,4035767.5119837918,-47500.0,1.1023255242467194,0.12412157360125595,-0.39617400144207737,2.0311870399218699,-0.29281378304789035,2.3003526005946084,2.2545306973964863,0.15080921755209964,-0.32552730415679687,0.32552730415679687,-0.15080921755209964,4.2610577692622025,0.0
684640.0783812654,4035767.5119837918,-47500.0,0.90859010456471545,0.12998183536917071,-0.39483174165051482,2.1533891600527224,-0.42289299221002452,2.7610763506873521,2.5005296796659664,0.30094789219977769,-0.45281679917069717,0.45281679917069717,-0.30094789219977769,4.6950655745506591,0.0
689640.0783812654,4035767.5119837918,-47500.0,0.61473778915779265,0.16033076373658475,-0.37216839274387609,2.1930506557473906,-0.57847425614548131,3.2617763458689861,2.7444024439202903,0.50660359797460908,-0.62761630393659629,0.62761630393659629,-0.50660359797460908,5.1090708000999765,0.0
694640.0783812654,4035767.5119837918,-47500.0,0.213243591385405,0.23217513238180421,-0.32125242624399353,2.1011332053084222,-0.75123102214406523,3.7630467609756293,2.9685766287250983,0.77301030961209583,-0.85839290267729396,0.85839290267729396,-0.77301030961209583,5.4665516054220129,0.0
699640.0783812654,4035767.5119837918,-47500.0,-0.28417567893016238,0.36642496582212314,-0.23637506588755131,1.8221270654525741,-0.92127321319658351,4.1929459487815377,3.1495634984915788,1.0947407270696625,-1.1468651321329131,1.1468651321329131,-1.0947407270696625,5.7220948702567398,0.0
704640.0783812654,4035767.5119837918,-47500.0,-0.83418725048010633,0.58368788380978365,-0.11550849021867854,1.3072142140430731,-1.0526531451285128,4.4383695160955527,3.2611199657523011,1.4471953301221754,-1.4801546265394803,1.4801546265394803,-1.4471953301221754,5.8309362052725024,0.0
709640.0783812654,4035767.5119837918,-47500.0,-1.3524317585835677,0.89523825059176076,0.036865146179359418,0.53881338658594657,-1.0918218745884951,4.3457286834352775,3.284083759048861,1.7782452857305726,-1.8211051875078628,1.8211051875078628,-1.7782452857305726,5.7735847476055255,0.0
714640.0783812654,4035767.5119837918,-47500.0,-1.7172808906660579,1.289249443996437,0.20808203413234713,-0.43540582707812459,-0.97408723692255061,3.7426333789621409,3.2288645989301186,2.0061962314575426,-2.101225019343683,2.101225019343683,-2.0061962314575426,5.6042068699558509,0.0
719640.0783812654,4035767.5119837918,-47500.0,-1.7992556930928432,1.7169655885317503,0.37917200418039881,-1.4720930567447428,-0.64337407927377011,2.4913564689664245,3.1769068498195585,2.0335290608937586,-2.225086927222343,2.225086927222343,-2.0335290608937586,5.5131650258966181,0.0
724640.0783812654,4035767.5119837918,-47500.0,-1.5199221055900969,2.0898524588248928,0.53191242009383444,-2.3322198786913622,-0.085132986241983483,0.57073407369585705,3.3122621143860291,1.7833224940502759,-2.0961358920278039,2.0961358920278039,-1.7833224940502759,5.8080228230853237,0.0
729640.0783812654,4035767.5119837918,-47500.0,-0.91898434240742932,2.3006675149836386,0.65891799521798744,-2.740013727095449,0.64081344808757612,-1.8469023767290258,3.7803487797948501,1.2506798880250631,-1.6644361306963198,1.6644361306963198,-1.2506798880250631,6.6670185273667091,0.0
734640.0783812654,4035767.5119837918,-47500.0,-0.18003254886315848,2.2696310775063,0.76947074013490457,-2.499282895925099,1.3937509332206564,-4.3847227330863872,4.4691978811570729,0.53859596179332014,-0.9750513046313668,0.9750513046313668,-0.53859596179332014,7.911629974749701,0.0
739640.0783812654,4035767.5119837918,-47500.0,0.42909688749055125,1.9924638486226349,0.88351863784098916,-1.6091324673150091,1.9927666355227571,-6.5620386347988955,5.1424274098850011,-0.16037084880876884,-0.17800961628527456,0.17800961628527456,0.16037084880876884,9.1569871740900179,0.0
744640.0783812654,4035767.5119837918,-47500.0,0.6843310825882345,1.5529123936723199,1.0154333379660727,-0.29149234090355713,2.2924417766344409,-7.9764606564398584,5.6098203792325769,-0.64374803635455125,0.52411244249248379,-0.52411244249248379,0.64374803635455125,10.06190498305066,0.0
749640.0783812654,4035767.5119837918,-47500.0,0.51591286350944199,1.0836912080861298,1.1603573683743187,1.1052261837788799,2.2461821487045714,-8.4592138993636627,5.7788709001762246,-0.79303339017262808,0.96578675371371614,-0.96578675371371614,0.79303339017262808,10.44394167176114,0.0
754640.0783812654,4035767.5119837918,-47500.0,0.022239924257443252,0.70265969529779904,1.2950387697036148,2.2627526831550586,1.9145215457156817,-8.1056217058570468,5.6516568485811769,-0.61666445311836615,1.0848044717479985,-1.0848044717479985,0.61666445311836615,10.289062337385529,0.0
759640.0783812654,4035767.5119837918,-47500.0,-0.60864710726330029,0.46901543297113318,1.3914206331574004,3.00460900668546,1.4203557729243146,-7.1813025645993909,5.2941164151806284,-0.22071762389804267,0.92573200332946604,-0.92573200332946604,0.22071762389804267,9.7026290622459221,0.0
764640.0783812654,4035767.5119837918,-47500.0,-1.1984496513305822,0.38016448954668375,1.430945678090735,3.3118615304798724,0.8896242925192609,-5.9873582696138552,4.7969564212230162,0.25760539525261889,0.59373198676392569,-0.59373198676392569,-0.25760539525261889,8.8403873874771737,0.0
769640.0783812654,4035767.5119837918,-47500.0,-1.6371177628099685,0.39625266447252389,1.4104040397325945,3.2698463484008737,0.41255423754463538,-4.764323829457406,4.2445736231524025,0.70563436090499199,0.19988498612332678,-0.19988498612332678,-0.70563436090499199,7.8520298353295033,0.0
774640.0783812654,4035767.5119837918,-47500.0,-1.8894028356465506,0.4683863845534712,1.3391763487303878,3.0006739233927036,0.034211721574248448,-3.6591245180424079,3.6988291733722267,1.0582218959151304,-0.17276824630240473,0.17276824630240473,-1.0582218959151304,6.8515053596876943,0.0
779640.0783812654,4035767.5119837918,-47500.0,-1.9719271794345408,0.5564058437676459,1.2328205796182909,2.6164086501752348,-0.23608485071052632,-2.7362786759527089,3.1958473749633578,1.2940145380206913,-0.47811591141497595,0.47811591141497595,-1.2940145380206913,5.9107485472024415,0.0
784640.0783812654,4035767.5119837918,-47500.0,-1.925387348313732,0.63479194007256057,1.1073729429657189,2.1991870312792883,-0.40989988415647377,-2.0054641008240912,2.7508422852364647,1.4203748019131679,-0.70049161425176787,0.70049161425176787,-1.4203748019131679,5.0664689704172483,0.0
789640.0783812654,4035767.5119837918,-47500.0,-1.7944253025929102,0.69125734874285194,0.97606899895177746,1.7997261893608161,-0.507275966596613,-1.4474750403395757,2.365922659588239,1.4583410217493717,-0.84343626936395277,0.84343626936395277,-1.4583410217493717,4.3309732613262728,0.0
794640.0783812654,4035767.5119837918,-47500.0,-1.6171769070191802,0.72268879468426028,0.84826441901729566,1.4440070046414313,-0.54904297033270566,-1.0321590070002511,2.0368485202990909,1.4322147816369426,-0.91980495440198617,0.91980495440198617,-1.4322147816369426,3.7020224321788913,0.0
799640.0783812654,4035767.5119837918,-47500.0,-1.4218684631853797,0.73116311649762133,0.72968344137113206,1.1415151689554537,-0.55314206854097303,-0.7285150475444292,1.7571134039382321,1.3639832010279225,-0.94514774221899767,0.94514774221899767,-1.3639832010279225,3.1700151877623193,0.0
804640.0783812654,4035767.5119837918,-47500.0,-1.2272307582503288,0.72103651662809254,0.62321689483947873,0.89210698891001572,-0.53349561692210312,-0.50930235412468106,1.5198756380757414,1.2711637614301967,-0.93410212483091792,0.93410212483091792,-1.2711637614301967,2.7225332162381881,0.0
809640.0783812654,4035767.5119837918,-47500.0,-1.0444181878159116,0.69716981498724262,0.52979689971477706,0.69079341835186403,-0.5001780830369088,-0.35246859782333989,1.3187449213627396,1.1665786049355711,-0.89886237327800556,0.89886237327800556,-1.1665786049355711,2.3468975542356745,0.0
814640.0783812654,4035767.5119837918,-47500.0,-0.87916376659259843,0.66401301714556182,0.44913487159809901,0.530700751209776,-0.46009632444958642,-0.24101226813344034,1.148058971943452,1.0589975082201595,-0.8488443195451415,0.8488443195451415,-1.0589975082201595,2.0314267023396275,0.0
819640.0783812654,4035767.5119837918,-47500.0,-0.73362529840994906,0.62523620979641803,0.38026552069533676,0.40472200799646052,-0.41776154908936186,-0.16222438759562319,1.0029399437094042,0.95403729429449569,-0.79092869485098105,0.79092869485098105,-0.95403729429449569,1.7659298769391927,0.0
824640.0783812654,4035767.5119837918,-47500.0,-0.60777572696964421,0.58366422222884284,0.32191268268307044,0.30633091881723656,-0.37597178567998363,-0.10679342640351175,0.87925498867486729,0.85502176103564276,-0.72991772993987447,0.72991772993987447,-0.85502176103564276,1.5417906425737791,0.0
829640.0783812654,4035767.5119837918,-47500.0,-0.50036845730329804,0.54135674768601139,0.27271696533897383,0.22990476948354827,-0.33635013448603196,-0.067985801773011528,0.77353749340584055,0.7636902084716144,-0.66901637956527349,0.66901637956527349,-0.7636902084716144,1.3518547763377826,0.0
644640.0783812654,4040767.5119837918,-47500.0,1.0783317069085478,0.042981999941524851,-0.19829561372934731,0.91694271977045683,-0.039214534476355381,0.5925878746320814,1.0056029156305026,-0.1197509543694172,0.027568396614447641,-0.027568396614447641,0.1197509543694172,1.9437381740856636,0.0
649640.0783812654,4040767.5119837918,-47500.0,1.1492741687433554,0.024193867225165411,-0.21734307308521147,1.048354849476212,-0.070030128885982021,0.72021931852549248,1.1312077719197715,-0.11734200004419493,0.028567056816779117,-0.028567056816779117,0.11734200004419493,2.1860899688509736,0.0
654640.0783812654,4040767.5119837918,-47500.0,1.212214419571237,0.00061135447498642719,-0.23593260958379675,1.1955097688946998,-0.1116720135949494,0.8771552024405519,1.2734860179205609,-0.1070992738885883,0.025795091074232293,-0.025795091074232293,0.1070992738885883,2.4595372220903413,0.0
659640.0783812654,4040767.5119837918,-47500.0,1.2604743572985049,-0.027803483755187691,-0.25275967820646245,1.3574396277823517,-0.16720423882585514,1.0695346527120493,1.4339000432731062,-0.085144972652870299,0.016711433791854073,-0.016711433791854073,0.085144972652870299,2.7661374984048006,0.0
664640.0783812654,4040767.5119837918,-47500.0,1.2849896481378493,-0.060369654497336347,-0.26593412337144684,1.5310832832668224,-0.24022359912672339,1.3040201594154806,1.6134680005024251,-0.046237130370670509,-0.0023993657426047421,0.0023993657426047421,0.046237130370670509,3.1067579978006772,0.0
669640.0783812654,4040767.5119837918,-47500.0,1.2739546680761393,-0.095165482075216801,-0.27284622983244461,1.7101036837353303,-0.334680795555369,1.5871604394552217,1.8123429649579994,0.016469693434149911,-0.036801506321747425,0.036801506321747425,-0.016469693434149911,3.4801903368130991,0.0
674640.0783812654,4040767.5119837918,-47500.0,1.2127827079671829,-0.12828567616547409,-0.27008157847017916,1.8833151537409367,-0.45441766736851708,1.9241161107118192,2.0291975222225753,0.11149533048695948,-0.093671902863446843,0.093671902863446843,-0.11149533048695948,3.881903965690034,0.0
679640.0783812654,4040767.5119837918,-47500.0,1.0847588690764558,-0.15287287638971833,-0.25347097704599736,2.0327840172953469,-0.60222332024024994,2.3163817900125787,2.2603880250311374,0.24869629514320796,-0.18230310046985448,0.18230310046985448,-0.24869629514320796,4.3024075128511692,0.0
684640.0783812654,4040767.5119837918,-47500.0,0.87296303646565609,-0.15802560029242099,-0.21841675496262444,2.1319078628041934,-0.77814990295436581,2.7580605503534676,2.4989276558599536,0.43812221720328492,-0.3138453019293671,0.3138453019293671,-0.43812221720328492,4.7253170591441727,0.0
689640.0783812654,4040767.5119837918,-47500.0,0.56420759937984621,-0.12790505444588246,-0.16069206968676472,2.1442339077371284,-0.9768209495398682,3.2303019916859936,2.7334234780930435,0.6874966624409572,-0.50007352675586525,0.50007352675586525,-0.6874966624409572,5.1255266603627634,0.0
694640.0783812654,4040767.5119837918,-47500.0,0.15567129599001231,-0.041740796447415386,-0.077918107390199026,2.0244920740283163,-1.1836301597676657,3.6939238352260921,2.9473907399467305,0.99768086176458493,-0.750437191258432,0.750437191258432,-0.99768086176458493,5.4684701481712663,0.0
699640.0783812654,4040767.5119837918,-47500.0,-0.33576843954829583,0.12406637443225303,0.028211529005973693,1.7241719905650945,-1.3702594341632843,4.0813343065674159,3.1198228053716552,1.35577287091897,-1.0665884806095483,1.0665884806095483,-1.35577287091897,5.7125177001302943,0.0
704640.0783812654,4040767.5119837918,-47500.0,-0.86332328491522792,0.39017877798822354,0.14931695806381146,1.2044224790194362,-1.4910657865529637,4.2909982561680273,3.2286309930794843,1.7266031585017594,-1.4340965846155769,1.4340965846155769,-1.7266031585017594,5.818199712332536,0.0
709640.0783812654,4040767.5119837918,-47500.0,-1.344250337815392,0.76374849231026809,0.2685017411937704,0.45785277772072802,-1.4835918252024436,4.1907047893293079,3.2595271839717288,2.045746464276287,-1.8127430679652108,1.8127430679652108,-2.045746464276287,5.7699344907433456,0.0
714640.0783812654,4040767.5119837918,-47500.0,-1.6666337640419047,1.2241251711642505,0.36146266845708569,-0.46380636757082244,-1.2779647511627279,3.6382357055883445,3.2235376526180173,2.2205008246847835,-2.1300205954183995,2.1300205954183995,-2.2205008246847835,5.6157284872556836,0.0
719640.0783812654,4040767.5119837918,-47500.0,-1.7179842041986189,1.7105740228717128,0.40292676352191575,-1.4279784406814016,-0.81911980131599993,2.5258297467579771,3.1834234587603047,2.1473433097161556,-2.2861575189648353,2.2861575189648353,-2.1473433097161556,5.5150610260294419,0.0
724640.0783812654,4040767.5119837918,-47500.0,-1.4359230059622548,2.1229432183343762,0.37872426959183458,-2.2262597180528121,-0.099670976118147528,0.84314411103005837,3.2690850573678985,1.7503728899038558,-2.1792556509092078,2.1792556509092078,-1.7503728899038558,5.7245569571545953,0.0
729640.0783812654,4040767.5119837918,-47500.0,-0.86142182341631135,2.3460622931945752,0.29874830271482727,-2.6252622573260824,0.8104113125471647,-1.2675786629408397,3.6080572810038229,1.0311210423333979,-1.7502712891469043,1.7502712891469043,-1.0311210423333979,6.414086000981265,0.0
734640.0783812654,4040767.5119837918,-47500.0,-0.15616928728772844,2.2963716218569186,0.20103472519048571,-2.4583987202583359,1.7606783167182174,-3.5066216309284433,4.1641007729199124,0.10105536821971772,-1.0290904419515978,1.0290904419515978,-0.10105536821971772,7.4700084149551982,0.0
739640.0783812654,4040767.5119837918,-47500.0,0.44682082867839429,1.9680750147015142,0.13901365451674794,-1.7146907996854202,2.560036108502699,-5.491167340522626,4.7522106795423973,-0.83642554702312277,-0.14847334545748914,0.14847334545748914,0.83642554702312277,8.5807050661374618,0.0
744640.0783812654,4040767.5119837918,-47500.0,0.74501416051108915,1.4456474112427191,0.15579163055809789,-0.56268737670783453,3.0476564506908561,-6.8872548116608776,5.1969485918609495,-1.5600337414173935,0.69611356835551008,-0.69611356835551008,1.5600337414173935,9.4438222192737378,0.0
749640.0783812654,4040767.5119837918,-47500.0,0.6577375498228667,0.8684729536436222,0.26199462852359107,0.71663393361507077,3.1547050007014144,-7.5272992550843574,5.4009062770321581,-1.9211885289468258,1.3243386196665696,-1.3243386196665696,1.9211885289468258,9.8778635799314962,0.0
754640.0783812654,4040767.5119837918,-47500.0,0.24701720436563998,0.36975156523075664,0.43262306120935884,1.8471301793202441,2.9194202888010663,-7.4453271866766633,5.3470252620591969,-1.8943751025094984,1.638626260584529,-1.638626260584529,1.8943751025094984,9.8412000671848787,0.0
759640.0783812654,4040767.5119837918,-47500.0,-0.33561935669583842,0.029229879230354,0.62297698170070459,2.6514274544769876,2.4528734773192173,-6.8224118804502636,5.0767389419525433,-1.5624913803986624,1.6431733060851115,-1.6431733060851115,1.5624913803986624,9.3999005543262655,0.0
764640.0783812654,4040767.5119837918,-47500.0,-0.92845606820962245,-0.13786997284207661,0.79019215899196549,3.0782051705233364,1.8848556985277178,-5.8919177988410318,4.659992585906819,-1.0601981449465261,1.4152453775495366,-1.4152453775495366,1.0601981449465261,8.6753246279894203,0.0
769640.0783812654,4040767.5119837918,-47500.0,-1.4157046852011927,-0.16249431646932727,0.90724058355635662,3.1726136963379337,1.321812909640085,-4.8609163765681309,4.1691417119048806,-0.51665145517565381,1.0581426310011963,-1.0581426310011963,0.51665145517565381,7.7965255614154652,0.0
774640.0783812654,4040767.5119837918,-47500.0,-1.743911217614295,-0.094400301316369922,0.96563184067220453,3.0261906083196113,0.82968345065296367,-3.8728924671642986,3.6630813121985923,-0.023118724062850649,0.66383239641951641,-0.66383239641951641,0.023118724062850649,6.870814947352164,0.0
779640.0783812654,4040767.5119837918,-47500.0,-1.91017341171329,0.018801466026341206,0.97065568237689148,2.7354633070782746,0.43659606968132292,-3.0057956133562151,3.1814641007256261,0.37305883300778564,0.29567444703940371,-0.29567444703940371,-0.37305883300778564,5.9730270362175668,0.0
784640.0783812654,4040767.5119837918,-47500.0,-1.9407750464925826,0.14170615702940287,0.93459252350622501,2.3793942977613352,0.14442980238421699,-2.2878439507589192,2.7456968740301293,0.65917810311646075,-0.012575111502882097,0.012575111502882097,-0.65917810311646075,5.1471856037760828,0.0
789640.0783812654,4040767.5119837918,-47500.0,-1.8725641453649009,0.25276309852753109,0.87125946791712305,2.0127000199505307,-0.059115980790747764,-1.7166780417270247,2.3634244322684044,0.84368452546720241,-0.2497349959576679,0.2497349959576679,-0.84368452546720241,4.413635721984785,0.0
794640.0783812654,4040767.5119837918,-47500.0,-1.7412591833845201,0.3416908369454601,0.79285512288084992,1.6681253932609517,-0.19162997633672016,-1.2747754741923052,2.0339507916858142,0.94473450026653638,-0.41857806029778927,0.41857806029778927,-0.94473450026653638,3.7769789961863349,0.0
799640.0783812654,4040767.5119837918,-47500.0,-1.5760340780830697,0.4057731699870476,0.70872226718119014,1.3619986028691671,-0.27075044017144384,-0.93947193015270836,1.7526480110790177,0.98269071078408543,-0.52878273911540852,0.52878273911540852,-0.98269071078408543,3.2326346995013009,0.0
804640.0783812654,4040767.5119837918,-47500.0,-1.3981899102638766,0.44660532021213994,0.62527964179355899,1.0998727092225162,-0.31170822386266284,-0.68846198635336731,1.5135930035255796,0.97612839001663043,-0.59225877631841395,0.59225877631841395,-0.97612839001663043,2.7714697952309768,0.0
809640.0783812654,4040767.5119837918,-47500.0,-1.221914096189973,0.4677781285017415,0.54649629615790352,0.88099617937756625,-0.32657840155217371,-0.50227844644982689,1.3108271529590041,0.94023971039892307,-0.62052736864536118,0.62052736864536118,-0.94023971039892307,2.3827320277918163,0.0
814640.0783812654,4040767.5119837918,-47500.0,-1.0557910463360682,0.47344655779764572,0.47451034520295005,0.70139583508757763,-0.32440735686640287,-0.36502582395564226,1.1388647303587498,0.88659480613108921,-0.62351744203261583,0.62351744203261583,-0.88659480613108921,2.0557100091292222,0.0
819640.0783812654,4040767.5119837918,-47500.0,-0.90437191670132344,0.46755839306521846,0.41020331501553992,0.55581073139663995,-0.31169724932812648,-0.26424738821794175,0.99287009610196852,0.82354813244270586,-0.60920906218330906,0.60920906218330906,-0.82354813244270586,1.7805758583534652,0.0
824640.0783812654,4040767.5119837918,-47500.0,-0.76949867067355704,0.45350832846285793,0.35365583334432138,0.43879758206261804,-0.29296696161846347,-0.19043587327290951,0.86868354430107253,0.75686180623116805,-0.58371399746311625,0.58371399746311625,-0.75686180623116805,1.5487223967021235,0.0
829640.0783812654,4040767.5119837918,-47500.0,-0.65130950342320171,0.43403913788638543,0.30447873293078315,0.34529856129748343,-0.27126252415490926,-0.13645995975788461,0.76278096547183516,0.69033212742423233,-0.55154308835248045,0.55154308835248045,-0.69033212742423233,1.3528219942120998,0.0
649640.0783812654,4045767.5119837918,-47500.0,1.1584369450621415,-0.11528161593257091,-0.16764010727907255,1.0605973301864613,-0.17315455343355232,0.72959495134869812,1.135503206986255,-0.11477430029899341,0.12280940472241672,-0.12280940472241672,0.11477430029899341,2.2086478711670572,0.0
654640.0783812654,4045767.5119837918,-47500.0,1.2120883316403273,-0.15561771623409223,-0.17238142028760853,1.2019145297976721,-0.23387037343714057,0.8838041376468514,1.2751395254461459,-0.095205033271155357,0.12887299715409883,-0.12887299715409883,0.095205033271155357,2.4780152856183593,0.0
659640.0783812654,4045767.5119837918,-47500.0,1.2484477087752943,-0.20138109952673414,-0.17205146537930655,1.3550016780210126,-0.31148778011891959,1.0711123373839222,1.4316790054149713,-0.060669380076816742,0.12836979081763425,-0.12836979081763425,0.060669380076816742,2.7781624474929254,0.0
664640.0783812654,4045767.5119837918,-47500.0,1.2583984904389118,-0.25112029020859811,-0.16427435691332862,1.515956582513061,-0.40962287783426127,1.2970478971684849,1.6057274181074772,-0.0052944055310735622,0.11706037313057945,-0.11706037313057945,0.0052944055310735622,3.1092454479418912,0.0
669640.0783812654,4045767.5119837918,-47500.0,1.2304824099235294,-0.30175888003653295,-0.14610330334724073,1.6776111187657712,-0.53191792313318897,1.5666500816946918,1.7969506502041728,0.078275027445107836,0.089005653552906461,-0.089005653552906461,-0.078275027445107836,3.469277019360407,0.0
674640.0783812654,4045767.5119837918,-47500.0,1.151119500896715,-0.34779609897103358,-0.11412660726508901,1.8281788924897746,-0.68138362317331402,1.8831954790622036,2.0035119275548738,0.19873738134447652,0.036232861095289698,-0.036232861095289698,-0.19873738134447652,3.8529846519650688,0.0
679640.0783812654,4045767.5119837918,-47500.0,1.0055690869173419,-0.3803556842547467,-0.064809249869423213,1.949751505906425,-0.85921971008317322,2.2460648669479903,2.2213531365458064,0.36547549237828769,-0.0513791251863642,0.0513791251863642,-0.36547549237828769,4.2503786947200943,0.0
684640.0783812654,4045767.5119837918,-47500.0,0.78012349964975869,-0.38625967863807698,0.0047786332184585681,2.0169991774353551,-1.0629015944035374,2.6474536833914262,2.4433757599291996,0.5869824420971872,-0.18567480481223381,0.18567480481223381,-0.5869824420971872,4.6451730441843164,0.0
689640.0783812654,4045767.5119837918,-47500.0,0.46608477714862895,-0.34754130847748815,0.095681069412252684,1.9968216035221318,-1.2833756890964898,3.0677528658262134,2.6586973160574221,0.86787136708614376,-0.37874753523845595,0.37874753523845595,-0.86787136708614376,5.0134765549425095,0.0
694640.0783812654,4045767.5119837918,-47500.0,0.065871040707353862,-0.24216123039351439,0.20513246231224164,1.8502338339439679,-1.5014517906459741,3.4698556800260767,2.8523827136239968,1.2040197789005473,-0.63974136730007602,0.63974136730007602,-1.2040197789005473,5.3236787818673461,0.0
699640.0783812654,4045767.5119837918,-47500.0,-0.39916693504971973,-0.047064908289357707,0.32416232879460255,1.5382865283509268,-1.6840681332868046,3.7935937958279218,3.0064094953087306,1.5758580584773654,-0.96930494801841593,0.96930494801841593,-1.5758580584773654,5.539276064318611,0.0
704640.0783812654,4045767.5119837918,-47500.0,-0.88127667386956465,0.25518366972290596,0.43545293619119568,1.0338134330837865,-1.782141402611064,3.9530964876821679,3.1031110095054473,1.9410177292745356,-1.3516930518415189,1.3516930518415189,-1.9410177292745356,5.6275331308752889,0.0
709640.0783812654,4045767.5119837918,-47500.0,-1.303694878168425,0.6657309382537715,0.51299162935344522,0.33935117686017485,-1.7330261210942099,3.84177949127541,3.132782379159881,2.2296936952299569,-1.746141839414292,1.746141839414292,-2.2296936952299569,5.577970223189225,0.0
714640.0783812654,4045767.5119837918,-47500.0,-1.5695218674961204,1.1566219474614903,0.52573339461065638,-0.49231662550986571,-1.4713463377261942,3.3505757712381183,3.1068298767285745,2.3485616666799181,-2.0818719642570467,2.0818719642570467,-2.3485616666799181,5.4335646701182529,0.0
719640.0783812654,4045767.5119837918,-47500.0,-1.5876169011336116,1.6617030819819048,0.44702585001152467,-1.3446946036126255,-0.95038818582629414,2.402349987095052,3.0743431626014512,2.1997792326622667,-2.2637320340748142,2.2637320340748142,-2.1997792326622667,5.3253680556125715,0.0
724640.0783812654,4045767.5119837918,-47500.0,-1.3132769077899253,2.0805554131038497,0.2687469296311909,-2.0458618259716812,-0.17057795202253931,0.99670984107701777,3.1273898644604721,1.716925636510839,-2.1949184416003966,2.1949184416003966,-1.716925636510839,5.4602618003457888,0.0
729640.0783812654,4045767.5119837918,-47500.0,-0.78726442440912536,2.3030080678499925,0.01412088315968202,-2.4097311075688763,0.79730814811034523,-0.7538036303817045,3.3605667449351282,0.90778391881267084,-1.8155798671777503,1.8155798671777503,-0.90778391881267084,5.9879524388927985,0.0
734640.0783812654,4045767.5119837918,-47500.0,-0.14564180540999297,2.2508069900953291,-0.26054701317030093,-2.303987865492215,1.8122306864924813,-2.6233244294906961,3.7781822114524291,-0.11989490609093556,-1.1420601226093585,1.1420601226093585,0.11989490609093556,6.8442262171807933,0.0
739640.0783812654,4045767.5119837918,-47500.0,0.41926753182222737,1.9169601805834338,-0.4817955554669674,-1.713686495486735,2.6972992686668422,-4.3246157590388661,4.2613519074617869,-1.1748107802116425,-0.28125014612720878,0.28125014612720878,1.1748107802116425,7.7911776061968689,0.0
744640.0783812654,4045767.5119837918,-47500.0,0.73526311949869028,1.3767646433023333,-0.58770601929152932,-0.75986430298169627,3.2983922131581993,-5.5986139348829251,4.6617910449093998,-2.0440463052633842,0.59745006963513458,-0.59745006963513458,2.0440463052633842,8.5758684406783328,0.0
749640.0783812654,4045767.5119837918,-47500.0,0.72085805444769269,0.75943851246053351,-0.55324202356755603,0.34430928964507446,3.5368005879924085,-6.2970099077263555,4.8827408279503546,-2.5706335220751009,1.3228944774183544,-1.3228944774183544,2.5706335220751009,9.0302324469696558,0.0
754640.0783812654,4045767.5119837918,-47500.0,0.40774460871771451,0.19651043032092236,-0.39694617869645688,1.3754159211289936,3.4270949654292968,-6.4145317001726205,4.8929890806387553,-2.7028582978826057,1.7817340325976625,-1.7817340325976625,2.7028582978826057,9.0954523815701513,0.0
759640.0783812654,4045767.5119837918,-47500.0,-0.091616655927823448,-0.22232557563016428,-0.16718352646236978,2.1722658874023728,3.0551846186105713,-6.0615939829547889,4.7124533041947538,-2.4921457710038659,1.9450638823546864,-1.9450638823546864,2.4921457710038659,8.8035316513437127,0.0
764640.0783812654,4045767.5119837918,-47500.0,-0.64208590145389677,-0.46548605018528133,0.080651678182298736,2.6661838174487218,2.5358195751564114,-5.4037323657421128,4.3900147015977904,-2.0516727428671264,1.8559947631303628,-1.8559947631303628,2.0516727428671264,8.2403780549096588,0.0
769640.0783812654,4045767.5119837918,-47500.0,-1.133977158680239,-0.54921466230366167,0.30250247663985919,2.8691263623937124,1.9742942650750659,-4.6037291906968827,3.9828134472888852,-1.5063045455613933,1.5955402145108002,-1.5955402145108002,1.5063045455613933,7.5087257947880888,0.0
774640.0783812654,4045767.5119837918,-47500.0,-1.504173483543767,-0.51531472754347674,0.47336273718213806,2.8407880057795216,1.445777341304572,-3.7873090045802131,3.5420498198772932,-0.95761440726093572,1.2489392981840362,-1.2489392981840362,0.95761440726093572,6.7019425653968332,0.0
779640.0783812654,4045767.5119837918,-47500.0,-1.7336660255484733,-0.41070318157482488,0.58589791188307294,2.6560641688478883,0.9919054045096265,-3.0337025176547421,3.1061905300720696,-0.4704667258258306,0.88480474377510743,-0.88480474377510743,0.4704667258258306,5.8913224675569884,0.0
784640.0783812654,4045767.5119837918,-47500.0,-1.8335989548812557,-0.27502921791072243,0.6447335804793134,2.3835533567300886,0.62744054482976752,-2.381908042500076,2.6997240886734231,-0.075457816637770792,0.54811703196989736,-0.54811703196989736,0.075457816637770792,5.1238281782093473,0.0
789640.0783812654,4045767.5119837918,-47500.0,-1.8301268210650574,-0.13615515345512288,0.66040456553115079,2.075964285244063,0.34988323875491489,-1.842751195902941,2.3350492027230052,0.22154038756850986,0.26227191002264266,-0.26227191002264266,-0.22154038756850986,4.4256186036281431,0.0
794640.0783812654,4045767.5119837918,-47500.0,-1.7531433377991124,-0.01061981226551002,0.64489453981515654,1.7687411884072073,0.14788625564368391,-1.4104989035544673,2.0157695613859232,0.42912704164607918,0.034875998790570212,-0.034875998790570212,-0.42912704164607918,3.8075716787325518,0.0
799640.0783812654,4045767.5119837918,-47500.0,-1.6298019098648915,0.093754517796124398,0.60908832401229218,1.482780722280753,0.0070631303405592344,-1.071525312301705,1.740224871416391,0.56239131959776889,-0.13619313503836505,0.13619313503836505,-0.56239131959776889,3.2705989696086903,0.0
804640.0783812654,4045767.5119837918,-47500.0,-1.4817879924550066,0.17492309447737822,0.56170714050264092,1.2283627724501289,-0.086667674296027189,-0.80979581855984528,1.5042986997936776,0.63780478646886107,-0.25801063621751419,0.25801063621751419,-0.63780478646886107,2.8098374561404653,0.0
809640.0783812654,4045767.5119837918,-47500.0,-1.3249045511643893,0.23417920640707909,0.50915150814154553,1.0088095666644319,-0.1455167696568338,-0.60986860470322712,1.3031175340934582,0.67048702230250667,-0.33942052145034507,0.33942052145034507,-0.67048702230250667,2.4175932952949801,0.0
814640.0783812654,4045767.5119837918,-47500.0,-1.1697836906093806,0.27442888477675775,0.4557837225528838,0.82331500508252387,-0.17934156837915821,-0.45825016333018376,1.1318641645675458,0.67306440838553183,-0.38918899097409831,0.38918899097409831,-0.67306440838553183,2.0852026964992176,0.0
819640.0783812654,4045767.5119837918,-47500.0,-1.022995093837457,0.2991058290455802,0.40436291194361473,0.66891312819010029,-0.1957306441591847,-0.34379978306203318,0.98611805196858437,0.65545527055678998,-0.41509545591286318,0.41509545591286318,-0.65545527055678998,1.8041233183498335,0.0
824640.0783812654,4045767.5119837918,-47500.0,-0.8881472623493295,0.31156126100845505,0.35647583039138658,0.54173283424348317,-0.20032996279276552,-0.25764261827830565,0.86197122856591912,0.62511154761615007,-0.42360277302557792,0.42360277302557792,-0.62511154761615007,1.5664970603997799,0.0
829640.0783812654,4045767.5119837918,-47500.0,-0.76681726443141252,0.31476795682966291,0.31289984324501935,0.43773822878215313,-0.197231144567865,-0.19287327786944583,0.75604464540281358,0.58743550962435953,-0.41984678034343004,0.41984678034343004,-0.58743550962435953,1.3653881627931512,0.0
649640.0783812654,4050767.5119837918,-47500.0,1.1334168739639681,-0.2396416982515186,-0.10025055464747455,1.0459756765463675,-0.26597078364139348,0.72207555201389151,1.1269256604843354,-0.098281329179234739,0.20846319462472415,-0.20846319462472415,0.098281329179234739,2.2023577748139793,0.0
654640.0783812654,4050767.5119837918,-47500.0,1.1740961791016968,-0.29196924394205237,-0.089142525077672688,1.1763419301732438,-0.34164434978453256,0.86896095501177451,1.2611879434021644,-0.068080814024311972,0.22119120897594469,-0.22119120897594469,0.068080814024311972,2.4618413062447488,0.0
659640.0783812654,4050767.5119837918,-47500.0,1.1951873089627287,-0.34919269453630813,-0.069848754594394755,1.3148277670391957,-0.43579661081920718,1.0454318373803944,1.4105359364395433,-0.02011719247266916,0.22681761819258908,-0.22681761819258908,0.02011719247266916,2.7486679890068988,0.0
664640.0783812654,4050767.5119837918,-47500.0,1.1879339917392,-0.40900232144872489,-0.039774540936645265,1.4568370446503414,-0.55166243485653221,1.2556879659542266,1.5750920557711643,0.051717072592654179,0.2206953463868831,-0.2206953463868831,-0.051717072592654179,3.062189824527044,0.0
669640.0783812654,4050767.5119837918,-47500.0,1.141779252982378,-0.46720189676428731,0.0039893090992432732,1.5946842679033111,-0.69214090754881896,1.5031152592929626,1.754005877934133,0.15472958372573542,0.19644599683439701,-0.19644599683439701,-0.15472958372573542,3.3996055400331455,0.0
674640.0783812654,4050767.5119837918,-47500.0,1.044828584292179,-0.51695205288637913,0.064368032937960687,1.7165286108349769,-0.85901052664527322,1.7890858287476561,1.944971030264901,0.29706978088157221,0.14570713795852497,-0.14570713795852497,-0.29706978088157221,3.7549651865219902,0.0
679640.0783812654,4050767.5119837918,-47500.0,0.88504457133474046,-0.54796719020417761,0.1437066203314861,1.8053206152593215,-1.0516475948921773,2.1110754941082353,2.1436469646536946,0.4867899409823046,0.058153894481967228,-0.058153894481967228,-0.4867899409823046,4.1179942594835213,0.0
684640.0783812654,4050767.5119837918,-47500.0,0.652546175301147,-0.54589798369650411,0.2427480478445381,1.8381279132448598,-1.2651099613215437,2.45993854775188,2.3430594244963316,0.72998071877136061,-0.077890527848221924,0.077890527848221924,-0.72998071877136061,4.4729111155863723,0.0
689640.0783812654,4050767.5119837918,-47500.0,0.34334849286977731,-0.49235032106370991,0.35909198512850038,1.7865067098490133,-1.4875518530638345,2.8163367504454238,2.5331604165451154,1.0276090011360879,-0.27379602141210801,0.27379602141210801,-1.0276090011360879,4.7976517218102313,0.0
694640.0783812654,4050767.5119837918,-47500.0,-0.035415108534079746,-0.36626463856252822,0.48518410136737672,1.6189378947430224,-1.6972174980818677,3.1467141536350121,2.7009058876830943,1.3708457037499659,-0.53737586798762038,0.53737586798762038,-1.3708457037499659,5.0643190049292954,0.0
699640.0783812654,4050767.5119837918,-47500.0,-0.45949420636103827,-0.14758479655696044,0.6062161895783561,1.30656824785832,-1.8598103932807213,3.3999465944042453,2.8314596666143039,1.7352161967798947,-0.8676545133786544,0.8676545133786544,-1.7352161967798947,5.2422672033253681,0.0
704640.0783812654,4050767.5119837918,-47500.0,-0.88277506164188668,0.1760038871578036,0.6988693466120659,0.83319319637798395,-1.9278576869127617,3.5068634819020459,2.9114083749800121,2.0750391010101872,-1.2479218048272902,1.2479218048272902,-2.0750391010101872,5.3059541004231017,0.0
709640.0783812654,4050767.5119837918,-47500.0,-1.2374608001532903,0.59944282785135172,0.73247541052065979,0.20899975319666847,-1.8445211530227517,3.3858739510193092,2.9349763427745539,2.3213083006818729,-1.6387721124894274,1.6387721124894274,-2.3213083006818729,5.2501439036529014,0.0
714640.0783812654,4050767.5119837918,-47500.0,-1.4437609195559691,1.0900786342137434,0.67443137162298161,-0.51536949800496912,-1.5543997404102003,2.9579543166780464,2.9135591440435498,2.3877114441857215,-1.974902845682583,1.974902845682583,-2.3877114441857215,5.1135372713651224,0.0
719640.0783812654,4050767.5119837918,-47500.0,-1.4318811148649873,1.5820879885407091,0.50074137791514317,-1.2417665865020175,-1.0220330576706356,2.1717676511857245,2.8858460642176,2.1891137120249451,-2.1710769844056546,2.1710769844056546,-2.1891137120249451,5.0025429690045922,0.0
724640.0783812654,4050767.5119837918,-47500.0,-1.1728672456809113,1.9826018308448983,0.20969647870923838,-1.8340387337089532,-0.25424734014397998,1.0337333689955024,2.9180437174636404,1.6723095699693018,-2.1415387168591509,2.1415387168591509,-1.6723095699693018,5.0800543481123306,0.0
729640.0783812654,4050767.5119837918,-47500.0,-0.7054869499259665,2.1940297433359426,-0.1673588352412165,-2.1498615562510857,0.68349284621232131,-0.36979145725749263,3.0767129555118986,0.84976686604118523,-1.8310867904695405,1.8310867904695405,-0.84976686604118523,5.470843375437819,0.0
734640.0783812654,4050767.5119837918,-47500.0,-0.14059698497751838,2.1483419516367057,-0.56640544460756415,-2.0887836081472275,1.6693112078500123,-1.8745273375396252,3.3766835783415488,-0.18180180359760389,-1.2461280329292752,1.2461280329292752,0.18180180359760389,6.143653240030698,0.0
739640.0783812654,4050767.5119837918,-47500.0,0.36862679619129418,1.8380589728623014,-0.90689353198587919,-1.6356930066966975,2.5523248898509889,-3.2731967131756954,3.7520798641027548,-1.2555031417484552,-0.46740961856355445,0.46740961856355445,1.2555031417484552,6.9245617112440456,0.0
744640.0783812654,4050767.5119837918,-47500.0,0.68179333595255887,1.3252021704484926,-1.1187835423428913,-0.87434177374563316,3.1973797742948658,-4.373758461297748,4.0934213378376434,-2.1825170907053684,0.36830953865516791,-0.36830953865516791,2.1825170907053684,7.6111357003421585,0.0
749640.0783812654,4050767.5119837918,-47500.0,0.723380758813713,0.72027511340419448,-1.1669571966301382,0.04011224448030528,3.5262702959501864,-5.0546616935220747,4.3121143606473282,-2.8134748004455874,1.1124135369921253,-1.1124135369921253,2.8134748004455874,8.0561567452918794,0.0
754640.0783812654,4050767.5119837918,-47500.0,0.50345251213126219,0.14212181710792485,-1.0600010269113656,0.93563358804923991,3.5351312125303123,-5.2908648594526744,4.3681780102902632,-3.081646509452566,1.6520791259968708,-1.6520791259968708,3.081646509452566,8.1937561170573776,0.0
759640.0783812654,4050767.5119837918,-47500.0,0.099893473908132566,-0.31947172456983763,-0.84053999577117233,1.6758828173233327,3.2825588694068744,-5.1424831949230425,4.2647737051071219,-3.0089091481101633,1.9378942659413465,-1.9378942659413465,3.0089091481101633,8.0308365792566487,0.0
764640.0783812654,4050767.5119837918,-47500.0,-0.38138114756561053,-0.62186131094752106,-0.56525736181443353,2.1879815847421473,2.8596421230145381,-4.718879479527601,4.0324272408876558,-2.6792084754915817,1.9828562687428601,-1.9828562687428601,2.6792084754915817,7.6226454331929565,0.0
769640.0783812654,4050767.5119837918,-47500.0,-0.84438140463095934,-0.76628055360527014,-0.28603131662780901,2.4614023662716265,2.3590410990742803,-4.1393043474025619,3.7131246202313286,-2.1996568066190227,1.8411484210704727,-1.8411484210704727,2.1996568066190227,7.0455858338795485,0.0
774640.0783812654,4050767.5119837918,-47500.0,-1.22448084195861,-0.78216802392690432,-0.039172364074174661,2.5288110592760846,1.854721108238087,-3.5052344610865962,3.3483667034106208,-1.6683590412859211,1.5818514839875943,-1.5818514839875943,1.6683590412859211,6.3757491796001622,0.0
779640.0783812654,4050767.5119837918,-47500.0,-1.4921289864034106,-0.70980257754647558,0.156676358773434,2.4428977630684812,1.3946988487211029,-2.8884366210193435,2.9723483482200614,-1.1573918594304544,1.268823120557375,-1.268823120557375,1.1573918594304544,5.6763311869374045,0.0
784640.0783812654,4050767.5119837918,-47500.0,-1.6455033382028095,-0.58769795590790219,0.29716404616829106,2.2583092574786874,1.0031247997594601,-2.3310947097906261,2.6095022149974412,-0.70956926258990349,0.95045092434542533,-0.95045092434542533,0.70956926258990349,4.9930646854150593,0.0
789640.0783812654,4050767.5119837918,-47500.0,-1.6996259095893711,-0.44622480713431306,0.38701187069901,2.021405073208054,0.68659676024961436,-1.8520676399272646,2.2748001701515879,-0.3433364305207135,0.65757839800521867,-0.65757839800521867,0.3433364305207135,4.3549072160181037,0.0
794640.0783812654,4050767.5119837918,-47500.0,-1.6767512544302037,-0.30605609021559116,0.43529538474567614,1.766579650683954,0.44095298721365439,-1.4546085501639832,1.9754130283744007,-0.060431243195655931,0.40609230679355923,-0.40609230679355923,0.060431243195655931,3.777254720515145,0.0
799640.0783812654,4050767.5119837918,-47500.0,-1.5998297490120572,-0.17931227044543424,0.45214597366759235,1.5166249286259486,0.25670699156289312,-1.1330307398291122,1.7129131870023182,0.14696797705912168,0.20114908375487445,-0.20114908375487445,-0.14696797705912168,3.2657699060350569,0.0
804640.0783812654,4050767.5119837918,-47500.0,-1.4889692988234395,-0.071710303508482856,0.44687703406351237,1.2849201476727687,0.12267982229662142,-0.87749632286520451,1.4855145943389245,0.29092286002411527,0.041239237681242602,-0.041239237681242602,-0.29092286002411527,2.8198085012427909,0.0
809640.0783812654,4050767.5119837918,-47500.0,-1.3600758903220787,0.015275914292965988,0.4271692119244952,1.0780334809679601,0.028080246018949952,-0.67702236029597362,1.2898635922554436,0.38435541949554908,-0.078658096651669868,0.078658096651669868,-0.38435541949554908,2.4350682174961147,0.0
814640.0783812654,4050767.5119837918,-47500.0,-1.224792675994109,0.08267045187910578,0.39890594405203411,0.89803348428798246,-0.036509465751168313,-0.52113720742709524,1.1221401788904817,0.43920702202087947,-0.16494257121602338,0.16494257121602338,-0.43920702202087947,2.1054449089684266,0.0
819640.0783812654,4050767.5119837918,-47500.0,-1.0910677378804512,0.13275642318003106,0.36634155400425017,0.7442698510050455,-0.078819311071442077,-0.4006446043960552,0.97859922854894554,0.46563475629038575,-0.22411142358029956,0.22411142358029956,-0.46563475629038575,1.8242313300881507,0.0
824640.0783812654,4050767.5119837918,-47500.0,-0.96393002351943458,0.16827895712387789,0.33239804242248489,0.61462421883331764,-0.10493833214693028,-0.30785895671957786,0.85579765272143438,0.47182391220129,-0.26208649543835144,0.26208649543835144,-0.47182391220129,1.584831453536415,0.0
654640.0783812654,4055767.5119837918,-47500.0,1.106449664151447,-0.40337261543240982,0.0059482738624222946,1.1249631117080174,-0.43101394823611022,0.83652411823128381,1.2329825634150284,-0.029512512630105625,0.29887489230548364,-0.29887489230548364,0.029512512630105625,2.4143287164933973,0.0
659640.0783812654,4055767.5119837918,-47500.0,1.1109895105401106,-0.46604843825979453,0.043810047999474799,1.2452406515057601,-0.53571859287986889,0.99812499309789615,1.3724791481780794,0.031373140734524047,0.30789085508324665,-0.30789085508324665,-0.031373140734524047,2.6824658847176983,0.0
664640.0783812654,4055767.5119837918,-47500.0,1.0862550616272169,-0.52903432494623992,0.094848714464225339,1.364813654727199,-0.66167877646240747,1.1880230825429401,1.5245272769096414,0.11802159402428924,0.30413476564200304,-0.30413476564200304,-0.11802159402428924,2.9724357073141232,0.0
669640.0783812654,4055767.5119837918,-47500.0,1.0230190842553128,-0.58720507100104335,0.16155852418893538,1.4758669423337989,-0.81078891441656997,1.4080524245712798,1.6878296748604396,0.23718482313248074,0.28104871291817585,-0.28104871291817585,-0.23718482313248074,3.2807272179456097,0.0
674640.0783812654,4055767.5119837918,-47500.0,0.91150267771451177,-0.63280481312673276,0.24596813674983198,1.5670505175858029,-0.98343932534735123,1.6579401681514265,1.8597427866522895,0.39587842829021691,0.23028434236794426,-0.23028434236794426,-0.39587842829021691,3.6009181569940498,0.0
679640.0783812654,4055767.5119837918,-47500.0,0.74269090792719128,-0.65487637572942525,0.34887130145944822,1.6228578532464559,-1.1772598406034764,1.9337376915936664,2.0358427161632902,0.60025011560152042,0.14187797971454141,-0.14187797971454141,-0.60025011560152042,3.9227742904529497,0.0
684640.0783812654,4055767.5119837918,-47500.0,0.5105605377641752,-0.63901047847499992,0.46866442486607435,1.6234825044792847,-1.3853806445350854,2.2256958681850629,2.2095315796103123,0.85360139470770302,0.0050253935396059046,-0.0050253935396059046,-0.85360139470770302,4.2314572055006838,0.0
689640.0783812654,4055767.5119837918,-47500.0,0.21536113695263995,-0.56784598215732707,0.59978386425569963,1.5456980565823737,-1.5942801101329995,2.515689397189079,2.3718540556024803,1.1533409917388942,-0.1901662813149233,0.1901662813149233,-1.1533409917388942,4.5072246791166775,0.0
694640.0783812654,4055767.5119837918,-47500.0,-0.13223216115107755,-0.42292632991714135,0.73091776461931657,1.3654961526281546,-1.7815612072159446,2.7746186597819027,2.5118221274346419,1.4868753927026148,-0.44956461092452005,0.44956461092452005,-1.4868753927026148,4.7263074058413608,0.0
699640.0783812654,4055767.5119837918,-47500.0,-0.50692311205263652,-0.18856443462270336,0.84349899734990541,1.0632326132316554,-1.9144475483966616,2.9607385456605311,2.6177031687127363,1.8269866656403815,-0.77036912402352509,0.77036912402352509,-1.8269866656403815,4.8640414194013468,0.0
704640.0783812654,4055767.5119837918,-47500.0,-0.86634520354695388,0.14194391694524469,0.9114410067194747,0.63159735147073592,-1.9503565615948013,3.02050518664685,2.6798528358112743,2.1281874850243589,-1.1354015368250783,1.1354015368250783,-2.1281874850243589,4.9017346686661316,0.0
709640.0783812654,4055767.5119837918,-47500.0,-1.1531014754890696,0.55837321755611347,0.90347385372504774,0.085520530145528226,-1.8413200953116744,2.893978970653944,2.6955950633884478,2.3267163938916458,-1.5079397406961175,1.5079397406961175,-2.3267163938916458,4.8387910406504959,0.0
714640.0783812654,4055767.5119837918,-47500.0,-1.3041532806106484,1.0261987981328853,0.78934107681052301,-0.52892028526973189,-1.5437202175897722,2.5264390801792498,2.6759210698497031,2.3475738363819287,-1.8301413172973595,1.8301413172973595,-2.3475738363819287,4.7100500232126761,0.0
719640.0783812654,4055767.5119837918,-47500.0,-1.2685062909311968,1.4840266336955521,0.54995340468463905,-1.1317495820326655,-1.0330957569085895,1.8858853696787161,2.6514512629755345,2.1210555566512701,-2.0289251075910935,2.0289251075910935,-2.1210555566512701,4.6013351693582329,0.0
724640.0783812654,4055767.5119837918,-47500.0,-1.0295556508277137,1.8506716376784746,0.18912110399085397,-1.6182710758468211,-0.32046045643859089,0.98233485421360478,2.6704635914580743,1.6073972460987243,-2.0318705948913429,2.0318705948913429,-1.6073972460987243,4.6390168477802316,0.0
729640.0783812654,4055767.5119837918,-47500.0,-0.6226953341596958,2.0441079688701382,-0.2583956416098403,-1.8826845240014753,0.537071965091373,-0.11929957240584424,2.7796545533645673,0.82180855423462795,-1.7911404361102821,1.7911404361102821,-0.82180855423462795,4.9230791930159263,0.0
734640.0783812654,4055767.5119837918,-47500.0,-0.13628055161003855,2.0081174969513866,-0.72872416166620491,-1.8510133852489803,1.4395281883002351,-1.3020875670503806,2.9926638013308011,-0.15305870135553346,-1.3068754985198656,1.3068754985198656,0.15305870135553346,5.4417372251903586,0.0
739640.0783812654,4055767.5119837918,-47500.0,0.31049809947114765,1.7354413805079931,-1.1434566199224687,-1.5099272731603637,2.2647658500265133,-2.4200046723407724,3.2733693683390945,-1.1785962132535384,-0.63754197656363787,0.63754197656363787,1.1785962132535384,6.0714089677853309,0.0
744640.0783812654,4055767.5119837918,-47500.0,0.60638610836278894,1.2746467000936628,-1.4327255642342209,-0.9161338847792877,2.9009131860319508,-3.334856906563112,3.5501214756495352,-2.0961228870072826,0.11152257085117956,-0.11152257085117956,2.0961228870072826,6.6552766083108992,0.0
749640.0783812654,4055767.5119837918,-47500.0,0.68535081408712117,0.71533014381231441,-1.5564380216433396,-0.1796164017053922,3.2768905687367216,-3.9521116827455236,3.7510595637567876,-2.7729882220452162,0.81871801712623749,-0.81871801712623749,2.7729882220452162,7.0697508541438943,0.0
754640.0783812654,4055767.5119837918,-47500.0,0.54400294495968737,0.15856667888915613,-1.5136098877731512,0.57158897070243786,3.3774774194134261,-4.2402555083583806,3.8334362338906427,-3.1377096952731756,1.3819518856448076,-1.3819518856448076,3.1377096952731756,7.2495779955873969,0.0
759640.0783812654,4055767.5119837918,-47500.0,0.23304278885883201,-0.31270598991935189,-1.3367368263844526,1.227925484228958,3.2381592998565289,-4.2276115013222721,3.7885951603155621,-3.1897665601276008,1.7432855957158724,-1.7432855957158724,3.1897665601276008,7.1856235364903238,0.0
764640.0783812654,4055767.5119837918,-47500.0,-0.16860670628790142,-0.65094474634645549,-1.0763069893614758,1.7211050164856754,2.9256302977086159,-3.9822945351272727,3.6325003934919535,-2.9846379319961915,1.8942328332300011,-1.8942328332300011,2.9846379319961915,6.9095717433321511,0.0
769640.0783812654,4055767.5119837918,-47500.0,-0.58188830283228243,-0.84548551848297004,-0.78404276203956447,2.0282755199442324,2.5148929064895835,-3.5870105608304765,3.3938373364699825,-2.6061816217361344,1.8646380840058216,-1.8646380840058216,2.6061816217361344,6.4749075962224687,0.0
774640.0783812654,4055767.5119837918,-47500.0,-0.94664933615968549,-0.91296018187411365,-0.50129006048153646,2.1623173437512144,2.0718014205655293,-3.118683596964658,3.1043176494890599,-2.1401478296107608,1.7043742201636358,-1.7043742201636358,2.1401478296107608,5.9403564257357653,0.0
779640.0783812654,4055767.5119837918,-47500.0,-1.2284706851406346,-0.88408613637593436,-0.2544267058099734,2.1567084775025096,1.6443729763000572,-2.6371676957126517,2.7924329405955772,-1.656947027400514,1.4665358381446434,-1.4665358381446434,1.656947027400514,5.3587506472181845,0.0
784640.0783812654,4055767.5119837918,-47500.0,-1.4162191695095931,-0.79242263502372623,-0.055725697127703096,2.0517387535598979,1.2616302361782274,-2.1822914563267024,2.4804617939695754,-1.2049230482159925,1.1965691812416601,-1.1965691812416601,1.2049230482159925,4.771569424958634,0.0
789640.0783812654,4055767.5119837918,-47500.0,-1.5151922395707851,-0.66736970420251807,0.093043365127872521,1.8852034970238556,0.93684138865532707,-1.776159704632466,2.18381346730009,-0.8112346839936303,0.92768564048089852,-0.92768564048089852,0.8112346839936303,4.2077739900509439,0.0
794640.0783812654,4055767.5119837918,-47500.0,-1.5397583577933303,-0.53119432426602642,0.19650546495868784,1.6877625601635071,0.67226619434235357,-1.4276398066554077,1.9116815854256488,-0.4865202833737261,0.68076272004088678,-0.68076272004088678,0.4865202833737261,3.6851689736753688,0.0
799640.0783812654,4055767.5119837918,-47500.0,-1.5075381367577858,-0.39879760785021884,0.26228429116752044,1.4817277781178055,0.46360431211301778,-1.1369741095268167,1.6682570260342373,-0.23041355046460932,0.46656417171920006,-0.46656417171920006,0.23041355046460932,3.2128202088410855,0.0
804640.0783812654,4055767.5119837918,-47500.0,-1.435665941571848,-0.27888416866190086,0.29869612056225536,1.2818063435336293,0.30338441916367981,-0.89953451050746414,1.4541372730455582,-0.036312820539583068,0.28864270099096256,-0.28864270099096256,0.036312820539583068,2.7935892007457355,0.0
809640.0783812654,4055767.5119837918,-47500.0,-1.3388545521108772,-0.17557543778995771,0.31343557842135294,1.0966561896746065,0.18319765629821971,-0.70847028962308378,1.2677344428840791,0.1051478573197346,0.14600452130246885,-0.14600452130246885,-0.1051478573197346,2.4263136731335546,0.0
814640.0783812654,4055767.5119837918,-47500.0,-1.2287170170787789,-0.089934586205380307,0.31298298703751715,0.93055709846939261,0.094983813956675031,-0.55637332090083969,1.1064286289897496,0.20388534768402028,0.035170879430945642,-0.035170879430945642,-0.20388534768402028,2.1074801716698781,0.0
819640.0783812654,4055767.5119837918,-47500.0,-1.1138268869864514,-0.021184086109992242,0.30246064138395656,0.78486052087766112,0.031653662300625059,-0.43620855624397387,0.96729871368950637,0.26913408755109103,-0.048402752965535756,0.048402752965535756,-0.26913408755109103,1.8324041163376514,0.0
824640.0783812654,4055767.5119837918,-47500.0,-1.0001348812753417,0.03242101732544149,0.28572825779153593,0.65910912620631112,-0.012701830953130891,-0.34175503152378867,0.84748931753252288,0.30887990434470947,-0.10944336187660085,0.10944336187660085,-0.30887990434470947,1.5960055000021671,0.0
654640.0783812654,4060767.5119837918,-47500.0,1.0178053029835548,-0.48766821834223339,0.10525586135818737,1.0544411880745861,-0.5000850747952803,0.79075630688732701,1.1925102783365837,0.016310312744535232,0.35984092457331274,-0.35984092457331274,-0.016310312744535232,2.340162189335723,0.0
659640.0783812654,4060767.5119837918,-47500.0,1.0062844708379208,-0.55039954953673376,0.15953548507086465,1.1548937288888166,-0.60962797422971193,0.93512814312064396,1.3202842588291963,0.088501465659704903,0.36963313584918217,-0.36963313584918217,-0.088501465659704903,2.5859025286942594,0.0
664640.0783812654,4060767.5119837918,-47500.0,0.96565415954111311,-0.61070193396037853,0.22822458612709204,1.2509730912783399,-0.73868261305659955,1.1022581140373313,1.4578829061063985,0.1871152771636248,0.36567653211633927,-0.36567653211633927,-0.1871152771636248,2.848477909735843,0.0
669640.0783812654,4060767.5119837918,-47500.0,0.88827768523986828,-0.66282186585904823,0.31310686215816741,1.3351132693791867,-0.88806169399775758,1.2926840675033664,1.6036852069919922,0.31796251695752709,0.34149219529896646,-0.34149219529896646,-0.31796251695752709,3.1238614358393324,0.0
674640.0783812654,4060767.5119837918,-47500.0,0.76665694792398942,-0.69858629955615126,0.41506232961623296,1.3969047850207785,-1.0568363700916739,1.5048935612703038,1.7548788190259004,0.48655557214393313,0.28910487798535861,-0.28910487798535861,-0.48655557214393313,3.4054337200521858,0.0
679640.0783812654,4060767.5119837918,-47500.0,0.5947513247169457,-0.70709393290214118,0.53322450014599698,1.4228352296551097,-1.2412033256063841,1.7340857482441274,1.907160315641272,0.69689191951201368,0.19935937526612058,-0.19935937526612058,-0.69689191951201368,3.6833477919622286,0.0
684640.0783812654,4060767.5119837918,-47500.0,0.36998772594398577,-0.67481112326000348,0.66382765438907843,1.3965332032968705,-1.4330335253689102,1.970609394759437,2.0545166749955066,0.94953059327324452,0.062808634683748421,-0.062808634683748421,-0.94953059327324452,3.9440823328183274,0.0
689640.0783812654,4060767.5119837918,-47500.0,0.095954598747275313,-0.58644097211411073,0.79881444906544941,1.2999242611300137,-1.6182394724633025,2.1982315696974144,2.1892348672360122,1.2388786757540045,-0.12854418032987491,0.12854418032987491,-1.2388786757540045,4.1705179079711199,0.0
694640.0783812654,4060767.5119837918,-47500.0,-0.21453008112259161,-0.4270144479628093,0.92446017348652743,1.1157774572682175,-1.7753283017895469,2.3926320040760567,2.3023717232649892,1.5498530318603443,-0.37841672886817213,0.37841672886817213,-1.5498530318603443,4.3430789179474818,0.0
699640.0783812654,4060767.5119837918,-47500.0,-0.53678957240120218,-0.18558400179389167,1.0205524837607989,0.83202042557652078,-1.8748346720240376,2.520853237777736,2.3850037873605836,1.8545601453960359,-0.6823426214572027,0.6823426214572027,-1.8545601453960359,4.4427256798819315,0.0
704640.0783812654,4060767.5119837918,-47500.0,-0.83353617329081775,0.13947782925352054,1.0609824097648901,0.44776047318177553,-1.8806634021834072,2.542775923142274,2.4306092290689403,2.1103361663163698,-1.0232454158337498,1.0232454158337498,-2.1103361663163698,4.4567603750598357,0.0
709640.0783812654,4060767.5119837918,-47500.0,-1.0578826261561758,0.53440051052643023,1.0167662209905997,-0.01996650033988092,-1.7544915051288434,2.4157997947577763,2.4387756647139036,2.2612007112756634,-1.3678997451151442,1.3678997451151442,-2.2612007112756634,4.3882382792527261,0.0
714640.0783812654,4060767.5119837918,-47500.0,-1.1617017064001014,0.96520032765066799,0.86220103978803608,-0.53100154952832446,-1.4639132589574542,2.1034262162055737,2.4197765259761725,2.2449663722153907,-1.6665912761926491,1.6665912761926491,-2.2449663722153907,4.2683474965540888,0.0
719640.0783812654,4060767.5119837918,-47500.0,-1.1092339751478895,1.377262221669048,0.58373021278593229,-1.0218340567852966,-0.99362117132391614,1.5870186311854868,2.3979010450149509,2.007123239022929,-1.8585742813449222,1.8585742813449222,-2.007123239022929,4.1660633758356127,0.0
724640.0783812654,4060767.5119837918,-47500.0,-0.89270017875575203,1.7023854037941561,0.18919635417357031,-1.4136096048118603,-0.35670080590779679,0.87777297791630271,2.4087377975994801,1.5196548766478315,-1.8846761561084804,1.8846761561084804,-1.5196548766478315,4.1785807955598866,0.0
729640.0783812654,4060767.5119837918,-47500.0,-0.54335816337278453,1.8740748100903819,-0.28667223342624287,-1.6291499171538519,0.39892363116496926,0.023852579598979972,2.4853877480741655,0.79880570155103814,-1.7051581582283457,1.7051581582283457,-0.79880570155103814,4.3838679731691705,0.0
734640.0783812654,4060767.5119837918,-47500.0,-0.13063080472512717,1.8474666447780494,-0.78486507805584127,-1.6150628926621402,1.1939287143506843,-0.89248374199960201,2.6382389029155862,-0.087013369059436574,-1.3167755152552945,1.3167755152552945,0.087013369059436574,4.7802816712982406,0.0
739640.0783812654,4060767.5119837918,-47500.0,0.2540571541829843,1.6160286721181965,-1.2343462602599264,-1.3605019962486762,1.9326867996111654,-1.7697360466529213,2.8454584142550581,-1.0262917614693119,-0.7607300670769257,0.7607300670769257,1.0262917614693119,5.2813105175242629,0.0
744640.0783812654,4060767.5119837918,-47500.0,0.52416512333338439,1.2166224962931311,-1.5705636804053906,-0.90349137726065087,2.5260524520718519,-2.5102705837447834,3.0616948449527293,-1.8903297581781824,-0.11572127474431315,0.11572127474431315,1.8903297581781824,5.7681533281077977,0.0
749640.0783812654,4060767.5119837918,-47500.0,0.62422936471338974,0.71941020087312435,-1.7527583676215917,-0.32081356316931298,2.9131636782106853,-3.0431333093164081,3.2353922479657595,-2.5667233716161371,0.52264946495291742,-0.52264946495291742,2.5667233716161371,6.1403036213842936,0.0
754640.0783812654,4060767.5119837918,-47500.0,0.54367672510091347,0.20686064754472308,-1.7727437700781199,0.2943471809717586,3.0735472266903194,-3.3377233267634763,3.3276239607449511,-2.9865591916447887,1.0676141427742021,-1.0676141427742021,2.9865591916447887,6.337861475166835,0.0
759640.0783812654,4060767.5119837918,-47500.0,0.31353350551368536,-0.24863347317562617,-1.6523592468140607,0.85707207323372525,3.0258197429022782,-3.4041873955981488,3.3227476522904902,-3.1350527950003286,1.4613493567268634,-1.4613493567268634,3.1350527950003286,6.3429859857372088,0.0
764640.0783812654,4060767.5119837918,-47500.0,-0.0097032342369110965,-0.59972203458493822,-1.4324781383990499,1.3081449032057455,2.815783223888999,-3.2827939663565271,3.2259451812369155,-3.0443894685755657,1.682759383298305,-1.682759383298305,3.0443894685755657,6.1708325473431236,0.0
769640.0783812654,4060767.5119837918,-47500.0,-0.36388415156661069,-0.82810862549308184,-1.1594964026397898,1.6200011033712278,2.5005010672988868,-3.0285073142225007,3.055108457580832,-2.7754827654642535,1.7430780995006399,-1.7430780995006399,2.7754827654642535,5.8567250058907803,0.0
774640.0783812654,4060767.5119837918,-47500.0,-0.69670438972828863,-0.93962438788547487,-0.87450629419954673,1.7927915806475521,2.1345398430178206,-2.6969204668625539,2.8331637218148469,-2.3978689805483588,1.6743557830080256,-1.6743557830080256,2.3978689805483588,5.4439511014274204,0.0
779640.0783812654,4060767.5119837918,-47500.0,-0.97339408917883052,-0.95507515007702337,-0.60750298299490457,1.8452571266623785,1.7615758799999819,-2.3350081242687351,2.5826457506590259,-1.9744245411814016,1.5168207419121418,-1.5168207419121418,1.9744245411814016,4.9746303890846892,0.0
784640.0783812654,4060767.5119837918,-47500.0,-1.1773508559627743,-0.90116488419932672,-0.3762699312789784,1.8049938692060385,1.4114820044370497,-1.9771795376660819,2.3226271999861936,-1.5532687269468988,1.3091244867749641,-1.3091244867749641,1.5532687269468988,4.4843429243981792,0.0
789640.0783812654,4060767.5119837918,-47500.0,-1.3065063693548913,-0.80387330723908135,-0.18823398855367798,1.7008638684109432,1.1012675891947719,-1.6453001723615865,2.0675187597124762,-1.165894892633347,1.0828057152039761,-1.0828057152039761,1.165894892633347,3.9999999499015186,0.0
794640.0783812654,4060767.5119837918,-47500.0,-1.3682408220436109,-0.68480418677059129,-0.043500128118479003,1.5583820931741048,0.83791309568147165,-1.3508745702924494,1.8270760100747356,-0.82918902544393924,0.86043084597375652,-0.86043084597375652,0.82918902544393924,3.5399242008582106,0.0
799640.0783812654,4060767.5119837918,-47500.0,-1.3747025092914364,-0.55993665869948139,0.062166381190365577,1.3976972961482479,0.62160771147872618,-1.0979210511843531,1.6070118636999711,-0.54908397873758663,0.65612137574188345,-0.65612137574188345,0.54908397873758663,3.1151164245540603,0.0
804640.0783812654,4060767.5119837918,-47500.0,-1.3393481482513234,-0.43988116019106049,0.13500017615493654,1.2333297905306277,0.44856138964271675,-0.88565460953349961,1.4098204119412019,-0.32432683287527048,0.47722188230216761,-0.47722188230216761,0.32432683287527048,2.7309437714625249,0.0
809640.0783812654,4060767.5119837918,-47500.0,-1.2748031977708558,-0.33085026271974455,0.18166903974949761,1.0748572183222922,0.31309051546532718,-0.71059799938289259,1.2356577205996822,-0.14959810700899662,0.3262368426638233,-0.3262368426638233,0.14959810700899662,2.3887876627749121,0.0
814640.0783812654,4060767.5119837918,-47500.0,-1.1917926992650472,-0.23581407454413802,0.20837234825536943,0.92796180985173526,0.20898783926512246,-0.56805932901460743,1.0832232110392515,-0.017761125827909049,0.20256253227874849,-0.20256253227874849,0.017761125827909049,2.0874308992722153,0.0
819640.0783812654,4060767.5119837918,-47500.0,-1.0988014335892797,-0.15555457298753747,0.22041968633988845,0.79549180527606256,0.13032061726718855,-0.45306788316805019,0.95051245583112443,0.078689480181833762,0.10383173713564552,-0.10383173713564552,-0.078689480181833762,1.8241202115033588,0.0
659640.0783812654,4065767.5119837918,-47500.0,0.8905665541859652,-0.60361536456554932,0.26952540225426158,1.0518817096105717,-0.65818869193470753,0.86207058812092818,1.2571088787844753,0.14646219410797418,0.41199520317241806,-0.41199520317241806,-0.14646219410797418,2.4659407830511548,0.0
664640.0783812654,4065767.5119837918,-47500.0,0.83684786987550197,-0.65685379344823092,0.35139800576440644,1.1252957926334088,-0.78453484558558628,1.0058967774793353,1.3793455757833653,0.2535103337857062,0.40581990568636617,-0.40581990568636617,-0.2535103337857062,2.6992649416875123,0.0
669640.0783812654,4065767.5119837918,-47500.0,0.74924206821681572,-0.69883818505785356,0.44865651740756657,1.1844701009949936,-0.92761058126797347,1.1668816276694078,1.5070261217755871,0.39112534300744584,0.37892624023161037,-0.37892624023161037,-0.39112534300744584,2.9403618400754525,0.0
674640.0783812654,4065767.5119837918,-47500.0,0.62246523407679288,-0.72146435569228873,0.56096350623964741,1.2202379451761955,-1.0853951273705629,1.3427096124495717,1.6373329122893372,0.56317411476677393,0.32399454845284925,-0.32399454845284925,-0.56317411476677393,3.1826958426066545,0.0
679640.0783812654,4065767.5119837918,-47500.0,0.45313225186731421,-0.71449495032273624,0.68591579986740325,1.2212827536534472,-1.2530903337355195,1.5282587525136211,1.7662521047297526,0.77155089778220964,0.23297896162611531,-0.23297896162611531,-0.77155089778220964,3.4171074551395675,0.0
684640.0783812654,4065767.5119837918,-47500.0,0.24145709083779321,-0.66592962805828804,0.81801694232527578,1.1746194070179645,-1.421998935844522,1.7145176831764937,1.8884901914028061,1.014437873638284,0.098044743019343517,-0.098044743019343517,-1.014437873638284,3.6316446904858077,0.0
689640.0783812654,4065767.5119837918,-47500.0,-0.0066730173507769629,-0.56309369257968278,0.94756955231855033,1.0668276962220511,-1.5783974277280024,1.8875089673850378,1.9976113337062582,1.2840489931105774,-0.086791930302069886,0.086791930302069886,-1.2840489931105774,3.8119021535520452,0.0
694640.0783812654,4065767.5119837918,-47500.0,-0.27760321253601689,-0.39473740847684757,1.0597746551969949,0.88631415062089902,-1.7027444797614284,2.0275435432536919,2.0865669210858768,1.5641122055714076,-0.3232142940869448,0.3232142940869448,-1.5641122055714076,3.9422780659867014,0.0
699640.0783812654,4065767.5119837918,-47500.0,-0.5485045273018645,-0.15430600817823234,1.1345349311679993,0.62673216306995194,-1.7697776461947299,2.109327689575454,2.148829096297812,1.8277224562040493,-0.60547295425725933,0.60547295425725933,-1.8277224562040493,4.0086914090399848,0.0
704640.0783812654,4065767.5119837918,-47500.0,-0.78772329698676402,0.1558267782262264,1.147640218158702,0.29131397868799175,-1.7502148306335039,2.1035925289100899,2.1803207688882207,2.036666971324117,-0.91713295386840432,0.91713295386840432,-2.036666971324117,4.003346762112538,0.0
709640.0783812654,4065767.5119837918,-47500.0,-0.95808307922537983,0.52001398099225093,1.0740104645619222,-0.10277144033665178,-1.6147292603295309,1.9808699903158742,2.1821574714906258,2.1436882451406807,-1.22885114229713,1.22885114229713,-2.1436882451406807,3.9318701705653045,0.0
714640.0783812654,4065767.5119837918,-47500.0,-1.0238798847212249,0.90652525501433556,0.89326724421313008,-0.52168718471190689,-1.3403932335815909,1.7176011379738283,2.1636894289999447,2.09902818824244,-1.4988487162327644,1.4988487162327644,-2.09902818824244,3.8219298230081065,0.0
719640.0783812654,4065767.5119837918,-47500.0,-0.96098735340050445,1.2684468006208427,0.59695574908313831,-0.91596602964381557,-0.91875977084090776,1.303821578191046,2.1442031808270645,1.8615473437000898,-1.6777281147546439,1.6777281147546439,-1.8615473437000898,3.7288489462197107,0.0
724640.0783812654,4065767.5119837918,-47500.0,-0.76745537378304807,1.5500818074204998,0.19540609269020942,-1.2270513166343193,-0.36336589347557513,0.75039509579760666,2.150145526514061,1.4125859720139819,-1.7182244601848755,1.7182244601848755,-1.4125859720139819,3.7270393706361169,0.0
729640.0783812654,4065767.5119837918,-47500.0,-0.47018825806511449,1.6988493155196163,-0.27883094856432927,-1.3993124506071755,0.28661125422080869,0.092786638158292564,2.20522240412242,0.7681742461613208,-1.5882669177005591,1.5882669177005591,-0.7681742461613208,3.8761785329309331,0.0
734640.0783812654,4065767.5119837918,-47500.0,-0.12326301889086452,1.6797976051767254,-0.77381760124467702,-1.394707827241207,0.96953005569254425,-0.61141997106510904,2.317015311161212,-0.016206680661144501,-1.2831593289238121,1.2831593289238121,0.016206680661144501,4.1790789741619356,0.0
739640.0783812654,4065767.5119837918,-47500.0,0.2037522084768372,1.4873801495987222,-1.2280743552282598,-1.2048683436268226,1.612066783864796,-1.2920990197508211,2.471049367338809,-0.85261865723873997,-0.83147443248246455,0.83147443248246455,0.85261865723873997,4.5753905771199603,0.0
744640.0783812654,4065767.5119837918,-47500.0,0.44431075111207136,1.1490835002476545,-1.5848542741058751,-0.85526981100163735,2.1449252927636109,-1.8809776275373415,2.637264622435227,-1.6390553420332961,-0.29091376514459966,0.29091376514459966,1.6390553420332961,4.9763274055287345,0.0
749640.0783812654,4065767.5119837918,-47500.0,0.55309129341468422,0.71865848954680089,-1.8056678214535564,-0.39914171897446782,2.5180625964488201,-2.3260274837850199,2.7807880867127905,-2.2832619359723081,0.26531241130394068,-0.26531241130394068,2.2832619359723081,5.3019988650380041,0.0
754640.0783812654,4065767.5119837918,-47500.0,0.51653868706160588,0.26153109493041876,-1.8779191742391537,0.096609067586163805,2.7099425658257728,-2.6008078344454506,2.8711087810225573,-2.7230895239755251,0.76649937053089423,-0.76649937053089423,2.7230895239755251,5.5001349535047988,0.0
759640.0783812654,4065767.5119837918,-47500.0,0.35230573642003593,-0.16158799799234261,-1.8143495519784707,0.56775895966740797,2.7281293925222965,-2.7060807547817665,2.8904736022569959,-2.9363213577580654,1.1599490851243006,-1.1599490851243006,2.9363213577580654,5.549333879155907,0.0
764640.0783812654,4065767.5119837918,-47500.0,0.099539099798421987,-0.50688439654632278,-1.6457483300661504,0.96551223180754298,2.6024007938879921,-2.664451476822689,2.836759962230881,-2.9381990313533599,1.4189603107687763,-1.4189603107687763,2.9381990313533599,5.4540462750728027,0.0
769640.0783812654,4065767.5119837918,-47500.0,-0.19461610410275029,-0.75235050792805391,-1.4107798990507547,1.2623847647530864,2.3741765209567798,-2.5112347494470386,2.7195619561811064,-2.7701022480566122,1.5423242355640427,-1.5423242355640427,2.7701022480566122,5.2361694779770218,0.0
774640.0783812654,4065767.5119837918,-47500.0,-0.48689415880134101,-0.89596186201564576,-1.1468055179808956,1.4514047502970804,2.0863370670872454,-2.2851804901258301,2.554472410491972,-2.4851944762709399,1.547803317157799,-1.547803317157799,2.4851944762709399,4.9263561025290681,0.0
779640.0783812654,4065767.5119837918,-47500.0,-0.74512356292296955,-0.94986569050398473,-0.88395800614769526,1.5410518285108936,1.7760322558444825,-2.0215284214258897,2.3585118919030856,-2.1360166802008105,1.463386613745042,-1.463386613745042,2.1360166802008105,4.556907266275676,0.0
784640.0783812654,4065767.5119837918,-47500.0,-0.95045334029357043,-0.93361276646347569,-0.64282310308992963,1.5488146935055436,1.4711702341565036,-1.7482168658325403,2.1472388790970363,-1.7665401113499415,1.3194420620015392,-1.3194420620015392,1.7665401113499415,4.157028267799892,0.0
789640.0783812654,4065767.5119837918,-47500.0,-1.095975287357148,-0.86850460969684706,-0.43484618137542685,1.4954715875263318,1.1899258502218042,-1.4848340809074729,1.9333081427190306,-1.4088314130032888,1.1433435383940755,-1.1433435383940755,1.4088314130032888,3.7503820989598533,0.0
794640.0783812654,4065767.5119837918,-47500.0,-1.1835777354865475,-0.77389210144214704,-0.26420953648421258,1.4010688261683122,0.94208825173757682,-1.2433616130057299,1.7260622652002431,-1.0831366309382631,0.95676288071263238,-0.95676288071263238,1.0831366309382631,3.3544112354247333,0.0
799640.0783812654,4065767.5119837918,-47500.0,-1.2205002448498512,-0.66535420456823868,-0.1301285965534478,1.2826817336727014,0.73115770913380107,-1.0297637768850045,1.531735318490175,-0.79986113419648519,0.77503115728736938,-0.77503115728736938,0.79986113419648519,2.9807713471239863,0.0
804640.0783812654,4065767.5119837918,-47500.0,-1.2164362772788979,-0.55426042009779519,-0.028925061582346121,1.1535812127866685,0.55645871736016217,-0.84574766880926278,1.3539346111818977,-0.5622042275161292,0.60775953868627419,-0.60775953868627419,0.5622042275161292,2.636322751009065,0.0
809640.0783812654,4065767.5119837918,-47500.0,-1.1814802328415965,-0.44814623364395223,0.044396293827407313,1.0232952981378609,0.4148915122118374,-0.69031049846835535,1.1941808616506844,-0.36866761271509185,0.46001840547600237,-0.46001840547600237,0.36866761271509185,2.3242670589029029,0.0
814640.0783812654,4065767.5119837918,-47500.0,-1.1248930628091962,-0.35145244614990057,0.095096096765627303,0.89813768938344285,0.30221478962908271,-0.56093577231702141,1.0524514225509911,-0.21508305604982556,0.33361487098892229,-0.33361487098892229,0.21508305604982556,2.0452166937306919,0.0
819640.0783812654,4065767.5119837918,-47500.0,-1.0545026617108018,-0.26633311323665654,0.12808711306695292,0.78189625892121162,0.21389015432148584,-0.45442872442175436,0.92772732914450984,-0.096071762984613771,0.22821800166710399,-0.22821800166710399,0.096071762984613771,1.7980818274997332,0.0
659640.0783812654,4070767.5119837918,-47500.0,0.77174673796854598,-0.62908458818240509,0.36803086311976252,0.94316735834745846,-0.68370795302006204,0.78386891168690565,1.1861652917883523,0.20135529773228777,0.43636681356877183,-0.43636681356877183,-0.20135529773228777,2.329449144875082,0.0
664640.0783812654,4070767.5119837918,-47500.0,0.70834379967829464,-0.67246385425422883,0.45823910234729637,0.99602110497049523,-0.80298561815820046,0.9052482665652557,1.2930011326046846,0.31311844943566247,0.42662783809032612,-0.42662783809032612,-0.31311844943566247,2.5333229561552102,0.0
669640.0783812654,4070767.5119837918,-47500.0,0.6146737385774429,-0.70212767445644741,0.56199950856714631,1.0334327546900468,-0.93515146617613421,1.038603238131325,1.402946262825344,0.45274587451829418,0.3961389893294831,-0.3961389893294831,-0.45274587451829418,2.7406651269815119,0.0
674640.0783812654,4070767.5119837918,-47500.0,0.48743171395893198,-0.71044558525104717,0.67784821682188723,1.0476239236984435,-1.0773988757694104,1.1812060324848728,1.5133120354571687,0.62250969884072216,0.33842610379672444,-0.33842610379672444,-0.62250969884072216,2.9452651201463165,0.0
679640.0783812654,4070767.5119837918,-47500.0,0.32541332620066593,-0.68827351263908765,0.80213297766525959,1.0294601969150008,-1.2243934995617398,1.3280306831997539,1.6204893429744889,0.82245801864554113,0.24670653620909888,-0.24670653620909888,-0.82245801864554113,3.1388660842210196,0.0
684640.0783812654,4070767.5119837918,-47500.0,0.13086959872959236,-0.62550378163079701,0.92817855305233155,0.96904154742105253,-1.3674693735941097,1.4710474867801044,1.7199595194466633,1.0489372358352886,0.11481385997481675,-0.11481385997481675,-1.0489372358352886,3.311200609639378,0.0
689640.0783812654,4070767.5119837918,-47500.0,-0.088996487737708768,-0.5122296415235138,1.0455019029496122,0.85687316037758166,-1.4939325781307626,1.5986155571692404,1.8065037031177957,1.2928300300205002,-0.061332040791325482,0.061332040791325482,-1.2928300300205002,3.4504874964893384,0.0
694640.0783812654,4070767.5119837918,-47500.0,-0.32072973152373169,-0.34068422483036559,1.1393532985643895,0.68574980991900625,-1.5867579339181157,1.6952198080156875,1.8747316537135534,1.537793392965908,-0.28169271329932155,0.28169271329932155,-1.537793392965908,3.54468604246384,0.0
699640.0783812654,4070767.5119837918,-47500.0,-0.54408347514527089,-0.10796141080703442,1.1909952518914901,0.45334020507346523,-1.6250851276524867,1.7419007233681219,1.9200616547458806,1.7590528947745927,-0.53970392388381516,0.53970392388381516,-1.7590528947745927,3.5838643154165375,0.0
704640.0783812654,4070767.5119837918,-47500.0,-0.73297986440939888,0.18078604873398929,1.1792064535409332,0.16516916696668832,-1.5859735531237789,1.7177695527117605,1.9402393966302505,1.9235920000709372,-0.82000359077249652,0.82000359077249652,-1.9235920000709372,3.5640102969767726,0.0
709640.0783812654,4070767.5119837918,-47500.0,-0.85866451685470813,0.50943605380817725,1.0833986420035671,-0.16271889178381221,-1.4477546970684132,1.6029004564021565,1.9373186211826696,1.992710861406255,-1.0971851349441213,1.0971851349441213,-1.992710861406255,3.4923323672728372,0.0
714640.0783812654,4070767.5119837918,-47500.0,-0.89529390921054808,0.84951133124303224,0.88833829339752834,-0.50254713323027811,-1.1949179207615772,1.3825531869482885,1.9196240185661466,1.927674253156183,-1.3367224264818025,1.3367224264818025,-1.927674253156183,3.3931173978349078,0.0
719640.0783812654,4070767.5119837918,-47500.0,-0.82723218927740172,1.1617438536658509,0.58973692760517271,-0.81632923907976884,-0.82376002872640597,1.0520891389957432,1.9024724836614519,1.6983038241727642,-1.499056561159678,1.499056561159678,-1.6983038241727642,3.3106764005777323,0.0
724640.0783812654,4070767.5119837918,-47500.0,-0.65608085288883289,1.4015468720637667,0.1991022484442472,-1.0609783702957403,-0.34720889437919644,0.62125178700929906,1.9056367619027004,1.2929246342054437,-1.5470052821330749,1.5470052821330749,-1.2929246342054437,3.3018558086055503,0.0
729640.0783812654,4070767.5119837918,-47500.0,-0.40455319378325472,1.5280381025660696,-0.25430281721069037,-1.1966720821488008,0.20326210860984759,0.11605429629123475,1.9462244472567045,0.72655960849869661,-1.4551863532085711,1.4551863532085711,-0.72655960849869661,3.4117599362507049,0.0
734640.0783812654,4070767.5119837918,-47500.0,-0.11457776880881627,1.5144313349910805,-0.72618386605583152,-1.1965128861525598,0.7803457401433922,-0.42320839689718209,2.0297039328826338,0.043645345024732829,-1.2186023513249573,1.2186023513249573,-0.043645345024732829,3.6445588205877164,0.0
739640.0783812654,4070767.5119837918,-47500.0,0.16109535365605929,1.3562234789582082,-1.1648934526230543,-1.0542760594409446,1.3285099413732429,-0.94813499170106541,2.1459947432344886,-0.68728256739801818,-0.85690756096793919,0.85690756096793919,0.68728256739801818,3.9579221376949842,0.0
744640.0783812654,4070767.5119837918,-47500.0,0.37161787258205636,1.0737421947806534,-1.5221703002153995,-0.78712458949008146,1.7947235382766391,-1.4111958607901953,2.2740216163621216,-1.3865253476510135,-0.4119647698008293,0.4119647698008293,1.3865253476510135,4.2859242744122943,0.0
749640.0783812654,4070767.5119837918,-47500.0,0.48063420230750448,0.70763823323721187,-1.7634201466289749,-0.43191838588167492,2.1389516674260967,-1.7747873604246374,2.3897166344916942,-1.9799675440147948,0.061085823615899759,-0.061085823615899759,1.9799675440147948,4.5660351039434017,0.0
754640.0783812654,4070767.5119837918,-47500.0,0.47412777251840793,0.30887054907553863,-1.8740206803858208,-0.036361959414641189,2.341000697660879,-2.017486839731788,2.4713188957587158,-2.4139824300741974,0.50622803967556784,-0.50622803967556784,2.4139824300741974,4.7541861511460199,0.0
759640.0783812654,4070767.5119837918,-47500.0,0.36111731270507302,-0.073050699359487381,-1.8598705356228993,0.35174138173301422,2.4018502367917542,-2.1358292488601873,2.5030295802918481,-2.6637520934569276,0.87808421659070968,-0.87808421659070968,2.6637520934569276,4.8286302483627006,0.0
764640.0783812654,4070767.5119837918,-47500.0,0.16798660191378717,-0.3995622687483929,-1.7428250820312328,0.69353203826604837,2.3398702584945177,-2.141754096944616,2.4787332767996904,-2.7333073621596915,1.1490140599914183,-1.1490140599914183,2.7333073621596915,4.7874327605815843,0.0
769640.0783812654,4070767.5119837918,-47500.0,-0.070466632746377975,-0.64788044469232065,-1.5534083622074344,0.96413537369554636,2.184040875822836,-2.0573303972018682,2.4019834723997628,-2.648909805799827,1.310541142217565,-1.310541142217565,2.648909805799827,4.643098374414472,0.0
774640.0783812654,4070767.5119837918,-47500.0,-0.31975641396744114,-0.81100236766614697,-1.323528533668215,1.1533471772585606,1.9667497960652054,-1.9088386553074175,2.2825368006303153,-2.4492800639009031,1.370133836938604,-1.370133836938604,2.4492800639009031,4.4165351039226124,0.0
779640.0783812654,4070767.5119837918,-47500.0,-0.55183587576193693,-0.89434934579443537,-1.0810921408094212,1.2631095662043521,1.7180866369276651,-1.7218437298639664,2.1326661327358503,-2.1761407990627455,1.345577694990419,-1.345577694990419,2.1761407990627455,4.1317286028322417,0.0
784640.0783812654,4070767.5119837918,-47500.0,-0.74789950213370937,-0.91104542374839748,-0.84717812140297466,1.3034861287461632,1.4624488930311956,-1.5180378034552755,1.9645596001933576,-1.8672578357973555,1.2591450668245983,-1.2591450668245983,1.8672578357973555,3.8118264428340742,0.0
789640.0783812654,4070767.5119837918,-47500.0,-0.89839840709129626,-0.87744767583061534,-0.63545404517504844,1.288607030016645,1.2173317953637444,-1.3138590779420385,1.7888313145346908,-1.5526305478724005,1.1329862363776675,-1.1329862363776675,1.5526305478724005,3.4767726345538601,0.0
794640.0783812654,4070767.5119837918,-47500.0,-1.0013581717082785,-0.80980489887199014,-0.4530588382198325,1.2334539945288476,0.99367424884158639,-1.1204489164476528,1.6138802466652904,-1.2533918191946545,0.98625626518458942,-0.98625626518458942,1.2533918191946545,3.1422692232768825,0.0
799640.0783812654,4070767.5119837918,-47500.0,-1.0600504142077878,-0.72225059484279441,-0.30215711233321585,1.1517659222206948,0.79703886420581271,-0.94438948597651862,1.4458057668396518,-0.9825060158862976,0.8338344556599121,-0.8338344556599121,0.9825060158862976,2.8196747865193665,0.0
804640.0783812654,4070767.5119837918,-47500.0,-1.0807575083165162,-0.62593673708328068,-0.18158584712707054,1.0549739299628649,0.62905986513775491,-0.78876082834035732,1.2886432168251978,-0.74637017517040838,0.6861982159505382,-0.6861982159505382,0.74637017517040838,2.5164788722705342,0.0
809640.0783812654,4070767.5119837918,-47500.0,-1.07098858211641,-0.52894494079161236,-0.088262270556370245,0.9518802158183659,0.48878976826751092,-0.65419238173944183,1.1447091459385543,-0.54663252179314603,0.54995394027140931,-0.54995394027140931,0.54663252179314603,2.237006008724113,0.0
814640.0783812654,4070767.5119837918,-47500.0,-1.0382584346384363,-0.43664342162653763,-0.0182385240756252,0.84880744155429622,0.3737914415259796,-0.53976217867118514,1.0149594161909006,-0.38185111837789654,0.42865108960706744,-0.42865108960706744,0.38185111837789654,1.9831837548415858,0.0
664640.0783812654,4075767.5119837918,-47500.0,0.58628823304303523,-0.66350787557275459,0.54533870596231726,0.86942073837758704,-0.79877470720808708,0.80522743465043312,1.2025300450275744,0.36332442297940393,0.43108043555676545,-0.43108043555676545,-0.36332442297940393,2.3581995583419704,0.0
669640.0783812654,4075767.5119837918,-47500.0,0.49044465281224553,-0.68027013762686783,0.65031933088251714,0.88883829852749019,-0.91726027752225803,0.91375325801569252,1.2958408440059945,0.50079645873449463,0.39676881869425912,-0.39676881869425912,-0.50079645873449463,2.5336882117449018,0.0
674640.0783812654,4075767.5119837918,-47500.0,0.36670005797039285,-0.67475386671631132,0.76397243277737603,0.88617917322655193,-1.0416650305215187,1.0272637284849433,1.3879340057623899,0.66364029912210742,0.33659972194483301,-0.33659972194483301,-0.66364029912210742,2.7034724032350357,0.0
679640.0783812654,4075767.5119837918,-47500.0,0.2155033528494078,-0.63914808458586236,0.88176522707478866,0.85432214318650057,-1.166523557649207,1.1411105335233149,1.4756633654903932,0.85043078668639371,0.24508095709903144,-0.24508095709903144,-0.85043078668639371,2.8603178476747115,0.0
684640.0783812654,4075767.5119837918,-47500.0,0.040429699682718145,-0.56533737282574803,0.99640299656000553,0.7860101734186512,-1.2836506080576648,1.24840254616633,1.5552731153070996,1.0562667410408972,0.11762235092046502,-0.11762235092046502,-1.0562667410408972,2.9956343604964237,0.0
689640.0783812654,4075767.5119837918,-47500.0,-0.15081332526163627,-0.44602950162223087,1.0973482482275869,0.67487778325136805,-1.3817760892018851,1.3397113034152948,1.6226382935629968,1.271475176391617,-0.048201427985104295,0.048201427985104295,-1.271475176391617,3.1000448245751051,0.0
694640.0783812654,4075767.5119837918,-47500.0,-0.3456823883316737,-0.27643487986468157,1.1707168144976934,0.5169428772830873,-1.4465660986103814,1.4030842534342336,1.6737565732294837,1.4804783951974234,-0.25102821507087114,0.25102821507087114,-1.4804783951974234,3.1645571482707453,0.0
699640.0783812654,4075767.5119837918,-47500.0,-0.5268168637470757,-0.056416289632785277,1.1998638592967736,0.31248055170344358,-1.461308345274291,1.4245852968789392,1.7055659142468909,1.6612745901918489,-0.48392937318113038,0.48392937318113038,-1.6612745901918489,3.1825610971133562,0.0
704640.0783812654,4075767.5119837918,-47500.0,-0.67325620710679424,0.20721377798841273,1.1669777707672222,0.067992790135293232,-1.4085323325830328,1.3895761660396195,1.7171115093400422,1.786131452106424,-0.73290400476645834,0.73290400476645834,-1.786131452106424,3.1528108051374737,0.0
709640.0783812654,4075767.5119837918,-47500.0,-0.76321629891520559,0.49887511261450729,1.0558623204413069,-0.20226362981201804,-1.272699399623568,1.284848545106551,1.7109453299012609,1.824097653342829,-0.97630393914194946,0.97630393914194946,-1.824097653342829,3.0832900945420838,0.0
714640.0783812654,4075767.5119837918,-47500.0,-0.77839767214539179,0.79376053713620887,0.85574856342946382,-0.47593216472815525,-1.0437886957987184,1.1014784435353997,1.6943468189427282,1.7456566175134181,-1.1859477093228104,1.1859477093228104,-1.7456566175134181,2.9950896185937519,0.0
719640.0783812654,4075767.5119837918,-47500.0,-0.70913963986045692,1.0596228738310527,0.56545780092587994,-0.72413314109402216,-0.72114582046654718,0.83791961235080492,1.6794764502707396,1.5291911836042007,-1.3304839373142134,1.3304839373142134,-1.5291911836042007,2.9236578814487482,0.0
724640.0783812654,4075767.5119837918,-47500.0,-0.55899328856943176,1.2612610593794449,0.19670021880498773,-0.91533340408926644,-0.31649853612239914,0.50249116421818663,1.6811872511412373,1.1679857993326948,-1.3809486323186364,1.3809486323186364,-1.1679857993326948,2.9123912998077484,0.0
729640.0783812654,4075767.5119837918,-47500.0,-0.34686266931807486,1.3672410261048502,-0.22494954389861382,-1.0211186843654205,0.14515650854153983,0.11424831778666771,1.7118928233538251,0.6756289826492391,-1.317508464239221,1.317508464239221,-0.6756289826492391,2.9950919985810458,0.0
734640.0783812654,4075767.5119837918,-47500.0,-0.10519968820680588,1.3572572560111327,-0.66248855839163723,-1.0225437831039079,0.6277599294825027,-0.29853889192701499,1.7755035742068928,0.087458055738116713,-1.1354680350064963,1.1354680350064963,-0.087458055738116713,3.1757962584827406,0.0
739640.0783812654,4075767.5119837918,-47500.0,0.12601368654170536,1.2277789487773827,-1.0733623279672324,-0.91509807416029665,1.0895270591489621,-0.70238167716801603,1.8648137026811067,-0.54344199162691442,-0.84831366117259521,0.84831366117259521,0.54344199162691442,3.4244603528239237,0.0
744640.0783812654,4075767.5119837918,-47500.0,0.30802524990942487,0.99381391578526668,-1.4174242606817566,-0.71045739530578111,1.4902445983338344,-1.0642006492571325,1.964556785341365,-1.1553109216412341,-0.4862762879574668,0.4862762879574668,1.1553109216412341,3.6921819759668142,0.0
749640.0783812654,4075767.5119837918,-47500.0,0.41201604927739349,0.68590554887304978,-1.6646147824289725,-0.43422246654696978,1.7984584965236576,-1.3570323123854215,2.057305506013579,-1.689423322404171,-0.090487192213833167,0.090487192213833167,1.689423322404171,3.9304799903991441,0.0
754640.0783812654,4075767.5119837918,-47500.0,0.42485176896375915,0.34329579595311349,-1.7999884186661022,-0.12033220319379347,1.9964323117985785,-1.5641704111539831,2.1276795527699783,-2.1008587009238786,0.29548300108670456,-0.29548300108670456,2.1008587009238786,4.1030583797691706,0.0
759640.0783812654,4075767.5119837918,-47500.0,0.3502358416131095,0.0055960706847029392,-1.8247672596509172,0.1959685119214207,2.0816181150069086,-1.6807055946231779,2.1636547700542166,-2.3651874988586639,0.63397873610028077,-0.63397873610028077,2.3651874988586639,4.1896019544606222,0.0
764640.0783812654,4075767.5119837918,-47500.0,0.20550447128107699,-0.29440803332329341,-1.7536363001723831,0.48442657210258305,2.0646991833979764,-1.7124063100172615,2.1581212571490802,-2.4796759884950337,0.89909625418143335,-0.89909625418143335,2.4796759884950337,4.1847509908052816,0.0
769640.0783812654,4075767.5119837918,-47500.0,0.015804237241579921,-0.53503329483148021,-1.609711885943603,0.72378607594016253,1.9653533116810185,-1.6727302675384172,2.1106660786303952,-2.4596688968700215,1.078847396054861,-1.078847396054861,2.4596688968700215,4.0947445620708907,0.0
774640.0783812654,4075767.5119837918,-47500.0,-0.19212730719379223,-0.70662817749225393,-1.4190256748609726,0.90302557558299335,1.8073200748330347,-1.5791335550478454,2.0265767515229189,-2.3321896302293417,1.1739387364547627,-1.1739387364547627,2.3321896302293417,3.9333069429637417,0.0
779640.0783812654,4075767.5119837918,-47500.0,-0.39485088465651408,-0.80986790382247997,-1.2059870624314359,1.0203063234964622,1.6141033128139446,-1.4497075774704258,1.9142237339456396,-2.1290571315694558,1.1943995967181218,-1.1943995967181218,2.1290571315694558,3.7177619174574841,0.0
784640.0783812654,4075767.5119837918,-47500.0,-0.57500536719493234,-0.85265389172808137,-0.99054129626254594,1.0805959882944305,1.4060408178482622,-1.3007540874691486,1.7828005487439389,-1.8812264752047465,1.1555145357010739,-1.1555145357010739,1.8812264752047465,3.4659454750377097,0.0
789640.0783812654,4075767.5119837918,-47500.0,-0.7220649398375617,-0.84678605647285177,-0.78703234564065117,1.0929335260515214,1.1988596434105601,-1.1454526897435806,1.6408880742786107,-1.6151300605811352,1.0741840930455837,-1.0741840930455837,1.6151300605811352,3.1941220756313173,0.0
794640.0783812654,4075767.5119837918,-47500.0,-0.83165485121796368,-0.80517804327312803,-0.6043549697519589,1.068014009405015,1.0034356294204889,-0.99345946181026268,1.4957094299755891,-1.3510053383792504,0.9662969684358711,-0.9662969684358711,1.3510053383792504,2.9158480997930436,0.0
799640.0783812654,4075767.5119837918,-47500.0,-0.90412155420520768,-0.73993761166494521,-0.44685438235598396,1.016418562898862,0.82632323519194806,-0.85113793507985802,1.3528683098404184,-1.1027430036280861,0.84521975801639504,-0.84521975801639504,1.1027430036280861,2.641580250572471,0.0
804640.0783812654,4075767.5119837918,-47500.0,-0.94292546706667424,-0.66130264540796013,-0.31550573562108264,0.94753506998585491,0.67064892226576089,-0.72212348950208094,1.2163893271766004,-0.87866230045539717,0.72121883150716737,-0.72121883150716737,0.87866230045539717,2.3787843826366726,0.0
809640.0783812654,4075767.5119837918,-47500.0,-0.95321087667548066,-0.57724971376703438,-0.2090597464369168,0.86905524488794128,0.53707265127973713,-0.60799217944649597,1.088916727507639,-0.68269715659286034,0.60151936028135022,-0.60151936028135022,0.68269715659286034,2.1323240420305267,0.0
669640.0783812654,4080767.5119837918,-47500.0,0.37992385479103258,-0.6405606729683847,0.71347707541003225,0.7551122025538185,-0.88047454933384917,0.79632831486266176,1.189250879704967,0.53481472121848483,0.38467438562203893,-0.38467438562203893,-0.53481472121848483,2.3265856776160092,0.0
674640.0783812654,4080767.5119837918,-47500.0,0.26269438785485838,-0.62277634807949844,0.82058100388716271,0.74006850841691141,-0.98648225488203156,0.885190421652708,1.2651241520313867,0.68735366613450555,0.32275581669062137,-0.32275581669062137,-0.68735366613450555,2.4652694844331795,0.0
679640.0783812654,4080767.5119837918,-47500.0,0.12455550436973727,-0.57633112834507472,0.92785925731134744,0.69936995911476463,-1.0896471224514652,0.9718468623746348,1.3359800054219089,0.85796922545987298,0.23249813309555151,-0.23249813309555151,-0.85796922545987298,2.5900555050336065,0.0
684640.0783812654,4080767.5119837918,-47500.0,-0.030196753608268373,-0.49500958765080016,1.0278863068800812,0.62791262855124808,-1.1825525917774853,1.0505603204646377,1.3987673303645456,1.0410569142149897,0.11070260004821214,-0.11070260004821214,-1.0410569142149897,2.6939307792353406,0.0
689640.0783812654,4080767.5119837918,-47500.0,-0.19394847217372341,-0.37380183277923967,1.1106192701270152,0.52170745154967235,-1.2555164931910523,1.1138685411966576,1.4503021731870791,1.2270041316317211,-0.043713698805797674,0.043713698805797674,-1.2270041316317211,2.7696264848958547,0.0
694640.0783812654,4080767.5119837918,-47500.0,-0.35548011745924463,-0.21028512743900901,1.1635454109985006,0.37901275445704441,-1.2968009192532517,1.1527347731940665,1.4877038687374005,1.4015401329106187,-0.22846602898119572,0.22846602898119572,-1.4015401329106187,2.8106624081006117,0.0
699640.0783812654,4080767.5119837918,-47500.0,-0.5003033401102589,-0.0062483283552710704,1.1724255262162491,0.20164402734197734,-1.2933424989728033,1.1570800384851945,1.5090583957516834,1.545673587521232,-0.43663551482194596,0.43663551482194596,-1.545673587521232,2.8129861409181349,0.0
704640.0783812654,4080767.5119837918,-47500.0,-0.61190899991463266,0.23073541292695357,1.122819778587163,-0.003778131949415852,-1.2321464407800533,1.1168033079476651,1.5142959113558305,1.6366227381925662,-0.65572957946880317,0.65572957946880317,-1.6366227381925662,2.7772643118503497,0.0
709640.0783812654,4080767.5119837918,-47500.0,-0.67408042289325509,0.48626906304936324,1.0024429473531784,-0.22502380107196329,-1.1023663927039065,1.0233090119677586,1.5061574393134685,1.6500858712574777,-0.86753668726122579,0.86753668726122579,-1.6500858712574777,2.7116532555027724,0.0
714640.0783812654,4080767.5119837918,-47500.0,-0.67412712001659691,0.73922262912370951,0.8041310780770341,-0.44436062598257986,-0.89787127774634223,0.87140371508092429,1.4909160634048104,1.563947969293122,-1.0492588974902448,1.0492588974902448,-1.563947969293122,2.6342849339585515,0.0
719640.0783812654,4080767.5119837918,-47500.0,-0.60646265703322955,0.963479441061875,0.52884939523525587,-0.63997802584668873,-0.61981417328211086,0.66121795195357314,1.4782211494742918,1.3630490647899012,-1.1762164935040871,1.1762164935040871,-1.3630490647899012,2.5734872950081189,0.0
724640.0783812654,4080767.5119837918,-47500.0,-0.47552919097334428,1.131507362469059,0.18785914248681246,-0.78885682642241961,-0.2784695838491647,0.39962742556537945,1.4792736083055389,1.0440461673734902,-1.2259792706432087,1.2259792706432087,-1.0440461673734902,2.5623938874053875,0.0
729640.0783812654,4080767.5119837918,-47500.0,-0.29690068744568376,1.2193045973540055,-0.19691885993152705,-0.87073337285002805,0.106453037280764,0.10059772230448973,1.5031182157715812,0.61892591679614051,-1.1831713738191787,1.1831713738191787,-0.61892591679614051,2.626194281608901,0.0
734640.0783812654,4080767.5119837918,-47500.0,-0.095701577494467394,1.2115840410571583,-0.59498575699092826,-0.87227715159269792,0.50754885659645899,-0.21594731139013945,1.5525218863407253,0.11569121524946047,-1.0436626478040347,1.0436626478040347,-0.11569121524946047,2.7682005733927273,0.0
739640.0783812654,4080767.5119837918,-47500.0,0.097709279409704558,1.1056521310274852,-0.97171033282157937,-0.7902806019246047,0.89345479599178057,-0.52672610828924549,1.622231319144827,-0.42463537819973518,-0.81672117715928438,0.81672117715928438,0.42463537819973518,2.9667505829734142,0.0
744640.0783812654,4080767.5119837918,-47500.0,0.25379499028864649,0.91261903569763658,-1.294179285834566,-0.63278511050649922,1.2338162127955836,-0.80865436766450405,1.7010069404200605,-0.95437995373435325,-0.52416750302543635,0.52416750302543635,0.95437995373435325,3.1854603378507282,0.0
749640.0783812654,4080767.5119837918,-47500.0,0.34987163964050222,0.65538727021218113,-1.536873480605992,-0.41767471259191924,1.5042011543194427,-1.0424599613621068,1.7758059166951459,-1.427398394447033,-0.19654073655441473,0.19654073655441473,1.427398394447033,3.3869214396587894,0.0
754640.0783812654,4080767.5119837918,-47500.0,0.37428730005479605,0.36398660639675096,-1.6855827843936249,-0.16912582837132761,1.6896461181157156,-1.2154112401145551,1.8352691552253793,-1.806801127336374,0.13265439372656518,-0.13265439372656518,1.806801127336374,3.5416966480773016,0.0
759640.0783812654,4080767.5119837918,-47500.0,0.32763708864116881,0.069712544172179078,-1.7386058482133864,0.086997772323172226,1.7859989091668307,-1.322525394455371,1.8707745157656732,-2.0701543386340351,0.43292274299529288,-0.43292274299529288,2.0701543386340351,3.631724271418173,0.0
764640.0783812654,4080767.5119837918,-47500.0,0.22102033431403909,-0.20022240589612994,-1.7052430942682404,0.32748469353391252,1.7989869586846785,-1.3661484883760302,1.8762232399315293,-2.2110844140224906,0.68136094340867126,-0.68136094340867126,2.2110844140224906,3.6501175804893218,0.0
769640.0783812654,4080767.5119837918,-47500.0,0.0723091424129986,-0.42624680819092903,-1.6024242659027614,0.5348208028184267,1.7416277206381119,-1.3542916274074652,1.8491846764434723,-2.2374827059121198,0.86491465084957642,-0.86491465084957642,2.2374827059121198,3.599125730726862,0.0
774640.0783812654,4080767.5119837918,-47500.0,-0.098191309362285747,-0.59772603075519837,-1.4506677194525057,0.69850425723041931,1.6309245650531758,-1.2983629236702963,1.7917044387061494,-2.1674475645499061,0.98026149895395021,-0.98026149895395021,2.1674475645499061,3.4873627820382507,0.0
779640.0783812654,4080767.5119837918,-47500.0,-0.27148470097911576,-0.71228683456805963,-1.2704526904850342,0.8147858215838536,1.4847466423486582,-1.2109325744099151,1.7090459710053842,-2.0244488816096018,1.0319543428988089,-1.0319543428988089,2.0244488816096018,3.3270293330147238,0.0
784640.0783812654,4080767.5119837918,-47500.0,-0.4323474326011621,-0.77390210581817054,-1.0796434093794285,0.88535305065442615,1.3194667758394685,-1.10396223456079,1.6078667321981297,-1.8329551215927173,1.0297329764227539,-1.0297329764227539,1.8329551215927173,3.1315533147661241,0.0
789640.0783812654,4080767.5119837918,-47500.0,-0.57039335853743622,-0.7905341613679624,-0.89213324343926304,0.91556319998550917,1.1485616197949933,-0.98767855917722214,1.4948832755049688,-1.6152430290156174,0.98582071199219889,-0.98582071199219889,1.6152430290156174,2.9138579724405242,0.0
794640.0783812654,4080767.5119837918,-47500.0,-0.68000643837088171,-0.77194813125848916,-0.71753112407113873,0.91271402033682436,0.98208690793186082,-0.87006225469504817,1.3760988594901782,-1.3895753890225488,0.91273029243252501,-0.91273029243252501,1.3895753890225488,2.6852809937871713,0.0
799640.0783812654,4080767.5119837918,-47500.0,-0.75956710475476086,-0.72803033322815025,-0.56155467966016859,0.884643641578303,0.82679033571515348,-0.7568077729549133,1.2564440423498926,-1.1695634120134311,0.82178785194897663,-0.82178785194897663,1.1695634120134311,2.455052860158832,0.0
804640.0783812654,4080767.5119837918,-47500.0,-0.81037910532202906,-0.66770300254729864,-0.42678777437972815,0.83876451024544163,0.68659552516002853,-0.65157634196048397,1.1396891839664642,-0.96436276350214134,0.72234869943731661,-0.72234869943731661,0.96436276350214134,2.230189480459758,0.0
674640.0783812654,4085767.5119837918,-47500.0,0.17585422116411392,-0.56151664290726977,0.85081415687837725,0.61116656737409936,-0.91900865559291456,0.7572418331056725,1.1476727164296041,0.69553614089145233,0.30073886560587626,-0.30073886560587626,-0.69553614089145233,2.2363757269596998,0.0
679640.0783812654,4085767.5119837918,-47500.0,0.051877760474890552,-0.5071117248693473,0.94522330702817081,0.56559123570616632,-1.0021265058699009,0.82205688691191692,1.2042305760455094,0.84845200959952527,0.21279863266867294,-0.21279863266867294,-0.84845200959952527,2.3339121455656584,0.0
684640.0783812654,4085767.5119837918,-47500.0,-0.082857987807432934,-0.42166935783252563,1.0292521983588738,0.4945467605325799,-1.0735694550751937,0.87850341302587953,1.2530888870172636,1.008371442482759,0.097642938423220971,-0.097642938423220971,-1.008371442482759,2.4117760601699829,0.0
689640.0783812654,4085767.5119837918,-47500.0,-0.22122640100972304,-0.30205225068691538,1.09371174325624,0.39577051257041934,-1.1252381677236247,0.92078642592721227,1.2918472896309952,1.1661787939982242,-0.044788290118336738,0.044788290118336738,-1.1661787939982242,2.4644820505241332,0.0
694640.0783812654,4085767.5119837918,-47500.0,-0.35350549480217203,-0.14760178663353629,1.1277039016586279,0.26899049595647206,-1.1477357655913072,0.94217862669804475,1.3185067989801884,1.3091957857879499,-0.21164283816225526,0.21164283816225526,-1.3091957857879499,2.4875525741398379,0.0
699640.0783812654,4085767.5119837918,-47500.0,-0.46786466011809152,0.038682684819127532,1.1194091885216344,0.11681026983167497,-1.1310566672583096,0.93548823829540717,1.3319950890389625,1.4213938172890335,-0.39628790171324701,0.39628790171324701,-1.4213938172890335,2.4788349669499872,0.0
704640.0783812654,4085767.5119837918,-47500.0,-0.55151645009094774,0.24911996874773965,1.0574530885574625,-0.054535835424897421,-1.0657289180387362,0.89383811598205487,1.3328130580725894,1.4843822790189476,-0.58776897818251472,0.58776897818251472,-1.4843822790189476,2.4402336890887821,0.0
709640.0783812654,4085767.5119837918,-47500.0,-0.59257081871096573,0.4708304653507554,0.93282311533356799,-0.23481749238639399,-0.94437765994435163,0.81173690758443762,1.3236858487493754,1.4793538379563358,-0.77091756468868966,0.77091756468868966,-1.4793538379563358,2.3796624962870223,0.0
714640.0783812654,4085767.5119837918,-47500.0,-0.582412830206953,0.68611684489691538,0.7411133473626198,-0.41011801214110294,-0.76352722179609955,0.68632313297304537,1.3099557905460848,1.3899636087619414,-0.92740503373460448,0.92740503373460448,-1.3899636087619414,2.3125717305108924,0.0
719640.0783812654,4085767.5119837918,-47500.0,-0.51815215017973926,0.87403528594268598,0.48464568794463508,-0.56403099871244478,-0.52528750745430408,0.51854698771860408,1.2992757008823879,1.2057955862200731,-1.0378803127906937,1.0378803127906937,-1.2057955862200731,2.2615781646017248,0.0
724640.0783812654,4085767.5119837918,-47500.0,-0.40446307721023683,1.0131800000905578,0.17384579342942308,-0.67975830924330205,-0.23844359143384641,0.31396751016765362,1.3001210865661239,0.92570543110118786,-1.0850236771582518,1.0850236771582518,-0.92570543110118786,2.2519969206717896,0.0
729640.0783812654,4085767.5119837918,-47500.0,-0.25408619643559033,1.0852948929267641,-0.17274803220789231,-0.74282743258230699,0.081529283508146477,0.082839352574936229,1.3191042925194258,0.56007822808927443,-1.0569657481120389,1.0569657481120389,-0.56007822808927443,2.3025298449173945,0.0
734640.0783812654,4085767.5119837918,-47500.0,-0.086507370646104184,1.078915618294664,-0.53021011506479776,-0.74384827399715825,0.41380932691839423,-0.16071395423444773,1.3581575909342207,0.13108212352801379,-0.95021215498065348,0.95021215498065348,-0.13108212352801379,2.4156313984506288,0.0
739640.0783812654,4085767.5119837918,-47500.0,0.075144745672659261,0.99203281398846377,-0.87056838214197796,-0.68057173241021296,0.73484775214765241,-0.40040447392246442,1.4133798268479814,-0.3295706121411498,-0.77115989361757042,0.77115989361757042,0.3295706121411498,2.575405183257939,0.0
744640.0783812654,4085767.5119837918,-47500.0,0.20831073421498186,0.83291673556517309,-1.1670879185491905,-0.55861201885750811,1.0217606916563222,-0.62004591560854183,1.4764081865958516,-0.78510965628755125,-0.53559688698439056,0.53559688698439056,0.78510965628755125,2.7546239914348871,0.0
749640.0783812654,4085767.5119837918,-47500.0,0.29519861439747291,0.61875937191813013,-1.398444127664811,-0.3905581953960825,1.2556946162364693,-0.80586039163831846,1.5373299850473987,-1.199434824955566,-0.26617363885708506,0.26617363885708506,1.199434824955566,2.9244588523479687,0.0
754640.0783812654,4085767.5119837918,-47500.0,0.32580813611234505,0.37248184216743113,-1.5517250318743314,-0.19369710121099548,1.4243445665465455,-0.9482753458015788,1.5873945155126292,-1.5426404784958467,0.01151091249663927,-0.01151091249663927,1.5426404784958467,3.0612647258505108,0.0
759640.0783812654,4085767.5119837918,-47500.0,0.299034744908446,0.11861883508477596,-1.6235860327532246,0.013013864523039945,1.5230765521580918,-1.0428242500775731,1.6202388790539861,-1.7949792805574325,0.27314934987411299,-0.27314934987411299,1.7949792805574325,3.1494723605693622,0.0
764640.0783812654,4085767.5119837918,-47500.0,0.22177330381007299,-0.12061071745255361,-1.6194828823367016,0.21192242007224674,1.5545504336257168,-1.0900501325877501,1.6313877588931509,-1.9484779563877281,0.49922208805582302,-0.49922208805582302,1.9484779563877281,3.1818166788558631,0.0
769640.0783812654,4085767.5119837918,-47500.0,0.10655375653586785,-0.32815199977630366,-1.5514598683829142,0.38893439579805156,1.5271625654303254,-1.0945920216528608,1.6180066518031162,-2.0061884883307881,0.67704490551935503,-0.67704490551935503,2.0061884883307881,3.1581294933009776,0.0
774640.0783812654,4085767.5119837918,-47500.0,-0.031441266572360987,-0.49346012354766317,-1.4352658319523326,0.53469823152875617,1.4528718074937619,-1.0638078373710314,1.5800488171572435,-1.9796984044086952,0.80119570768718318,-0.80119570768718318,1.9796984044086952,3.0834992035556219,0.0
779640.0783812654,4085767.5119837918,-47500.0,-0.17715984138186675,-0.61241777007690001,-1.2875564841833858,0.64473122840917285,1.3449894914829414,-1.0063142649514512,1.5203781447341236,-1.8858235479223777,0.87261340563905265,-0.87261340563905265,1.8858235479223777,2.9663073537225899,0.0
784640.0783812654,4085767.5119837918,-47500.0,-0.31772527105822368,-0.6862347748181894,-1.1237077829597679,0.71875229384659212,1.2163600058490043,-0.93073663321241673,1.44356939699314,-1.7433524746761018,0.8969112445806019,-0.8969112445806019,1.7433524746761018,2.816465581514096,0.0
789640.0783812654,4085767.5119837918,-47500.0,-0.44354995089927352,-0.71985160851330765,-0.95645942802391204,0.75958594008396818,1.0781381231972664,-0.84482378712392003,1.3547154176655816,-1.5704317590192967,0.88246364702752955,-0.88246364702752955,1.5704317590192967,2.6440303560799432,0.0
794640.0783812654,4085767.5119837918,-47500.0,-0.54860696573540246,-0.72030081332974738,-0.7953514789697016,0.77197116211916239,0.93917277712219283,-0.75495416509262536,1.2586647146789924,-1.3828430048235227,0.83868638992249567,-0.83868638992249567,1.3828430048235227,2.4582517585826511,0.0
799640.0783812654,4085767.5119837918,-47500.0,-0.63009985416672198,-0.69532280037496086,-0.64676756417844883,0.76150691052973252,0.80588291534493961,-0.66597311545333981,1.159617070087545,-1.1931485001131596,0.77473675965901034,-0.77473675965901034,1.1931485001131596,2.2670263149262508,0.0
679640.0783812654,4090767.5119837918,-47500.0,-0.0043015674486657574,-0.43685055988244503,0.93934360825545338,0.4523095818675118,-0.91040021003482252,0.69180649567772723,1.0820470166815919,0.82552144646822556,0.18909140226345722,-0.18909140226345722,-0.82552144646822556,2.095448967045471,0.0
684640.0783812654,4090767.5119837918,-47500.0,-0.12013179410145183,-0.35023783226434491,1.0073592871769099,0.38414614518177698,-0.96356214970592879,0.73128481315928484,1.1195752618013668,0.96306305558565741,0.081260286225055933,-0.081260286225055933,-0.96306305558565741,2.1522644343579951,0.0
689640.0783812654,4090767.5119837918,-47500.0,-0.23576010847967202,-0.23490880607140027,1.0546878886950628,0.29416456333067498,-0.99788592393575237,0.75816730152301248,1.1482055272579028,1.0949234048126366,-0.049046771641920506,0.049046771641920506,-1.0949234048126366,2.1870093411385958,0.0
694640.0783812654,4090767.5119837918,-47500.0,-0.34296843816459882,-0.091437522213490774,1.0720942241852693,0.18299194083981363,-1.0059876646751487,0.767509354843108,1.1666156337633853,1.2101063786303237,-0.19869704046856118,0.19869704046856118,-1.2101063786303237,2.1967571012663973,0.0
699640.0783812654,4090767.5119837918,-47500.0,-0.4322650035438293,0.076523654692491491,1.0500068103417837,0.053522225567918219,-0.98033364189246164,0.75423721096305274,1.1743318050425431,1.2953217914334103,-0.36152463997583872,0.36152463997583872,-1.2953217914334103,2.1807159578778696,0.0
704640.0783812654,4090767.5119837918,-47500.0,-0.49388188892865431,0.26161583347428513,0.97968534957957643,-0.08865233397409128,-0.91414400440651644,0.71372564384538384,1.1721957563193481,1.3359261105366871,-0.52805734953303252,0.52805734953303252,-1.3359261105366871,2.1415203680220825,0.0
709640.0783812654,4090767.5119837918,-47500.0,-0.51921991305334725,0.45258858392271023,0.85473524395311862,-0.23512788812874874,-0.80254304958437028,0.64253718615484234,1.1627901648333379,1.3175281467891087,-0.68575647501324299,0.68575647501324299,-1.3175281467891087,2.0865811421813953,0.0
714640.0783812654,4090767.5119837918,-47500.0,-0.50256942592459308,0.63480345912708669,0.67276871291461715,-0.37506207376181999,-0.64380542709093247,0.53923014318609208,1.1506217882901355,1.2281844550096825,-0.81994585717661128,0.81994585717661128,-1.2281844550096825,2.028964408939963,0.0
719640.0783812654,4090767.5119837918,-47500.0,-0.44276846639370199,0.79157816681421855,0.43687055998783725,-0.49613654413135644,-0.44044750924689774,0.40507907572805019,1.1417579562571343,1.0608930983077278,-0.91548031498556315,0.91548031498556315,-1.0608930983077278,1.9867146005270813,0.0
724640.0783812654,4090767.5119837918,-47500.0,-0.34434051334700555,0.90632649170798041,0.15643955433753398,-0.58607668368115051,-0.19985325950268212,0.24451193626669573,1.1426319239564871,0.81587607813978913,-0.95899585911092466,0.95899585911092466,-0.81587607813978913,1.979193536825832,0.0
729640.0783812654,4090767.5119837918,-47500.0,-0.21766098241725793,0.96518428094270681,-0.15298985529501635,-0.63451532540695654,0.065850711518035315,0.065080602584234773,1.1580918846475474,0.50201538831744119,-0.9413446539914041,0.9413446539914041,-0.50201538831744119,2.0202524776061765,0.0
734640.0783812654,4090767.5119837918,-47500.0,-0.077885515903227814,0.95956824490818016,-0.47114832888544683,-0.63482059677897351,0.3408190316137924,-0.12313647476239135,1.189465897704566,0.13687253760725798,-0.85964056023491331,0.85964056023491331,-0.13687253760725798,2.1115600458203141,0.0
739640.0783812654,4090767.5119837918,-47500.0,0.057288278730181781,0.88800739632685277,-0.77553463898312969,-0.58543237739398646,0.60732939068448488,-0.30866040557523944,1.2338043270421251,-0.25498391135019327,-0.71832644865118001,0.71832644865118001,0.25498391135019327,2.2412392956758254,0.0
744640.0783812654,4090767.5119837918,-47500.0,0.17057067995498335,0.75670306487079542,-1.0445502701883074,-0.49032604712531974,0.84811130050985029,-0.48007099798772229,1.2848255485380713,-0.64515514524210948,-0.52887608632792749,0.52887608632792749,0.64515514524210948,2.3887613944112092,0.0
749640.0783812654,4090767.5119837918,-47500.0,0.24801989590670528,0.57860259953683724,-1.2605615906004985,-0.358441468038873,1.0486599068615747,-0.62749178431918762,1.3349397231670588,-1.0054403611798879,-0.30811401066596011,0.30811401066596011,1.0054403611798879,2.5318776935336702,0.0
754640.0783812654,4090767.5119837918,-47500.0,0.28122938879709303,0.37120308826095549,-1.4121807437022227,-0.20220703609493584,1.1990199752213904,-0.74377704359269048,1.3772613149287607,-1.3117886835274439,-0.075543476968508383,0.075543476968508383,1.3117886835274439,2.6516984636809604,0.0
759640.0783812654,4090767.5119837918,-47500.0,0.26826198686980307,0.15365916467902624,-1.4952896196910646,-0.035537455133381989,1.2946801939427657,-0.82516460759036059,1.4068088479905085,-1.5472827095105051,0.14965236978793139,-0.14965236978793139,1.5472827095105051,2.7350675168529643,0.0
764640.0783812654,4090767.5119837918,-47500.0,0.21323124681297898,-0.056084437204222487,-1.5127087845327876,0.12820468063441123,1.3364793659959568,-0.87131494361056783,1.4203985826491308,-1.7035894430920946,0.35123140416940224,-0.35123140416940224,1.7035894430920946,2.7749819359712284,0.0
769640.0783812654,4090767.5119837918,-47500.0,0.12481813919034304,-0.24351731483162084,-1.4727767868982253,0.27784922406468898,1.3296866334907995,-0.88481884577409609,1.4157360688474701,-1.7807836355354656,0.51762222127567181,-0.51762222127567181,1.7807836355354656,2.7699075285218853,0.0
774640.0783812654,4090767.5119837918,-47500.0,0.014242654647072197,-0.39880202055733838,-1.3873282046443971,0.4054033627102126,1.2825871721350428,-0.87036679574789333,1.3917520204916369,-1.7858706814660792,0.64256681655017556,-0.64256681655017556,1.7858706814660792,2.722566124538369,0.0
779640.0783812654,4090767.5119837918,-47500.0,-0.10676587628265689,-0.51700080797653758,-1.2695926058925435,0.50633646294294676,1.2049447468050598,-0.8338063057908095,1.3495510526174348,-1.7305748698085641,0.72478781784390345,-0.72478781784390345,1.7305748698085641,2.6385614679815061,0.0
784640.0783812654,4090767.5119837918,-47500.0,-0.22759516410971931,-0.59750670721773469,-1.1324183735872584,0.57929061293693007,1.1066429912725866,-0.78127876094292525,1.2920331010323021,-1.6289814870932733,0.7669895477455384,-0.7669895477455384,1.6289814870932733,2.5250814967657949,0.0
789640.0783812654,4090767.5119837918,-47500.0,-0.33977785874402239,-0.64300790821694498,-0.98703708162937054,0.62542982448858508,0.99668204198296073,-0.71855503252852204,1.2229229856314416,-1.4954839343266471,0.77455963886408319,-0.77455963886408319,1.4954839343266471,2.389820038086945,0.0
794640.0783812654,4090767.5119837918,-47500.0,-0.43741702852980879,-0.65830528236445707,-0.842401644736815,0.64764523969110221,0.88257771117685624,-0.65061029368912504,1.1460345203960653,-1.3432783098451193,0.75428207926768498,-0.75428207926768498,1.3432783098451193,2.2401751645025834,0.0
689640.0783812654,4095767.5119837918,-47500.0,-0.2405194337803862,-0.17466553370539803,1.0006118916001365,0.21346954791801823,-0.87785274036230088,0.62271457221232707,1.0193393373091237,1.0180817090542011,-0.0547724751207192,0.0547724751207192,-1.0180817090542011,1.9376019562632862,0.0
694640.0783812654,4095767.5119837918,-47500.0,-0.32663629580584042,-0.043175189367133493,1.0041331587506719,0.11696589964267336,-0.87536341559201303,0.62404599212495093,1.0315240008677851,1.1093353750283796,-0.18825493862270593,0.18825493862270593,-1.1093353750283796,1.9377884012551099,0.0
699640.0783812654,4095767.5119837918,-47500.0,-0.39563372929216378,0.106770058191134,0.9715366395015741,0.0075107325986574786,-0.84414596978837042,0.60730236525866998,1.035109829130711,1.1723017316029953,-0.33122475789750516,0.33122475789750516,-1.1723017316029953,1.9172811846512328,0.0
704640.0783812654,4095767.5119837918,-47500.0,-0.44013764502496167,0.26838650860121727,0.89625574687145415,-0.11003961066836551,-0.77943059617621502,0.56940983713127524,1.0311166252801625,1.1954453829202174,-0.47558156463024465,0.47558156463024465,-1.1954453829202174,1.8790787895097865,0.0
709640.0783812654,4095767.5119837918,-47500.0,-0.45400945422080108,0.43201928618243546,0.77391816655605694,-0.22887086078017105,-0.6780997895253047,0.5082694896397465,1.0219142416807494,1.1678526306207455,-0.61101777024833637,0.61101777024833637,-1.1678526306207455,1.8299463628511183,0.0
714640.0783812654,4095767.5119837918,-47500.0,-0.43357626265320076,0.58566952666822025,0.60355372116722561,-0.3405757796183983,-0.53953981820028829,0.42327820748525274,1.0112761569136348,1.0808828732053577,-0.72580873886970876,0.72580873886970876,-1.0808828732053577,1.7808650533509338,0.0
719640.0783812654,4095767.5119837918,-47500.0,-0.37874256993561295,0.71610685673499785,0.38858896360846484,-0.43590705353285464,-0.3663377928330836,0.31576437314953409,1.0040124035527236,0.92994951534906101,-0.80810341865969681,0.80810341865969681,-0.92994951534906101,1.746225244002392,0.0
724640.0783812654,4095767.5119837918,-47500.0,-0.2936794869538793,0.81049795262579682,0.13733742569557192,-0.50587216254456002,-0.16462589253954574,0.18922022345968675,1.0050206947915588,0.71607099153158305,-0.84758066657843778,0.84758066657843778,-0.71607099153158305,1.7408548327282438,0.0
729640.0783812654,4095767.5119837918,-47500.0,-0.18681444632632352,0.8583123849138502,-0.13726256785931931,-0.5430145885709402,0.056096235592631882,0.049228115830308831,1.0178651953796396,0.44677437972505363,-0.83718768648856479,0.83718768648856479,-0.44677437972505363,1.7749959072885633,0.0
734640.0783812654,4095767.5119837918,-47500.0,-0.069977698057492807,0.85312377567526065,-0.41876951232034393,-0.54263284959672198,0.28373516695411455,-0.096968416272351546,1.0434404789860543,0.13599836588814257,-0.77457622402686965,0.77457622402686965,-0.13599836588814257,1.8496753174930887,0.0
739640.0783812654,4095767.5119837918,-47500.0,0.043219917973539877,0.79387346856062324,-0.68911274126935518,-0.50365435281657867,0.50490446890416596,-0.24121506378092494,1.0794783135410377,-0.19715751283479893,-0.66285516256648114,0.66285516256648114,0.19715751283479893,1.9558648465101978,0.0
744640.0783812654,4095767.5119837918,-47500.0,0.13946876951253576,0.68524980442683303,-0.93088979471299793,-0.42893363629066045,0.70653387916240573,-0.37539632933470385,1.1212144031560944,-0.53069694071224816,-0.51041103105436836,0.51041103105436836,0.53069694071224816,2.0779527669531879,0.0
749640.0783812654,4095767.5119837918,-47500.0,0.20783397125393849,0.53704975563118407,-1.1296155018775025,-0.32487940185108599,0.87746948713191608,-0.49240111587114299,1.1628060105473088,-0.84257641393963734,-0.32978214536350936,0.32978214536350936,0.84257641393963734,2.1987124691354247,0.0
754640.0783812654,4095767.5119837918,-47500.0,0.24134013699115608,0.3626569854656963,-1.2754450696514199,-0.20048643762017923,1.0097377332287951,-0.58691079628222209,1.1987946148791691,-1.1135392766189331,-0.13582411089367247,0.13582411089367247,1.1135392766189331,2.3030878794846674,0.0
759640.0783812654,4095767.5119837918,-47500.0,0.23773143785977674,0.17700332317732448,-1.3640408663177497,-0.066001420915828238,1.0992386447729439,-0.65586525488760838,1.2251214391382903,-1.3293461753152993,0.056410971821914457,-0.056410971821914457,1.3293461753152993,2.380102312211557,0.0
764640.0783812654,4095767.5119837918,-47500.0,0.19931414893334787,-0.0055177410823300105,-1.3964863675843107,0.068476301694192457,1.145786144311536,-0.69854845406140798,1.2393652848585266,-1.4820026078458821,0.23361867263921254,-0.23361867263921254,1.4820026078458821,2.4233371515997542,0.0
769640.0783812654,4095767.5119837918,-47500.0,0.13203492690126706,-0.17276091694149576,-1.3783913435454482,0.19417804555846929,1.1525752892994061,-0.71632940352595997,1.2399834022452165,-1.5698714375717175,0.38564407043808657,-0.38564407043808657,1.5698714375717175,2.4305681475569738,0.0
774640.0783812654,4095767.5119837918,-47500.0,0.044111129515589168,-0.31589768769850307,-1.3184936417540247,0.30444878278975407,1.125270144652756,-0.71216365048109143,1.2257430209712228,-1.5968331947462839,0.50616353859533603,-0.50616353859533603,1.5968331947462839,2.4029730769565782,0.0
779640.0783812654,4095767.5119837918,-47500.0,-0.05542913098526113,-0.42977885651373177,-1.2271110717606228,0.3950716522820133,1.0709473580164279,-0.68998915159957641,1.1965988784410875,-1.5708353307686473,0.59266783106492271,-0.59266783106492271,1.5708353307686473,2.3441761095032296,0.0
784640.0783812654,4095767.5119837918,-47500.0,-0.15800442717151719,-0.51269522380038435,-1.1147424649038296,0.46418674708161434,0.99710293820760576,-0.65413904865339545,1.1541326404183601,-1.502219947479563,0.64591399450921871,-0.64591399450921871,1.502219947479563,2.2593021855072282,0.0
789640.0783812654,4095767.5119837918,-47500.0,-0.25636464595478264,-0.56573674558102205,-0.99100513141010205,0.51192454888477323,0.91086101280054765,-0.60885723744081821,1.1009384285583748,-1.4021600478746503,0.66907810820715596,-0.66907810820715596,1.4021600478746503,2.1541518336617864,0.0
699640.0783812654,4100767.5119837918,-47500.0,-0.35950420492354407,0.12974020676013989,0.88948996864472951,-0.024996870008296916,-0.72348687637432596,0.48890977916849465,0.91287406290252138,1.0554932121320664,-0.30450754953447762,0.30450754953447762,-1.0554932121320664,1.6860606413306678,0.0
704640.0783812654,4100767.5119837918,-47500.0,-0.39088624547342465,0.27008998473804019,0.81201381332824296,-0.12197710363144686,-0.66180058076332693,0.4543923480121469,0.90781930657949195,1.0653430815781424,-0.42938575801276352,0.42938575801276352,-1.0653430815781424,1.6498787377734103,0.0
709640.0783812654,4100767.5119837918,-47500.0,-0.39656364313537223,0.4097847891207409,0.69435520497015923,-0.21834723888085519,-0.57068973401864376,0.40224720204385644,0.89912373840338766,1.0318391968744174,-0.54555167784097425,0.54555167784097425,-1.0318391968744174,1.6064315984063575,0.0
714640.0783812654,4100767.5119837918,-47500.0,-0.37426929115442159,0.53905210824561622,0.53649844243567868,-0.30760574069592511,-0.45021539872179245,0.33234722460142052,0.88992853157304053,0.94878850916956792,-0.64364704280325846,0.64364704280325846,-0.94878850916956792,1.5649020286885555,0.0
719640.0783812654,4100767.5119837918,-47500.0,-0.32453198548673606,0.64742479712869994,0.34192968113809091,-0.38280276755240011,-0.30284504809515567,0.2459385645033684,0.88404809365422388,0.8132876493626765,-0.71438878663779326,0.71438878663779326,-0.8132876493626765,1.536765075668882,0.0
724640.0783812654,4100767.5119837918,-47500.0,-0.25108274987465729,0.72497266137338379,0.11790252917907627,-0.43732685466103821,-0.13362935796009132,0.14575827658355023,0.88522207358982086,0.62677336638957437,-0.7497888110201224,0.7497888110201224,-0.62677336638957437,1.5333933833550879,0.0
729640.0783812654,4100767.5119837918,-47500.0,-0.16075945159380883,0.76368580802039021,-0.12484775644241662,-0.4657889258940725,0.049982795278890123,0.035950987973186299,0.89607699476006331,0.39558407276275953,-0.7443997251297676,0.7443997251297676,-0.39558407276275953,1.5623512062235128,0.0
734640.0783812654,4100767.5119837918,-47500.0,-0.062835022389412812,0.75874674663524089,-0.37299406052059209,-0.46484081578486358,0.23872612610218971,-0.078238247840099764,0.91719942803703325,0.13081356722112658,-0.69632835513117008,0.69632835513117008,-0.13081356722112658,1.6241766397770336,0.0
739640.0783812654,4100767.5119837918,-47500.0,0.032164588659573924,0.70940601788609814,-0.6120220725547485,-0.4337510150665066,0.42244254343015492,-0.19096842964282862,0.94681784828673832,-0.15262662434333535,-0.60776804668649875,0.60776804668649875,0.15262662434333535,1.7118963507257732,0.0
744640.0783812654,4100767.5119837918,-47500.0,0.11394154904515927,0.61923940876763728,-0.82791986875640977,-0.374597326021472,0.59120158028059511,-0.29642750280032454,0.98128354140590279,-0.43763238499450008,-0.48488983747761005,0.48488983747761005,0.43763238499450008,1.8135309878084462,0.0
749640.0783812654,4100767.5119837918,-47500.0,0.1738997850786515,0.49570196464615623,-1.0088331390559848,-0.29201869556992688,0.73641402253008903,-0.38946652267998444,1.0160731510408434,-0.70693642195485351,-0.33707991558169037,0.33707991558169037,0.70693642195485351,1.915679981808408,0.0
754640.0783812654,4100767.5119837918,-47500.0,0.20629719486992545,0.34906573640822591,-1.1463645758003729,-0.19257310581167791,0.85173016493965514,-0.46612653615563543,1.0468479932347263,-0.94514909164125827,-0.17567234600491111,0.17567234600491111,0.94514909164125827,2.006343030262371,0.0
759640.0783812654,4100767.5119837918,-47500.0,0.20885036946571042,0.19097622746851492,-1.2362880712049482,-0.083840823008003496,0.93356944305324208,-0.52396935366426589,1.0702530743044782,-1.1404220606726854,-0.012445550161787722,0.012445550161787722,1.1404220606726854,2.0764352220876234,0.0
764640.0783812654,4100767.5119837918,-47500.0,0.18271312245338503,0.032933421383221473,-1.2785884328211283,0.026540477503294267,0.98121308466741708,-0.56216843710831066,1.08428129870937,-1.285448783057455,0.14181221200215821,-0.14181221200215821,1.285448783057455,2.1202496470646874,0.0
769640.0783812654,4100767.5119837918,-47500.0,0.1319105113762522,-0.11500865439134204,-1.2769131342792619,0.13172502949991108,0.99650569809927403,-0.581378869106565,1.0879289177351907,-1.3777075740885183,0.27840990180932645,-0.27840990180932645,1.3777075740885183,2.1352922751760315,0.0
774640.0783812654,4100767.5119837918,-47500.0,0.062418152680021724,-0.24512928362489611,-1.2376140895289567,0.22626525749615314,0.98326973285085284,-0.58343870648635843,1.0802892119943246,-1.4190119721032364,0.39138861713146078,-0.39138861713146078,1.4190119721032364,2.12176607393218,0.0
779640.0783812654,4100767.5119837918,-47500.0,-0.018878100871539981,-0.35244023866101842,-1.1686227694955342,0.30641921255117444,0.94658582547310677,-0.57098355216206731,1.0607445324506799,-1.4145766843797372,0.4776641837093597,-0.4776641837093597,1.4145766843797372,2.0819096222310054,0.0
709640.0783812654,4105767.5119837918,-47500.0,-0.3462981163902264,0.3865709016224399,0.61861649778542549,-0.20529207984237971,-0.4790629565222943,0.31876208341262935,0.79238077018008934,0.90981824537289735,-0.48822448108188188,0.48822448108188188,-0.90981824537289735,1.4124052622857366,0.0
714640.0783812654,4105767.5119837918,-47500.0,-0.32346487058614148,0.49519906968631688,0.47349135057451303,-0.2767385772273544,-0.37458707703326993,0.26124701957382057,0.78450780604678472,0.8316281887592526,-0.57205437304452655,0.57205437304452655,-0.8316281887592526,1.3774625024168707,0.0
719640.0783812654,4105767.5119837918,-47500.0,-0.27870592733138444,0.58520563531925007,0.29823324067852225,-0.33619929896085965,-0.24920500010921992,0.19157721556703397,0.7798050615810419,0.71041074762560474,-0.63281977351195962,0.63281977351195962,-0.71041074762560474,1.3548049608033366,0.0
724640.0783812654,4105767.5119837918,-47500.0,-0.21529246552170481,0.64889753628356239,0.099109052123343061,-0.3787926328103085,-0.1070539922713849,0.11189022847279349,0.7811363162356959,0.54777817199761025,-0.66431955298418965,0.66431955298418965,-0.54777817199761025,1.3531693831854141,0.0
729640.0783812654,4105767.5119837918,-47500.0,-0.13877330453592457,0.6801675110545754,-0.11499228584621631,-0.40060269530492942,0.046013910648261394,0.025278284421836165,0.7904413713952072,0.34904559537284596,-0.6623342767024134,0.6623342767024134,-0.34904559537284596,1.3781364498644879,0.0
734640.0783812654,4105767.5119837918,-47500.0,-0.056449879301541543,0.6753963351547968,-0.33326158040801529,-0.39923293000865473,0.20286841591354485,-0.06443158356094586,0.80809006500829184,0.12307222149062691,-0.62534553532050474,0.62534553532050474,-0.12307222149062691,1.4298906268298499,0.0
739640.0783812654,4105767.5119837918,-47500.0,0.023490064593701447,0.6340628345046222,-0.5440247959399217,-0.37418857808266986,0.35576075840445809,-0.15301977301310712,0.83267967819260602,-0.11844381467921686,-0.55491422548925184,0.55491422548925184,0.11844381467921686,1.5029678458604774,0.0
744640.0783812654,4105767.5119837918,-47500.0,0.093035052132407259,0.55891832106848904,-0.73599095024701389,-0.32700161347107098,0.49710997412717423,-0.23628986509780148,0.86138832687867928,-0.36214075645723476,-0.45561377011625825,0.45561377011625825,0.36214075645723476,1.5880914040951359,0.0
749640.0783812654,4105767.5119837918,-47500.0,0.14540565906007635,0.45567152659222315,-0.89947516393252303,-0.26106302890408706,0.62028386204056751,-0.31048966495705554,0.89069267396624807,-0.59444939125986718,-0.33450853119455015,0.33450853119455015,0.59444939125986718,1.6747799089752524,0.0
754640.0783812654,4105767.5119837918,-47500.0,0.17589633660802209,0.33224082660538695,-1.0273790870671831,-0.1811918126682828,0.72024043661985704,-0.37266645131183901,0.91713800662374667,-0.80307104496702331,-0.2002716000950065,0.2002716000950065,0.80307104496702331,1.7534545718711581,0.0
759640.0783812654,4105767.5119837918,-47500.0,0.18234939647051548,0.19772501766366193,-1.1157651788784984,-0.093026048508521197,0.79392614467491696,-0.420899742469726,0.93794412160754215,-0.97821509788582617,-0.062114142238718362,0.062114142238718362,0.97821509788582617,1.8166253683875966,0.0
764640.0783812654,4105767.5119837918,-47500.0,0.16520099058427376,0.061297745592296261,-1.1639629691207019,-0.0023550974347764761,0.84038733647662167,-0.45438524043321898,0.95136852931022631,-1.1134037137614619,0.071269601522185089,-0.071269601522185089,1.1134037137614619,1.85932077584097,0.0
769640.0783812654,4105767.5119837918,-47500.0,0.12713708291200412,-0.068778415919334784,-1.1742358047693968,0.085490577641133589,0.86060476296541832,-0.47337135352931975,0.95666687281733076,-1.2057502755188954,0.19256410914717526,-0.19256410914717526,1.2057502755188954,1.8790251140478134,0.0
729640.0783812654,4110767.5119837918,-47500.0,-0.12021582579004765,0.60659296034524868,-0.10703797459050585,-0.34552724471628027,0.043247855852750573,0.016946372095957563,0.69883751051438581,0.30731857945823959,-0.59007285496945661,0.59007285496945661,-0.30731857945823959,1.2185331515841922,0.0
734640.0783812654,4110767.5119837918,-47500.0,-0.050780147550842335,0.60196242693559987,-0.29884207836660415,-0.34387203107957942,0.17397360940974804,-0.053952687560351556,0.71373624123056434,0.11401443713954726,-0.56154828528297629,0.56154828528297629,-0.11401443713954726,1.2622909577613044,0.0
739640.0783812654,4110767.5119837918,-47500.0,0.016690364902666944,0.56713084054929552,-0.48441982728751742,-0.32351150635580278,0.30153637805776368,-0.12397092161820743,0.73433904155078022,-0.092223425763408223,-0.50532961503414753,0.50532961503414753,0.092223425763408223,1.3236593349261865,0.0
744640.0783812654,4110767.5119837918,-47500.0,0.07592704855507583,0.50423359636169951,-0.65465595053406167,-0.28558893381576367,0.42011806458760764,-0.19005319528692921,0.75844256474945082,-0.30090350891013118,-0.42483158062742787,0.42483158062742787,0.30090350891013118,1.395389409971254,0.0
749640.0783812654,4110767.5119837918,-47500.0,0.12156226281402285,0.41767118822995913,-0.80163905000455649,-0.23260720721848668,0.52457879477305602,-0.24944615292088762,0.78328427422374536,-0.50132055855637769,-0.32540253300041133,0.32540253300041133,0.50132055855637769,1.4692335385573501,0.0
