x,y,z,stresses_full_xx,stresses_full_xy,stresses_full_yy,stresses_full_xz,stresses_full_yz,stresses_full_zz,stresses_full_max_shear,stresses_full_cfs_1,stresses_full_cfs_2,stresses_full_cfs_3,stresses_full_cfs_4,von_mises,aftershocksyn
335012.02908761695,3797225.878295721,-2500.0,-1048.96642916529,-1394.0780477364679,-13746.716148129479,-53.814777261137777,-507.16952312069316,-13.104117725822087,6961.1419833448626,-8355.9891091333247,4011.4204186498487,-4011.4204186498487,8355.9891091333247,13493.320225338397,0.0
340012.02908761695,3797225.878295721,-2500.0,-861.99063940389215,-500.66466636167968,-13849.442882288557,-17.520966520859794,-510.62753626139448,-13.164067178615845,6946.5928310538457,-7680.4414084186674,4046.4877924414313,-4046.4877924414313,7680.4414084186674,13489.019779056989,0.0
345012.02908761695,3797225.878295721,-2500.0,-773.51179858796047,426.35609186211269,-13620.357005931381,19.867574096342747,-502.77364023847969,-12.969278606785148,6829.3280678862648,-6786.7714338569695,3893.9811188065819,-3893.9811188065819,6786.7714338569695,13292.678264616361,0.0
350012.02908761695,3797225.878295721,-2500.0,-790.55812034834537,1330.9707855212112,-13053.377238200554,56.331054816114957,-483.43778736457466,-12.51750358273739,6609.7855561057631,-5718.1541454356484,3555.2674351515629,-3555.2674351515629,5718.1541454356484,12905.353804136335,0.0
355012.02908761695,3797225.878295721,-2500.0,-907.92541469235493,2156.3990586229579,-12166.871620150358,89.836046657436583,-453.23783166570195,-11.822715124607027,6293.9780352744783,-4533.0533148058194,3048.9208343317941,-3048.9208343317941,4533.0533148058194,12338.828860011563,0.0
360012.02908761695,3797225.878295721,-2500.0,-1108.411020753472,2851.6549352917418,-11002.847000564794,118.55309568499996,-413.5500100713561,-10.914220009532185,5893.2817672252813,-3299.2125129141809,2409.2809937810694,-2409.2809937810694,3299.2125129141809,11615.270869469106,0.0
365012.02908761695,3797225.878295721,-2500.0,-1365.0815701932393,3377.4642723837983,-9622.8610552675837,141.05201713602946,-366.37966964742617,-9.8345332918970296,5423.7340300137321,-2086.1753702620285,1682.5301052995214,-1682.5301052995214,2086.1753702620285,10765.831675675165,0.0
370012.02908761695,3797225.878295721,-2500.0,-1645.1551753941662,3710.4330553484169,-8101.3080737338405,156.44106230783441,-314.15265408407731,-8.6349007111241534,4926.0525507383263,-957.67194451328601,920.98065250860986,-920.98065250860986,957.67194451328601,9828.386003488773,0.0
375012.02908761695,3797225.878295721,-2500.0,-1914.6887901595417,3844.7371092756025,-6517.2984416122017,164.42726776334877,-259.46307573386713,-7.3702746770238319,4486.6918375036412,34.755189385546046,176.6838542006239,-176.6838542006239,-34.755189385546046,8844.7501203473694,0.0
380012.02908761695,3797225.878295721,-2500.0,-2143.1102261823075,3791.2013991226936,-4946.5804460090612,165.29358100469793,-204.82050278925109,-6.0945285016572903,4046.9272362974634,855.87488853966738,-504.43573544817559,504.43573544817559,-855.87488853966738,7857.7850313126564,0.0
385012.02908761695,3797225.878295721,-2500.0,-2306.7477828868482,3574.1952872700099,-3454.8228203045464,159.80471957829837,-152.43587115495293,-4.8560359249342433,3624.059687513789,1488.1875070025119,-1086.9256073055701,1086.9256073055701,-1488.1875070025119,6908.7238289042907,0.0
320012.02908761695,3802225.878295721,-2500.0,-2393.0602678959012,-4140.9385622794753,-13232.00061100846,-175.2320765662389,-513.68028683290595,-14.097191747275692,7329.5463478071433,-10224.364939125811,3273.2022638308604,-3273.2022638308604,10224.364939125811,14186.379722219799,0.0
325012.02908761695,3802225.878295721,-2500.0,-1959.1022201521807,-3535.6589989230515,-14341.174030492051,-147.50576726345943,-553.31899477621369,-15.01589087446496,7653.7648681282653,-10360.939248018918,3867.666700080053,-3867.666700080053,10360.939248018918,14820.708611965209,0.0
330012.02908761695,3802225.878295721,-2500.0,-1550.8998630113483,-2739.5421395394746,-15214.771842619188,-112.57514488554774,-584.28973174984583,-15.719402862712876,7886.4064585234282,-10207.401387619153,4335.8966312251696,-4335.8966312251696,10207.401387619153,15284.376407232359,0.0
335012.02908761695,3802225.878295721,-2500.0,-1207.0115665658764,-1780.3421330641017,-15775.68384213569,-71.613104271502564,-603.99257081549536,-16.151959821714261,8010.0959432492155,-9741.0376168376933,4628.2366967419885,-4628.2366967419885,9741.0376168376933,15544.525162641723,0.0
340012.02908761695,3802225.878295721,-2500.0,-962.37037725112407,-705.2866402570869,-15959.697200530734,-26.472881050004897,-610.29801397648043,-16.269283280604906,8011.5865798549421,-8962.9415915106474,4704.9430071238839,-4704.9430071238839,8962.9415915106474,15576.125564821048,0.0
345012.02908761695,3802225.878295721,-2500.0,-842.52715823625999,421.74537681007723,-15725.01056452794,20.426432806257548,-601.85068931041405,-16.044198860101758,7883.4939943620211,-7901.4586394766156,4543.1339998261956,-4543.1339998261956,7901.4586394766156,15365.319303936005,0.0
350012.02908761695,3802225.878295721,-2500.0,-858.70468121927547,1526.3192048885264,-15059.932626268945,66.32071059931441,-578.3080723470772,-15.47171809938863,7625.591893162984,-6611.7887932033154,4142.0444237919764,-4142.0444237919764,6611.7887932033154,14911.952502359301,0.0
355012.02908761695,3802225.878295721,-2500.0,-1004.9358373571832,2532.0842562450639,-13986.928972323934,108.40038632649775,-540.45966099707039,-14.570583984144188,7245.4110653312264,-5171.2180951475884,3525.150230613167,-3525.150230613167,5171.2180951475884,14230.803839584945,0.0
360012.02908761695,3802225.878295721,-2500.0,-1258.1919500046783,3370.4625435237522,-12561.778090274305,144.13954756181766,-490.19167851040282,-13.382414850750353,6757.9951317009882,-3670.4625331655452,2738.3166932642598,-2738.3166932642598,3670.4625331655452,13351.204730757192,0.0
365012.02908761695,3802225.878295721,-2500.0,-1581.6878287659033,3989.4324685804249,-10867.637307635723,171.59214851011191,-430.29394516308508,-11.967749317595617,6185.0497079543247,-2202.6449632481322,1844.0646960399329,-1844.0646960399329,2202.6449632481322,12315.020288403277,0.0
370012.02908761695,3802225.878295721,-2500.0,-1930.7024074549222,4359.5964442399654,-9005.0524216818867,189.5986056252097,-364.14126935147607,-10.399566910748769,5622.3938647883297,-852.07456772043554,913.0596556791985,-913.0596556791985,852.07456772043554,11173.306068765314,0.0
375012.02908761695,3802225.878295721,-2500.0,-2259.5803688367928,4476.3673893545692,-7079.9032615876804,197.86684130231737,-295.31034365622031,-8.7555053571858963,5090.8396088711779,314.94842453039047,14.641002532625578,-14.641002532625578,-314.94842453039047,9982.1892110269637,0.0
380012.02908761695,3802225.878295721,-2500.0,-2528.3440592198226,4358.1300913562818,-5191.6459510585764,196.92201401732532,-227.20219953082537,-7.1106343469546411,4562.7584544517358,1255.7155917412065,-791.65011979526446,791.65011979526446,-1255.7155917412065,8798.6187402786891,0.0
385012.02908761695,3802225.878295721,-2500.0,-2707.5832804125203,4041.1752697673323,-3423.9223154438264,187.9483983705469,-162.73413291505071,-5.530832666855817,4061.713288102304,1952.4760576487374,-1462.0021331738594,1462.0021331738594,-1952.4760576487374,7676.4919308779417,0.0
390012.02908761695,3802225.878295721,-2500.0,-2780.9001648257945,3572.836039336416,-1838.7837647633619,172.56672975529119,-104.13980873730245,-4.0684256874881699,3607.5687655933079,2410.0337642268541,-1970.9971971774692,1970.9971971774692,-2410.0337642268541,6663.3043091987483,0.0
395012.02908761695,3802225.878295721,-2500.0,-2744.8835127145157,3004.378220333911,-474.79723978894935,152.59527349937986,-52.889689234707731,-2.7602261361975442,3214.7306434790944,2650.7420604663298,-2311.1373269441469,2311.1373269441469,-2650.7420604663298,5796.9637532422585,0.0
310012.02908761695,3807225.878295721,-2500.0,-3854.9491958604767,-5588.0683824276302,-11603.219832314107,-254.52508983872681,-479.07196622058683,-14.167341264980646,7277.5431403407856,-10385.367191035588,1880.2263652429147,-1880.2263652429147,10385.367191035588,14110.603248121448,0.0
315012.02908761695,3807225.878295721,-2500.0,-3413.6387267535511,-5417.2580680614237,-13257.57586945119,-242.40947569186795,-541.50161095188957,-15.714814189521483,7842.0838168914433,-11180.308752124016,2727.423857543713,-2727.423857543713,11180.308752124016,15198.485081400117,0.0
320012.02908761695,3807225.878295721,-2500.0,-2905.2030694848654,-5008.0535370073785,-14846.620170224056,-220.48185385785402,-600.85570819102679,-17.159616748363558,8350.4129686274246,-11747.937056675102,3565.8099116906392,-3565.8099116906392,11747.937056675102,16183.210096002007,0.0
325012.02908761695,3807225.878295721,-2500.0,-2368.0893226927305,-4342.9581263342325,-16271.915834508649,-188.30473859943538,-653.56222711918747,-18.417975894413861,8775.6764002155742,-12015.954747375821,4331.8283348764298,-4331.8283348764298,12015.954747375821,17014.065725554079,0.0
330012.02908761695,3807225.878295721,-2500.0,-1850.5123559519595,-3425.8567382586252,-17425.45562209214,-146.27527641474603,-695.78437264836828,-19.40277521983446,9090.9935059078452,-11923.743169939029,4954.8414599029602,-4954.8414599029602,11923.743169939029,17640.217348334307,0.0
335012.02908761695,3807225.878295721,-2500.0,-1405.1454670393555,-2287.0475991449775,-18200.421204238919,-95.77765819413851,-723.80171879574459,-20.032049092427691,9271.9167104177468,-11433.048607793233,5365.3640303028151,-5365.3640303028151,11433.048607793233,18015.386065165003,0.0
340012.02908761695,3807225.878295721,-2500.0,-1081.504656524226,-984.91871908254302,-18504.843518473972,-39.209456798895559,-734.47435067606568,-20.239197920141372,9299.1875477869944,-10537.683412859829,5505.4402101398373,-5505.4402101398373,10537.683412859829,18103.120551142674,0.0
345012.02908761695,3807225.878295721,-2500.0,-917.25209597914488,397.14078312658148,-18276.043228251026,20.158824879066742,-725.71733679946794,-19.982065562742758,9161.3886617652461,-9269.7582663787671,5339.3455687942369,-5339.3455687942369,9269.7582663787671,17881.907745732631,0.0
350012.02908761695,3807225.878295721,-2500.0,-930.35882728269746,1759.0609693451643,-17492.866188502871,78.49847772055071,-696.88897050762387,-19.250704916869864,8857.014574143639,-7700.2042542322306,4862.1289091689032,-4862.1289091689032,7700.2042542322306,17349.217224732176,0.0
355012.02908761695,3807225.878295721,-2500.0,-1114.2814445537897,2996.7042405600282,-16182.592975444399,131.87321893521704,-648.99803338726269,-18.070714911423604,8395.5169125669054,-5932.4304265609653,4103.5205647026351,-4103.5205647026351,5932.4304265609653,16523.625843903621,0.0
360012.02908761695,3807225.878295721,-2500.0,-1437.7855697654404,4016.4344046997212,-14420.24680935532,176.74559037799671,-584.66481041971451,-16.501705783073007,7797.0475409134187,-4089.6638620733738,3125.6105400260703,-3125.6105400260703,4089.6638620733738,15444.434665879686,0.0
365012.02908761695,3807225.878295721,-2500.0,-1849.8421721327736,4748.4187150880616,-12319.845654178398,210.43412446901002,-507.82703362906904,-14.631090766020804,7093.3254149847144,-2298.3982866914789,2014.324840633511,-2014.324840633511,2298.3982866914789,14168.718797805599,0.0
370012.02908761695,3807225.878295721,-2500.0,-2288.5304387577967,5155.6212685256705,-10019.240255465516,231.4255251173916,-423.24531588829961,-12.563793417089073,6453.4760369760816,-671.53815671854454,866.49103503842935,-866.49103503842935,671.53815671854454,12766.288075834489,0.0
375012.02908761695,3807225.878295721,-2500.0,-2691.6987715543878,5236.5863028319982,-7661.8844855386815,239.48157991703695,-335.91016391187213,-10.41081171791746,5804.4893039515991,705.07419522874898,-224.4569413794033,224.4569413794033,-705.07419522874898,11313.470722336042,0.0
380012.02908761695,3807225.878295721,-2500.0,-3006.7486171597457,5021.8944783954357,-5379.4695399879656,235.53622055206597,-250.47141648873892,-8.2772171929036666,5166.8386860191031,1780.2064867460685,-1180.8790103073065,1180.8790103073065,-1780.2064867460685,9886.7630356287191,0.0
385012.02908761695,3807225.878295721,-2500.0,-3197.4187317518758,4565.8099071779588,-3278.7264372864238,221.42755932450299,-170.79158577562652,-6.2528916159461154,4571.4280393700137,2538.101566788805,-1949.0121985237865,1949.0121985237865,-2538.101566788805,8557.1068036764082,0.0
390012.02908761695,3807225.878295721,-2500.0,-3246.5649255985186,3935.6022288676841,-1434.1822894603706,199.54187032845928,-99.682486701339343,-4.4066683505331126,4042.9431615747731,2993.6759284346899,-2501.7861341738135,2501.7861341738135,-2993.6759284346899,7384.8794868894356,0.0
395012.02908761695,3807225.878295721,-2500.0,-3155.1463655841703,3201.0808056333058,113.0591288854274,172.45062896011103,-38.83285670353861,-2.7838005728711703,3597.5700174933463,3184.1869880752465,-2836.8891438524997,2836.8891438524997,-3184.1869880752465,6414.8643666864073,0.0
400012.02908761695,3807225.878295721,-2500.0,-2938.4995629479313,2426.2181073857378,1351.7656142682868,142.60410558547218,11.105059808627294,-1.4070202002201171,3241.4539034397831,3159.7666648670984,-2971.5800668879156,2971.5800668879156,-3159.7666648670984,5670.358252417147,0.0
405012.02908761695,3807225.878295721,-2500.0,-2621.3161007637041,1663.7659457108409,2294.1478445969465,112.11768858083387,50.325484900895177,-0.27951482681157253,2970.4549891858887,2974.7815710526847,-2936.0508026418902,2936.0508026418902,-2974.7815710526847,5147.5885813851892,0.0
305012.02908761695,3812225.878295721,-2500.0,-5054.800089186062,-6411.162463836391,-10648.594360676194,-312.31773363338203,-468.21784103734916,-14.888267695512843,7437.0867659266278,-10412.525828427555,808.14325360343355,-808.14325360343355,10412.525828427555,14461.770249501331,0.0
310012.02908761695,3812225.878295721,-2500.0,-4681.5092045665351,-6563.0860472009908,-12625.373953644874,-312.74820681215493,-546.81285736801942,-16.950556023902436,8178.2478768181982,-11642.760019967665,1761.7403112193551,-1761.7403112193551,11642.760019967665,15884.912973319817,0.0
315012.02908761695,3812225.878295721,-2500.0,-4176.2132857035986,-6470.0017427125968,-14665.727921879108,-302.20046060664015,-626.9182471978379,-19.008450230506764,8892.6446342962208,-12717.337404084768,2795.9151509118165,-2795.9151509118165,12717.337404084768,17261.377488114584,0.0
320012.02908761695,3812225.878295721,-2500.0,-3567.1432014482775,-6081.5692448483242,-16669.289467813123,-278.92472203408084,-704.61155313579127,-20.961871717573523,9548.1462257755138,-13536.536181641095,3848.9575984792546,-3848.9575984792546,13536.536181641095,18530.610028855252,0.0
325012.02908761695,3812225.878295721,-2500.0,-2901.0498553495227,-5364.4758236294629,-18509.277969264633,-241.93698704668464,-775.08867786726762,-22.693366560911137,10108.921819751726,-13998.502780295519,4839.3994002324134,-4839.3994002324134,13998.502780295519,19624.944740875959,0.0
330012.02908761695,3812225.878295721,-2500.0,-2240.7938017960041,-4312.9486311829141,-20040.61896199836,-191.38804570607604,-832.99582329103009,-24.077299529134891,10537.978785166151,-14012.779536018523,5672.080998683854,-5672.080998683854,14012.779536018523,20474.395862098772,0.0
335012.02908761695,3812225.878295721,-2500.0,-1658.6333073467199,-2957.6386662273785,-21114.338999309366,-128.84804633611836,-872.96702670123864,-24.992728277564844,10800.621979965952,-13516.368346094185,6249.2083856898371,-6249.2083856898371,13516.368346094185,21013.22904774069,0.0
340012.02908761695,3812225.878295721,-2500.0,-1225.4257602100929,-1370.0063124145536,-21597.404985815287,-57.410114864939288,-890.32590083815842,-25.338569761270982,10868.574898542249,-12489.433745195785,6485.5290759898253,-6485.5290759898253,12489.433745195785,21187.840343627558,0.0
345012.02908761695,3812225.878295721,-2500.0,-997.3868463652675,340.49064024949661,-21394.844741923629,18.469211145608426,-881.83400722294311,-25.049205044187467,10724.078992534385,-10966.461450913617,6324.959230075232,-6324.959230075232,10966.461450913617,20964.652723128449,0.0
350012.02908761695,3812225.878295721,-2500.0,-1003.4871444480109,2037.6693748579289,-20469.508463160313,93.419344789719958,-846.33262646774358,-24.106672634645481,10363.264891246945,-9038.92517103717,5754.6699462487086,-5754.6699462487086,9038.92517103717,20336.693953101039,0.0
355012.02908761695,3812225.878295721,-2500.0,-1237.1860557945968,3577.2734907304548,-18854.015822896108,161.84292949025206,-785.1066144569786,-22.545882986079032,9797.9870869878559,-6846.9797850118121,4812.272762361592,-4812.272762361592,6846.9797850118121,19327.3010122263,0.0
360012.02908761695,3812225.878295721,-2500.0,-1655.5173048118177,4829.3150404543821,-16650.693219622055,218.7095408095046,-701.84883448069559,-20.45382987980727,9055.639454438242,-4560.6646588508165,3583.0632383687243,-3583.0632383687243,4560.6646588508165,17989.856195940945,0.0
365012.02908761695,3812225.878295721,-2500.0,-2186.466271453914,5698.6690019192574,-14018.449509773549,260.27563750718485,-602.20514942924706,-17.957731551776508,8228.6461294846231,-2354.5292475392325,2187.113281448962,-2187.113281448962,2354.5292475392325,16403.404581504496,0.0
370012.02908761695,3812225.878295721,-2500.0,-2742.8966613589664,6138.6725059911732,-11149.261451679045,284.56331012361454,-492.98981320997797,-15.2107866926988,7451.4868728321571,-381.77062181383133,759.1774032237912,-759.1774032237912,381.77062181383133,14664.893720114809,0.0
375012.02908761695,3812225.878295721,-2500.0,-3239.119515516285,6154.5414115131625,-8240.0412993503487,291.49772561765388,-381.25252979149758,-12.372087078785324,6652.8202008681092,1245.8305611054625,-573.3191614743132,573.3191614743132,-1245.8305611054625,12879.59402952543,0.0
380012.02908761695,3812225.878295721,-2500.0,-3605.5902427426618,5796.6471235797117,-5466.5939580080712,282.7024429069254,-273.40354143990851,-9.5897046813871221,5878.7516198392505,2468.0415589565955,-1708.6795635685839,1708.6795635685839,-2468.0415589565955,11151.416465561868,0.0
385012.02908761695,3812225.878295721,-2500.0,-3798.285004264565,5146.5679485783376,-2965.0213535858893,261.04110756032793,-174.56458109448656,-6.9865902256258199,5169.6982326359011,3275.5300427946158,-2581.8584474532454,2581.8584474532454,-3275.5300427946158,9574.2598421481598,0.0
390012.02908761695,3812225.878295721,-2500.0,-3801.4368650497386,4300.3202628675363,-823.05992852697091,230.04317809251876,-88.231843510323955,-4.6525044233858859,4555.8627007911718,3700.6632182738772,-3166.7880493673006,3166.7880493673006,-3700.6632182738772,8224.2581999924696,0.0
395012.02908761695,3812225.878295721,-2500.0,-3624.4419757224186,3352.9409660651354,919.19276430834543,193.35076713364751,-16.2447736888065,-2.6417104961873483,4054.1290584714625,3803.6773091970908,-3471.5182985673127,3471.5182985673127,-3803.6773091970908,7151.6082741364016,0.0
400012.02908761695,3812225.878295721,-2500.0,-3295.077230268364,2387.1621955989044,2261.7810092595946,154.28360090203421,41.009803120269261,-0.97576233226182074,3666.4678702868073,3658.2129585366815,-3529.0286113717852,3529.0286113717852,-3658.2129585366815,6371.5782060643478,0.0
405012.02908761695,3812225.878295721,-2500.0,-2851.469561007953,1467.1328480886159,3233.9773886498119,115.56656510307472,84.259423410650726,0.35067497408495546,3380.9770289867265,3339.1328119214309,-3386.7596170591501,3386.7596170591501,-3339.1328119214309,5859.1590442193929,0.0
410012.02908761695,3812225.878295721,-2500.0,-2334.7590388735366,636.69696733117689,3882.9102772582869,79.215539142527263,114.96880011026377,1.3623812917650651,3176.2006896428693,2914.0391968247936,-3097.1959661202059,3097.1959661202059,-2914.0391968247936,5555.7422911929343,0.0
415012.02908761695,3812225.878295721,-2500.0,-1783.5643466449087,-79.042536486331926,4263.7128957563073,46.547827089403434,134.99394190984037,2.0961757590116243,3027.4413391951948,2438.6182712383998,-2710.7765757354573,2710.7765757354573,-2438.6182712383998,5388.8472486560449,0.0
300012.02908761695,3817225.878295721,-2500.0,-6299.6757018050139,-6856.0988305491001,-9115.4329741976071,-361.45825694788175,-432.44531133403723,-15.026390031347173,7367.4623539833328,-9806.0452789525843,-546.89134345979619,546.89134345979619,9806.0452789525843,14390.712615165183,0.0
305012.02908761695,3817225.878295721,-2500.0,-6105.8352289221975,-7383.218779897009,-11281.186987985589,-378.5284195577409,-523.82166712358776,-17.585465017771511,8275.0318940074721,-11430.005205304686,395.02265028291367,-395.02265028291367,11430.005205304686,16129.124666531594,0.0
310012.02908761695,3817225.878295721,-2500.0,-5723.2497661047109,-7705.0857713864907,-13661.885103715704,-385.1688679077289,-622.73579878248631,-20.286946627798514,9199.037999066777,-13020.034669218354,1515.4677757253994,-1515.4677757253994,13020.034669218354,17903.434395127173,0.0
315012.02908761695,3817225.878295721,-2500.0,-5155.9034535507362,-7740.5233615735087,-16178.659885544719,-378.17536339470502,-725.7365773705402,-23.03005213616408,10106.396670058501,-14465.024830270209,2772.9588852631468,-2772.9588852631468,14465.024830270209,19651.518982076155,0.0
320012.02908761695,3817225.878295721,-2500.0,-4431.5763497910812,-7412.7268276096511,-18710.946256705498,-354.71104590235888,-827.83298441895761,-25.679624546596056,10955.833799447368,-15632.201479728268,4095.3786232929951,-4095.3786232929951,15632.201479728268,21295.649771591026,0.0
325012.02908761695,3817225.878295721,-2500.0,-3605.3887387287332,-6663.1968094712201,-21096.730190375394,-312.86039485749325,-922.58346377908481,-28.070924647239082,11699.509039869072,-16378.561754451364,5379.584307205032,-5379.584307205032,16378.561754451364,22745.505417034932,0.0
330012.02908761695,3817225.878295721,-2500.0,-2758.5526474866897,-5468.0587228707609,-23141.109947307668,-252.23241636649303,-1002.4940051320986,-30.021906054916819,12286.242654528205,-16569.389528519998,6497.6537398534947,-6497.6537398534947,16569.389528519998,23904.242324864514,0.0
335012.02908761695,3817225.878295721,-2500.0,-1990.4058555538659,-3853.4354246956013,-24635.127365450549,-174.47952923296447,-1059.7698218804724,-31.352741262577574,12666.392667534756,-16102.330949102972,7311.3235869771115,-7311.3235869771115,16102.330949102972,24677.744484109156,0.0
340012.02908761695,3817225.878295721,-2500.0,-1403.2702390112183,-1905.0621638524949,-25384.343346474488,-83.560997485647306,-1087.3720857775256,-31.909453682881377,12797.967922682456,-14932.744901445292,7694.0483049957966,-7694.0483049957966,14932.744901445292,24986.29760614437,0.0
345012.02908761695,3817225.878295721,-2500.0,-1082.1853456660733,232.84617182363871,-25243.17670298649,14.406764480793175,-1080.2186154600865,-31.589947466150385,12653.124553438007,-13093.718873627384,7557.0928856090086,-7557.0928856090086,13093.718873627384,24777.097728558223,0.0
350012.02908761695,3817225.878295721,-2500.0,-1074.3203740827414,2372.6031898360147,-24147.248267471001,111.79070483619151,-1036.2564752630449,-30.36248782018076,12223.705745739715,-10703.337979109438,6873.0838095639665,-6873.0838095639665,10703.337979109438,24035.0520344174,0.0
355012.02908761695,3817225.878295721,-2500.0,-1374.5530949673303,4310.9711322892708,-22134.39465790039,200.50465999624075,-957.10946889631407,-28.276897828458143,11524.511935291728,-7954.188955408059,5689.3065792826728,-5689.3065792826728,7954.188955408059,22789.343126608663,0.0
360012.02908761695,3817225.878295721,-2500.0,-1922.8688297483357,5864.1493103468247,-19346.291656526086,273.27774881914758,-848.06366674033586,-25.460503184915357,10593.506050222497,-5084.9965085939657,4124.8186989160185,-4124.8186989160185,5084.9965085939657,21113.540405195268,0.0
365012.02908761695,3817225.878295721,-2500.0,-2615.6895268892854,6900.4553979226403,-16008.459703740371,324.81156453376286,-717.35064560490912,-22.102058985090604,9632.5183598190852,-2340.8507697594223,2350.5208507037441,-2350.5208507037441,2340.8507697594223,19119.033643325089,0.0
370012.02908761695,3817225.878295721,-2500.0,-3328.1942293961829,7361.3426031091731,-12392.872576050195,352.52721924840324,-574.87586447534193,-18.425564407564877,8658.9646078176738,67.426801558164783,557.16990579665583,-557.16990579665583,-67.426801558164783,16942.765959389471,0.0
375012.02908761695,3817225.878295721,-2500.0,-3940.6686258565587,7265.2777783692281,-8773.5845951713964,356.73079293378703,-430.72307596379187,-14.661243235084129,7668.2435336402823,1993.6812510649586,-1079.2672483185149,1079.2672483185149,-1993.6812510649586,14732.134800528998,0.0
380012.02908761695,3817225.878295721,-2500.0,-4360.9092757824674,6695.0129142344658,-5387.0499794249745,340.21251301644594,-293.79541252963173,-11.017866254764511,6723.9279600849495,3369.7620600413193,-2425.2766114822425,2425.2766114822425,-3369.7620600413193,12629.881048953082,0.0
385012.02908761695,3817225.878295721,-2500.0,-4537.0208204426326,5773.9675329208721,-2405.987151908153,307.45410987087655,-170.87347189559398,-7.6634665800711659,5878.7383792366036,4201.1699794232691,-3404.2578507616436,3404.2578507616436,-4201.1699794232691,10760.643570456492,0.0
390012.02908761695,3817225.878295721,-2500.0,-4459.0657492239943,4639.6657072462785,69.978882017381977,263.69611773198471,-66.208603758239207,-4.7136454765436824,5168.5278702639935,4549.8026821861531,-3996.7916612828503,3996.7916612828503,-4549.8026821861531,9218.5025760665885,0.0
395012.02908761695,3817225.878295721,-2500.0,-4151.7957447015724,3421.1069979370327,2009.0332586488621,214.09505275287162,18.392637170585871,-2.2307942732641544,4608.220510659512,4511.048667292438,-4230.1070069610523,4230.1070069610523,-4511.048667292438,8053.5946883742099,0.0
400012.02908761695,3817225.878295721,-2500.0,-3662.6409896994414,2223.9097702646986,3432.5609929389852,163.11673886955876,83.142474996006186,-0.23009358253358675,4191.029688166047,4191.8576002616664,-4162.1601100746138,4162.1601100746138,-4191.8576002616664,7259.9919365552278,0.0
405012.02908761695,3817225.878295721,-2500.0,-3049.0974092525335,1123.822582662081,4397.0640526884708,114.21023283478708,129.6857582620755,1.3099651376656989,3892.6751506118126,3693.9565259077804,-3865.3950361760012,3865.3950361760012,-3693.9565259077804,6776.0606951287737,0.0
410012.02908761695,3817225.878295721,-2500.0,-2368.3489972884618,166.96228268174096,4977.1390554465452,69.729098907921539,160.50755445024987,2.4355313404077616,3680.0916991688973,3103.613892108754,-3413.520616771536,3413.520616771536,-3103.613892108754,6506.7463652528804,0.0
415012.02908761695,3817225.878295721,-2500.0,-1670.3600077924275,-625.7504305958538,5252.0568822454343,31.026851848147892,178.43345784227338,3.206083042280031,3520.835359787945,2487.3296419350786,-2872.6668856214933,2872.6668856214933,-2487.3296419350786,6356.7799382624999,0.0
420012.02908761695,3817225.878295721,-2500.0,-994.39470390614508,-1252.3526840892721,5296.7071717540448,-1.353564458769061,186.26486672094541,3.6854225010304518,3389.1777954509598,1891.8273321914342,-2296.7781113194596,2296.7781113194596,-1891.8273321914342,6253.3474257820981,0.0
290012.02908761695,3822225.878295721,-2500.0,-7144.2948928379674,-5859.7202473903117,-5298.0689399662906,-354.07888701299959,-288.34233819480687,-11.862873396822504,6087.9932010213743,-6819.0830674034569,-2586.840930940622,2586.840930940622,6819.0830674034569,12031.066424025797,0.0
295012.02908761695,3822225.878295721,-2500.0,-7417.4641491446218,-6792.1523922412871,-7110.3836754665308,-394.11552007603819,-371.82382397020177,-14.465130623257082,7042.6382074062421,-8535.1919933433801,-2043.1044456816671,2043.1044456816671,8535.1919933433801,13853.018400200493,0.0
300012.02908761695,3822225.878295721,-2500.0,-7516.7600107191593,-7686.4952531155313,-9280.1566447549321,-430.17195857662773,-469.86033481957969,-17.428011764861637,8084.1504245054975,-10432.512622972126,-1258.9348366236027,1258.9348366236027,10432.512622972126,15844.176302256654,0.0
305012.02908761695,3822225.878295721,-2500.0,-7400.7379660776442,-8464.7587970095628,-11809.19495417996,-458.58712637355933,-582.01230310894118,-20.716741824626656,9195.5735053484659,-12451.618664698313,-215.22002987874475,215.22002987874475,12451.618664698313,17973.237279904912,0.0
310012.02908761695,3822225.878295721,-2500.0,-7038.9573734726773,-9028.9424599395315,-14664.421366602737,-475.01464667420697,-706.33070297161566,-24.254854387971555,10349.271507082725,-14496.142352033416,1084.4488229367726,-1084.4488229367726,14496.142352033416,20188.688560375045,0.0
315012.02908761695,3822225.878295721,-2500.0,-6421.9257546132403,-9266.6702769019612,-17764.700158821383,-474.74539086658132,-838.89418181074814,-27.915066065989592,11505.368225172348,-16429.201113219533,2602.9681340542766,-2602.9681340542766,16429.201113219533,22415.812245244058,0.0
320012.02908761695,3822225.878295721,-2500.0,-5571.5772669949592,-9063.227633445269,-20969.703709713667,-453.27995450274727,-973.47340185591645,-31.515747186440972,12611.323245764679,-18076.249326454366,4260.1739276388598,-4260.1739276388598,18076.249326454366,24555.788977803775,0.0
325012.02908761695,3822225.878295721,-2500.0,-4549.4625930489419,-8320.7316667150608,-24075.240612928548,-407.14865338129982,-1101.4896963506612,-34.825514685574724,13603.370632352249,-19237.702604778227,5928.2049252040333,-5928.2049252040333,19237.702604778227,26488.311229732317,0.0
330012.02908761695,3822225.878295721,-2500.0,-3458.7025973988743,-6983.0231409668086,-26820.300200163038,-334.88660213287869,-1212.4427892978135,-37.580028099809816,14410.439996978863,-19713.463681890564,7436.2017351851246,-7436.2017351851246,19713.463681890564,28078.916418266625,0.0
335012.02908761695,3822225.878295721,-2500.0,-2435.6951207671368,-5061.7721364829194,-28910.438574816784,-237.96289475340868,-1294.9339654524015,-39.509948073640828,14960.895077274203,-19338.535904071145,8588.1325099575333,-8588.1325099575333,19338.535904071145,29191.731440299089,0.0
340012.02908761695,3822225.878295721,-2500.0,-1629.4182829708404,-2656.0230258618949,-30058.672289360242,-121.36661396495079,-1338.2633290479573,-40.380977721788582,15191.700263159637,-18024.061337251362,9194.5291788505365,-9194.5291788505365,18024.061337251362,29706.95337482687,0.0
345012.02908761695,3822225.878295721,-2500.0,-1170.3196242783401,44.105496016105761,-30038.930754365181,6.4581688729451621,-1334.3653647767062,-40.033141081113222,15058.727540691261,-15793.037538238126,9113.616796795237,-9113.616796795237,15793.037538238126,29540.677223983999,0.0
350012.02908761695,3822225.878295721,-2500.0,-1136.1997212748422,2776.5946200397339,-28740.01077026761,134.51481125850532,-1279.6364707565137,-38.414723108233666,14546.10396272292,-12797.368207110723,8291.3274018647699,-8291.3274018647699,12797.368207110723,28663.106779269769,0.0
355012.02908761695,3822225.878295721,-2500.0,-1526.5149663358382,5249.7648246902518,-26203.014451212799,250.92414444739472,-1176.0932364595726,-35.598423063498501,13672.029618800172,-9305.5072466537567,6786.1391382702568,-6786.1391382702568,9305.5072466537567,27110.175711403925,0.0
360012.02908761695,3822225.878295721,-2500.0,-2256.0549294219736,7198.3605492454808,-22627.449434062881,344.9947821876932,-1031.4364035690278,-31.774278833052051,12501.566120428941,-5659.1427651139302,4767.1904016451945,-4767.1904016451945,5659.1427651139302,24985.008870367012,0.0
365012.02908761695,3822225.878295721,-2500.0,-3172.6608665526355,8436.8144873168203,-18339.814666061964,409.12263984943542,-857.88180793083473,-27.223441573936942,11365.110872146288,-2209.09982059086,2482.7369058732438,-2482.7369058732438,2209.09982059086,22447.565744117015,0.0
370012.02908761695,3822225.878295721,-2500.0,-4093.9998799897789,8892.5429711365869,-13732.73762909037,439.97541435041722,-670.06040423694003,-22.275810102751194,10131.887801814381,750.08576542627247,207.90127456101413,-207.90127456101413,-750.08576542627247,19694.926306178073,0.0
375012.02908761695,3822225.878295721,-2500.0,-4850.5260936301474,8609.5210573678487,-9193.2195693162157,438.66449941158345,-482.57445076052232,-17.264690250346028,8893.0594192485587,3027.0907334796148,-1811.1991434428483,1811.1991434428483,-3027.0907334796148,16936.831097416194,0.0
380012.02908761695,3822225.878295721,-2500.0,-5320.1300612240393,7724.0276382461943,-5041.2142051001374,409.96186988221302,-307.86221580369437,-12.484343090563135,7736.1860772181581,4550.5974456361018,-3399.5549999870882,3399.5549999870882,-4550.5974456361018,14371.460019070655,0.0
385012.02908761695,3822225.878295721,-2500.0,-5445.0833247068731,6424.0496664339271,-1493.3102133665225,360.91568434827127,-154.84128290351387,-8.1622574194321622,6729.4620198647544,5356.5589627771487,-4471.558835230785,4471.558835230785,-5356.5589627771487,12163.843683062078,0.0
390012.02908761695,3822225.878295721,-2500.0,-5230.0700464142201,4906.9165104921658,1344.8991595050813,299.3258660656906,-28.478578113297282,-4.4449587760509193,5912.9785231574961,5556.1866021604801,-5025.637316239583,5025.637316239583,-5556.1866021604801,10425.150527248225,0.0
395012.02908761695,3822225.878295721,-2500.0,-4726.7785368964633,3346.4573678625334,3463.7708428804185,232.46875780762466,69.855726690043625,-1.3993010721490982,5294.1197689986539,5298.1338009326755,-5122.9530798940141,5122.9530798940141,-5298.1338009326755,9191.5151894679475,0.0
400012.02908761695,3822225.878295721,-2500.0,-4013.0945868952394,1874.5952358868326,4922.446769459928,166.27682470899234,141.55427360284114,0.97534588153381674,4849.9620325744454,4735.7167248478154,-4860.3264462199431,4860.3264462199431,-4735.7167248478154,8412.7372206902928,0.0
405012.02908761695,3822225.878295721,-2500.0,-3173.7490940246748,576.51218600990626,5819.589760116005,104.99532518092329,189.78042849544744,2.7288451446422846,4538.0943034977445,4004.6836825069677,-4345.5958279578626,4345.5958279578626,-4004.6836825069677,7971.2755669137896,0.0
410012.02908761695,3822225.878295721,-2500.0,-2286.2605500391369,-504.69264417098009,6268.6306965008262,51.214477158198861,218.55837735933082,3.9410995430687303,4311.6736966149338,3212.1133202259825,-3679.8048317134617,3679.8048317134617,-3212.1133202259825,7730.0761863805401,0.0
415012.02908761695,3822225.878295721,-2500.0,-1413.0864248051712,-1358.5536778150702,6380.3173052742495,6.1298577773909395,232.0736055474174,4.7053068993191225,4131.2701341281663,2434.0734032683777,-2947.0953950107314,2947.0953950107314,-2434.0734032683777,7576.0506341578039,0.0
420012.02908761695,3822225.878295721,-2500.0,-599.01444118171514,-1996.7328569934941,6252.5260051304631,-30.104118398988593,234.21514455623446,5.115165088373546,3969.6827683259362,1718.7336647697437,-2211.0142314346349,2211.0142314346349,-1718.7336647697437,7436.2272637873266,0.0
425012.02908761695,3822225.878295721,-2500.0,127.9120549786164,-2443.7169785137485,5965.8389266511158,-58.023070175998903,228.33074036093456,5.2568015565523645,3811.2184958559196,1091.99849277672,-1515.1402609011311,1515.1402609011311,-1091.99849277672,7272.843301922614,0.0
290012.02908761695,3827225.878295721,-2500.0,-8206.2168257808717,-6158.8123729692406,-4829.1066895046542,-403.46651945993511,-290.34774397766188,-13.167173705530608,6465.1059854730729,-6679.953741336476,-3476.5480697396083,3476.5480697396083,6679.953741336476,12860.64831637444,0.0
295012.02908761695,3827225.878295721,-2500.0,-8681.5482689833898,-7339.4291532139277,-6800.2820238461336,-458.00697401522399,-386.9132668258095,-16.363816958772297,7585.9370452169096,-8663.3006838957208,-2990.5903590310445,2990.5903590310445,8663.3006838957208,15000.104764075386,0.0
300012.02908761695,3827225.878295721,-2500.0,-8963.8562016896121,-8529.0212245688235,-9233.551435835865,-509.89821755910612,-503.37759921873089,-20.0800502527661,8833.5477545852536,-10925.86743825572,-2208.2358098398399,2208.2358098398399,10925.86743825572,17385.302008192939,0.0
305012.02908761695,3827225.878295721,-2500.0,-8988.8495387803978,-9636.6874669431163,-12156.810997748053,-554.48580764379722,-640.19264429304997,-24.291302927470621,10192.556633823584,-13414.2500856447,-1086.9147609362408,1086.9147609362408,13414.2500856447,19988.691767147444,0.0
310012.02908761695,3827225.878295721,-2500.0,-8700.4251516210079,-10539.105808635744,-15557.982600854095,-585.87891698850217,-795.91516984192322,-28.915437524836957,11633.63493808308,-16025.283553753929,391.72525184993719,-391.72525184993719,16025.283553753929,22755.988439373963,0.0
315012.02908761695,3827225.878295721,-2500.0,-8064.9406307339759,-11084.244269208457,-19364.037822125905,-597.27055493517446,-966.40901936336502,-33.795164778617732,13110.158621560895,-18596.113172896577,2204.9515349217127,-2204.9515349217127,18596.113172896577,25600.137433182495,0.0
320012.02908761695,3827225.878295721,-2500.0,-7088.3561925956838,-11104.410472061114,-23420.033975679009,-581.65911690375174,-1144.137411801742,-38.688268981686484,14556.274539011853,-20901.782123479654,4271.4003625025216,-4271.4003625025216,20901.782123479654,28397.541285858493,0.0
325012.02908761695,3827225.878295721,-2500.0,-5832.5342757642029,-10441.343237793411,-27474.616878758497,-533.02824825600476,-1317.8163567413221,-43.269648983615831,15887.463671692341,-22666.549147134196,6438.1304110743813,-6438.1304110743813,22666.549147134196,30988.938197297823,0.0
330012.02908761695,3827225.878295721,-2500.0,-4424.3592545127949,-8983.1937423859272,-31181.079203293051,-447.90138905837284,-1472.7601829096484,-47.15331583526924,17004.869913470524,-23594.489230798943,8479.9186470137374,-8479.9186470137374,23594.489230798943,33187.40561987571,0.0
335012.02908761695,3827225.878295721,-2500.0,-3049.8805585221435,-6708.0450474857271,-34123.703452277361,-326.98154143111071,-1592.2150651868783,-49.935615746565809,17804.363763895308,-23421.071609268201,10118.932647016994,-10118.932647016994,23421.071609268201,34795.426409788473,0.0
340012.02908761695,3827225.878295721,-2500.0,-1927.3902143344237,-3721.8938405002614,-35874.931102327559,-176.37089837712671,-1659.7569003242622,-51.258414621651198,18190.211339496622,-21979.269606092632,11069.245564176796,-11069.245564176796,21979.269606092632,35630.894517534092,0.0
345012.02908761695,3827225.878295721,-2500.0,-1259.868326913318,-274.15746755559155,-36078.874007101731,-7.7743510160627993,-1662.4424336043267,-50.874999668777576,18091.633626999257,-19263.443660486053,11101.805997685413,-11101.805997685413,19263.443660486053,35558.931082904419,0.0
350012.02908761695,3827225.878295721,-2500.0,-1177.6445637853328,3264.7011354888041,-34542.538080984996,162.74472344737751,-1593.9602876588692,-48.70611900777115,17478.766821988585,-15466.614858882702,10113.37179969225,-10113.37179969225,15466.614858882702,34522.948000811899,0.0
355012.02908761695,3827225.878295721,-2500.0,-1691.6026806643504,6467.5489948027562,-31304.351501968813,317.42577408346801,-1456.7516290778115,-44.863212142650099,16373.445041349092,-10968.756697923032,8173.7741729064037,-8173.7741729064037,10968.756697923032,32566.045955557169,0.0
360012.02908761695,3827225.878295721,-2500.0,-2678.6102313931647,8942.7025110474551,-26650.209501230969,440.26284319514883,-1262.2406263984506,-39.635331058884816,14985.198728855768,-6269.414000755437,5527.8920041165247,-5527.8920041165247,6269.414000755437,29835.20138671144,0.0
365012.02908761695,3827225.878295721,-2500.0,-3909.7929998605928,10423.437557962307,-21063.548523939287,520.19335520452,-1028.9009985936225,-33.442586564597192,13524.576527097044,-1881.7137625014318,2544.6976337621677,-2544.6976337621677,1881.7137625014318,26565.075854798444,0.0
370012.02908761695,3827225.878295721,-2500.0,-5113.0094060576812,10822.195126789586,-15123.06423695748,553.00438693510068,-778.69808047573849,-26.769629794115641,11944.74698400683,1776.197614790354,-370.77938220690862,370.77938220690862,-1776.197614790354,23045.19141962616,0.0
375012.02908761695,3827225.878295721,-2500.0,-6044.8359737790843,10231.496195218549,-9383.5325616709561,541.43113572597576,-533.02094322499386,-20.094814770499497,10383.468914629339,4454.9281631704589,-2869.947760745622,2869.947760745622,-4454.9281631704589,19579.108863015994,0.0
380012.02908761695,3827225.878295721,-2500.0,-6544.8593629412362,8877.1495769893227,-4279.3451839551053,493.62737297560511,-309.300824111449,-13.829965011744303,8961.8806906531154,6092.844065489644,-4725.3590825517695,4725.3590825517695,-6092.844065489644,16444.455557226207,0.0
385012.02908761695,3827225.878295721,-2500.0,-6556.6041648764103,7047.3589700633211,-75.484104183526455,420.72319692226546,-119.09501243630437,-8.2797670412569406,7766.4182602120682,6785.016553471216,-5851.5223551033814,5851.5223551033814,-6785.016553471216,13856.925102334477,0.0
390012.02908761695,3827225.878295721,-2500.0,-6116.1366804017061,5024.9256204244175,3131.9684935846567,334.32902792466069,32.218123640634062,-3.6251028155861329,6836.4204759761378,6724.1266637507952,-6286.0443817430178,6286.0443817430178,-6724.1266637507952,11935.207218147365,0.0
395012.02908761695,3827225.878295721,-2500.0,-5321.1167180147295,3040.7575642603265,5380.8530491307702,244.63181626515944,144.50714345880911,0.070808735665287462,6161.1662536790036,6138.4406439697477,-6148.2414270331146,6148.2414270331146,-6138.4406439697477,10671.495039078838,0.0
400012.02908761695,3827225.878295721,-2500.0,-4295.5436248037458,1253.6357717118563,6794.1092814937192,159.34865105627742,221.32392425452372,2.839967089621199,5690.8655286143839,5244.0416057723687,-5594.0015840395627,5594.0015840395627,-5244.0416057723687,9936.1389761545561,0.0
405012.02908761695,3827225.878295721,-2500.0,-3161.0662898788105,-248.7264650226243,7533.7100711300927,83.471733089986301,268.26438439463021,4.7792287575372656,5359.1380968112844,4217.4010781025427,-4779.6215876462793,4779.6215876462793,-4217.4010781025427,9537.5680305952974,0.0
410012.02908761695,3827225.878295721,-2500.0,-2019.2711873332187,-1436.2448658636818,7766.1503372363222,19.558449886873476,291.61102416615398,6.0203040469497422,5105.1128408969334,3186.022506199587,-3839.414783066587,3839.414783066587,-3186.022506199587,9299.6024429315221,0.0
415012.02908761695,3827225.878295721,-2500.0,-944.37589657914646,-2318.8210124691395,7641.3986914162961,-31.710948266743504,297.39789706456077,6.7050124697223561,4885.0264163657457,2231.184763855767,-2876.0568864219345,2876.0568864219345,-2231.184763855767,9102.3875887179474,0.0
420012.02908761695,3827225.878295721,-2500.0,16.650112556723183,-2929.8510493412277,7283.1609027386694,-70.922860199284386,290.88386343447888,6.9681324512544034,4673.168528621226,1396.7172666157758,-1959.9553689612044,1959.9553689612044,-1396.7172666157758,8882.2091257620177,0.0
425012.02908761695,3827225.878295721,-2500.0,839.85930146247142,-3313.3793187073729,6786.9029960787557,-99.396276157893453,276.34184639213845,6.9276032306497717,4457.5619058356806,699.36785008219977,-1133.6481998886131,1133.6481998886131,-699.36785008219977,8614.4509958480812,0.0
430012.02908761695,3827225.878295721,-2500.0,1518.6057334985201,-3515.3822428324047,6222.2861115220594,-118.77676819220316,257.0548231189598,6.6803921248970024,4234.8518405604627,138.22503731917246,-418.13263596011132,418.13263596011132,-138.22503731917246,8296.7724535305733,0.0
285012.02908761695,3832225.878295721,-2500.0,-8479.4870003581127,-4994.1270491444293,-2521.9355870410564,-385.49042910223244,-195.68523584700452,-11.196205134886304,5823.9093013173315,-4430.6638188925117,-4621.4482141594417,4621.4482141594417,4430.6638188925117,11495.159491528524,0.0
290012.02908761695,3832225.878295721,-2500.0,-9350.697943141713,-6316.3721000887017,-4119.2046833824888,-454.65982041038893,-282.12605697081847,-14.398821822358958,6848.7538428376893,-6281.8224694754135,-4528.5481918317801,4528.5481918317801,6281.8224694754135,13647.007679292408,0.0
295012.02908761695,3832225.878295721,-2500.0,-10105.292820694516,-7779.7303789056514,-6213.4038566701302,-527.59803463105141,-392.05133259616986,-18.287234506645696,8107.7247952938897,-8532.2096623182297,-4163.6021156131756,4163.6021156131756,8532.2096623182297,16140.191504104178,0.0
300012.02908761695,3832225.878295721,-2500.0,-10659.707064777669,-9325.8919156414595,-8891.3046620844652,-600.51265195825692,-528.67606121592883,-22.911407562831272,9593.7673020397051,-11189.866842166673,-3445.3857786315716,3445.3857786315716,11189.866842166673,18981.455567192272,0.0
305012.02908761695,3832225.878295721,-2500.0,-10919.63080426974,-10855.3094773713,-12221.596771204309,-667.70630506509656,-694.0327207403293,-28.270814761465385,11249.945212764394,-14219.800090857749,-2297.0767646213853,2297.0767646213853,14219.800090857749,22153.843656811732,0.0
310012.02908761695,3832225.878295721,-2500.0,-10791.413281447582,-12219.198061231935,-16231.342169561278,-721.40576719577837,-887.90957865014411,-34.28625300339074,13047.954497597002,-17523.169805131714,-663.65534556944112,663.65534556944112,17523.169805131714,25606.23844242276,0.0
315012.02908761695,3832225.878295721,-2500.0,-10201.159218091001,-13218.055358276473,-20874.482283224806,-751.96903000394877,-1106.54461651517,-40.769770788540598,14935.9306786249,-20916.736235242337,1463.4068646255964,-1463.4068646255964,20916.736235242337,29242.419797391318,0.0
320012.02908761695,3832225.878295721,-2500.0,-9121.1152876963279,-13612.762131515687,-25995.603418306342,-748.70517787962774,-1341.2782198310422,-47.400666764070962,16833.434039426211,-24119.440139563194,4016.4520260301924,-4016.4520260301924,24119.440139563194,32911.936664840869,0.0
325012.02908761695,3832225.878295721,-2500.0,-7599.2895417605841,-13154.738733377257,-31297.45934982365,-701.49993869142077,-1577.5765013931502,-53.721470761464495,18629.732450809424,-26756.654870139864,6823.718936517289,-6823.718936517289,26756.654870139864,36406.579157978471,0.0
330012.02908761695,3832225.878295721,-2500.0,-5782.9680803420033,-11638.672585321227,-36326.893526928157,-603.24274090181325,-1795.0225018976387,-59.165933662814098,20187.568713475794,-28394.11717956232,9595.4487257973051,-9595.4487257973051,28394.11717956232,39467.135697252641,0.0
335012.02908761695,3832225.878295721,-2500.0,-3921.9627404546586,-8973.3656175762044,-40498.089896540689,-452.68205539032999,-1968.9131497834567,-63.126269524150203,21354.696756937417,-28609.737869515317,11940.012180120888,-11940.012180120888,28609.737869515317,41804.945660853817,0.0
340012.02908761695,3832225.878295721,-2500.0,-2337.1194352217808,-5253.3392369836565,-43169.012842188451,-256.87105280985315,-2073.8139240695318,-65.057266715723173,21984.051939595731,-27098.989470134802,13423.295053423688,-13423.295053423688,27098.989470134802,43140.134053786751,0.0
345012.02908761695,3832225.878295721,-2500.0,-1348.7421315383681,-800.98196267147648,-43771.380982410403,-32.055165687588982,-2088.7262208475463,-64.588413823014989,21960.555191048523,-23789.231644620471,13670.773587098047,-13670.773587098047,23789.231644620471,43253.007500396634,0.0
350012.02908761695,3832225.878295721,-2500.0,-1179.1077775871233,3853.7173209463162,-41967.043779160049,197.96919359438868,-2002.5973224144839,-61.612919974307104,21228.82714626603,-18918.791293792139,12487.851550562726,-12487.851550562726,18918.791293792139,42037.923376886029,0.0
355012.02908761695,3832225.878295721,-2500.0,-1865.2163910116271,8071.3638973217039,-37776.184065826172,406.15979020243458,-1818.2486215587728,-56.317571140405605,19813.825727114119,-13033.821503845122,9951.4597986882309,-9951.4597986882309,13033.821503845122,39543.428636037774,0.0
360012.02908761695,3832225.878295721,-2500.0,-3225.7855479335612,11258.501454906895,-31616.545590662357,568.11606060733527,-1552.9834631800688,-49.149402152337359,18156.938424545737,-6882.278058230645,6423.6162261327745,-6423.6162261327745,6882.278058230645,35983.030626679269,0.0
365012.02908761695,3832225.878295721,-2500.0,-4907.2606608684528,13023.218346846037,-24222.1539999261,667.54803623429075,-1235.2860765032199,-40.732778920637784,16245.770281178307,-1233.0177558062867,2466.9809012201922,-2466.9809012201922,1233.0177558062867,31709.178006369901,0.0
370012.02908761695,3832225.878295721,-2500.0,-6493.6764401611472,13266.133214702191,-16465.674049902405,699.37481830825038,-898.65445458291811,-31.765711675652263,14198.100734788826,3310.2659262829075,-1308.559901223578,1308.559901223578,-3310.2659262829075,27156.880734664101,0.0
375012.02908761695,3832225.878295721,-2500.0,-7630.9778532148594,12172.250273493462,-9154.5842980603902,669.52654567385298,-574.72012025988613,-22.920926250752448,12215.919599440127,6427.1692625228006,-4403.4904676098504,4403.4904676098504,-6427.1692625228006,22773.281023318552,0.0
380012.02908761695,3832225.878295721,-2500.0,-8112.885293831665,10119.027189739916,-2877.7011496062005,591.94474400690092,-287.87633917650481,-14.762853023375614,10466.94392941057,8095.9638312473089,-6528.5675511473582,6528.5675511473582,-8095.9638312473089,18949.288266056021,0.0
385012.02908761695,3832225.878295721,-2500.0,-7902.4335885154887,7550.6181486331852,2056.6050126678174,484.24619968551679,-52.681923299495125,-7.6931624352210957,9055.9923129924828,8523.035730933263,-7621.9531767152494,7621.9531767152494,-8523.035730933263,15957.213547034236,0.0
390012.02908761695,3832225.878295721,-2500.0,-7098.2270538074317,4869.7386668459931,5596.218744958579,363.64918305041999,125.93715548271435,-1.9292530073488738,8009.2163923795861,8034.1185526614354,-7799.9571197301721,7799.9571197301721,-8034.1185526614354,13892.810930398757,0.0
395012.02908761695,3832225.878295721,-2500.0,-5874.4054633524811,2375.1679105868816,7870.9363644327277,244.20731721767839,250.58492543678983,2.4825086224982837,7279.6840956905935,6973.9250422021141,-7278.816448269572,7278.816448269572,-6973.9250422021141,12648.47650927858,0.0
400012.02908761695,3832225.878295721,-2500.0,-4422.5740008686826,245.80846205953895,9107.3831615771996,135.6186885695675,328.56250018668112,5.6288563783994592,6777.347753607577,5639.6841677795837,-6301.4508378983501,6301.4508378983501,-5639.6841677795837,11971.450581825637,0.0
405012.02908761695,3832225.878295721,-2500.0,-2911.5883999564494,-1443.6544096926309,9559.2174545498365,43.305537282405311,369.23590695084488,7.6806563583179575,6408.2473607594966,4251.8985337194463,-5087.201197246739,5087.201197246739,-4251.8985337194463,11588.983500854329,0.0
410012.02908761695,3832225.878295721,-2500.0,-1468.1440672847523,-2693.3453232806742,9462.120165339109,-30.770654048257651,382.09139914056999,8.8463439178177197,6100.6516887292391,2952.6757991608652,-3807.142583363951,3807.142583363951,-2952.6757991608652,11300.948212823638,0.0
415012.02908761695,3832225.878295721,-2500.0,-173.52414165449591,-3548.1399538232804,9011.7074651885268,-87.048575522687528,375.57311120221482,9.3361277823250468,5811.309661313021,1818.953605955164,-2578.950066864958,2578.950066864958,-1818.953605955164,10997.094746697723,0.0
420012.02908761695,3832225.878295721,-2500.0,930.27578905414077,-4073.613794299165,8357.6889401939188,-127.38029243189735,356.56904780836317,9.3393932951851646,5519.7991596641377,880.5346317014114,-1473.1137950859766,1473.1137950859766,-880.5346317014114,10633.336953635924,0.0
425012.02908761695,3832225.878295721,-2500.0,1830.745147135452,-4339.7502463803721,7607.319380120116,-154.26586478932808,330.33414086508498,9.0139644966930454,5220.1011093368024,136.99532668965446,-523.75152994050234,523.75152994050234,-136.99532668965446,10203.427472564927,0.0
430012.02908761695,3832225.878295721,-2500.0,2534.9857849218729,-4411.5003354993278,6832.8917515831008,-170.33625291241253,300.65547065245011,8.4834727263893708,4913.7877687472483,-429.03780694954372,260.23054074249302,-260.23054074249302,429.03780694954372,9718.8532799790864,0.0
435012.02908761695,3832225.878295721,-2500.0,3061.5044890074942,-4344.3495271991915,6080.0430277196119,-178.04825545050141,270.11811855217474,7.8399911822985491,4606.9939455376907,-842.63299793427734,885.69065410396331,-885.69065410396331,842.63299793427734,9197.182129712095,0.0
280012.02908761695,3837225.878295721,-2500.0,-8117.1323428071919,-3436.2883817739748,-439.61164259024196,-340.26841524820514,-97.838848021310312,-8.7155774524533722,5159.2170305747568,-2053.6667682164466,-5285.2653926623807,5285.2653926623807,2053.6667682164466,9911.5340696022322,0.0
285012.02908761695,3837225.878295721,-2500.0,-9323.7799342737726,-4723.3978589058752,-1555.2229650407912,-417.29331160868531,-166.81972672584249,-11.676354024284404,6124.6596286063432,-3573.9595909755717,-5603.8189929916607,5603.8189929916607,3573.9595909755717,11927.342239363787,0.0
290012.02908761695,3837225.878295721,-2500.0,-10530.420940355778,-6256.4955928123818,-3127.516693420655,-504.55294549333763,-259.73885025028113,-15.424874086345088,7281.4951536332674,-5545.1192711644944,-5733.2639293658303,5733.2639293658303,5545.1192711644944,14350.050511113481,0.0
295012.02908761695,3837225.878295721,-2500.0,-11658.784165816778,-8025.9210649238685,-5281.9348059896938,-600.20356978893312,-382.15663897208026,-20.090807250678882,8652.201934108145,-8036.1705545046998,-5576.0081309774914,5576.0081309774914,8036.1705545046998,17224.119351848491,0.0
300012.02908761695,3837225.878295721,-2500.0,-12603.144539077764,-9986.1428728898081,-8153.6529303263624,-700.37208685384769,-539.6305027694159,-25.778639128936213,10330.585516554185,-11094.669526283575,-5016.550514223155,5016.550514223155,11094.669526283575,20580.076272393148,0.0
305012.02908761695,3837225.878295721,-2500.0,-13232.608161628996,-12038.819374165108,-11871.034398277605,-798.46369653007389,-736.77960801439963,-32.53379711465351,12336.761553499027,-14723.281769484054,-3931.2287348282825,3931.2287348282825,14723.281769484054,24422.605360207832,0.0
310012.02908761695,3837225.878295721,-2500.0,-13401.81196067038,-14015.453237182139,-16526.569264490681,-884.59741017504552,-975.81334785086517,-40.297324019333907,14572.76134461623,-18848.235617858303,-2208.3562506041417,2208.3562506041417,18848.235617858303,28714.954869874138,0.0
315012.02908761695,3837225.878295721,-2500.0,-12973.896997160717,-15665.265153137711,-22132.628818351983,-945.47204395542838,-1254.4987188796952,-48.852669292700156,16985.448634999557,-23282.468215995526,218.39019031957105,-218.39019031957105,23282.468215995526,33360.467689240468,0.0
320012.02908761695,3837225.878295721,-2500.0,-11858.240341004872,-16657.999600285413,-28563.254153793227,-965.10724724224588,-1563.7688824104216,-57.778581008181234,19480.715606771537,-27691.988158430169,3323.3924590060215,-3323.3924590060215,27691.988158430169,38184.192126202834,0.0
325012.02908761695,3837225.878295721,-2500.0,-10060.329502769946,-16614.483868103212,-35491.091049333183,-926.92650877997448,-1885.539965799316,-66.427552501604907,21916.491569815869,-31581.486175988804,6936.2181840248704,-6936.2181840248704,31581.486175988804,42919.935114152322,0.0
330012.02908761695,3837225.878295721,-2500.0,-7731.9651987500265,-15176.846661328012,-42340.972548045087,-817.43309843840382,-2191.7600713260613,-73.960258386435882,24103.546906006977,-34322.272879969401,10700.071444669453,-10700.071444669453,34322.272879969401,47211.126121059759,0.0
335012.02908761695,3837225.878295721,-2500.0,-5198.0417684827416,-12119.92231753739,-48294.315854728287,-631.10630128851199,-2445.9908667245877,-79.456765802316426,25818.632747031053,-35245.184534142987,14070.567807002573,-14070.567807002573,35245.184534142987,50634.985387141453,0.0
340012.02908761695,3837225.878295721,-2500.0,-2928.884815542488,-7482.5883013826915,-52382.122404446607,-375.19021899272155,-2608.549670385109,-82.093929004972253,26833.454850802762,-33804.747136769052,16386.90252250807,-16386.90252250807,33804.747136769052,52757.11547050302,0.0
345012.02908761695,3837225.878295721,-2500.0,-1436.4464916051645,-1667.4886535197977,-53683.896558488894,-72.176843610840777,-2645.0202971888766,-81.344210221823431,26958.077526522618,-29783.147491511219,17029.23025727395,-17029.23025727395,29783.147491511219,53214.458188572738,0.0
350012.02908761695,3837225.878295721,-2500.0,-1107.4831407280365,4559.9493582156219,-51598.9022932757,242.17403681064056,-2536.0382072713937,-77.112135114798647,26089.973088520794,-23455.996298565224,15630.951542821453,-15630.951542821453,23455.996298565224,51810.421686968773,0.0
355012.02908761695,3837225.878295721,-2500.0,-2036.8331546305008,10219.513233026579,-46091.827334326146,525.91996812149716,-2284.6478911932186,-69.753348331744036,24340.747268069728,-15620.20630103409,12260.027400680345,-12260.027400680345,15620.20630103409,48591.929166412803,0.0
360012.02908761695,3837225.878295721,-2500.0,-3952.3559702536168,14385.449776473866,-37785.909010422161,741.2158057217647,-1917.6744831982362,-59.972411932396255,22255.718965327094,-7425.9930330208363,7463.9296098174573,-7463.9296098174573,7425.9930330208363,43875.474371873934,0.0
365012.02908761695,3837225.878295721,-2500.0,-6291.1748776634986,16467.554701311674,-27827.792814290489,863.87407947290228,-1479.8903297367337,-48.67077657566545,19716.283209252375,-57.218240007063741,2126.0113181874826,-2126.0113181874826,57.218240007063741,38204.545938344469,0.0
370012.02908761695,3837225.878295721,-2500.0,-8400.5494075150709,16369.168203369451,-17567.060672938114,888.39675665429263,-1023.0837222978595,-36.801634396149993,17030.164766013975,5599.4481471502595,-2812.2975238961817,2812.2975238961817,-5599.4481471502595,32249.037878450421,0.0
375012.02908761695,3837225.878295721,-2500.0,-9759.869643082624,14453.168061494267,-8196.3643481807703,826.90211181766722,-594.30756127478298,-25.260592680098888,14497.700687061393,9146.835883255766,-6628.5819736055419,6628.5819736055419,-9146.835883255766,26679.208312062172,0.0
380012.02908761695,3837225.878295721,-2500.0,-10116.628800810382,11357.080849614185,-505.1447111304654,703.22575165508351,-227.39200879005983,-14.792926493131848,12349.175576891053,10670.13302239591,-8972.7228222285066,8972.7228222285066,-10670.13302239591,22043.652979477611,0.0
385012.02908761695,3837225.878295721,-2500.0,-9495.5436154419131,7766.8972878771992,5185.0845127169023,545.21701805073781,60.275508120925622,-5.9207787891230899,10699.822769470067,10581.334334115687,-9860.5793129285485,9860.5793129285485,-10581.334334115687,18658.427707609324,0.0
390012.02908761695,3837225.878295721,-2500.0,-8114.2910251720068,4247.3112163025025,8936.970839495918,378.16789624292949,266.17605446661071,1.0944322303888014,9536.2050336996053,9419.9587639404308,-9558.5156822671961,9558.5156822671961,-9419.9587639404308,16522.348180157656,0.0
395012.02908761695,3837225.878295721,-2500.0,-6270.4743036960499,1166.7815491339409,11047.544538341494,220.98498595978646,398.29359100346034,6.2370806306125885,8747.8549406951188,7694.981787245285,-8439.3874920210419,8439.3874920210419,-7694.981787245285,15340.053141748347,0.0
400012.02908761695,3837225.878295721,-2500.0,-4249.9813378913195,-1298.0424696877562,11905.220128106861,85.168775895129841,470.15275834559924,9.6789394728182341,8191.8267968949222,5800.3148881279503,-6868.5698683939117,6868.5698683939117,-5800.3148881279503,14698.952510198065,0.0
405012.02908761695,3837225.878295721,-2500.0,-2276.0837047935893,-3115.6440533737164,11890.122066928046,-24.261744882045374,496.74542242109237,11.701062020350074,7748.7187054695951,3994.4705195857941,-5140.6778485735786,5140.6778485735786,-3994.4705195857941,14260.780584553604,0.0
410012.02908761695,3837225.878295721,-2500.0,-494.74306088463533,-4343.5608067236481,11322.002145705646,-106.97614685915175,491.90708198805004,12.62176644450939,7343.6973340408049,2418.3052631876135,-3460.0578717813487,3460.0578717813487,-2418.3052631876135,13829.580482400364,0.0
415012.02908761695,3837225.878295721,-2500.0,1017.6087362921678,-5081.3947173742108,10443.880226155552,-165.47899396899007,467.04335783475256,12.744766986552786,6940.8302914010492,1127.0704091618843,-1948.2226516771627,1948.2226516771627,-1127.0704091618843,13324.215608822149,0.0
420012.02908761695,3837225.878295721,-2500.0,2236.8597142700564,-5438.858334729397,9426.3843399775342,-203.61630611407034,430.81575627216807,12.329709414907336,6529.0797762433413,122.01565415514409,-662.77454596591156,662.77454596591156,-122.01565415514409,12730.115346702729,0.0
425012.02908761695,3837225.878295721,-2500.0,3173.0693414668081,-5517.6446815708387,8381.0256070895794,-225.55909249553008,389.37235937060643,11.582192444709131,6110.246441525911,-624.81521108218271,382.12556674302618,-382.12556674302618,624.81521108218271,12063.306676697539,0.0
430012.02908761695,3837225.878295721,-2500.0,3855.4404852667085,-5403.3128095421944,7375.2502224023938,-235.21122609784319,346.81030825034981,10.654831392176289,5691.8343296298999,-1153.7238953956244,1198.5133049101992,-1198.5133049101992,1153.7238953956244,11349.824861082358,0.0
435012.02908761695,3837225.878295721,-2500.0,4321.5324954311873,-5163.341917364447,6445.7985192272754,-235.9279615226979,305.67771170082966,9.6547041455315465,5337.1599518447319,-1507.1749332737127,1811.9859192877475,-1811.9859192877475,1507.1749332737127,10615.647581934933,0.0
275012.02908761695,3842225.878295721,-2500.0,-7102.264636301421,-1694.3885648137116,1222.4673464532625,-272.23576715622551,-7.0659119075792285,-5.9608493369143929,4499.5327606987321,168.01602934206085,-5358.7881746406838,5358.7881746406838,-168.01602934206085,8331.8189774324728,0.0
280012.02908761695,3842225.878295721,-2500.0,-8511.1513860868854,-2781.0211276125269,608.59372594339288,-348.77197859641723,-54.133280643810572,-8.4590613485223027,5348.2674116914932,-888.77350062059077,-6022.9465418218151,6022.9465418218151,888.77350062059077,10074.675844015945,0.0
285012.02908761695,3842225.878295721,-2500.0,-10047.118016492288,-4165.1143333808459,-362.11425464348224,-440.5331313180717,-122.38532036264081,-11.758206960171851,6396.9065271301215,-2369.8168262869417,-6616.5526924367259,6616.5526924367259,2369.8168262869417,12246.914791761419,0.0
290012.02908761695,3842225.878295721,-2500.0,-11661.602805230434,-5885.1241381572099,-1823.3953692304322,-548.17735518469738,-218.62499760221124,-16.052861279841778,7682.8854388409009,-4385.2463844875929,-7053.727978952069,7053.727978952069,4385.2463844875929,14926.043255579565,0.0
295012.02908761695,3842225.878295721,-2500.0,-13272.218136292915,-7960.8848889329438,-3941.4460135076415,-670.86274493788972,-350.88085691969258,-21.547806228119285,9243.9441948347012,-7051.2445132416715,-7215.8384115712806,7215.8384115712806,7051.2445132416715,18189.314844678389,0.0
300012.02908761695,3842225.878295721,-2500.0,-14754.611680319314,-10375.437824906357,-6911.437429483758,-805.27999449311289,-527.97198881077838,-28.431058757272297,11114.056374865242,-10473.923502091026,-6949.4451774012105,6949.4451774012105,10473.923502091026,22104.447480329422,0.0
305012.02908761695,3842225.878295721,-2500.0,-15938.325521578501,-13049.780563747365,-10943.346278730754,-944.45251251999366,-758.48131734398851,-36.826184887997641,13401.015935019397,-14721.00508227729,-6071.8126720300761,6071.8126720300761,14721.00508227729,26714.640393082092,0.0
310012.02908761695,3842225.878295721,-2500.0,-16612.296411502175,-15811.976801867464,-16230.225868375108,-1076.4853313887402,-1048.8611938711615,-46.722666621063034,16163.945230742398,-19778.105187735608,-4390.1767084146941,4390.1767084146941,19778.105187735608,32016.677157469017,0.0
315012.02908761695,3842225.878295721,-2500.0,-16547.762659094667,-18366.510718086349,-22891.355335452241,-1183.6842487151937,-1400.4566817408829,-57.883924268337239,19237.619884695025,-25489.534740508414,-1742.0858106324158,1742.0858106324158,25489.534740508414,37931.987194663219,0.0
320012.02908761695,3842225.878295721,-2500.0,-15546.694292258715,-20277.082019139172,-30885.571794663636,-1242.7811677461166,-1805.5026387746266,-69.753943428633036,22519.632920208805,-31491.183342838049,1937.6778939939159,-1937.6778939939159,31491.183342838049,44273.117552065698,0.0
325012.02908761695,3842225.878295721,-2500.0,-13519.155214575405,-20985.163716551629,-39900.40715859941,-1227.2635851237339,-2242.7722803633824,-81.40169777820573,25834.270854906572,-37156.881568623714,6526.3591032712065,-6526.3591032712065,37156.881568623714,50712.802463074608,0.0
330012.02908761695,3842225.878295721,-2500.0,-10578.951062105696,-19892.269422964506,-49243.496355109753,-1112.6790066684748,-2674.4937201279622,-91.559059969132562,28924.683949148501,-41597.359976051783,11619.521540397034,-11619.521540397034,41597.359976051783,56768.853774525123,0.0
335012.02908761695,3842225.878295721,-2500.0,-7122.5764449030339,-16525.648789343846,-57792.716158093084,-884.87615895541308,-3047.0833347296652,-98.811603482796656,31464.073497363832,-43763.183453627826,16481.78902259429,-16481.78902259429,43763.183453627826,61823.829132881889,0.0
340012.02908761695,3842225.878295721,-2500.0,-3830.6292071721941,-10771.483583117977,-64085.295683517863,-549.22652783431295,-3298.2609702028649,-101.93391455134304,33094.981630302915,-42689.029542152311,20110.890145603618,-20110.890145603618,42689.029542152311,65198.269864875394,0.0
345012.02908761695,3842225.878295721,-2500.0,-1529.5192997223232,-3095.0445668182192,-66610.546309349185,-136.66507366274425,-3371.1382202715286,-100.25908966319182,33499.088706146176,-37853.960414990448,21469.829796719514,-21469.829796719514,37853.960414990448,66283.393373075392,0.0
350012.02908761695,3842225.878295721,-2500.0,-906.83495337191562,5393.1519612435677,-64282.792824617616,298.24844276557189,-3231.8637422458996,-93.888807353726051,32485.422035845069,-29526.986213477991,19862.811960456718,-19862.811960456718,29526.986213477991,64711.313605993513,0.0
355012.02908761695,3842225.878295721,-2500.0,-2184.9081031728406,13151.524258346457,-56923.937647795094,689.26740603315272,-2883.5173184746645,-83.602642165884674,30439.250703057616,-18886.407296674231,15302.318190183747,-15302.318190183747,18886.407296674231,60506.671680421583,0.0
360012.02908761695,3842225.878295721,-2500.0,-4947.1339602153603,18687.31390828513,-45484.660458041581,976.86176564029904,-2368.8387546168447,-70.540033085542092,27631.402020667902,-7755.0977307900976,8636.8361215079021,-8636.8361215079021,7755.0977307900976,54148.881333008547,0.0
365012.02908761695,3842225.878295721,-2500.0,-8265.9839195860859,21086.790707455322,-31815.033973612073,1125.1324119052726,-1759.4299138908655,-55.892879387287039,24201.449979255685,1986.7787844876548,1299.9812185918368,-1299.9812185918368,-1986.7787844876548,46501.031976804981,0.0
370012.02908761695,3842225.878295721,-2500.0,-11087.063365737853,20300.494104193775,-18061.193094947834,1129.7801520265384,-1136.0602629207731,-40.777842196665738,20635.465515401393,9015.1206973664048,-5215.0024529122493,5215.0024529122493,-9015.1206973664048,38622.900312851161,0.0
375012.02908761695,3842225.878295721,-2500.0,-12640.136270047529,17038.672345794104,-6006.9435017979604,1014.7080094859276,-568.6206332692276,-26.232765022726895,17385.651472787911,12878.599290994545,-9859.3312748089702,9859.3312748089702,-12878.599290994545,31534.858579914035,0.0
380012.02908761695,3842225.878295721,-2500.0,-12651.12125406895,12389.583934074597,3320.14390458452,820.50326828163918,-103.04912225672413,-13.179732071336227,14759.941175572052,13913.810471661049,-12256.698899802979,12256.698899802979,-13913.810471661049,25990.611111651146,0.0
385012.02908761695,3842225.878295721,-2500.0,-11298.536679756044,7408.684973646963,9675.6746759455309,590.87567728201452,241.94749579531467,-2.310985976151593,12855.843626042461,12906.518654606976,-12617.618210620027,12617.618210620027,-12906.518654606976,22281.869059435074,0.0
390012.02908761695,3842225.878295721,-2500.0,-9018.6273563199702,2862.9832783874954,13374.825629829189,362.31186656096963,470.16671986500143,6.0223081209400329,11571.30835901042,10730.64191113563,-11483.320199206857,11483.320199206857,-10730.64191113563,20160.976412068405,0.0
395012.02908761695,3842225.878295721,-2500.0,-6299.7958496908213,-833.77292367775181,15003.260078725043,159.20905819352291,599.38216467517009,11.827538727062166,10698.414684890897,8112.3256243009082,-9469.205944684425,9469.205944684425,-8112.3256243009082,19037.837771639759,0.0
400012.02908761695,3842225.878295721,-2500.0,-3548.5640312990263,-3559.542550759028,15189.179686392161,-6.1540666364912884,652.97902835201069,15.390146474933402,10036.824468427883,5542.8931083233574,-7100.3190096715143,7100.3190096715143,-5542.8931083233574,18338.883198560045,0.0
405012.02908761695,3842225.878295721,-2500.0,-1038.1982666934387,-5378.3600850769017,14474.884057373238,-130.89229623629797,653.95430087325951,17.146529925071647,9453.2992893389328,3292.9893564629556,-4747.1686765058312,4747.1686765058312,-3292.9893564629556,17706.283172918596,0.0
410012.02908761695,3842225.878295721,-2500.0,1086.0373327887683,-6444.2738886104362,13270.864383537932,-218.03615586546286,621.6974910925818,17.567780667693352,8882.3391724547182,1470.063770016272,-2628.9924108205164,2628.9924108205164,-1470.063770016272,16985.843947341265,0.0
415012.02908761695,3842225.878295721,-2500.0,2776.1189057720671,-6935.1260933246303,11859.059667528867,-273.52676266420457,570.93945311545099,17.081660200896021,8303.1031693231707,80.16428671978781,-847.47730996474127,847.47730996474127,-80.16428671978781,16145.047516282637,0.0
420012.02908761695,3842225.878295721,-2500.0,4046.3506704735787,-7015.7387641092519,10417.232033594732,-304.1265707576527,511.99136351629176,16.035816398710075,7717.3875744123534,-923.34344892303636,573.95386109904609,-573.95386109904609,923.34344892303636,15206.376312521701,0.0
425012.02908761695,3842225.878295721,-2500.0,4944.4898559697967,-6822.2928062723695,9047.5204676827216,-316.20782745017232,451.55239832949644,14.690025003719127,7135.8136939688993,-1607.5514112813707,1657.1263125696305,-1657.1263125696305,1607.5514112813707,14209.419568349656,0.0
430012.02908761695,3842225.878295721,-2500.0,5531.6307512660023,-6459.2620767041199,7801.3415563516755,-315.19195533899875,393.63612476646819,13.225547063761105,6625.5339277496114,-2041.5034696207217,2445.6421931488971,-2445.6421931488971,2041.5034696207217,13193.129002789548,0.0
435012.02908761695,3842225.878295721,-2500.0,5869.9173361476724,-6002.5060512152922,6698.2967153208465,-305.39532569186173,340.39412676324037,11.760576158759196,6161.6990360697655,-2287.1223072448356,2990.0738706197972,-2990.0738706197972,2287.1223072448356,12189.119302249797,0.0
440012.02908761695,3842225.878295721,-2500.0,6016.032960430105,-5504.6112651055864,5739.3497366266793,-290.09257992518036,292.76158018753051,10.366533243801165,5701.8142061736944,-2395.8512313416995,3339.634400093546,-3339.634400093546,2395.8512313416995,11220.28254438683,0.0
275012.02908761695,3847225.878295721,-2500.0,-6965.3025626008839,-769.23012999508023,2188.442519422545,-257.18650768740338,43.931574264898131,-5.0760818595327484,4646.5445557263101,1446.2356273375826,-5720.6669281593158,5720.6669281593158,-1446.2356273375826,8396.6083866978133,0.0
280012.02908761695,3847225.878295721,-2500.0,-8632.1984470879452,-1828.1676082343968,1787.1160321734544,-342.77326873782027,3.5834540601420573,-7.6821628304703946,5528.3633518627566,560.53343816991128,-6649.0209728734435,6649.0209728734435,-560.53343816991128,10171.625112738084,0.0
285012.02908761695,3847225.878295721,-2500.0,-10524.619718226417,-3245.4253899221876,1043.7887981349263,-448.94438520137891,-59.464314117002502,-11.238782385205514,6642.1844557843197,-779.78191788197,-7574.728820434595,7574.728820434595,779.78191788197,12447.882865420177,0.0
290012.02908761695,3847225.878295721,-2500.0,-12610.155976633996,-5093.8676217563525,-197.66754163356552,-578.12905817445176,-153.93494332157007,-16.01779636012391,8042.0801333993604,-2723.6692466958152,-8411.0928587761118,8411.0928587761118,2723.6692466958152,15338.638815402775,0.0
295012.02908761695,3847225.878295721,-2500.0,-14815.144475652916,-7436.933967662354,-2144.5464832452353,-731.38131584534995,-290.81163043041801,-22.325027763947546,9787.1651376620994,-5444.8554215382592,-9025.5995543129357,9025.5995543129357,5444.8554215382592,18966.289118416677,0.0
300012.02908761695,3847225.878295721,-2500.0,-17008.30044607422,-10307.646435431338,-5060.0175483899566,-907.04943457418767,-483.17265091935491,-30.4682403265424,11937.41837359364,-9128.7920897777221,-9229.5386205941286,9229.5386205941286,9128.7920897777221,23453.435078930015,0.0
305012.02908761695,3847225.878295721,-2500.0,-18985.333608872443,-13675.111793879407,-9257.19576940353,-1098.8998120884419,-745.28794014726475,-40.694074435058063,14545.964196082708,-13943.255253026689,-8773.7794366508915,8773.7794366508915,13943.255253026689,28905.970328998203,0.0
310012.02908761695,3847225.878295721,-2500.0,-20461.685861973929,-17396.71881952836,-15071.759526097023,-1293.7937081604782,-1090.4460278573806,-53.08144129974329,17740.310845427568,-19984.361652931559,-7359.8021216373281,7359.8021216373281,19984.361652931559,35384.855051480554,0.0
315012.02908761695,3847225.878295721,-2500.0,-21085.871878901391,-21159.297928775402,-22798.003593655671,-1469.38660438426,-1526.9093274355509,-67.386707542152664,21629.6382269028,-27191.053325848836,-4679.6621462735166,4679.6621462735166,27191.053325848836,42863.89906137083,0.0
320012.02908761695,3847225.878295721,-2500.0,-20491.101888431225,-24423.570437972841,-32571.884518489762,-1592.952239944276,-2051.6256886756928,-82.862378937565126,25934.467065880166,-35229.041785303125,-501.14221177608488,501.14221177608488,35229.041785303125,51173.835379413795,0.0
325012.02908761695,3847225.878295721,-2500.0,-18402.527128483616,-26404.603797732976,-44193.303616515579,-1623.1967482882835,-2642.1934322917186,-98.121487289438249,30450.959725764569,-43365.405746083401,5191.5826131302274,-5191.5826131302274,43365.405746083401,59939.614771609697,0.0
330012.02908761695,3847225.878295721,-2500.0,-14802.087378164159,-26142.711782905211,-56909.42065473838,-1517.3224709604235,-3249.3844958000805,-111.16697174774822,34840.744514683829,-50391.164891595581,12015.826311500816,-12015.826311500816,50391.164891595581,68529.939289949718,0.0
335012.02908761695,3847225.878295721,-2500.0,-10110.856983268519,-22726.480633892057,-69239.21947273158,-1244.5398009042717,-3794.9433353096433,-119.74660133265499,38629.935606080326,-54691.993204137994,19032.267465578039,-19032.267465578039,54691.993204137994,76053.098046006402,0.0
340012.02908761695,3847225.878295721,-2500.0,-5282.6916444792814,-15687.608949207881,-78992.91415729055,-803.63592945271819,-4180.6643771623576,-122.04831820314098,41256.101671580109,-54579.644793370229,24742.752675504395,-24742.752675504395,54579.644793370229,81442.592603457932,0.0
345012.02908761695,3847225.878295721,-2500.0,-1656.8746908250123,-5464.1789207627826,-83665.764626198434,-236.78761981668683,-4311.8975460515458,-117.48834162711796,42177.862008146432,-48912.672241182474,27399.700296484516,-27399.700296484516,48912.672241182474,83663.543104219731,0.0
350012.02908761695,3847225.878295721,-2500.0,-482.99896389484184,6341.51973043625,-81257.225232874247,371.20743728270941,-4130.0370380491904,-107.02899431308498,41043.123113580499,-37813.700014458474,25665.989337673102,-25665.989337673102,37813.700014458474,82019.603061278176,0.0
355012.02908761695,3847225.878295721,-2500.0,-2267.6500199361494,17239.161282214911,-71241.910464166795,913.89964681289734,-3638.8493203551566,-92.640033561020061,38649.973764279479,-23040.006246123383,19374.675429596486,-19374.675429596486,23040.006246123383,76459.102358732751,0.0
360012.02908761695,3847225.878295721,-2500.0,-6361.4159485173832,24728.809280397621,-55103.672971517277,1297.0952936046353,-2908.7958764037144,-76.226199414997154,34797.865569659552,-7580.4371759951373,9875.4746463130195,-9875.4746463130195,7580.4371759951373,67724.723980981595,0.0
365012.02908761695,3847225.878295721,-2500.0,-11174.114219173285,27351.229400816534,-35940.397803016138,1468.6213837463949,-2055.7075779590377,-58.951424262987331,30084.338503426668,5471.4387866064671,-414.49929003930265,414.49929003930265,-5471.4387866064671,57232.984517888886,0.0
370012.02908761695,3847225.878295721,-2500.0,-14947.65285825413,25226.028313807357,-17270.865647033697,1429.7980781261722,-1205.2096967365035,-41.453110371375843,25296.725845483361,14110.260513644058,-9055.9202729290992,9055.9202729290992,-14110.260513644058,46709.425759809012,0.0
375012.02908761695,3847225.878295721,-2500.0,-16547.595690419545,19755.566482138405,-1783.2985404473231,1226.322615559948,-459.57786156733414,-24.455170232612332,21120.721224440222,17940.011275999925,-14538.170446593707,14538.170446593707,-17940.011275999925,37723.183117111606,0.0
380012.02908761695,3847225.878295721,-2500.0,-15774.960684963482,12813.43227813512,9277.5090231311369,926.40409515185081,121.25726788861802,-8.998935542049999,17941.928287252085,17855.557172167719,-16587.625488490339,16587.625488490339,-17855.557172167719,31247.18280212651,0.0
385012.02908761695,3847225.878295721,-2500.0,-13155.67153846851,5998.626411473756,15968.582518581943,597.53771741754417,521.43681540453292,3.8608316966627712,15768.918487192057,15308.698541012469,-15852.414672258317,15852.414672258317,-15308.698541012469,27349.06400705982,0.0
390012.02908761695,3847225.878295721,-2500.0,-9510.8224159294114,287.79282835500453,19111.868761798974,290.8045377426655,758.10227497886274,13.477445826027012,14333.589315360688,11671.308130778374,-13356.039107670282,13356.039107670282,-11671.308130778374,25290.037122092097,0.0
395012.02908761695,3847225.878295721,-2500.0,-5603.178055488851,-3945.5091702506988,19763.454659009367,35.604567210168696,865.66291514165289,19.784332739788965,13302.779790311453,7922.2425199917643,-10064.987359324443,10064.987359324443,-7922.2425199917643,24112.262178468907,0.0
400012.02908761695,3847225.878295721,-2500.0,-1968.7053814488547,-6737.6931218636828,18880.936447716536,-157.64457901614611,882.29779483039283,23.186822748280608,12432.858886033569,4611.2727630724112,-6684.3194275485148,6684.3194275485148,-4611.2727630724112,23146.15279883899,0.0
405012.02908761695,3847225.878295721,-2500.0,1102.1452078852542,-8329.7719382673768,17190.412484454588,-291.32363848841794,841.69408969249639,24.331343398409501,11599.657729211622,1959.477658784192,-3631.1433221783514,3631.1433221783514,-1959.477658784192,22087.766773818614,0.0
410012.02908761695,3847225.878295721,-2500.0,3509.551575959927,-9021.1933291425976,15178.911114019504,-374.45710583515324,769.7205382109978,23.899211411965318,10762.356934299998,-13.926087564315822,-1094.6268204463893,1094.6268204463893,13.926087564315822,20864.872533520123,0.0
415012.02908761695,3847225.878295721,-2500.0,5273.6386922440524,-9090.0310194783324,13140.830839989798,-418.21944771087476,684.3011793356452,22.482096965342834,9921.9328818586928,-1390.0315227449901,884.62267884394316,-884.62267884394316,1390.0315227449901,19508.837342274848,0.0
420012.02908761695,3847225.878295721,-2500.0,6475.811011343666,-8761.0702676068649,11235.050036393566,-433.3067013853269,596.78804627097145,20.534658400767206,9094.4107179783823,-2285.1018284536858,2347.7509096681351,-2347.7509096681351,2285.1018284536858,18081.591211438692,0.0
425012.02908761695,3847225.878295721,-2500.0,7219.2773469074773,-8201.0314120669573,9533.6880007780783,-428.73935902947522,513.71052622660602,18.374930067094454,8347.8833984440826,-2815.3610294910518,3371.8238057238273,-3371.8238057238273,2815.3610294910518,16642.993542508004,0.0
430012.02908761695,3847225.878295721,-2500.0,7606.3520371687628,-7526.0089834693754,8057.5924889230891,-411.54913221239445,438.34740509523522,16.208260840249103,7696.2529666186265,-3081.3967728639204,4042.5545179142887,-4042.5545179142887,3081.3967728639204,15239.615397452428,0.0
435012.02908761695,3847225.878295721,-2500.0,7727.4936835297231,-6812.5938849849545,6799.8250370812357,-386.91851408697215,371.93692243651475,14.155692432040791,7059.4276871398561,-3163.6167554656654,4440.1744769489469,-4440.1744769489469,3163.6167554656654,13903.207026666942,0.0
440012.02908761695,3847225.878295721,-2500.0,7657.4865979808901,-6108.5908195950624,5740.1392450918493,-358.4990473521604,314.52508786249143,12.280017357797654,6452.6266997258326,-3123.1005683091394,4633.4645112410553,-4633.4645112410553,3123.1005683091394,12652.820876375781,0.0
445012.02908761695,3847225.878295721,-2500.0,7455.4544006281003,-5441.8294181128267,4853.3842081540843,-328.75992304384596,265.52220456385396,10.606494849074764,5884.71522262281,-3004.5791574592604,4678.318624149174,-4678.318624149174,3004.5791574592604,11497.860254650732,0.0
270012.02908761695,3852225.878295721,-2500.0,-4868.2300739428883,1043.7331437288956,3128.7496491642019,-153.87751428093654,118.99751933759262,-1.8543917313165768,4136.7654701884785,3199.0615668591927,-4771.130147599265,4771.130147599265,-3199.0615668591927,7217.9389052223751,0.0
275012.02908761695,3852225.878295721,-2500.0,-6443.6114571766639,403.66794382260537,3178.5129157098868,-224.19831140986037,105.1198108770628,-3.6334646375630393,4833.433343854962,2895.2164069585251,-5846.0113428874956,5846.0113428874956,-2895.2164069585251,8530.2469710943988,0.0
280012.02908761695,3852225.878295721,-2500.0,-8341.4712367195661,-544.42518163014972,3047.0676698856628,-316.05941493902014,76.038181779421819,-6.2085650683052069,5727.4002509708762,2277.7796899932437,-7050.4377282491787,7050.4377282491787,-2277.7796899932437,10269.137325577462,0.0
285012.02908761695,3852225.878295721,-2500.0,-10586.217366103871,-1898.0222151823189,2618.4172475194146,-434.35668880893621,24.121433034235078,-9.8680897763110398,6879.3435694347718,1205.9432653122008,-8348.9785997067174,8348.9785997067174,-1205.9432653122008,12567.414979705216,0.0
290012.02908761695,3852225.878295721,-2500.0,-13177.607967887185,-3770.6018761045843,1722.7443959198388,-584.05563571377149,-61.204623962295173,-14.974831721316921,8363.1435912262332,-506.54783858074188,-9667.8176727786631,9667.8176727786631,506.54783858074188,15583.146549319481,0.0
295012.02908761695,3852225.878295721,-2500.0,-16071.521193751927,-6283.0289659356567,118.66127581305342,-769.2821736493546,-194.12677806358894,-21.960773009353922,10265.382892006151,-3096.1292904728098,-10876.061328386735,10876.061328386735,3096.1292904728098,19498.279054703067,0.0
300012.02908761695,3852225.878295721,-2500.0,-19153.693392516241,-9543.4627117990476,-2524.4492127627036,-991.68429430833055,-392.8448384061453,-31.294787542629471,12682.350096920938,-6845.3493102371485,-11763.661486615141,11763.661486615141,6845.3493102371485,24512.30692340271,0.0
305012.02908761695,3852225.878295721,-2500.0,-22207.979006849062,-13608.903022856422,-6637.0817431371415,-1247.7833252802354,-679.19835491233493,-43.402503108452272,15712.576559052772,-12060.292466076904,-12020.435875005967,12020.435875005967,12060.292466076904,30826.295510599975,0.0
310012.02908761695,3852225.878295721,-2500.0,-24885.811007827026,-18420.69415843402,-12739.224748854776,-1525.1571841227694,-1076.6514476057953,-58.506907365737945,19442.030801384815,-19014.654956685576,-11226.907875019586,11226.907875019586,19014.654956685576,38610.741562068943,0.0
315012.02908761695,3852225.878295721,-2500.0,-26692.897058255996,-23709.477299179107,-21384.657820227971,-1797.7571235297282,-1605.3799025194105,-76.368976142937925,24031.169228623956,-27841.596883181373,-8877.4806370494898,8877.4806370494898,27841.596883181373,47949.71886809366,0.0
320012.02908761695,3852225.878295721,-2500.0,-27022.822644542197,-28877.547652280187,-33024.523900952066,-2021.7066156491958,-2273.1013503849149,-95.937704759630464,29637.122446573914,-38357.282678592252,-4468.2675810197616,4468.2675810197616,38357.282678592252,58755.304501819803,0.0
325012.02908761695,3852225.878295721,-2500.0,-25280.339629093094,-32896.017626241672,-47752.427528106411,-2134.702645839147,-3061.2125161079016,-115.01791873091997,35777.373448457838,-49821.889555170288,2312.1707139603495,-2312.1707139603495,49821.889555170288,70654.322813059465,0.0
330012.02908761695,3852225.878295721,-2500.0,-21132.82043961517,-34304.252370754206,-64921.396031758959,-2064.0003104631419,-3908.8091267015297,-130.23723400510616,42030.29442839737,-60701.671326439682,11271.016647594181,-11271.016647594181,60701.671326439682,82868.467503553635,0.0
335012.02908761695,3852225.878295721,-2500.0,-14874.104313540038,-31452.699992656962,-82715.660759640494,-1747.7365558610782,-4702.7402270253588,-137.71807444440475,47723.952651499465,-68597.547509290976,21338.883000237536,-21338.883000237536,68597.547509290976,94141.942278069386,0.0
340012.02908761695,3852225.878295721,-2500.0,-7749.1582346390633,-23119.756299162687,-97933.173080509165,-1168.2687644592179,-5287.2569403007592,-134.69447896884867,51975.137864845863,-70607.086900669616,30353.120316280125,-30353.120316280125,70607.086900669616,102807.43510060728,0.0
345012.02908761695,3852225.878295721,-2500.0,-1911.6085081039189,-9440.2669684679222,-106403.80704035056,-383.07168993271381,-5503.9891393716853,-121.48451286608847,53852.318184978962,-64337.280039101075,35369.14471560828,-35369.14471560828,64337.280039101075,107086.67485889267,0.0
350012.02908761695,3852225.878295721,-2500.0,320.67204196989701,7335.8791724496186,-104366.26820944344,472.19101647803785,-5254.0067044716588,-102.12165217626874,52995.539555460688,-49377.977474771207,33779.573236012016,-33779.573236012016,49377.977474771207,105641.85372110539,0.0
355012.02908761695,3852225.878295721,-2500.0,-2206.7447396789007,23076.148101942534,-90461.295257677804,1223.7168595133194,-4547.7251631006266,-82.179829503925703,49913.56959662211,-28343.894933335152,24915.213420211647,-24915.213420211647,28343.894933335152,98208.684337933242,0.0
360012.02908761695,3852225.878295721,-2500.0,-8468.1786702457975,33407.696137512299,-67057.315782156729,1724.6042918567061,-3506.8555761012503,-65.014066318037024,44526.322427305866,-6327.9003418322482,10981.06081285095,-10981.06081285095,6327.9003418322482,85963.211303829914,0.0
365012.02908761695,3852225.878295721,-2500.0,-15609.097018194339,35917.260262587704,-39569.419911779645,1904.5978348356437,-2318.0667381943917,-50.056287344280591,37932.727216907821,11368.069239093969,-3763.2035749758566,3763.2035749758566,-11368.069239093969,71317.12273158296,0.0
370012.02908761695,3852225.878295721,-2500.0,-20596.393415143335,31218.663185376863,-13961.529773241091,1781.1224902556501,-1170.967586978833,-34.871364181649454,31443.642703789239,21685.211821912206,-15206.429513065284,15206.429513065284,-21685.211821912206,57164.851001396739,0.0
375012.02908761695,3852225.878295721,-2500.0,-21807.203638867348,22124.476772954742,5730.8061979847762,1437.4958050133821,-209.26695792652464,-18.332721798963718,26093.515903470052,24637.706511052682,-21247.580310122052,21247.580310122052,-24637.706511052682,45911.683893595953,0.0
380012.02908761695,3852225.878295721,-2500.0,-19406.50618668849,11867.991039716491,18268.307351760013,984.8515199944984,493.6819393365314,-1.6313160555465518,22291.457900005666,22321.362931961285,-22089.219787797887,22089.219787797887,-22321.362931961285,38614.172249203031,0.0
385012.02908761695,3852225.878295721,-2500.0,-14657.733854245267,2779.4797475208384,24516.554098175089,524.51963858433965,932.90784135966112,13.000487769643245,19809.339033030032,17334.521639356957,-19300.17107574315,19300.17107574315,-17334.521639356957,34666.30277086667,0.0
390012.02908761695,3852225.878295721,-2500.0,-9018.9786095555501,-4062.4802451980704,26241.692629857524,124.97051914340514,1150.0030244005729,23.883163025387219,18119.565485903506,11722.199394916599,-14699.816910449579,14699.816910449579,-11722.199394916599,32553.901766973693,0.0
395012.02908761695,3852225.878295721,-2500.0,-3595.7557823963607,-8533.2896023452395,25207.473211482498,-182.27678255450056,1205.6719743458091,30.531573207148917,16768.197821252983,6674.7249565868051,-9702.7202425125797,9702.7202425125797,-6674.7249565868051,31003.8526456988,0.0
400012.02908761695,3852225.878295721,-2500.0,995.57988337416157,-11007.127005525081,22769.179306214537,-393.96396174856272,1158.8467729280342,33.430223016911462,15509.76295594916,2678.5059148619544,-5153.2834111677093,5153.2834111677093,-2678.5059148619544,29392.682085355991,0.0
405012.02908761695,3852225.878295721,-2500.0,4536.0502145293212,-12010.441457439574,19813.610587307427,-522.79261244917302,1056.2896166516994,33.519533919335224,14260.669362748307,-210.70890910191792,-1426.0167749657785,1426.0167749657785,210.70890910191792,27556.915817892288,0.0
410012.02908761695,3852225.878295721,-2500.0,7052.6364031498069,-12034.964639941969,16850.626823428349,-587.38202045387231,930.38453803035839,31.783288240855413,13018.587804253937,-2140.9391489197983,1404.5782660256014,-1404.5782660256014,2140.9391489197983,25538.91671611568,0.0
415012.02908761695,3852225.878295721,-2500.0,8690.9807134034872,-11467.694603044009,14134.669540048917,-606.17700099738772,801.18194821283669,29.035502960295368,11808.639522294485,-3323.2549296877837,3419.7253864774016,-3419.7253864774016,3323.2549296877837,23438.602026726418,0.0
420012.02908761695,3852225.878295721,-2500.0,9633.1917520239385,-10583.843442699354,11765.845489850648,-594.6666060319676,679.73357804505497,25.861262402393784,10695.16099777672,-3961.1532497472026,4761.5355660876967,-4761.5355660876967,3961.1532497472026,21350.371068638859,0.0
425012.02908761695,3852225.878295721,-2500.0,10054.005038229398,-9565.2940652721481,9759.750175912297,-564.66080467163829,571.19518051495811,22.638358375404316,9758.6019629943785,-4223.2140773618339,5580.5370113265599,-5580.5370113265599,4223.2140773618339,19343.810222124521,0.0
430012.02908761695,3852225.878295721,-2500.0,10102.098898537028,-8524.7150941584168,8090.6960732442922,-524.58163818604748,477.1812311688771,19.586126399125895,8858.8110942796757,-4238.0189468444605,6011.3216353628541,-6011.3216353628541,4238.0189468444605,17462.63944045153,0.0
435012.02908761695,3852225.878295721,-2500.0,9895.4740784299065,-7527.0717646037274,6716.423562416875,-480.12274962868594,397.36126408256945,16.814915618744468,8015.3993464767582,-4098.5797705640998,6164.2406387010997,-6164.2406387010997,4098.5797705640998,15729.754672737308,0.0
440012.02908761695,3852225.878295721,-2500.0,9523.5612469051102,-6606.1454533387841,5591.1708907024713,-434.94471391247015,330.45859614696371,14.366281432705323,7238.4254283541622,-3869.6304148429117,6125.1295141773026,-6125.1295141773026,3869.6304148429117,14153.205603086408,0.0
445012.02908761695,3852225.878295721,-2500.0,9051.8627689631176,-5776.24159268739,4671.9519183325801,-391.27061689095075,274.83579894833105,12.240838165680312,6531.093926081976,-3594.7988204378262,5958.4092993513541,-5958.4092993513541,3594.7988204378262,12731.31684384142,0.0
270012.02908761695,3857225.878295721,-2500.0,-3773.7889125929287,2242.0759928156949,3832.2068181124082,-100.04456934342224,175.06954247289411,0.0033891216656067868,4419.3164199438179,4440.3261859324539,-4384.8023562708368,4384.8023562708368,-4440.3261859324539,7654.5359304748172,0.0
275012.02908761695,3857225.878295721,-2500.0,-5415.4141710512058,1811.362830829881,4127.9901979194392,-168.3261332606231,175.19889562163132,-1.508513945268934,5109.5753614391833,4453.2564608215853,-5621.9579422927563,5621.9579422927563,-4453.2564608215853,8873.5585560554355,0.0
280012.02908761695,3857225.878295721,-2500.0,-7474.0160987676163,1077.3888251961419,4312.314738404375,-261.5106229677732,162.53602744740988,-3.8469169353922608,5998.0017634483775,4206.3952943933709,-7081.9051320743947,7081.9051320743947,-4206.3952943933709,10509.131941418815,0.0
285012.02908761695,3857225.878295721,-2500.0,-10015.496353089011,-81.349709836247484,4278.6619630275172,-386.7924340703492,128.96486694033624,-7.3590620836700467,7156.9871466361728,3549.2302020239099,-8759.1563535187524,8759.1563535187524,-3549.2302020239099,12725.818221729529,0.0
290012.02908761695,3857225.878295721,-2500.0,-13091.033445610083,-1819.879531014448,3858.6196466500683,-552.41401706580393,62.520252043948716,-12.503251884364559,8680.8954153524355,2268.0318122252611,-10611.777474809949,10611.777474809949,-2268.0318122252611,15732.934781615701,0.0
295012.02908761695,3857225.878295721,-2500.0,-16714.835891055995,-4325.4908914827856,2793.9453691830045,-766.91284977317071,-53.942209785507956,-19.855736230005924,10688.377448173083,69.080044749240187,-12535.980502236062,12535.980502236062,-69.080044749240187,19786.839117092146,0.0
300012.02908761695,3857225.878295721,-2500.0,-20828.853227993561,-7804.9523191896951,701.81460364853137,-1037.3990276106633,-244.08816696147807,-30.084732699845212,13322.304990535837,-3433.7452484186842,-14330.633354643382,14330.633354643382,3433.7452484186842,25189.406937433607,0.0
305012.02908761695,3857225.878295721,-2500.0,-25251.844940780746,-12449.465020417878,-2961.9750102247986,-1366.2504653095471,-538.89729446225817,-43.854037614851535,16744.971908296466,-8715.7525008307784,-15652.991842648735,15652.991842648735,8715.7525008307784,32277.499255993011,0.0
310012.02908761695,3857225.878295721,-2500.0,-29614.807463679077,-18361.457796535251,-8927.7704846484903,-1745.531103248434,-975.70043804698616,-61.594723421644581,21124.336838588235,-16301.423613266114,-15974.206083723333,15974.206083723333,16301.423613266114,41393.278261202024,0.0
315012.02908761695,3857225.878295721,-2500.0,-33296.762750567214,-25424.172198369804,-18093.480142858778,-2148.772695528377,-1593.2819275400068,-83.071836128740102,26604.717259123368,-26652.968823391682,-14558.168050703063,14558.168050703063,26652.968823391682,52820.117823633445,0.0
320012.02908761695,3857225.878295721,-2500.0,-35399.114254672502,-33101.630321534365,-31404.241536408823,-2521.1506277900939,-2419.8451882569084,-106.70055573466833,33413.409793242143,-39940.782411460212,-10513.016660729098,10513.016660729098,39940.782411460212,66665.689193051323,0.0
325012.02908761695,3857225.878295721,-2500.0,-34834.748112944522,-40189.92778569951,-49541.455788337335,-2772.3961657361774,-3450.7465636246211,-128.74014417019237,41696.006811321509,-55655.977069477405,-2997.561706899105,2997.561706899105,55655.977069477405,82678.15755598573,0.0
330012.02908761695,3857225.878295721,-2500.0,-30644.170626569776,-44626.382427667195,-72328.769488381178,-2782.1653387686861,-4616.9288511233826,-142.92170223348484,50590.082985335219,-72090.721086830396,8320.4001241248152,-8320.4001241248152,72090.721086830396,100005.37859593667,0.0
335012.02908761695,3857225.878295721,-2500.0,-22624.272755125388,-43611.884868493711,-97862.797484135939,-2431.5537610766437,-5756.4794467226611,-141.65122554088549,59185.17753069973,-85894.698347135898,22532.375034803223,-22532.375034803223,85894.698347135898,116965.81202837014,0.0
340012.02908761695,3857225.878295721,-2500.0,-12145.378253714556,-34433.751637235007,-121696.46420316659,-1666.647894985821,-6619.0390346001959,-119.98490689283619,66114.026209632415,-92226.04560079462,36743.122875572852,-36743.122875572852,92226.04560079462,130997.18833719409,0.0
345012.02908761695,3857225.878295721,-2500.0,-2564.0246511354326,-16201.893732480003,-136939.92734570728,-568.82975296244194,-6936.6601872631072,-81.422880504188129,69773.026180392757,-86216.574445572944,46065.172936355288,-46065.172936355288,86216.574445572944,139030.48204466628,0.0
350012.02908761695,3857225.878295721,-2500.0,1755.6053927079599,8165.0420628589227,-136392.0806658557,632.09739671664454,-6551.480454971208,-40.141086912747689,69727.604378069504,-65915.884122314601,45347.738304291619,-45347.738304291619,65915.884122314601,138455.3997261367,0.0
355012.02908761695,3857225.878295721,-2500.0,-1860.6156500686261,31641.585185258875,-116672.71481880988,1647.3245056802289,-5511.6072572157436,-13.352874847495322,65684.955951730532,-35104.497972877885,32575.518888229508,-32575.518888229508,35104.497972877885,128452.95959648192,0.0
360012.02908761695,3857225.878295721,-2500.0,-11793.574270580808,46185.600668299892,-81632.355709631243,2263.4592554418068,-4042.762174957913,-7.4742052130760683,58005.024188488911,-2845.4710029533917,11441.178072911651,-11441.178072911651,2845.4710029533917,110919.90381718807,0.0
365012.02908761695,3857225.878295721,-2500.0,-22635.801827970099,47646.6939017736,-41224.961669322001,2409.4898593775119,-2432.1107000087309,-13.154476258271004,48619.859003394427,21333.3267268579,-10149.202297282716,10149.202297282716,-21333.3267268579,90131.358445822203,0.0
370012.02908761695,3857225.878295721,-2500.0,-28967.313711541017,38009.042285480449,-5918.6781213856666,2139.3305878569295,-936.96972128250331,-15.690296093634608,39769.118375687787,32815.75901300455,-25046.445910011851,25046.445910011851,-32815.75901300455,71081.407641929487,0.0
375012.02908761695,3857225.878295721,-2500.0,-28677.822498439557,23021.048548855568,18412.347586445514,1589.6078889677044,258.09133006575843,-7.9026918342609722,32966.775721199898,33055.12660260556,-30629.900292329101,30629.900292329101,-33055.12660260556,57332.917615622871,0.0
380012.02908761695,3857225.878295721,-2500.0,-23073.960750721311,8194.8489658436411,31343.124337145211,930.18733205855608,1067.9346343911386,7.5609539462732087,28449.693889148861,26659.752898201972,-28557.946573527894,28557.946573527894,-26659.752898201972,49451.294324718496,0.0
385012.02908761695,3857225.878295721,-2500.0,-14890.969447287769,-3368.3120323133799,35606.336375259423,307.89090551349733,1507.8307756643828,24.148164821935904,25508.531659147098,18069.222460708181,-22216.171884313866,22216.171884313866,-18069.222460708181,45391.706318393182,0.0
390012.02908761695,3857225.878295721,-2500.0,-6526.9944865401412,-10893.769466525784,34578.502226738419,-189.83638432777369,1658.3321595527523,36.914909046226029,23300.562960540767,10053.222861460503,-14601.143988822952,14601.143988822952,-10053.222861460503,42747.104700720723,0.0
395012.02908761695,3857225.878295721,-2500.0,615.7653960336005,-14924.527860192917,30953.091296782961,-536.03094829151598,1618.5941472634649,44.113267986395385,21320.053143888341,3771.4913021060629,-7551.4300182618454,7551.4300182618454,-3771.4913021060629,40186.672541981825,0.0
400012.02908761695,3857225.878295721,-2500.0,6023.6011052169233,-16432.208198552227,26450.392100840269,-743.67059241003165,1474.4409046722833,46.27176886443111,19386.569729397306,-614.24713296667551,-1866.0815759120396,1866.0815759120396,614.24713296667551,37327.113176291037,0.0
405012.02908761695,3857225.878295721,-2500.0,9726.9379890893306,-16336.243038699789,22001.406067979922,-843.06294788937555,1286.7153917879023,44.835556829714434,17486.993696918125,-3390.1139587669986,2308.4767866880084,-2308.4767866880084,3390.1139587669986,34219.380709312922,0.0
410012.02908761695,3857225.878295721,-2500.0,12001.694124675389,-15336.434213696581,18026.315144321288,-866.69267333907101,1092.6126155484617,41.27938766848618,15661.687821728816,-4960.7578886903975,5141.644086335833,-5141.644086335833,4960.7578886903975,31029.954300094949,0.0
415012.02908761695,3857225.878295721,-2500.0,13185.766673277651,-13904.565731105375,14658.543536017192,-842.04973212808716,911.82972928970821,36.743573600395308,13965.08756155855,-5698.7731718838631,6908.5761616716436,-6908.5761616716436,5698.7731718838631,27911.713406449428,0.0
420012.02908761695,3857225.878295721,-2500.0,13590.064385705129,-12332.209370856352,11889.455048150303,-789.66163390003749,752.86691007787238,31.980784674125452,12582.190890873022,-5896.3812756504922,7884.3056367435311,-7884.3056367435311,5896.3812756504922,24969.541157602507,0.0
425012.02908761695,3857225.878295721,-2500.0,13466.795009407859,-10785.629018698268,9650.706258337781,-723.64042899046592,617.81180183634388,27.427507738944755,11282.459546062775,-5763.8555183947446,8301.5707949171465,-8301.5707949171465,5763.8555183947446,22262.046934686256,0.0
430012.02908761695,3857225.878295721,-2500.0,13006.270559215815,-9350.5064081262808,7856.7488173438724,-653.07065484529835,505.47005721005206,23.301279496396468,10087.2528135908,-5444.3078232203034,8341.1990520693216,-8341.1990520693216,5444.3078232203034,19813.149596928783,0.0
435012.02908761695,3857225.878295721,-2500.0,12345.411555690756,-8063.7488440572815,6424.6746078547167,-583.44110807697621,413.22820035252005,19.68315681342817,9006.1087449054467,-5031.1505719728784,8136.6033480054602,-8136.6033480054602,5031.1505719728784,17624.044101871856,0.0
440012.02908761695,3857225.878295721,-2500.0,11579.181211056353,-6934.3117089363541,5281.9963515015779,-517.81554433634972,338.06915004422439,16.576210080661102,8038.6670739659621,-4583.0744427790687,7782.7503615541755,-7782.7503615541755,4583.0744427790687,15682.404729805212,0.0
445012.02908761695,3857225.878295721,-2500.0,10771.358332560607,-5956.20963094125,4368.593288384588,-457.69761981595519,277.07995298798528,13.943749907962697,7179.0095678930738,-4135.4378382787418,7345.3884149634887,-7345.3884149634887,4135.4378382787418,13968.831425578284,0.0
265012.02908761695,3862225.878295721,-2500.0,-967.16887262243813,3518.9809207022122,3888.9117865393673,15.744332620569502,212.63744383883483,2.9638283851902125,4279.9614769431882,5174.7332306656353,-2539.2306987225243,2539.2306987225243,-5174.7332306656353,7556.3021406016278,0.0
270012.02908761695,3862225.878295721,-2500.0,-2164.2330083095007,3546.9578263854014,4411.9798094316711,-24.753857518096634,233.8284667285935,2.4445732222343164,4841.9063466428097,5636.8319068197934,-3595.5712828777187,3595.5712828777187,-5636.8319068197934,8461.7450248378518,0.0
275012.02908761695,3862225.878295721,-2500.0,-3757.6315687513534,3406.5889174326403,4957.0576674791755,-84.78081197036019,251.30047432670747,1.4106911081987781,5537.1941856824378,6021.4038528273586,-4924.4172263845712,4924.4172263845712,-6021.4038528273586,9609.5205590861078,0.0
280012.02908761695,3862225.878295721,-2500.0,-5850.2399505414742,3002.2125067966044,5479.9828532418887,-171.68944901015379,260.28644453751872,-0.41099276976492072,6419.0219177210138,6237.8938664031339,-6572.0474273234558,6572.0474273234558,-6237.8938664031339,11119.626831472877,0.0
285012.02908761695,3862225.878295721,-2500.0,-8558.6898444826602,2197.7189615241859,5897.9278684615047,-295.04415427807601,252.99488081315749,-3.4110061064747361,7564.549788278614,6142.8472508562709,-8575.8512230065953,8575.8512230065953,-6142.8472508562709,13170.01421396863,0.0
290012.02908761695,3862225.878295721,-2500.0,-12004.286892280557,804.67623205472228,6064.8436024313387,-466.8300391385693,217.06140509818582,-8.1313737774342449,9082.8835151352778,5515.5994164266003,-10947.70678428391,10947.70678428391,-5515.5994164266003,16011.832309037167,0.0
295012.02908761695,3862225.878295721,-2500.0,-16292.727789305409,-1428.2563440448012,5734.3766301247579,-701.18565230768695,133.42813487896839,-15.291176020705677,11123.070094224109,4026.8899936192465,-13645.176362824797,13645.176362824797,-4026.8899936192465,19981.281679460782,0.0
300012.02908761695,3862225.878295721,-2500.0,-21475.331249486357,-4818.2981955361711,4506.6707773148028,-1013.0614013935693,-26.311997507319198,-25.776745762287831,13880.38650772433,1202.8597234386325,-16524.939229941912,16524.939229941912,-1202.8597234386325,25506.359967959528,0.0
305012.02908761695,3862225.878295721,-2500.0,-27482.522161150508,-9730.899873223776,1758.033154491156,-1414.7749508756447,-302.67826817909202,-40.536886607850441,17598.207092827499,-3606.3740597125297,-19273.297799595188,19273.297799595188,3606.3740597125297,33105.959984557252,0.0
310012.02908761695,3862225.878295721,-2500.0,-34021.011779376531,-16517.616754873106,-3438.842051225276,-1908.9006120732768,-749.8380692141568,-60.27054751112118,22560.534017841346,-11230.469855317599,-21313.646198309845,21313.646198309845,11230.469855317599,43371.896011881763,0.0
315012.02908761695,3862225.878295721,-2500.0,-40435.187838371334,-25370.916017249943,-12374.791930201389,-2475.6335199315813,-1432.7748650305734,-84.718619671603619,29065.757453690214,-22606.703746675914,-21706.85357296314,21706.85357296314,22606.703746675914,56911.255454567159,0.0
320012.02908761695,3862225.878295721,-2500.0,-45562.720239719638,-36045.279445418324,-26670.23768571921,-3053.8218440312676,-2414.0576327768449,-111.34375348803611,37366.582408324153,-38545.743292336374,-19098.838537632342,19098.838537632342,38545.743292336374,74211.260610827725,0.0
325012.02908761695,3862225.878295721,-2500.0,-47681.957330115445,-47407.365047052546,-47996.451588049604,-3519.6966091504296,-3721.2923651085157,-133.36715939949013,47846.4544802979,-59210.498792265324,-11842.751889197883,11842.751889197883,59210.498792265324,95378.219305129052,0.0
330012.02908761695,3862225.878295721,-2500.0,-44765.681871166766,-56875.291855917669,-77308.689155570115,-3679.3382953036071,-5288.6928498718016,-138.05421764101601,60386.655113201348,-83200.402024002571,1474.8969942852927,-1474.8969942852927,83200.402024002571,119715.95366972176,0.0
335012.02908761695,3862225.878295721,-2500.0,-35365.009842571475,-60085.261921295423,-113349.2241422543,-3308.6189942660994,-6886.0591400417743,-108.15161245736473,73360.094635279529,-106354.31414853336,20837.172841032603,-20837.172841032603,106354.31414853336,145189.09232717214,0.0
340012.02908761695,3862225.878295721,-2500.0,-20293.240573997075,-51613.160102958187,-150584.1306447321,-2275.3369920090863,-8096.9227613041294,-31.445718763278926,84724.353072956335,-121035.34329522977,42983.926566880786,-42983.926566880786,121035.34329522977,168018.30403152196,0.0
345012.02908761695,3862225.878295721,-2500.0,-4367.4085750112745,-27840.774547649173,-177969.19437254695,-709.96243743359184,-8450.7406702394564,80.666807088234918,91798.569548146465,-117661.00298612045,60158.064551164643,-60158.064551164643,117661.00298612045,182949.83632746583,0.0
350012.02908761695,3862225.878295721,-2500.0,4184.2558436676918,8275.1304315337493,-181565.62274931671,949.6304879278357,-7723.3960655630481,181.67444049144038,93452.145902168399,-90205.565190613954,62136.172685621437,-62136.172685621437,90205.565190613954,184831.41056385156,0.0
355012.02908761695,3862225.878295721,-2500.0,-990.07593929879056,44609.819843597958,-152990.25230743448,2206.035359411414,-6140.3667713444256,214.60226866387745,88265.472545438242,-43602.350832640805,43316.844601816963,-43316.844601816963,43602.350832640805,171424.72497665518,0.0
360012.02908761695,3862225.878295721,-2500.0,-17431.222173777103,65494.537870154927,-98537.539726759656,2828.4671135131985,-4172.1391032697275,165.57150837870267,77131.379886275579,5222.3248150939462,9987.3808190287637,-9987.3808190287637,-5222.3248150939462,145807.8098607893,0.0
365012.02908761695,3862225.878295721,-2500.0,-34223.832150838862,63473.580359172818,-37629.288359537328,2849.9711637164282,-2179.5211142938747,80.519080049300584,63564.619459355614,38165.840354318272,-22250.210868571681,22250.210868571681,-38165.840354318272,115890.08484701454,0.0
370012.02908761695,3862225.878295721,-2500.0,-41364.464882898006,44341.057982713719,10713.612975603184,2377.4547979124027,-386.1540448964854,17.444842393549386,51469.380094014268,48668.25002543717,-40623.820245088194,40623.820245088194,-48668.25002543717,90472.597051304707,0.0
375012.02908761695,3862225.878295721,-2500.0,-36944.645860089062,20040.98471726237,38794.24028062023,1570.5768833082757,1007.6206202689575,-1.5290603942817644,42886.071754482022,42480.753050452404,-43003.891004777804,43003.891004777804,-42480.753050452404,74286.684366925139,0.0
380012.02908761695,3862225.878295721,-2500.0,-25362.397575547595,-453.63879935591382,49352.525298242632,660.44219079773427,1879.1780109454025,10.793908683526734,37404.700915980917,29236.15434002519,-34897.378005212769,34897.378005212769,-29236.15434002519,65900.54891622001,0.0
385012.02908761695,3862225.878295721,-2500.0,-12018.666235207977,-13899.87285423745,48964.488971271312,-140.7157911989982,2256.7783198209117,32.777248883814202,33562.223306641026,15893.949212939033,-22942.365560724207,22942.365560724207,-15893.949212939033,61026.268152192824,0.0
390012.02908761695,3862225.878295721,-2500.0,-369.75522908780738,-20858.122274142581,43386.622781915903,-722.03710976903972,2274.6722350488644,50.564779030537714,30284.192820400338,5501.3549037650964,-11496.814496554209,11496.814496554209,-5501.3549037650964,56733.374770886527,0.0
395012.02908761695,3862225.878295721,-2500.0,8274.674060448513,-23219.496043393836,36225.122274858142,-1072.2853292003081,2085.182337456406,59.802477032911057,27157.221512248332,-1448.9988550092039,-2428.111003071117,2428.111003071117,1448.9988550092039,52079.260233313675,0.0
400012.02908761695,3862225.878295721,-2500.0,13924.487115370432,-22822.587633989293,29291.565890172667,-1234.6138404677827,1806.4149000059797,61.466015506550605,24134.118648060026,-5549.6157346770342,3950.6686450287689,-3950.6686450287689,5549.6157346770342,47099.239258145994,0.0
405012.02908761695,3862225.878295721,-2500.0,17139.535765629327,-21007.983571885987,23300.764740188057,-1266.3110605092952,1511.6221970249217,58.155167036167271,21279.968320696364,-7627.9957383213978,8017.1121813050604,-8017.1121813050604,7627.9957383213978,42079.072709315638,0.0
410012.02908761695,3862225.878295721,-2500.0,18584.415742374898,-18618.611285578416,18408.823380872265,-1217.8056985940891,1238.5277572461166,52.268212729972205,18661.23555698476,-8401.7777215973456,10334.839557997881,-10334.839557997881,8401.7777215973456,37272.325993622821,0.0
415012.02908761695,3862225.878295721,-2500.0,18838.150197031453,-16131.216068543215,14530.896924905208,-1126.2459649019092,1002.3099453010682,45.474505307174681,16525.784581462722,-8395.7648062425633,11428.799982007133,-11428.799982007133,8395.7648062425633,32836.562513289704,0.0
420012.02908761695,3862225.878295721,-2500.0,18342.750009111645,-13788.081676014202,11502.794237028398,-1016.1879919495859,805.82090430313758,38.75866053234742,14602.707264696892,-7960.5807289311624,11714.1263810974,-11714.1263810974,7960.5807289311624,28844.447437656774,0.0
425012.02908761695,3862225.878295721,-2500.0,17411.293127514102,-11693.780419146668,9153.5716440594406,-902.56205765655375,646.08494015203325,32.616930536674857,12873.513819647009,-7316.9525756100593,11492.754053523953,-11492.754053523953,7316.9525756100593,25310.664080561102,0.0
430012.02908761695,3862225.878295721,-2500.0,16254.672633163193,-9877.5502703920301,7333.2125502809713,-793.71438518291575,517.94147897510163,27.244568274586225,11342.069485665415,-6597.2740201277575,10973.352541027978,-10973.352541027978,6597.2740201277575,22215.810937660644,0.0
435012.02908761695,3862225.878295721,-2500.0,15009.238422542967,-8330.4947921854709,5919.6128993414741,-693.79321525007458,415.87840018142811,22.669508614042762,9998.4565222743659,-5876.9988906096714,10294.928431102466,-10294.928431102466,5876.9988906096714,19523.078207966897,0.0
440012.02908761695,3862225.878295721,-2500.0,13759.645181117707,-7026.6680466817052,4817.1492323480406,-604.41926535060338,334.84836486457448,18.836701544270092,8826.1885669268668,-5196.2499276459675,9547.2484568767995,-9547.2484568767995,5196.2499276459675,17188.817790842546,0.0
445012.02908761695,3862225.878295721,-2500.0,12555.884862521922,-5934.4257591058204,3952.4558706062362,-525.77547153591411,270.55350472815132,15.657229592843764,7806.4549909913576,-4573.9125806806614,8786.4439009083399,-8786.4439009083399,4573.9125806806614,15168.667902272568,0.0
450012.02908761695,3862225.878295721,-2500.0,11425.291552206267,-5022.1592075298922,3269.8190745487823,-457.28435198066575,219.47581275407646,13.03440414683703,6920.4543777780664,-4016.51864227038,8046.2034240472394,-8046.2034240472394,4016.51864227038,13420.770492728681,0.0
265012.02908761695,3867225.878295721,-2500.0,996.07947452106328,4558.9223775820683,4129.8387204607106,99.688079537247077,255.29347551253355,5.4231727181914335,4826.4502843381188,5919.5424149434684,-1337.4129118447445,1337.4129118447445,-5919.5424149434684,8745.4549575831788,0.0
270012.02908761695,3867225.878295721,-2500.0,22.169406332724577,4877.4339498072277,4807.3269553850951,74.047224960404122,291.38659232133438,5.5047075556668261,5439.2658654737343,6679.5251472222153,-2325.5727476945681,2325.5727476945681,-6679.5251472222153,9727.1273718358043,0.0
275012.02908761695,3867225.878295721,-2500.0,-1364.1467796431314,5098.7581229443203,5578.3509259929087,30.290951010496187,328.68385742740912,5.2018159376297923,6175.8057958621812,7462.330751297126,-3632.625384106781,3632.625384106781,-7462.330751297126,10903.464840790601,0.0
280012.02908761695,3867225.878295721,-2500.0,-3298.2913348322804,5136.2750680703011,6427.7174587797617,-39.875614166057581,363.77550644220162,4.2493364653829389,7082.0155589829992,8204.8176857119743,-5339.7332430365586,5339.7332430365586,-8204.8176857119743,12366.374371836349,0.0
285012.02908761695,3867225.878295721,-2500.0,-5949.5624779384543,4856.1562206490371,7310.4081636016081,-147.95319696218783,390.30835105904424,2.2466677639370598,8228.6881864552342,8792.6306987223543,-7535.8428313027762,7535.8428313027762,-8792.6306987223543,14268.82934846255,0.0
290012.02908761695,3867225.878295721,-2500.0,-9520.66373844794,4056.894910784396,8126.5619670805181,-309.48855772330825,397.09833801362504,-1.3934844424189503,9724.5037580487478,9029.5370066761552,-10305.92361375033,10305.92361375033,-9029.5370066761552,16857.875615568824,0.0
295012.02908761695,3867225.878295721,-2500.0,-14237.197966521953,2443.9218314606796,8679.5599680660198,-544.69285243805086,365.25485353515819,-7.4952929800251979,11732.943523152317,8592.2758836747507,-13705.483957248032,13705.483957248032,-8592.2758836747507,20512.731333214539,0.0
300012.02908761695,3867225.878295721,-2500.0,-20316.950439301701,-397.06996302110389,8608.3442804086317,-878.18648558397695,264.0292553367122,-17.137597538990782,14491.318968107702,6967.8995825420925,-17711.499130086188,17711.499130086188,-6967.8995825420925,25779.30893856076,0.0
305012.02908761695,3867225.878295721,-2500.0,-27902.376196865065,-5016.9212028841866,7283.5576624442438,-1336.4887126760452,45.354356116705446,-31.556634349887389,18327.936248948718,3375.2707562814212,-22135.809910297587,22135.809910297587,-3375.2707562814212,33392.289278583441,0.0
310012.02908761695,3867225.878295721,-2500.0,-36932.425906467091,-12083.397709212246,3660.2937557869523,-1940.6298946279401,-362.00978025874326,-51.746819706814932,23670.964364299063,-3313.930111475911,-26485.090185413737,26485.090185413737,3313.930111475911,44278.472188641419,0.0
315012.02908761695,3867225.878295721,-2500.0,-46926.295744492367,-22270.383464316667,-3902.3756996173111,-2689.508116764443,-1055.2623812192594,-77.37427626993555,31037.888913034942,-14606.709713653861,-29758.91713866033,29758.91713866033,14606.709713653861,59524.834515345319,0.0
320012.02908761695,3867225.878295721,-2500.0,-56668.050009691644,-35957.335527304589,-17793.141453637567,-3528.4712205941482,-2148.1336848728884,-104.33791242450727,40984.021885217975,-32258.129813575459,-30213.30129820426,30213.30129820426,32258.129813575459,80260.741357211999,0.0
325012.02908761695,3867225.878295721,-2500.0,-63855.326074289791,-52593.351014060194,-41085.877461035008,-4301.4134024514442,-3730.1893524335687,-120.22025042135508,53980.673726341643,-57748.335957918607,-25219.777617524858,25219.777617524858,57748.335957918607,107353.75824753544,0.0
330012.02908761695,3867225.878295721,-2500.0,-64983.352498717497,-69602.372203958017,-76837.198958787994,-4704.8644988906226,-5766.9997704022053,-98.119020408572709,70788.707306195443,-90999.93896909969,-11579.450315718503,11579.450315718503,90999.93896909969,140781.38922734221,0.0
335012.02908761695,3867225.878295721,-2500.0,-56141.761699510003,-81023.513127913786,-126003.43786865221,-4314.2032289025638,-7933.7143851511692,5.2486048840425212,90188.077213398952,-128013.54929962038,12993.068168075581,-12993.068168075581,128013.54929962038,178591.04785553727,0.0
340012.02908761695,3867225.878295721,-2500.0,-35762.078684484884,-77122.131119055135,-183313.4146240472,-2812.0197290939736,-9489.2233949250985,230.11792997171167,108863.18148652169,-157970.66440434731,46418.954474369835,-46418.954474369835,157970.66440434731,215673.03823233623,0.0
345012.02908761695,3867225.878295721,-2500.0,-9380.8847850513521,-47974.158295895155,-232348.09154646084,-445.67042251694818,-9513.9703293187868,554.3032428889627,122401.83176668517,-162997.09888485097,77661.477856990881,-77661.477856990881,162997.09888485097,243320.78975835949,0.0
350012.02908761695,3867225.878295721,-2500.0,7943.6634556049394,6293.8697559996126,-246294.82882618104,1767.704774117984,-7747.7189753317225,831.42218026966134,127565.99513998705,-126891.23519909471,86758.988384666285,-86758.988384666285,126891.23519909471,251372.00244472866,0.0
355012.02908761695,3867225.878295721,-2500.0,736.59544390568703,64963.924846602044,-204081.45082622036,2865.0407191656072,-5190.4053507383205,860.91500303697796,121396.34850387579,-53861.775970388298,58495.770468847935,-58495.770468847935,53861.775970388298,233970.70610438817,0.0
360012.02908761695,3867225.878295721,-2500.0,-27855.370123662804,95439.706686930818,-115643.23513184147,3001.541589066117,-3027.4465589563456,607.8553262817145,105110.77003514889,22810.493449181457,3470.2058667467154,-3470.2058667467154,-22810.493449181457,195949.80768146328,0.0
365012.02908761695,3867225.878295721,-2500.0,-54072.287782497457,83672.754569345067,-21702.257018790657,2790.1432725391001,-1262.5392396307022,265.96437760484463,85265.95243786565,66368.732044298289,-45182.371268216186,45182.371268216186,-66368.732044298289,152555.10457370454,0.0
370012.02908761695,3867225.878295721,-2500.0,-59105.70788038749,46400.693732677166,42199.660621284049,2233.975871093402,487.75138228469893,37.212154035265456,68729.711318367859,69534.731269656273,-64410.880253056006,64410.880253056006,-69534.731269656273,119347.92061254042,0.0
375012.02908761695,3867225.878295721,-2500.0,-44720.862214103719,8490.7821061267114,69471.521533873092,1228.5983781481057,1996.5135123476077,-35.122339984288324,57767.769334483099,50079.603091815494,-57135.22971197978,57135.22971197978,-50079.603091815494,100830.11158000084,0.0
380012.02908761695,3867225.878295721,-2500.0,-22826.347538011272,-17311.012628809447,71978.561914656428,57.313181335581902,2890.8634561963504,-15.588575898867575,50524.087975261042,26690.909578584356,-37984.427079885565,37984.427079885565,-26690.909578584356,90938.574029287542,0.0
385012.02908761695,3867225.878295721,-2500.0,-2727.1627284124584,-30213.101703028922,63065.695285251444,-919.01856917046587,3139.3425229429063,27.314184768145665,44739.126150786789,8376.0692802401627,-18331.478741794082,18331.478741794082,-8376.0692802401627,83220.533184988672,0.0
390012.02908761695,3867225.878295721,-2500.0,11876.154432221299,-34097.57378148436,51065.431815131822,-1541.1000054922297,2951.5075194080887,60.080225482151747,39406.149724010153,-3225.8369848895609,-3058.8760744950405,3058.8760744950405,3225.8369848895609,75230.813182247817,0.0
395012.02908761695,3867225.878295721,-2500.0,20862.159157144644,-32956.978509924949,39786.650787851802,-1831.4442851503945,2557.3156135464142,75.774872834722146,34365.598013847746,-9450.5100798731073,7091.8712344719852,-7091.8712344719852,9450.5100798731073,66871.154932290927,0.0
400012.02908761695,3867225.878295721,-2500.0,25466.107863507026,-29540.489600208646,30471.607466863272,-1884.7710595202057,2112.524373096795,78.226365177181592,29716.319875071167,-12126.319744832097,13034.054409100387,-13034.054409100387,12126.319744832097,58639.965254113893,0.0
405012.02908761695,3867225.878295721,-2500.0,27086.56219761063,-25421.204719823581,23219.304314028348,-1796.4187700711434,1697.5102489920564,73.012021070945082,25555.841192731124,-12716.159576207232,15999.630491841584,-15999.630491841584,12716.159576207232,50963.30193722753,0.0
410012.02908761695,3867225.878295721,-2500.0,26856.591455077323,-21386.141313721186,17728.276500810694,-1637.1927800307524,1343.3303323433495,64.38564030888989,22149.598199214201,-12195.763035201153,17038.619875124503,-17038.619875124503,12195.763035201153,44069.679644197007,0.0
415012.02908761695,3867225.878295721,-2500.0,25575.71929149819,-17771.219108142261,13619.367749687395,-1452.1525219825467,1055.0946254222747,54.918940384924035,19230.214143665682,-11156.518784485863,16913.562146225733,-16913.562146225733,11156.518784485863,38029.521857924476,0.0
420012.02908761695,3867225.878295721,-2500.0,23765.933074162673,-14677.846070535637,10552.95241807435,-1266.9605896070827,826.59248911979284,45.934810499574809,16673.594442256915,-9933.7781941527646,16134.818466328052,-16134.818466328052,9933.7781941527646,32817.55819486257,0.0
425012.02908761695,3867225.878295721,-2500.0,21749.796590493217,-12096.479482809234,8258.521965328895,-1094.6400187509187,647.97923796078135,37.995183496848682,14464.240294652252,-8705.9627816293487,15026.858306215008,-15026.858306215008,8705.9627816293487,28360.63689665922,0.0
430012.02908761695,3867225.878295721,-2500.0,19716.883953977187,-9971.9734707051794,6531.7521529620581,-940.6788939437489,509.30604250601135,31.248936921153017,12569.224678524024,-7560.1685133532173,13787.863435135796,-13787.863435135796,7560.1685133532173,24567.617046205298,0.0
435012.02908761695,3867225.878295721,-2500.0,17771.954668776925,-8235.9500042809996,5222.1756192995463,-806.38224012432931,401.8788767941615,25.644850100902968,10949.837258091391,-6532.4589851598776,12534.033367881208,-12534.033367881208,6532.4589851598776,21345.82145218673,0.0
440012.02908761695,3867225.878295721,-2500.0,15967.512690265243,-6821.6747965476125,4220.2525333412359,-690.9151158407883,318.59869222738655,21.04944956405761,9567.6827720455476,-5631.6194757758722,11329.982660470236,-11329.982660470236,5631.6194757758722,18609.21563021031,0.0
445012.02908761695,3867225.878295721,-2500.0,14324.803640942677,-5669.9821345224955,3446.5146087996086,-592.47745895057471,253.87153095754994,17.307458448183443,8387.4981029238643,-4852.7122029821312,10208.618455307333,-10208.618455307333,4852.7122029821312,16281.679077345772,0.0
450012.02908761695,3867225.878295721,-2500.0,12847.043329687493,-4730.8970232260126,2843.2415016017658,-508.94900377211599,203.37460883048502,14.269927036889063,7378.2186209131369,-4184.6209889170314,9183.833683208346,-9183.833683208346,4184.6209889170314,14297.724752124775,0.0
260012.02908761695,3872225.878295721,-2500.0,3742.5120294528233,4895.2595460973962,3532.5063803690773,196.23789223443774,247.77720662611716,7.3870849163408758,4902.7734502081657,5518.7206533428043,824.8231404336093,-824.8231404336093,-5518.7206533428043,9241.2807564724808,0.0
265012.02908761695,3872225.878295721,-2500.0,3409.5476355012747,5492.1007402079586,4181.6376540954752,200.78682137651077,291.67940647337485,8.3000966654714308,5513.0353060991947,6413.0913053554596,274.00381569513456,-274.00381569513456,-6413.0913053554596,10278.928221654653,0.0
270012.02908761695,3872225.878295721,-2500.0,2809.7577654541615,6121.3061257782847,4966.6271172420038,196.80734501136561,342.66175649152234,9.1741721771482769,6224.1009565250879,7442.7909179736125,-522.64554784047095,522.64554784047095,-7442.7909179736125,11463.658380760569,0.0
275012.02908761695,3872225.878295721,-2500.0,1829.1499892607244,6749.6029005958781,5910.0589257145375,178.78502342357791,400.66275695926453,9.882005136061057,7061.1025275407928,8606.9809352046013,-1651.2170946067199,1651.2170946067199,-8606.9809352046013,12831.08424317093,0.0
280012.02908761695,3872225.878295721,-2500.0,311.35467602100937,7315.0362810095658,7029.8641399782828,138.42857419731823,464.39844130265271,10.206064756344785,8060.7925500086476,9883.7911566957519,-3222.9997239201766,3222.9997239201766,-9883.7911566957519,14439.047136946541,0.0
285012.02908761695,3872225.878295721,-2500.0,-1954.808951729962,7709.2054280817729,8328.9135162605708,63.456861770678863,530.22376710305809,9.7898380287815012,9279.6668379554903,11211.442277136246,-5377.4507499527335,5377.4507499527335,-11211.442277136246,16387.868822246615,0.0
290012.02908761695,3872225.878295721,-2500.0,-5247.875993499405,7750.3344061769412,9774.3656261475553,-63.977041680076525,590.16288866513378,8.0739227283078865,10807.986942333451,12456.190670866928,-8280.4539548779958,8280.4539548779958,-12456.190670866928,18857.274705863012,0.0
295012.02908761695,3872225.878295721,-2500.0,-9921.849496503115,7144.0657706507709,11258.497480673994,-269.11896633486617,628.59322792790124,4.2205205996738897,12792.739504446625,13359.455857521243,-12111.312104335961,12111.312104335961,-13359.455857521243,22167.815579684844,0.0
300012.02908761695,3872225.878295721,-2500.0,-16399.630900608692,5430.0985051238858,12527.286333799986,-586.21593357759559,616.85414621051211,-2.9381863104635952,15472.082896004995,13453.861277053384,-17026.099950267231,17026.099950267231,-13453.861277053384,26868.991112254138,0.0
305012.02908761695,3872225.878295721,-2500.0,-25131.24705475185,1918.0582288880328,13055.465719449565,-1058.4980989544865,504.93891544293405,-14.831974190499137,19220.398454951028,11936.969615591381,-23075.754982828697,23075.754982828697,-11936.969615591381,33839.459172821618,0.0
310012.02908761695,3872225.878295721,-2500.0,-36479.245704270208,-4369.0954048920703,11839.107052573932,-1733.1648837116093,209.86565740227223,-32.697279304678013,24595.974199340944,7497.6991144950225,-30044.423216297851,30044.423216297851,-7497.6991144950225,44366.514602313662,0.0
315012.02908761695,3872225.878295721,-2500.0,-50468.942849079031,-14690.438191097015,7076.864128698413,-2644.0504259989502,-397.27891589314908,-56.078371789974838,32374.325473764457,-1883.0239282843213,-37160.803088395507,37160.803088395507,1883.0239282843213,60173.094148782591,0.0
320012.02908761695,3872225.878295721,-2500.0,-66316.931084689117,-30392.891228112367,-4256.9475682433958,-3768.144832012234,-1495.698720319785,-78.800815716401502,43539.180481576819,-19059.092454185287,-42639.268428678886,42639.268428678886,19059.092454185287,83358.77749200043,0.0
325012.02908761695,3872225.878295721,-2500.0,-81666.832652168945,-52261.176689498832,-26817.084145586774,-4936.5970755756962,-3279.7469284375975,-79.55837485389317,59181.401901155099,-47489.123088753251,-43081.998647484004,43081.998647484004,47489.123088753251,116142.19181032131,0.0
330012.02908761695,3872225.878295721,-2500.0,-91653.929253786482,-78955.008944825197,-66772.125015888756,-5697.4485158704811,-5812.2085037076076,-3.9032370044442999,80423.974671603792,-89982.551939694153,-33065.865417552508,33065.865417552508,89982.551939694153,160121.27222683158,0.0
335012.02908761695,3872225.878295721,-2500.0,-88635.712183352996,-104075.27423689491,-129829.53561459685,-5231.9095664201241,-8663.694462437461,256.83033887113726,108499.49526685814,-145208.05613168553,-6044.7434172322392,6044.7434172322392,145208.05613168553,214622.7491827656,0.0
340012.02908761695,3872225.878295721,-2500.0,-65060.033105356379,-112625.72214824411,-214847.53716473459,-2700.5314251091504,-10411.391705715396,845.36760971629064,138889.43391914197,-200913.31980668264,40878.403310564041,-40878.403310564041,200913.31980668264,273956.84587690141,0.0
345012.02908761695,3872225.878295721,-2500.0,-23093.273911277232,-82240.113828886373,-301345.59029385727,1468.4498616025089,-8860.3193256702089,1769.2218321624364,164345.72080962086,-226993.55076463311,95890.846130343445,-95890.846130343445,226993.55076463311,324796.60724357876,0.0
350012.02908761695,3872225.878295721,-2500.0,12410.767610048002,-1049.8731334124575,-339954.55666844954,4353.94211320267,-3610.445943109371,2592.9982782821235,177036.69614668511,-183730.48817295933,122458.66396186923,-122458.66396186923,183730.48817295933,347703.25274657924,0.0
355012.02908761695,3872225.878295721,-2500.0,3405.2605691349236,98262.346784332622,-277033.99105882959,3366.8557356440783,1084.6156841941511,2572.5700832091038,171416.31153781249,-65016.065274365057,79730.574244646545,-79730.574244646545,65016.065274365057,327745.86319778615,0.0
360012.02908761695,3872225.878295721,-2500.0,-49215.092312017638,142902.81996266422,-125483.73333950268,1199.3526880818345,1319.4377218956497,1612.5590113213975,147929.80218372322,60548.975213190286,-16168.799380220364,16168.799380220364,-60548.975213190286,271201.21235798026,0.0
365012.02908761695,3872225.878295721,-2500.0,-88886.387528210733,104992.12451559292,21374.225263198041,1114.0502022818753,199.14097937955063,509.44820206150155,118591.91406258947,112006.55061887301,-88322.860460917756,88322.860460917756,-112006.55061887301,208245.19076385154,0.0
370012.02908761695,3872225.878295721,-2500.0,-81332.675857566617,34369.951919451567,96942.595296754429,1436.0112252090403,1091.1910156822373,-96.341389657637507,95551.351223046062,91486.475820909662,-97085.361084822798,97085.361084822798,-91486.475820909662,165688.33408279001,0.0
375012.02908761695,3872225.878295721,-2500.0,-45413.725161918985,-19488.039846750737,110603.46758070537,544.7975457724591,2871.2633637161093,-215.96505313248292,80448.542793913133,48416.83122089284,-67046.082863702701,67046.082863702701,-48416.83122089284,143169.64854300601,0.0
380012.02908761695,3872225.878295721,-2500.0,-8314.1467890769272,-45667.852993544322,95766.13895423479,-923.86236764958232,3928.3991544781093,-125.37269254014765,69312.829208149196,13452.441793234235,-30927.318738795489,30927.318738795489,-13452.441793234235,127878.80148661167,0.0
385012.02908761695,3872225.878295721,-2500.0,18088.334335011587,-52430.612470549415,74305.382962789081,-2090.5653525037997,4035.4852593770111,-13.621178143741098,59590.109121003516,-7183.3893760102537,-3427.5272988033639,3427.5272988033639,7183.3893760102537,113201.3694686821,0.0
390012.02908761695,3872225.878295721,-2500.0,33065.682165649472,-49398.509130180239,55038.32746390321,-2689.8486896178979,3586.8497215664406,57.923169385910143,50713.003165525144,-16850.864782953729,13473.648522473131,-13473.648522473131,16850.864782953729,98379.456795722042,0.0
395012.02908761695,3872225.878295721,-2500.0,39644.950027353945,-42680.31861691532,40098.076602504269,-2827.5638471349653,2951.2288509322661,89.295376301535242,42783.008358679508,-19987.41463370531,22224.207839528433,-22224.207839528433,19987.41463370531,84247.980721979984,0.0
400012.02908761695,3872225.878295721,-2500.0,41006.018019207513,-35333.5391977049,29178.780389243868,-2688.3416009780658,2329.6605582453531,95.276011038980684,35915.385875727938,-19763.827685836626,25723.400534549339,-25723.400534549339,19763.827685836626,71505.606546715149,0.0
405012.02908761695,3872225.878295721,-2500.0,39481.325604590798,-28633.58047410236,21381.855680251789,-2418.227517589984,1800.1049749168451,88.573123419033664,30337.042633934001,-18045.335057476492,26172.575082778327,-26172.575082778327,18045.335057476492,60442.553055429009,0.0
410012.02908761695,3872225.878295721,-2500.0,36553.625057916477,-22977.151041682951,15846.91812414641,-2107.3477566418642,1377.4838458453846,76.988150334023615,25785.925146296548,-15820.910028615723,25003.431481243253,-25003.431481243253,15820.910028615723,51057.470174987087,0.0
415012.02908761695,3872225.878295721,-2500.0,33091.286024313369,-18377.960753467156,11904.800929698626,-1803.4731616278652,1051.1569412230835,64.565330087570999,21922.573726425835,-13572.655690723859,23075.762785446812,-23075.762785446812,13572.655690723859,43199.907039411963,0.0
420012.02908761695,3872225.878295721,-2500.0,29570.661880760454,-14707.815351228699,9073.9156808084372,-1528.2410127857024,803.23425389657598,53.111452644715314,18677.665468987696,-11511.146167722152,20878.453049672247,-20878.453049672247,11511.146167722152,36664.564136085435,0.0
425012.02908761695,3872225.878295721,-2500.0,26233.844660695384,-11804.176580518581,7018.7396493664301,-1288.8932041154876,616.14583926439764,43.260718189685619,15965.484481274114,-9709.3260930637844,18675.207387765146,-18675.207387765146,9709.3260930637844,31241.807333688721,0.0
430012.02908761695,3872225.878295721,-2500.0,23188.931796320714,-9513.4145322299482,5508.2920518825395,-1085.4500420513057,475.13285921534151,35.090371474418852,13701.478936016612,-8174.4055359662025,16598.336094820574,-16598.336094820574,8174.4055359662025,26740.562687351874,0.0
435012.02908761695,3872225.878295721,-2500.0,20470.384452565911,-7705.0219902088838,4383.8126041226869,-914.72216616917638,368.62052512245492,28.445018474443735,11809.728946123943,-6885.029110716363,14705.82647888953,-14705.82647888953,6885.029110716363,22996.300551206696,0.0
440012.02908761695,3872225.878295721,-2500.0,18074.113962635107,-6273.5278817206781,3535.7143463406901,-772.40892096482617,287.83320524076777,23.095078037494041,10225.189161254175,-5809.7758626672276,13014.959495980349,-13014.959495980349,5809.7758626672276,19871.619634128176,0.0
445012.02908761695,3872225.878295721,-2500.0,15977.4440624772,-5135.8568866318092,2887.793830207374,-654.12740291489297,226.22990873694181,18.807653481486945,8893.5600173339935,-4915.9548086621171,11521.753984970379,-11521.753984970379,4915.9548086621171,17253.762379040953,0.0
450012.02908761695,3872225.878295721,-2500.0,14150.119944375128,-4227.4138453253709,2386.5670147786545,-555.86506619458942,178.9720757832122,15.37574749813097,7770.1410138895308,-4173.4164157331306,10211.963559424466,-10211.963559424466,4173.4164157331306,15051.02966306358,0.0
260012.02908761695,3877225.878295721,-2500.0,6114.5073069202153,5403.943350006165,3365.7486762112553,289.80064922326034,264.65045740992269,9.8792867506484683,5583.9707770050709,5542.6056346357973,2543.210262132442,-2543.210262132442,-5542.6056346357973,10775.522834171326,0.0
265012.02908761695,3877225.878295721,-2500.0,6231.417462939793,6215.5441087348399,4030.8670801281623,317.0654027870458,317.55253353786992,11.531517144164694,6321.5695591885888,6566.7521057165568,2284.5270652786194,-2284.5270652786194,-6566.7521057165568,12097.326428323775,0.0
270012.02908761695,3877225.878295721,-2500.0,6166.8251598113638,7141.1298931216361,4859.5384981117695,341.68324056146525,381.69918373639138,13.382330136613687,7182.0215549447812,7798.5052089568926,1821.017505886517,-1821.017505886517,-7798.5052089568926,13612.644008483847,0.0
275012.02908761695,3877225.878295721,-2500.0,5815.1105723224464,8177.4546465704416,5893.8026650218362,359.49838481217733,458.91765700212494,15.380595378041047,8190.5060752496775,9271.6261585712236,1061.707487606699,-1061.707487606699,-9271.6261585712236,15353.542918291547,0.0
280012.02908761695,3877225.878295721,-2500.0,5021.1931925954032,9302.2095285553532,7182.8598867744413,363.64452160076041,550.63494478205541,17.405500943123176,9379.9423600651407,11014.205740047384,-120.1580366915623,120.1580366915623,-11014.205740047384,17361.648258117555,0.0
285012.02908761695,3877225.878295721,-2500.0,3559.7744474614856,10457.445378716697,8779.1379617238053,343.04820993477244,657.03456984249681,19.21883291834002,10795.772850699421,13035.348888962992,-1898.5259428158579,1898.5259428158579,-13035.348888962992,19697.191611899918,0.0
290012.02908761695,3877225.878295721,-2500.0,1108.1968608756458,11521.491782087138,10726.843561466882,280.23635068264383,775.39856815066037,20.397084262487773,12505.316865548815,15298.998563947807,-4506.3880769041434,4506.3880769041434,-15298.998563947807,22459.707904296607,0.0
295012.02908761695,3877225.878295721,-2500.0,-2786.1537114048842,12262.696295358321,13034.679387738108,148.27698961299376,896.97358224171865,20.243916907386627,14616.150595295403,17674.708110698892,-8243.6192514552786,8243.6192514552786,-17674.708110698892,25833.619247542996,0.0
300012.02908761695,3877225.878295721,-2500.0,-8738.1903261102707,12266.081630667144,15616.737665470837,-93.09946433282407,1001.2409874878257,17.712399262136934,17311.344230586983,19848.56627715845,-13469.942302089303,13469.942302089303,-19848.56627715845,30182.489930752479,0.0
305012.02908761695,3877225.878295721,-2500.0,-17540.671665434689,10823.585275989721,18172.195473890581,-501.40556921243854,1045.7987927343461,11.436216869331698,20912.795025647181,21168.533181897623,-20559.697239152851,20559.697239152851,-21168.533181897623,36223.398187723084,0.0
310012.02908761695,3877225.878295721,-2500.0,-30123.801233544476,6785.3121750851979,19953.167019761979,-1152.3791807826569,949.33393432658056,0.17515889780260796,25982.374698471103,20389.789707559125,-29772.434870748082,29772.434870748082,-20389.789707559125,45292.916837988872,0.0
315012.02908761695,3877225.878295721,-2500.0,-47375.960661695797,-1603.3835598988269,19341.873947161235,-2129.3801364986311,565.42986603287659,-15.452172874574932,33454.353883604468,15287.889842595338,-40955.948166086702,40955.948166086702,-15287.889842595338,59638.670973486463,0.0
320012.02908761695,3877225.878295721,-2500.0,-69665.539851888374,-16775.46481641291,13137.320912799167,-3478.5979196977923,-349.25198757039317,-27.508164496259553,44757.073778662794,2152.2444830913882,-52946.487164709062,52946.487164709062,-2152.2444830913882,82586.061094508012,0.0
325012.02908761695,3877225.878295721,-2500.0,-95788.464782270734,-41523.408857603892,-4503.2493057494794,-5078.4239444631357,-2141.3856542263275,-5.0297516932675066,61841.014641540969,-24651.177563610978,-62490.812704831551,62490.812704831551,24651.177563610978,118437.9740679095,0.0
330012.02908761695,3877225.878295721,-2500.0,-120994.73097948947,-77527.119829185191,-43209.163034853882,-6336.7202936204067,-5117.0036953232047,146.65145475593849,87049.63075329944,-72316.188379167375,-62634.847018948807,62634.847018948807,72316.188379167375,171852.12848266578,0.0
335012.02908761695,3877225.878295721,-2500.0,-134237.83166705276,-121134.43683307739,-116162.52889262438,-5714.7062802935925,-8899.9907148513503,668.9087417299769,124673.283734736,-146288.38881476538,-41411.215620444425,41411.215620444425,146288.38881476538,245854.27282700181,0.0
340012.02908761695,3877225.878295721,-2500.0,-117672.05408587572,-154523.24592905003,-233592.67511528585,-778.90032687689234,-10827.613764081774,2015.8249034590795,172619.93752220098,-239409.54033398192,15030.927699568958,-15030.927699568958,239409.54033398192,337079.96726730216,0.0
345012.02908761695,3877225.878295721,-2500.0,-59043.470454526512,-136453.96816843696,-379960.77904705243,8678.4589941979739,-4682.44322187324,4503.7555032254013,219896.67770310541,-310228.75501169637,104272.43462472201,-104272.43462472201,310228.75501169637,428451.10883966385,0.0
350012.02908761695,3877225.878295721,-2500.0,11409.287106961907,-20765.361055237885,-474589.15625264193,13610.990277748268,12537.404398904051,6974.1971397974075,249468.42386747748,-272493.84062308562,170034.91748266044,-170034.91748266044,272493.84062308562,486188.901052095,0.0
355012.02908761695,3877225.878295721,-2500.0,4458.1355755641307,155282.97072609595,-383330.24986306269,2767.9549620079888,23808.404882043742,6617.6219333524714,249962.10487833415,-73864.061561617593,107456.09087347495,-107456.09087347495,73864.061561617593,474640.73480491736,0.0
360012.02908761695,3877225.878295721,-2500.0,-98466.950592541369,218597.90469813591,-105183.44565821264,-8113.16566308454,11844.854849689318,3380.5400062592003,218959.82628461471,142042.69589302674,-70710.484434085636,70710.484434085636,-142042.69589302674,393796.37474334968,0.0
365012.02908761695,3877225.878295721,-2500.0,-148046.86772147089,110458.43873819454,120152.49659535789,-3902.8188711617231,-1009.6504460105974,356.46095609097216,173780.49199722073,177267.91603456743,-165537.68614066325,165537.68614066325,-177267.91603456743,301338.21994834841,0.0
370012.02908761695,3877225.878295721,-2500.0,-96156.199211333398,-12946.964385112307,179317.96407515669,870.88909705123524,-884.70550213190063,-849.27099446713123,138350.1778314074,97351.486350436695,-128151.53310972496,128151.53310972496,-97351.486350436695,243356.37245382048,0.0
375012.02908761695,3877225.878295721,-2500.0,-21855.543407290897,-72679.824341336353,153515.94183172891,203.08324418159017,2854.4384836787567,-787.41687462025072,113924.11170727201,23151.147360734631,-55915.344416513661,55915.344416513661,-23151.147360734631,208268.8477275091,0.0
380012.02908761695,3877225.878295721,-2500.0,30045.074796436245,-85152.300299329887,111697.08092574913,-2089.6608687128191,4711.1989783774579,-407.58932708106971,94523.797837649428,-16547.195381650377,-2081.5877552588172,2081.5877552588172,16547.195381650377,178643.12175035049,0.0
385012.02908761695,3877225.878295721,-2500.0,56215.494074356735,-77023.95682954682,76944.83055207337,-3626.2984229224453,4755.6816389735923,-116.22458537252562,77848.681464717432,-31623.076007495896,27377.575911017804,-27377.575911017804,31623.076007495896,150585.71143963374,0.0
390012.02908761695,3877225.878295721,-2500.0,65151.802777110039,-63170.294519363524,52375.921918949309,-4147.1798206707354,4026.3410008635019,37.019249124472168,63633.353499634861,-34153.864747355532,39954.466942760395,-39954.466942760395,34153.864747355532,125071.77677273905,0.0
395012.02908761695,3877225.878295721,-2500.0,64718.903687223778,-49662.002255306084,35904.519626820831,-4022.3058920638387,3152.3655568018503,97.971329382495753,51841.721158267173,-31432.362664319448,43037.764357301712,-43037.764357301712,31432.362664319448,103060.24319869497,0.0
400012.02908761695,3877225.878295721,-2500.0,59929.007326837076,-38362.400099852282,25004.541341553759,-3599.8282536930965,2380.8526898120967,111.21038290783136,42475.854469858372,-27041.705243945431,41421.767479066577,-41421.767479066577,27041.705243945431,84733.024459905617,0.0
405012.02908761695,3877225.878295721,-2500.0,53543.90466413687,-29477.486951469695,17758.646111540467,-3089.1088985932606,1771.145421991386,103.71828747419973,35196.117161262817,-22540.141610699833,37795.61159973235,-37795.61159973235,22540.141610699833,69777.308085527591,0.0
410012.02908761695,3877225.878295721,-2500.0,46951.839033812343,-22676.027338140477,12880.180262890035,-2592.9364251186748,1312.1240982475883,89.164644769164013,29239.424168463567,-18514.527638793807,33551.254526267119,-33551.254526267119,18514.527638793807,57690.90695942771,0.0
415012.02908761695,3877225.878295721,-2500.0,40785.508609039236,-17523.34666831564,9540.9275672431995,-2152.8175322948136,973.84177465699895,73.707818117226111,24397.471515120811,-15120.865098958802,29359.825078564758,-29359.825078564758,15120.865098958802,47954.18039868724,0.0
420012.02908761695,3877225.878295721,-2500.0,35286.379237969326,-13627.348105166138,7213.4486604102867,-1779.576253541283,726.45329543755872,59.764313491980324,20467.241365665483,-12339.748763417934,25512.962322051477,-25512.962322051477,12339.748763417934,40103.456736652872,0.0
425012.02908761695,3877225.878295721,-2500.0,30503.868011428727,-10673.810196965416,5560.7927187733048,-1470.3580203413514,545.60645625418795,48.034840037861272,17271.265275374008,-10091.098436287442,22110.545158302972,-22110.545158302972,10091.098436287442,33752.36627298758,0.0
430012.02908761695,3877225.878295721,-2500.0,26399.78252283686,-8423.2325579599928,4365.5480698434139,-1217.1937856093841,412.91732028104656,38.499763585498016,14662.640844638812,-8282.9522865819636,19160.144712510719,-19160.144712510719,8282.9522865819636,28589.906545762988,0.0
435012.02908761695,3877225.878295721,-2500.0,22901.40866735861,-6697.1771008609339,3485.5752128441623,-1010.9987245772387,314.9847681719711,30.880620196377507,12523.101314040643,-6830.4293582605733,16628.44919885337,-16628.44919885337,6830.4293582605733,24370.183075752469,0.0
440012.02908761695,3877225.878295721,-2500.0,19927.429284085945,-5363.9192097628929,2826.5590798190137,-843.26421303137886,242.18864394967358,24.840502727690971,10758.729867775899,-5661.5938274720693,14467.130974285814,-14467.130974285814,5661.5938274720693,20900.367268242648,0.0
445012.02908761695,3877225.878295721,-2500.0,17399.838857097977,-4326.4231195926741,2324.9475034052512,-706.64821116592657,187.65923099923634,20.064513332057679,9295.3929062835941,-4717.9227595105149,12625.381711180278,-12625.381711180278,4717.9227595105149,18029.648073523331,0.0
450012.02908761695,3877225.878295721,-2500.0,15248.814545328842,-3513.0761270072094,1937.2576601304138,-595.07122007551766,146.48936466328064,16.285910901109446,8074.6787403888557,-3952.7960941858246,11055.605816275693,-11055.605816275693,3952.7960941858246,15640.032678327259,0.0
255012.02908761695,3882225.878295721,-2500.0,8024.6966421085763,4833.9095620358521,2562.2514168941871,342.45310744954531,222.61658100215553,10.458476766908568,5560.5665152170659,4377.6825229356236,4298.616529964007,-4298.616529964007,-4377.6825229356236,10994.977307385718,0.0
260012.02908761695,3882225.878295721,-2500.0,8698.1438603867991,5648.6158402612882,3060.532462771007,390.58802937241217,269.82273682450199,12.52077566626938,6322.7699465281876,5241.1902249955319,4503.2784348991163,-4503.2784348991163,-5241.1902249955319,12435.964603885152,0.0
265012.02908761695,3882225.878295721,-2500.0,9368.3008967701371,6623.3926255821043,3689.2302903626869,444.60586538788681,328.70399816052304,15.00763773670824,7218.152888433513,6309.7499838943986,4637.8976306343175,-4637.8976306343175,-6309.7499838943986,14111.806284853608,0.0
270012.02908761695,3882225.878295721,-2500.0,9989.8653771788486,7788.1148202229788,4489.0879793225931,503.9959601272484,402.30331618189473,17.986847278533233,8273.5538670821497,7636.3356605784547,4651.1653871159187,-4651.1653871159187,-7636.3356605784547,16064.10926199913,0.0
275012.02908761695,3882225.878295721,-2500.0,10487.528215156935,9173.6966383074869,5514.379821146199,567.1056824628306,494.31856986515197,21.516763803629139,9521.5827949582435,9286.0154780723187,4465.1008835600405,-4465.1008835600405,-9286.0154780723187,18340.8991533562,0.0
280012.02908761695,3882225.878295721,-2500.0,10739.203509578763,10806.958294600279,6836.656274448781,630.25386969396379,609.04264363210302,25.625534796338879,11001.931847703796,11335.854751752422,3962.2789454948365,-3962.2789454948365,-11335.854751752422,20997.044678480248,0.0
285012.02908761695,3882225.878295721,-2500.0,10550.537649970627,12699.704512580165,8548.125802636845,686.26544879493554,751.0296015181525,30.276020440700535,12763.301753454809,13870.90447510287,2967.6566581671213,-2967.6566581671213,-13870.90447510287,24095.065111809225,0.0
290012.02908761695,3882225.878295721,-2500.0,9616.9753502059284,14827.029323906894,10762.261832322089,722.10411634333809,924.16401353450601,35.310828896267829,14866.814890604626,16971.279497940592,1223.8253243755398,-1223.8253243755398,-16971.279497940592,27708.169609877001,0.0
295012.02908761695,3882225.878295721,-2500.0,7469.0208651793146,17086.125187228095,13605.649429034964,715.14811301781833,1129.4963807108613,40.37912213904427,17393.16891711795,20680.357150153399,-1640.1999737342558,1640.1999737342558,-20680.357150153399,31931.150336651306,0.0
300012.02908761695,3882225.878295721,-2500.0,3397.5843984545936,19221.062574506555,17187.223204186994,627.57347265119836,1360.615691008087,44.867844439799946,20459.20987395971,24934.864163107111,-6142.1261013945332,6142.1261013945332,-24934.864163107111,36914.911716376329,0.0
305012.02908761695,3882225.878295721,-2500.0,-3637.5906048410588,20691.174371525394,21514.725941707253,398.49065864989933,1594.2174664443469,47.933951911882986,24257.334837739145,29421.49666370617,-12965.839726369715,12965.839726369715,-29421.49666370617,42965.07537115836,0.0
310012.02908761695,3882225.878295721,-2500.0,-15095.433831921722,20453.305065432585,26296.085493080194,-65.373855048144506,1771.4509154774119,48.910100657051345,29146.234023254059,33298.969171829944,-22926.546949952848,22926.546949952848,-33298.969171829944,50795.685064678408,0.0
315012.02908761695,3882225.878295721,-2500.0,-32871.486421824447,16631.397591625329,30505.096306609845,-895.12413626288696,1761.9579469274663,48.889203336719319,35842.446541731704,34690.062969888495,-36789.36530983165,36789.36530983165,-34690.062969888495,62092.582866288976,0.0
320012.02908761695,3882225.878295721,-2500.0,-59080.916563430539,6089.4887637213706,31497.677046804078,-2239.8276725627461,1297.8342116928627,55.961436734586641,45762.65532086532,29821.069562522731,-54751.162518866106,54751.162518866106,-29821.069562522731,80476.493123156135,0.0
325012.02908761695,3882225.878295721,-2500.0,-95219.568937190968,-15913.590502703015,23349.758658497423,-4145.5173714457933,-128.2969740354763,102.72670537131538,61473.994182766364,11730.96385735683,-75218.012400582753,75218.012400582753,-11730.96385735683,112490.25471159868,0.0
330012.02908761695,3882225.878295721,-2500.0,-139838.31974873651,-55283.118106691261,-5928.244696072451,-6099.570849248762,-3308.519020858545,306.62595199883117,87016.301354400435,-31159.459940752386,-92230.44859235207,92230.44859235207,31159.459940752386,167686.6614844469,0.0
335012.02908761695,3882225.878295721,-2500.0,-183137.62077573489,-115509.9768244352,-77879.430845329087,-5725.2121345942314,-8698.0190980897059,1061.7176510359357,130804.63773653891,-114638.66788566753,-90847.450205249363,90847.450205249363,114638.66788566753,256852.40680924201,0.0
340012.02908761695,3882225.878295721,-2500.0,-198151.64458843073,-184546.56711583128,-222626.75374611182,3383.8197896068314,-12916.198201384526,3452.5265506929418,201462.90248584561,-248358.51383090008,-42915.435914196787,42915.435914196787,248358.51383090008,385855.80003934033,0.0
345012.02908761695,3882225.878295721,-2500.0,-142841.49695283655,-204529.16825187998,-451009.97659182106,28413.112564035368,247.05683763976299,9030.9009226200778,286586.34502230061,-395139.37392245955,77530.516015569214,-77530.516015569214,395139.37392245955,541067.42928884691,0.0
350012.02908761695,3882225.878295721,-2500.0,-25092.003087699664,-60184.365146720818,-659060.97203476285,47807.699542474373,54459.190201645775,15012.05537348532,358401.45241802395,-400791.5924789526,212227.24491722055,-212227.24491722055,400791.5924789526,674959.50227352174,0.0
355012.02908761695,3882225.878295721,-2500.0,-17803.670911301553,256345.1473650971,-545352.43407324958,-894.10105562533249,94052.324209586572,11022.841511273267,380989.556350409,-72665.515462238342,130513.95390483906,-130513.95390483906,72665.515462238342,719739.17314373003,0.0
360012.02908761695,3882225.878295721,-2500.0,-228416.666680025,333276.69644162059,17455.001206727837,-41974.451408913723,23052.41716142396,3350.398907475681,357698.69011708087,322390.70564295532,-225048.83692338577,225048.83692338577,-322390.70564295532,630304.50536272454,0.0
365012.02908761695,3882225.878295721,-2500.0,-221582.27373022723,37249.948419355809,312388.19735580892,-7442.0615109006385,-20015.035076965785,-1783.7208990834765,270313.09125038265,227886.7806992367,-272550.98416955321,272550.98416955321,-227886.7806992367,470744.69165032532,0.0
370012.02908761695,3882225.878295721,-2500.0,-55274.079985891411,-123818.13574379151,264987.59265141276,6851.7207866491181,-9270.7885289015394,-3261.1221802147938,202676.208098092,43720.754915373262,-109671.40517930823,109671.40517930823,-43720.754915373262,367432.44669563475,0.0
375012.02908761695,3882225.878295721,-2500.0,57449.089554411592,-147160.11138231948,172535.88807899566,2256.0617958735529,1696.0851382699225,-2107.5689697613857,158107.30873303197,-40308.072904141416,7329.1883479185126,-7329.1883479185126,40308.072904141416,297721.92837379506,0.0
380012.02908761695,3882225.878295721,-2500.0,104279.64997186036,-124193.63744302206,106272.71183880718,-3025.9413748809966,5163.119479632298,-937.11046672550867,124332.10172879646,-62316.504254673971,60094.960594310454,-60094.960594310454,62316.504254673971,240133.01231124392,0.0
385012.02908761695,3882225.878295721,-2500.0,113669.91670830623,-94429.461184262938,65715.415713579539,-5403.5223992465444,5111.4737837024368,-287.77841849098104,97607.580633537189,-59925.615014625277,75847.998381326208,-75847.998381326208,59925.615014625277,191671.46661483843,0.0
390012.02908761695,3882225.878295721,-2500.0,106530.00361628259,-69252.313054811108,41647.587699907264,-5799.8396860451885,4091.7352187737138,-1.3471644633153517,76668.359324473291,-50471.202475679129,74739.312284390748,-74739.312284390748,50471.202475679129,152267.64294361431,0.0
395012.02908761695,3882225.878295721,-2500.0,93715.006454286617,-50313.270655468186,27243.138821908968,-5302.2655479735313,3038.4431522412265,101.90517160256815,60676.990478172709,-40415.222478420714,67234.797687280341,-67234.797687280341,40415.222478420714,121101.60330698574,0.0
400012.02908761695,3882225.878295721,-2500.0,80099.646211036408,-36639.675314644766,18423.795012236453,-4522.7558773567425,2193.8154637611105,125.01555758052348,48775.116687899033,-31742.96863597889,58102.803677931195,-58102.803677931195,31742.96863597889,96801.604387143554,0.0
405012.02908761695,3882225.878295721,-2500.0,67607.010703754451,-26887.810120583468,12872.12481090109,-3735.2674257158856,1571.5112293835061,117.17369587950955,39453.140638086239,-24800.778621880447,49310.988713067192,-49310.988713067192,24800.778621880447,77941.426184017299,0.0
410012.02908761695,3882225.878295721,-2500.0,56824.691685821512,-19929.574348788825,9274.7396891854114,-3040.7123564859135,1127.5496361692685,99.799679659662843,32150.619837269191,-19408.670129461796,41550.818940662277,-41550.818940662277,19408.670129461796,63281.601723630571,0.0
415012.02908761695,3882225.878295721,-2500.0,47779.506501448268,-14932.523942726073,6876.2070363853973,-2462.9126362778097,814.06772466734708,81.494524540107165,26412.349311254231,-15266.989372760901,34964.378619290794,-34964.378619290794,15266.989372760901,51829.537278866112,0.0
420012.02908761695,3882225.878295721,-2500.0,40289.809661625732,-11310.519709802134,5232.5658352362889,-1995.2399367342698,592.69936627198581,65.282679418549051,21877.683468439558,-12091.778275590745,29476.019320658816,-29476.019320658816,12091.778275590745,42821.049246580071,0.0
425012.02908761695,3882225.878295721,-2500.0,34118.70609762727,-8657.6106747917456,4076.6322268292738,-1621.3587789059186,435.55222636503652,51.893490806559747,18268.896514864864,-9650.4275317292595,24938.809011315465,-24938.809011315465,9650.4275317292595,35678.486804435364,0.0
430012.02908761695,3882225.878295721,-2500.0,29036.302701140467,-6693.4082366310486,3243.6741890910789,-1323.7515882352029,323.11447531347346,41.187280357124486,15374.828094401759,-7763.0734563580218,21196.260658202504,-21196.260658202504,7763.0734563580218,29968.174256601094,0.0
435012.02908761695,3882225.878295721,-2500.0,24841.567521564579,-5223.4892268113163,2629.701234273597,-1086.8111103454694,241.93286280878155,32.754048744088301,13035.578934441734,-6294.1052056164126,18106.046471959518,-18106.046471959518,6294.1052056164126,25364.69536769433,0.0
440012.02908761695,3882225.878295721,-2500.0,21366.879842387501,-4112.0338619800877,2167.5571965786803,-897.63821141721189,182.75812691378619,26.151092021031864,11129.941812206738,-5142.3059555309201,15547.044671721873,-15547.044671721873,5142.3059555309201,21623.068445539175,0.0
445012.02908761695,3882225.878295721,-2500.0,18475.733169306845,-3263.28575686152,1812.9179581578449,-745.94588901642726,139.21142439988512,20.985900933690004,9565.6677468714151,-4232.3028716191793,13419.455672634838,-13419.455672634838,4232.3028716191793,18557.845000482761,0.0
450012.02908761695,3882225.878295721,-2500.0,16058.269753064689,-2609.0655718816274,1535.920927242913,-623.67449363249784,106.8658736488066,16.937086993323859,8272.1620801608169,-3507.8644281042725,11642.39681308057,-11642.39681308057,3507.8644281042725,16027.725370640926,0.0
455012.02908761695,3882225.878295721,-2500.0,14026.509335720697,-2100.3295419182627,1316.0479384035068,-524.55949001510032,82.624589508000156,13.751472877077255,7195.0407021884103,-2926.8519695142027,10150.816166931196,-10150.816166931196,2926.8519695142027,13924.24917070152,0.0
255012.02908761695,3887225.878295721,-2500.0,10209.639924533254,4705.7288492314192,2223.8546939301823,423.75695889474719,213.28773921270877,12.486875517955927,6208.1820631640567,3796.7534896656275,6034.0259852449399,-6034.0259852449399,-3796.7534896656275,12386.656478183764,0.0
260012.02908761695,3887225.878295721,-2500.0,11376.022973141286,5566.2648513084168,2652.3886247456935,494.11927599749043,260.99352685916841,15.198741588201718,7085.7367630703693,4595.8280915231744,6616.6848296511371,-6616.6848296511371,-4595.8280915231744,14140.338560195383,0.0
265012.02908761695,3887225.878295721,-2500.0,12672.979973827885,6622.3275030680661,3197.7750435482849,577.5174188966887,321.57636726248666,18.572854035975578,8157.2466159408359,5604.7484392462866,7226.6776336299572,-7226.6776336299572,-5604.7484392462866,16213.787501815395,0.0
270012.02908761695,3887225.878295721,-2500.0,14096.022642635633,7923.8213438889834,3900.2570438771941,676.02992670706976,398.9561124376217,22.772587591687937,9439.6005746698102,6887.6703850933927,7839.7790723491935,-7839.7790723491935,-6887.6703850933927,18674.362797071695,0.0
275012.02908761695,3887225.878295721,-2500.0,15623.292388288917,9532.6896614695779,4816.1428101861375,791.5929997001283,498.27626657464236,27.992072123769951,10979.006142252401,8529.7893791506249,8411.8557464407022,-8411.8557464407022,-8529.7893791506249,21603.433602400375,0.0
280012.02908761695,3887225.878295721,-2500.0,17201.772669180558,11523.806320668837,6024.5788599614398,925.48967939824331,626.20754271775604,34.452434988149072,12833.613118477893,10643.543984016595,8866.3626070767477,-8866.3626070767477,-10643.543984016595,25097.89667438707,0.0
285012.02908761695,3887225.878295721,-2500.0,18724.114735976589,13983.188310245974,7636.7987202587738,1077.3665457866798,791.2075261407615,42.390330664610957,15074.239960661242,13375.130706350592,9074.5349213468107,-9074.5349213468107,-13375.130706350592,29270.361648223385,0.0
290012.02908761695,3887225.878295721,-2500.0,19990.26176046436,16999.711393821734,9807.8458903988521,1243.4315698488297,1003.5529229813459,52.033595394646916,17785.426960922603,16908.883079346419,8824.5886942546895,-8824.5886942546895,-16908.883079346419,34246.539802707186,0.0
295012.02908761695,3887225.878295721,-2500.0,20644.891257752981,20642.478127509905,12748.943750614633,1413.2669721073767,1274.7234141463659,63.574063253330394,21065.29386529584,21463.11166057142,7775.1402085938771,-7775.1402085938771,-21463.11166057142,40157.565214860777,0.0
300012.02908761695,3887225.878295721,-2500.0,20078.019889105773,24908.343685536067,16733.292094421231,1564.3733746526714,1615.2216926523956,77.167349853829847,25023.466356152203,27262.163691709342,5388.3133789327458,-5388.3133789327458,-27262.163691709342,47125.038672637449,0.0
305012.02908761695,3887225.878295721,-2500.0,17273.518147187278,29610.538761873027,22073.918714335709,1653.1137481219384,2028.8819067876348,93.067231018117226,29777.967428087602,34450.813179935096,842.86448126512914,-842.86448126512914,-34450.813179935096,55241.14629044856,0.0
310012.02908761695,3887225.878295721,-2500.0,10593.719060431646,34157.715497573699,29017.763681382061,1600.0675735193665,2499.3885233950814,112.14342059140465,35459.284472557367,42880.04199431189,-7055.0983368642519,7055.0983368642519,-42880.04199431189,64568.505690517726,0.0
315012.02908761695,3887225.878295721,-2500.0,-2489.5599330340065,37145.205906713709,37421.945399478907,1266.995849819878,2958.6702116072629,137.20603231695625,42255.329284487758,51625.460081274607,-19899.85340598489,19899.85340598489,-51625.460081274607,75268.625354662785,0.0
320012.02908761695,3887225.878295721,-2500.0,-25641.703765319704,35663.827815558259,45915.511034766634,424.28269393054632,3208.9819945592199,175.54035360717327,50606.749858878538,57990.541739292625,-39483.83708395702,39483.83708395702,-57990.541739292625,88242.357108071112,0.0
325012.02908761695,3887225.878295721,-2500.0,-63642.429236016396,24279.554069781603,49942.979260134503,-1263.3100471090652,2719.4631749306286,243.67594390201228,61841.103450843133,55601.130520525454,-66976.623716517322,66976.623716517322,-55601.130520525454,107340.64765220642,0.0
330012.02908761695,3887225.878295721,-2500.0,-121329.72551154182,-6081.6982243251368,37561.075823865278,-3999.8372272619545,125.86079851879987,390.75685447781467,79744.154291969477,31083.232380056492,-100582.37665054147,100582.37665054147,-31083.232380056492,144502.25732003635,0.0
335012.02908761695,3887225.878295721,-2500.0,-198909.29546875405,-67721.018515624237,-18832.391885473851,-6158.8061142388333,-7489.2167366840886,873.27122077215961,114816.91534178508,-40650.476287646794,-129380.0772944499,129380.0772944499,40650.476287646794,224510.59214311678,0.0
340012.02908761695,3887225.878295721,-2500.0,-276329.11927356134,-165407.45517542976,-174823.16296432776,2745.9335571205693,-22099.267891604268,3016.18079949495,204139.86103875577,-196156.15158530837,-119203.59909750048,119203.59909750048,196156.15158530837,378878.18104889989,0.0
345012.02908761695,3887225.878295721,-2500.0,-285442.42373326363,-242149.74726359273,-502260.25629424409,54647.664435857703,-21051.270952547347,10412.101909620933,345282.00203413592,-435698.05893426656,-3785.7126847430191,3785.7126847430191,435698.05893426656,620390.58654493245,0.0
350012.02908761695,3887225.878295721,-2500.0,-175066.69428101755,-71959.675782213497,-902872.13957625744,149583.49624289272,100639.66987957318,16371.891505932701,512761.8796078501,-524041.03810813639,188571.46780388287,-188571.46780388287,524041.03810813639,904834.14216422441,0.0
355012.02908761695,3887225.878295721,-2500.0,-246993.41762474077,453391.38406506181,-772002.70619357668,-1602.9715642122294,274016.90642624826,-27972.32299794547,620210.78016491095,1101.1472734244107,10421.026078880319,-10421.026078880319,-1101.1472734244107,1131612.9404773072,0.0
360012.02908761695,3887225.878295721,-2500.0,-640358.44092457881,404666.19169795007,604444.48067480465,-113305.86824316227,-56796.94471188289,-547.85100565487755,753117.95558978827,753290.76504446741,-736255.9718137501,736255.9718137501,-753290.76504446741,1304572.8539350531,0.0
365012.02908761695,3887225.878295721,-2500.0,-119660.68872262965,-238931.04199404566,521521.15062582993,42263.820443972647,-76669.049527026611,-4990.7072117647058,406519.32471969625,91641.98761319583,-224670.45241723146,224670.45241723146,-91641.98761319583,738238.64408032771,0.0
370012.02908761695,3887225.878295721,-2500.0,140496.9221821182,-267295.16449779109,268478.90777427598,32874.825316709415,-17464.287793736803,-8220.7432044491215,277802.14794928749,-102377.27861837081,55183.691271434815,-55183.691271434815,102377.27861837081,525382.61876263947,0.0
375012.02908761695,3887225.878295721,-2500.0,213985.81610174215,-199472.4198603479,136837.43471140595,7864.4729808124994,2291.0549267526835,-4215.5089635675949,204102.07815730083,-124539.56573185654,142099.99597244934,-142099.99597244934,124539.56573185654,395346.49033986533,0.0
380012.02908761695,3887225.878295721,-2500.0,209615.62495237807,-135945.90885859239,73287.148719888588,-3821.5549455468527,5689.0656498485268,-1621.0877103184343,152557.45411447182,-103814.95992015222,150055.67614587263,-150055.67614587263,103814.95992015222,299989.33764956682,0.0
385012.02908761695,3887225.878295721,-2500.0,181092.42795132194,-90954.780329428235,41780.965217646051,-7305.3127983074628,4950.4506659951458,-478.00902324909981,114988.08050252865,-78642.1964802367,132638.52600582453,-132638.52600582453,78642.1964802367,228325.65325203631,0.0
390012.02908761695,3887225.878295721,-2500.0,149303.03428645266,-61182.685640593802,25345.113145530082,-7432.8574979442737,3624.7672266386353,-39.902481215046961,87763.636628282809,-57961.458126007317,110223.69329777552,-110223.69329777552,57961.458126007317,174905.00561119962,0.0
395012.02908761695,3887225.878295721,-2500.0,121043.97286586445,-41729.805189330604,16287.674470909265,-6472.0130672248879,2520.81770891618,104.84630959652486,68134.523140132573,-42581.490711880157,89554.152214431815,-89554.152214431815,42581.490711880157,135277.02504513616,0.0
400012.02908761695,3887225.878295721,-2500.0,97794.538583972884,-28934.646188062212,11026.117148182282,-5312.4112195415109,1729.6091027050986,136.22085434910448,53506.112502744305,-31487.821379909146,72323.257041228106,-72323.257041228106,31487.821379909146,105818.37715014743,0.0
405012.02908761695,3887225.878295721,-2500.0,79239.633229754327,-20400.822385689946,7816.0919271341563,-4258.0517813361203,1188.4017556423396,127.59996629620247,42495.364484337078,-23531.493157193243,58504.387125191221,-58504.387125191221,23531.493157193243,83766.252495334833,0.0
410012.02908761695,3887225.878295721,-2500.0,64588.933479741034,-14615.227524758628,5767.4084458099178,-3385.7087682526135,822.79753029708957,107.67419044918628,34134.688911198784,-17798.397103183888,47579.512225366023,-47579.512225366023,17798.397103183888,67098.087044751417,0.0
415012.02908761695,3887225.878295721,-2500.0,53036.080236251662,-10626.516210228547,4404.908673694189,-2691.4847390176787,575.4580714066351,87.019855071757746,27721.844731369201,-13628.836341227083,38969.199824288837,-38969.199824288837,13628.836341227083,54360.953541112969,0.0
420012.02908761695,3887225.878295721,-2500.0,43894.699999038145,-7831.5409631164266,3464.1712948226445,-2147.7384725277434,406.84784397114066,69.042687062329321,22750.089271785189,-10562.280683898873,32166.084202416441,-32166.084202416441,10562.280683898873,44516.911538320492,0.0
425012.02908761695,3887225.878295721,-2500.0,36618.928215592314,-5842.7374969713301,2792.3019102735743,-1723.9147591799199,290.71848126455171,54.419661901783293,18853.86313608029,-8280.1348197922107,26761.984851185429,-26761.984851185429,8280.1348197922107,36822.980711257173,0.0
430012.02908761695,3887225.878295721,-2500.0,30787.051138619601,-4407.1776255381301,2297.7095661496064,-1393.2605507346225,209.82853842885555,42.876859810033189,15768.259320679002,-6561.593266173988,22439.983636410529,-22439.983636410529,6561.593266173988,30743.955596646651,0.0
435012.02908761695,3887225.878295721,-2500.0,26077.093138303939,-3357.1568002702375,1923.7022034861363,-1134.2517527168059,152.83957464589159,33.883405726369404,13299.911391808248,-5252.571766563995,18957.661631426206,-18957.661631426206,5252.571766563995,25891.010162292278,0.0
440012.02908761695,3887225.878295721,-2500.0,22243.934963848864,-2579.7088929414776,1634.1016874848708,-930.20132243586636,112.24303593428816,26.906451613858874,11306.401400438408,-4244.5157524472943,16130.422319728814,-16130.422319728814,4244.5157524472943,21978.868100397936,0.0
445012.02908761695,3887225.878295721,-2500.0,19100.688261329738,-1997.5946130996954,1405.1603287544121,-768.38722450239345,83.019022979606234,21.491481146801704,9681.8470491350236,-3460.148608917747,13817.619486340636,-13817.619486340636,3460.148608917747,18796.118881417715,0.0
450012.02908761695,3887225.878295721,-2500.0,16504.232535136693,-1557.2349519560787,1220.8689647383369,-639.17082657137053,61.774466862566562,17.27535934290859,8346.7467724985036,-2843.8498727816377,11911.67916436731,-11911.67916436731,2843.8498727816377,16184.461888856935,0.0
455012.02908761695,3887225.878295721,-2500.0,14344.319918696487,-1220.9568463630208,1070.1652144272248,-535.25391613695092,46.189935888157315,13.977238511749395,7240.8173378616302,-2355.1448359263732,10329.866113329772,-10329.866113329772,2355.1448359263732,14024.151182842674,0.0
250012.02908761695,3892225.878295721,-2500.0,10895.939098472983,3624.5744739478696,1586.7848879033654,426.0817029715576,157.57025768488296,11.776841777168645,6081.6244458919782,2452.0561620624417,6914.0431324799993,-6914.0431324799993,-2452.0561620624417,11993.112090217897,0.0
255012.02908761695,3892225.878295721,-2500.0,12329.600746523762,4291.5881248860023,1856.9219984028095,502.19171781333165,192.42925683170057,14.427725771905369,6945.6337395648497,2967.5188944519141,7774.9254241276249,-7774.9254241276249,-2967.5188944519141,13729.111349264414,0.0
260012.02908761695,3892225.878295721,-2500.0,14000.62574617708,5117.818219103865,2195.5292964574633,594.88623591146086,236.85585144850467,17.779048545885317,7972.3753916546611,3622.0967744903623,8763.1130042632012,-8763.1130042632012,-3622.0967744903623,15799.291471612249,0.0
265012.02908761695,3892225.878295721,-2500.0,15951.30574790458,6149.2538893997471,2625.9132831548582,708.24571929562239,293.94171344359131,22.035569658025896,9199.1761778727632,4461.3557371417228,9894.9384342643498,-9894.9384342643498,-4461.3557371417228,18282.449708048338,0.0
270012.02908761695,3892225.878295721,-2500.0,18229.045519176652,7446.9779052417534,3181.2322474198763,847.36135041484749,367.89552976416257,27.46319740956465,10673.16246543044,5548.161422169238,11184.929976709353,-11184.929976709353,-5548.161422169238,21278.458970276319,0.0
275012.02908761695,3892225.878295721,-2500.0,20884.106009161231,9092.3152921678848,3909.3591354564146,1018.5092846527758,464.46352883414522,34.404580519145078,12468.813815138779,6969.9159977702438,12641.760252605873,-12641.760252605873,-6969.9159977702438,24913.922446305864,0.0
280012.02908761695,3892225.878295721,-2500.0,23964.047755719177,11193.416738122722,4880.3866231505917,1229.2684589915361,591.49084301798143,43.295779877939125,14741.27359973183,8848.8545422335519,14260.678036116249,-14260.678036116249,-8848.8545422335519,29348.826117479377,0.0
285012.02908761695,3892225.878295721,-2500.0,27501.780761296795,13893.075941893938,6198.2188003639585,1488.4696829908255,759.63902034077137,54.68299560558475,17547.520770028172,11356.414235117169,16009.703343642956,-16009.703343642956,-11356.414235117169,34783.53687853564,0.0
290012.02908761695,3892225.878295721,-2500.0,31491.737795655481,17376.512443542561,8018.3098016035365,1805.7738640488294,983.23050395181656,69.239957023112552,21020.916066044254,14732.434684417003,17805.070917524408,-17805.070917524408,-14732.434684417003,41464.36651294856,0.0
295012.02908761695,3892225.878295721,-2500.0,35844.3314939392,21875.120788093736,10574.036027585635,2190.5175484875649,1281.0779382265578,87.798993479195516,25328.399058372004,19308.448607127662,19468.485745426791,-19468.485745426791,-19308.448607127662,49683.202596024043,0.0
300012.02908761695,3892225.878295721,-2500.0,40301.83566666078,27655.752581239456,14213.191229695694,2649.232960410558,1676.9230160527322,111.44773893459137,30662.590110033427,25529.287814090265,20654.919268749702,-20654.919268749702,-25529.287814090265,59761.069105684888,0.0
305012.02908761695,3892225.878295721,-2500.0,44288.475874620584,34970.819642122355,19439.608412136538,3180.8612635328454,2198.6829727507065,141.86394116724824,37220.725586299392,33953.083441159666,20736.41832703344,-20736.41832703344,-33953.083441159666,71993.938532504224,0.0
310012.02908761695,3892225.878295721,-2500.0,46654.882873107301,43915.203403191939,26930.998971893478,3767.5681484638153,2874.9736030966055,182.26461532752637,45146.713980050758,45173.918770482545,18630.556155380604,-18630.556155380604,-45173.918770482545,86516.64993240677,0.0
315012.02908761695,3892225.878295721,-2500.0,45269.385607713673,54082.029518027877,37429.925216307667,4354.0588114944148,3725.2880346621673,239.32362755614614,54397.395912431602,59527.418748605211,12589.326819950205,-12589.326819950205,-59527.418748605211,103001.24650430794,0.0
320012.02908761695,3892225.878295721,-2500.0,36419.572639138787,63829.951391106653,51200.603582804542,4785.2451322369243,4728.1288162207447,323.63325316517165,64469.215930030412,76262.863484756876,51.688356906750414,-51.688356906750414,-76262.863484756876,120056.15484399986,0.0
325012.02908761695,3892225.878295721,-2500.0,14018.101694139887,68903.959529362648,66238.457247809187,4586.410488387457,5675.2613183214644,429.6626412991792,73922.124201409984,91535.429876225113,-22138.813911168923,22138.813911168923,-91535.429876225113,134254.24574989395,0.0
330012.02908761695,3892225.878295721,-2500.0,-31394.244532829689,60165.644650216098,73274.68232515399,2277.0455050084429,5432.5859025916643,417.09418356628458,79914.641560714954,93984.869547673472,-56482.498440616822,56482.498440616822,-93984.869547673472,140006.05344470363,0.0
335012.02908761695,3892225.878295721,-2500.0,-113362.73194209578,20407.755823718093,42886.42151183106,-5762.7419624120512,-1206.8265346749326,-344.1434319809137,80920.304654828535,55342.632705057302,-100644.0795858927,100644.0795858927,-55342.632705057302,144503.86463183694,0.0
340012.02908761695,3892225.878295721,-2500.0,-242698.08991724535,-75538.170950362939,-107350.08398483875,-21195.683785459343,-31446.143483934018,-2906.4903037329536,143017.11580174984,-87872.248826119161,-131551.00191993656,131551.00191993656,87872.248826119161,254550.92962523169,0.0
345012.02908761695,3892225.878295721,-2500.0,-378382.87414307508,-204727.33132293652,-576761.81096316583,-8156.8913904744186,-103630.81250525806,-4308.6042997991626,366609.36956760666,-428546.8241752985,-55674.518322905467,55674.518322905467,428546.8241752985,641600.88760904362,0.0
350012.02908761695,3892225.878295721,-2500.0,-411128.50150134938,72257.127606640381,-1458459.2402431872,181806.12617566725,-32849.982024441408,30335.420048553289,780206.70849733637,-665529.79936251952,177222.05690254728,-177222.05690254728,665529.79936251952,1368287.9263519,0.0
355012.02908761695,3892225.878295721,-2500.0,-1065522.3661810602,1177650.296044823,-864601.69675968168,40271.21983596166,783590.95085187792,-291572.95639820059,1464885.9320646401,664714.58468628558,-661048.28522759187,661048.28522759187,-664714.58468628558,2547813.7055773083,0.0
360012.02908761695,3892225.878295721,-2500.0,-125286.84730390304,-444379.40023129428,1443222.6291245655,298159.88400551036,-309213.37735069741,142251.27215937094,1001310.1184683199,406521.40898237575,-500924.07115483843,500924.07115483843,-406521.40898237575,1805025.8693065974,0.0
365012.02908761695,3892225.878295721,-2500.0,424882.46346912469,-419810.98945097427,450687.76685519639,192933.502325971,-44119.756392454095,-7973.0023915328038,504633.65692337678,-175836.43610778876,230049.8822383628,-230049.8822383628,175836.43610778876,919474.41665891442,0.0
370012.02908761695,3892225.878295721,-2500.0,464980.82028094563,-271213.20146919205,156934.96216263709,62701.358332734453,3794.4760020509975,-13658.34094366192,336150.25412081677,-209305.32164975995,331778.7883996325,-331778.7883996325,209305.32164975995,639571.93756557559,0.0
375012.02908761695,3892225.878295721,-2500.0,390967.80143823399,-161040.06926516935,63976.460144034543,10391.398535415614,8337.2596059756943,-5958.7249055803586,236454.68826732028,-154502.09779500536,290306.23787807859,-290306.23787807859,154502.09779500536,461537.27071917464,0.0
380012.02908761695,3892225.878295721,-2500.0,305940.13078145229,-96224.881168285152,30404.037154451478,-5729.1570635350454,6246.3330815881345,-2069.3690188505734,170912.9971414457,-105805.83039119415,228784.16303665662,-228784.16303665662,105805.83039119415,337513.6434337197,0.0
385012.02908761695,3892225.878295721,-2500.0,234679.91498841369,-58922.197051204967,16616.006253542659,-9190.2862505257854,4048.575588890792,-575.83386517401357,125871.20231360423,-72000.846441293426,175309.50109054119,-175309.50109054119,72000.846441293426,249628.48476696282,0.0
390012.02908761695,3892225.878295721,-2500.0,179935.26268109915,-37063.874287196893,10245.131026285133,-8719.6000690668898,2542.7924391598267,-51.134432313413555,94379.136280961073,-49617.536428767962,133949.11488637608,-133949.11488637608,49617.536428767962,187127.26282515677,0.0
395012.02908761695,3892225.878295721,-2500.0,139015.43774371786,-23906.344789619474,6966.8995153944606,-7275.4409647786979,1596.787456565487,111.58781893297429,71951.414393203071,-34818.459073529863,103058.30010328721,-103058.30010328721,34818.459073529863,142372.85876581486,0.0
400012.02908761695,3892225.878295721,-2500.0,108578.94773205105,-15764.887261451066,5106.5682699909403,-5801.076767263361,1012.5850421034432,144.2144198070954,55707.280732489671,-24907.004532688548,80153.452540945858,-80153.452540945858,24907.004532688548,109973.87553126671,0.0
405012.02908761695,3892225.878295721,-2500.0,85830.961608650483,-10595.646959325042,3954.7042022925652,-4553.505166404565,650.09701581725835,133.57328014496113,43766.394610923366,-18151.794202610945,63100.432459214229,-63100.432459214229,18151.794202610945,86205.897577328331,0.0
410012.02908761695,3892225.878295721,-2500.0,68672.862752086978,-7236.0154472168952,3185.9802499364077,-3564.4063200588789,422.38082583989194,111.60075389857215,34861.119599399819,-13461.536261639598,50289.191403305871,-50289.191403305871,13461.536261639598,68520.398937446342,0.0
415012.02908761695,3892225.878295721,-2500.0,55587.996000897489,-5006.4962915237738,2640.1689096291748,-2799.6329565049832,277.21911786021707,89.4578978472356,28124.991660993834,-10145.277013435558,40557.506017970118,-40557.506017970118,10145.277013435558,55172.207919446009,0.0
420012.02908761695,3892225.878295721,-2500.0,45493.199425574399,-3499.3333094176492,2233.0082852997916,-2213.0157545471175,183.31453142408947,70.504059361542815,22959.609025108042,-7759.72689612461,33077.838974717386,-33077.838974717386,7759.72689612461,44957.758372155877,0.0
425012.02908761695,3892225.878295721,-2500.0,37614.997374217506,-2463.7367732411408,1917.3912378088489,-1762.9564002263824,121.7291170960186,55.268008763293004,18947.072698133034,-6015.8220919635114,27261.371856963982,-27261.371856963982,6015.8220919635114,37038.337230535151,0.0
430012.02908761695,3892225.878295721,-2500.0,31397.85298926981,-1741.908939375098,1665.4257621478112,-1416.1465456552128,80.840885260940809,43.349024916525657,15791.937483813792,-4721.7922286001976,22686.759260529194,-22686.759260529194,4721.7922286001976,30822.319825506951,0.0
435012.02908761695,3892225.878295721,-2500.0,26439.333892012008,-1232.478758928409,1459.6905237816709,-1147.1491494215682,53.405771991117319,34.128494847893364,13282.673689592133,-3748.2341784979881,19049.88628657614,-19049.88628657614,3748.2341784979881,25887.028850381834,0.0
440012.02908761695,3892225.878295721,-2500.0,22444.997575892481,-869.07279095097761,1288.7577652753478,-936.92036104082695,34.836869153888934,27.016560323524988,11265.896038625779,-3006.3846768352396,16129.023483664672,-16129.023483664672,3006.3846768352396,21926.58514138903,0.0
445012.02908761695,3892225.878295721,-2500.0,19197.133147472978,-607.47131307160635,1144.7945528976431,-771.30177311491968,22.185317512744117,21.523011176040058,9628.9866269765353,-2434.4018592086404,13760.772186919708,-13760.772186919708,2434.4018592086404,18716.826812353374,0.0
450012.02908761695,3892225.878295721,-2500.0,16533.05582760114,-417.74251944451385,1022.2213416731958,-639.76977092301024,13.527933312594111,17.262639709619148,8288.2635987417434,-1988.564095170701,11823.421352802126,-11823.421352802126,1988.564095170701,16091.478119358995,0.0
455012.02908761695,3892225.878295721,-2500.0,14329.935736325848,-279.33042021177698,916.93178422955077,-534.4758728061945,7.59359789574152,13.940987934370293,7180.8330400427576,-1637.5331403816899,10225.35514706056,-10225.35514706056,1637.5331403816899,13925.7721269432,0.0
250012.02908761695,3897225.878295721,-2500.0,12462.922431773221,3027.1705707784104,1312.2922745356568,481.8249357406487,131.1496598893979,13.104304204258952,6628.2106320415869,1591.1129408431721,8246.3842658340818,-8246.3842658340818,-1591.1129408431721,12990.402547549462,0.0
255012.02908761695,3897225.878295721,-2500.0,14262.237181014412,3592.5561862226659,1511.4568813072699,573.41828134283696,160.23944807350694,16.180911415440832,7617.6717878343497,1933.8843588682234,9414.7452634352885,-9414.7452634352885,-1933.8843588682234,14955.501306504215,0.0
260012.02908761695,3897225.878295721,-2500.0,16407.339529605979,4298.2403148657959,1756.9052871747915,686.83831401133398,197.45117690172148,20.117356394015271,8806.7096945788871,2373.4270287527897,10800.265989841115,-10800.265989841115,-2373.4270287527897,17322.042723213424,0.0
265012.02908761695,3897225.878295721,-2500.0,18979.604990268617,5187.5977563481893,2063.9180258653614,828.25756965152686,245.49760558055843,25.185288834908086,10245.874867650402,2943.5789424563945,12451.040810167993,-12451.040810167993,-2943.5789424563945,20192.964416041254,0.0
270012.02908761695,3897225.878295721,-2500.0,22082.065516708411,6319.9279365051016,2454.4394025459219,1005.8154378472757,308.12562235710755,31.748204521071955,12000.914771209133,3692.2616842063126,14426.440020808221,-14426.440020808221,-3692.2616842063126,23702.512571320192,0.0
275012.02908761695,3897225.878295721,-2500.0,25845.111187827166,7777.0837078736649,2960.6736640783261,1230.2801485238531,390.54176916654723,40.289419378850098,14157.875955629099,4688.2251653835037,16799.097926829792,-16799.097926829792,-4688.2251653835037,28026.86042099593,0.0
280012.02908761695,3897225.878295721,-2500.0,30433.089991049852,9673.0277176165164,3630.9641749901712,1515.9232579468023,500.00712101833784,51.448807219731336,16829.958486902127,6031.3588225190515,19656.358195082419,-19656.358195082419,-6031.3588225190515,33398.382996606175,0.0
285012.02908761695,3897225.878295721,-2500.0,36050.993727241592,12167.49919465452,4539.5689365004591,1881.6553191754283,646.64969033093496,66.062342471418376,20166.547820184831,7868.5357035814732,23099.865042541584,-23099.865042541584,-7868.5357035814732,40124.421214770191,0.0
290012.02908761695,3897225.878295721,-2500.0,42949.178859496635,15485.130330697097,5803.1746322505214,2352.4826036110248,844.52208442454878,85.205537196133136,24364.891087144671,10417.907513020356,27240.647726965013,-27240.647726965013,-10417.907513020356,48611.011764093957,0.0
295012.02908761695,3897225.878295721,-2500.0,51421.157157732108,19940.814650439101,7609.0385283895803,2961.3817494757673,1112.8655825950232,110.24846384780085,29714.806639612711,14005.59230965369,32184.311338213225,-32184.311338213225,-14005.59230965369,59390.272712714097,0.0
300012.02908761695,3897225.878295721,-2500.0,61783.755245504362,25969.419784141784,10262.874790332598,3751.8805099522428,1477.4061505986497,142.97008781288108,36697.018604524295,19118.881868706332,37996.088040349983,-37996.088040349983,-19118.881868706332,73145.131725356172,0.0
305012.02908761695,3897225.878295721,-2500.0,74318.231355686992,34148.781217791715,14268.294461118767,4782.3113340347518,1971.4107628287102,185.94882509421765,45633.872057155051,26475.722335098111,44627.845004845454,-44627.845004845454,-26475.722335098111,90711.851533749374,0.0
310012.02908761695,3897225.878295721,-2500.0,89132.91365668895,45179.136862792082,20448.473877549386,6134.4769412586902,2637.0050130086356,243.86373972257277,56983.892161198346,37090.142330735995,51780.324834172803,-51780.324834172803,-37090.142330735995,113007.70282690237,0.0
315012.02908761695,3897225.878295721,-2500.0,105884.75362209078,59715.997084783798,30090.049594732718,7931.4168827422855,3532.3892194375144,326.90233978116612,71092.128321366094,52243.920511618133,58677.397970775091,-58677.397970775091,-52243.920511618133,140750.58577431395,0.0
320012.02908761695,3897225.878295721,-2500.0,123285.64277855429,77805.419499500713,44936.899630781067,10353.714574322847,4770.1975693859504,454.38635791483892,87769.340222234634,73069.992035394258,63793.949428832762,-63793.949428832762,-73069.992035394258,173647.00120757084,0.0
325012.02908761695,3897225.878295721,-2500.0,138347.80018470334,97407.418856230681,66290.599587130389,13494.058291645022,6651.0724922175696,623.85442967799713,105275.92293677146,98925.658338748675,64826.981086753163,-64826.981086753163,-98925.658338748675,208277.98317166782,0.0
330012.02908761695,3897225.878295721,-2500.0,145210.33773307985,111212.92661460987,90709.559193426467,16044.78980367686,9817.4617268212442,523.82592950762091,117908.89447414748,122594.8042293684,59723.88599113821,-59723.88599113821,-122594.8042293684,232777.56048252858,0.0
335012.02908761695,3897225.878295721,-2500.0,131808.22712382229,100569.98635964603,95034.504182697812,8604.414042257129,13387.466927320127,-1879.4296376481509,110551.294368751,117811.47280348296,49957.29474391642,-49957.29474391642,-117811.47280348296,213099.15655227064,0.0
340012.02908761695,3897225.878295721,-2500.0,70122.703968475485,22121.152837823221,-13461.010064139224,-46222.585257863662,477.91862085771299,-12755.912160711245,66066.47098104583,3412.0464635633907,51295.358159536539,-51295.358159536539,-3412.0464635633907,121680.33244540027,0.0
345012.02908761695,3897225.878295721,-2500.0,-84513.994019337973,-193941.38692236625,-594583.4750499631,-230114.28240644903,-51137.460042498431,-14640.467129872783,439114.85377139808,-463028.00898235448,159036.38322479354,-159036.38322479354,463028.00898235448,761732.36237035692,0.0
350012.02908761695,3897225.878295721,-2500.0,-154824.98462517618,164229.72986079624,-3058847.5159258703,-1068667.0534725417,138393.71501990611,226602.13243402861,2101493.6382504525,-1444905.2762023835,854022.47673498641,-854022.47673498641,1444905.2762023835,3640196.0025572423,0.0
355012.02908761695,3897225.878295721,-2500.0,-4812237.2203445323,1032318.0687315091,8621100.5217210352,3064770.6271161758,-824197.75134439021,2420585.79405643,7402434.6841929732,6039763.9838670995,-6487675.2738838606,6487675.2738838606,-6039763.9838670995,13000797.738776384,0.0
360012.02908761695,3897225.878295721,-2500.0,954247.45883070957,-706161.28320424142,1187946.5743771011,270839.13507450453,149832.55570196678,-57451.680426368024,1004225.0024991019,-100501.49848753566,421396.40032226895,-421396.40032226895,100501.49848753566,1760109.5955145378,0.0
365012.02908761695,3897225.878295721,-2500.0,829470.3512109156,-232582.56606448456,300492.41318859858,126383.61773313022,103495.28080699551,-16805.492385977399,507049.88393615826,-151650.76343431405,548293.52824720985,-548293.52824720985,151650.76343431405,889199.32393098157,0.0
370012.02908761695,3897225.878295721,-2500.0,630523.04574785649,-86946.871787206765,80137.508773380061,37868.822800545619,36831.819214095136,-13161.675424325216,339022.4043574786,-116140.20936268865,450242.97876823059,-450242.97876823059,116140.20936268865,627718.62020978413,0.0
375012.02908761695,3897225.878295721,-2500.0,461025.91982848011,-37410.627251764199,24558.725446910154,1437.9632595075589,13292.786628068194,-5521.9094014121147,237622.19270194171,-80039.585599915081,335648.03972915438,-335648.03972915438,80039.585599915081,457463.25480829296,0.0
380012.02908761695,3897225.878295721,-2500.0,336574.20940064214,-17060.968825998101,9464.6557393453004,-9124.5140865444428,5209.5738688902238,-1880.6608707323849,170823.82839306176,-53941.417679384802,245958.68853444798,-245958.68853444798,53941.417679384802,334731.17121269467,0.0
385012.02908761695,3897225.878295721,-2500.0,248206.02498690371,-7726.0451745285854,5001.6868898119028,-10522.554591855474,2178.7178608197141,-499.74149927619936,125196.40480964321,-36602.176688415813,181173.36794497794,-181173.36794497794,36602.176688415813,247066.94488661384,0.0
390012.02908761695,3897225.878295721,-2500.0,185705.14362423887,-3169.5430278305048,3532.4098039621317,-9238.7529122867927,937.51123892691589,-21.541747344254198,93423.986498995015,-25242.414950303268,135176.05926124769,-135176.05926124769,25242.414950303268,184758.78070136954,0.0
395012.02908761695,3897225.878295721,-2500.0,141167.03165109534,-876.56646256829868,2942.2151267562344,-7460.7050936437854,393.95447868074081,122.22803092570915,70937.41936187401,-17738.518922216943,102419.87787847365,-102419.87787847365,17738.518922216943,140262.61617942507,0.0
400012.02908761695,3897225.878295721,-2500.0,109028.95262260041,280.91062543505473,2614.4545751974588,-5846.9863236194951,145.24484936902763,147.22804839856329,54758.888756282504,-12702.794671283002,78837.677750138479,-78837.677750138479,12702.794671283002,108145.93400390451,0.0
405012.02908761695,3897225.878295721,-2500.0,85497.962512428305,847.21223986079099,2367.1220794532678,-4542.4237436786589,29.227830398519639,133.62854687365365,42928.586720708547,-9261.7080102698892,61620.875791310733,-61620.875791310733,9261.7080102698892,84649.004884024005,0.0
410012.02908761695,3897225.878295721,-2500.0,68006.466921970845,1099.0217796151794,2148.8698425227612,-3532.1049545708756,-24.235252816708538,110.62046893078931,34140.558858717479,-6866.8005311743436,48861.879277228683,-48861.879277228683,6866.8005311743436,67206.133384314657,0.0
415012.02908761695,3897225.878295721,-2500.0,54809.641213879455,1182.3303795957322,1947.319108336221,-2761.7168892301684,-47.282016498484595,88.223830064376926,27512.974054874216,-5170.2977775975305,39264.68884310923,-39264.68884310923,5170.2977775975305,54066.987059983076,0.0
420012.02908761695,3897225.878295721,-2500.0,44710.346280080397,1176.2635642353807,1760.773410197439,-2176.0988920513705,-55.321810292237302,69.318105005988741,22442.432759763262,-3948.3291815491011,31941.630934175904,-31941.630934175904,3948.3291815491011,44028.857607607781,0.0
425012.02908761695,3897225.878295721,-2500.0,36877.289546889857,1124.4624340232454,1589.6709515383543,-1729.5854883155057,-56.000322945199585,54.23130362749307,18510.493900956171,-3054.3772855961179,26277.735630810017,-26277.735630810017,3054.3772855961179,36256.484426986426,0.0
430012.02908761695,3897225.878295721,-2500.0,30725.450711040408,1051.2108114983225,1434.2669411285472,-1387.0344350744517,-53.201269484719482,42.480396212404621,15422.916986528,-2390.898164499331,21841.322193341592,-21841.322193341592,2390.898164499331,30162.440370319724,0.0
435012.02908761695,3897225.878295721,-2500.0,25837.518363987831,970.00520154387425,1294.2239311083317,-1122.2098319906793,-48.921153948058397,33.415280323019331,12969.930539841031,-1891.8666283022794,18325.261749988666,-18325.261749988666,1891.8666283022794,25328.152574648677,0.0
440012.02908761695,3897225.878295721,-2500.0,21911.768591869677,888.23571849673624,1168.721214207073,-915.7512072527918,-44.184237904080078,26.436674005524701,10999.932459151421,-1511.8726631580839,15508.065818534815,-15508.065818534815,1511.8726631580839,21451.383089561914,0.0
445012.02908761695,3897225.878295721,-2500.0,18727.212771582188,809.80518631754705,1056.649767401399,-753.40713152434057,-39.504282693818446,21.053176688969103,9401.9262287131514,-1219.2106522341483,13227.917759437642,-13227.917759437642,1219.2106522341483,18311.082272449832,0.0
450012.02908761695,3897225.878295721,-2500.0,16119.966798583961,736.61851880950758,956.77411189439226,-624.66064962506596,-35.124453211273156,16.882120200487876,8093.6216605269492,-991.42586951953945,11365.105051198465,-11365.105051198465,991.42586951953945,15743.560501818733,0.0
455012.02908761695,3897225.878295721,-2500.0,13967.051715467549,669.44214106948323,867.84327324409333,-521.70995193596934,-31.144273485607261,13.632199594420442,7013.2832199673367,-812.40077030044631,9830.0035746538033,-9830.0035746538033,812.40077030044631,13626.163779231312,0.0
250012.02908761695,3902225.878295721,-2500.0,13781.838350469017,2233.173316430039,1097.3019448018033,528.68671356228992,97.209493518470723,14.219466984086285,7095.0686746471138,628.80682412763053,9406.9444335797034,-9406.9444335797034,-628.80682412763053,13843.301548564908,0.0
255012.02908761695,3902225.878295721,-2500.0,15888.311076108817,2637.9479607868871,1238.4653125521322,633.24613463596938,117.96684365293429,17.651283793981872,8190.9921711148463,763.75958966915823,10844.544076828795,-10844.544076828795,-763.75958966915823,16003.567223505604,0.0
260012.02908761695,3902225.878295721,-2500.0,18432.916566558055,3142.3951985955296,1406.5708253264036,764.0447956565265,144.35689755738557,22.075104869068369,9517.9912246332842,938.45878450912005,12579.720577062169,-12579.720577062169,-938.45878450912005,18623.209534263387,0.0
265012.02908761695,3902225.878295721,-2500.0,21531.378789579616,3777.7772241111743,1609.1920647196014,929.04030468596488,178.21781189311315,27.81758365322251,11138.209624800822,1167.7912853900671,14690.195238036444,-14690.195238036444,-1167.7912853900671,21826.546715798835,0.0
270012.02908761695,3902225.878295721,-2500.0,25336.397462209574,4587.3017434079929,1857.0079119500213,1138.9907419000401,222.0701476318998,35.32114569576612,13134.138257126024,1473.413504454722,17278.002430953791,-17278.002430953791,-1473.413504454722,25778.71654267624,0.0
275012.02908761695,3902225.878295721,-2500.0,30051.339589367133,5631.4848081178307,2165.5590001566811,1408.5523121583005,279.38231843916589,45.181807253880251,15616.41685206191,1887.3745887424429,20478.148088794107,-20478.148088794107,-1887.3745887424429,30701.273872551879,0.0
280012.02908761695,3902225.878295721,-2500.0,35949.580890482095,6996.2263445001581,2558.2787850640616,1757.8368393050205,354.92282059461439,58.195609685396434,18735.024771797711,2457.950698800516,24470.581388472008,-24470.581388472008,-2457.950698800516,36894.443154137356,0.0
285012.02908761695,3902225.878295721,-2500.0,43401.828890458157,8805.0704349040898,3071.8959417551764,2214.6220348768252,455.19199373105323,75.404967478376761,22695.407407292827,3259.2057998615692,29496.602465754935,-29496.602465754935,-3259.2057998615692,44768.892967061402,0.0
290012.02908761695,3902225.878295721,-2500.0,52914.754911363358,11237.855418349913,3766.4109761654081,2817.5049032228567,588.85325775064939,98.130145051445638,27781.857915427565,4406.8704212439497,35881.079341885241,-35881.079341885241,-4406.8704212439497,54891.068062979684,0.0
295012.02908761695,3902225.878295721,-2500.0,65185.148212167609,14558.829066382139,4744.138514471194,3620.4702672002495,766.88502592377017,127.95192010084503,34391.419513787412,6084.9661904673303,44061.603096401232,-44061.603096401232,-6084.9661904673303,68047.028405479927,0.0
300012.02908761695,3902225.878295721,-2500.0,81174.475165526455,19157.798619805362,6187.2228128163906,4699.8379280715435,1001.6932385369206,166.60699877005365,43082.753848407701,8590.5473830053634,54624.494507144089,-54624.494507144089,-8590.5473830053634,85329.623280018408,0.0
305012.02908761695,3902225.878295721,-2500.0,102207.97308095293,25605.479679591808,8433.5514594354863,6166.1201481406088,1303.3971803904151,215.84207064891245,54644.730862951648,12407.573912886175,68343.916930462845,-68343.916930462845,-12407.573912886175,108249.08894570546,0.0
310012.02908761695,3902225.878295721,-2500.0,130098.28507443068,34710.866539896786,12132.881988862677,8188.5049536975121,1669.9723208003816,277.70981946353993,70184.361462518544,18321.741405965986,86212.199805202428,-86212.199805202428,-18321.741405965986,138848.60685853902,0.0
315012.02908761695,3902225.878295721,-2500.0,167284.14201328316,47516.136119955423,18565.464988493815,11055.710800059518,2068.7825083892026,356.90277345492046,91214.397715787185,27566.229891923671,109437.49308939357,-109437.49308939357,-27566.229891923671,179748.78386092547,0.0
320012.02908761695,3902225.878295721,-2500.0,216970.73856520635,64988.095451702793,30249.349226837454,15337.000487498724,2429.0246316546045,465.25672564579162,119677.78801701828,41861.528784437862,139395.85748384745,-139395.85748384745,-41861.528784437862,233895.33005115428,0.0
325012.02908761695,3902225.878295721,-2500.0,283348.83518842416,86630.258361769171,51822.525602745831,22241.007460343284,2793.7610785364222,585.14191887682432,157722.9450830353,62670.448778779311,177722.56103698543,-177722.56103698543,-62670.448778779311,303503.3960390042,0.0
330012.02908761695,3902225.878295721,-2500.0,372569.04122570372,105965.42487368404,89876.948051850879,33775.990413168234,4302.6601161951558,185.50356313540129,206939.53931897657,87138.999926566074,227792.81430996372,-227792.81430996372,-87138.999926566074,387915.5088201132,0.0
335012.02908761695,3902225.878295721,-2500.0,496865.32958164276,99398.337247458796,145326.50090582785,47791.223373539367,12891.551525274215,-5109.7033700042693,268666.28289388499,94130.327537740479,301919.35851259658,-301919.35851259658,-94130.327537740479,485886.23607252887,0.0
340012.02908761695,3902225.878295721,-2500.0,681433.89437138662,-386.89087724370324,185287.19234359669,20879.732160957599,44987.112031845223,-36628.131073607183,364012.50488167437,6685.2904096058046,438964.43881939689,-438964.43881939689,-6685.2904096058046,642565.46436077717,0.0
345012.02908761695,3902225.878295721,-2500.0,963569.7813125439,-512249.64133643487,-26642.038946843048,-196506.09957197995,113528.12102808691,-34272.202483060028,734782.73376150359,-572277.88966625941,790194.38868296042,-790194.38868296042,572277.88966625941,1389187.5596723692,0.0
350012.02908761695,3902225.878295721,-2500.0,4196963.3835106101,-1503318.3920023674,-2215077.6356441011,433881.91755301028,7687313.5015671793,-1884452.4463302451,7922912.8782093395,-3134864.3776054187,4168497.3466226216,-4168497.3466226216,3134864.3776054187,14957694.558445577,0.0
355012.02908761695,3902225.878295721,-2500.0,3218710.4459629571,-1246035.6641251214,413572.27446835343,427643.32903413213,-2438119.8394097011,-202337.92526011556,3287898.2491275449,-1236381.2595517826,2387043.1507002101,-2387043.1507002101,1236381.2595517826,5745919.8463051813,0.0
360012.02908761695,3902225.878295721,-2500.0,1181864.8596994795,-273222.74327727285,440042.90551960905,-229300.26778035017,-60301.827273093484,3318.7957282354573,684349.75851160148,-146931.57082125242,754764.79848902766,-754764.79848902766,146931.57082125242,1207309.4318363168,0.0
365012.02908761695,3902225.878295721,-2500.0,687907.81014581362,31249.436524086934,220431.36586544139,-44572.475104190387,62097.03593282064,-3555.9711255781021,357819.07379952213,52748.048863100033,425733.15510452306,-425733.15510452306,-52748.048863100033,627591.57182408578,0.0
370012.02908761695,3902225.878295721,-2500.0,494488.59228817205,87377.014539056996,96409.109170031908,-9355.8519569624332,27546.621017843336,-6224.2899580289159,264018.78621034598,59459.256616398314,317052.29202864366,-317052.29202864366,-59459.256616398314,485077.73899349518,0.0
375012.02908761695,3902225.878295721,-2500.0,372453.67648149142,76078.89452707766,42524.941775681575,-9979.3595800022886,8385.8291314573271,-3228.2476730162921,197992.21194560142,37697.175786000385,246989.02273985965,-246989.02273985965,-37697.175786000385,379361.75354640419,0.0
380012.02908761695,3902225.878295721,-2500.0,281520.45300913556,56096.611476018727,20669.669146671527,-11225.649948999497,1674.489121318803,-1195.8798446301553,148155.58791835484,21352.817400276312,190558.26071810554,-190558.26071810554,-21352.817400276312,289916.92968396307,0.0
385012.02908761695,3902225.878295721,-2500.0,213397.06437799445,39964.857330738589,11517.296864062242,-10354.360411997208,-353.03914823563241,-301.73837012314817,111379.31620523843,11881.688736639364,146148.47462860198,-146148.47462860198,-11881.688736639364,219988.03586469573,0.0
390012.02908761695,3902225.878295721,-2500.0,162988.81848549371,28575.269782180701,7370.4210164334181,-8639.3261416551795,-832.33604243285936,29.681970215023092,84547.859527635359,6692.8010536565198,112372.10188201617,-112372.10188201617,-6692.8010536565198,167597.6028318296,0.0
395012.02908761695,3902225.878295721,-2500.0,125841.99611326709,20762.539646262318,5281.8698427172985,-6888.8735642376623,-833.64057142603383,129.48547525870674,64988.51722768911,3857.929288728832,87088.351772370646,-87088.351772370646,-3857.929288728832,128919.22659333289,0.0
400012.02908761695,3902225.878295721,-2500.0,98365.780210374302,15385.496432428359,4096.7725301294731,-5392.3871430242807,-709.50018727657618,142.41250397700742,50634.114345301758,2285.6801590135801,68212.527081491105,-68212.527081491105,-2285.6801590135801,100369.02190504338,0.0
405012.02908761695,3902225.878295721,-2500.0,77870.525328039585,11629.949279320659,3341.7000099280881,-4200.0821938914723,-571.92717772876483,126.62232033722231,39984.902419959297,1395.0340434463105,54053.086371855999,-54053.086371855999,-1395.0340434463105,79146.503558112367,0.0
410012.02908761695,3902225.878295721,-2500.0,62415.823016730814,8957.9101870595787,2811.5177918737872,-3278.1672389600067,-452.57958356539632,104.27212343566772,31986.267817604021,878.78185459327869,43339.237743270351,-43339.237743270351,-878.78185459327869,63205.63241139098,0.0
415012.02908761695,3902225.878295721,-2500.0,50623.084916265456,7019.8989341149809,2411.4674767621482,-2573.3043735815631,-356.85199106833767,83.135360991193679,25901.295735755775,572.5254809360049,35147.14761132998,-35147.14761132998,-572.5254809360049,51089.318875626486,0.0
420012.02908761695,3902225.878295721,-2500.0,41515.517659546829,5587.8889702982315,2094.453669269184,-2035.3354927978189,-282.28695905047073,65.418442251816217,21213.189758747623,386.6335339154939,28812.970837110533,-28812.970837110533,-386.6335339154939,41766.785087201053,0.0
425012.02908761695,3902225.878295721,-2500.0,34398.270129391647,4511.150662275908,1835.0666358248538,-1623.3882465906804,-224.74945365934383,51.291202248990338,17556.853549352032,271.20241092982542,23860.189852934065,-23860.189852934065,-271.20241092982542,34507.081375172085,0.0
430012.02908761695,3902225.878295721,-2500.0,28773.185428280191,3688.3982818466898,1618.3543979359258,-1306.0418633481499,-180.35746378891369,40.27163337180798,14671.866408654794,197.8605837422183,19945.118841896361,-19945.118841896361,-197.8605837422183,28788.11269377128,0.0
435012.02908761695,3902225.878295721,-2500.0,24279.637627076751,3050.3692752843303,1434.7462800129999,-1059.7541268316409,-145.95547923604863,31.751611626398912,12370.448563889806,150.14733646758577,16817.942322436866,-16817.942322436866,-150.14733646758577,24233.367884778916,0.0
440012.02908761695,3902225.878295721,-2500.0,20653.790667521473,2548.8701363400596,1277.6480476774648,-867.06756100750624,-119.11598506621638,25.176053715727974,10515.657940039473,118.32742641248569,14295.385614850282,-14295.385614850282,-118.32742641248569,20568.419145332609,0.0
445012.02908761695,3902225.878295721,-2500.0,17700.501889112489,2149.800744712084,1142.2429344981115,-715.06502275854916,-98.013268517636959,20.090945001411011,9006.4749163448905,96.539829422313232,12241.635537341092,-12241.635537341092,-96.539829422313232,17591.013370830802,0.0
450012.02908761695,3902225.878295721,-2500.0,15273.866354451424,1828.6476021544568,1024.8540424136622,-594.16705472898207,-81.285087565949652,16.141577293543783,7767.5372096234569,81.195657268838659,10555.019186312948,-10555.019186312948,-81.195657268838659,15150.438622774223,0.0
250012.02908761695,3907225.878295721,-2500.0,14777.722133904659,1286.0661059623062,973.991114529225,564.12772152226046,57.414888241567859,15.066684124279123,7462.3161804343999,-370.92470964900895,10323.368947865234,-10323.368947865234,370.92470964900895,14512.951759623998,0.0
255012.02908761695,3907225.878295721,-2500.0,17105.804247288092,1484.345690340904,1082.1030147510778,678.11161580008002,67.857847402184248,18.758538602656269,8638.6314365326616,-457.8404113714405,11966.128423361042,-11966.128423361042,457.8404113714405,16820.57024585511,0.0
260012.02908761695,3907225.878295721,-2500.0,19936.494142380834,1724.5154641925201,1206.0056403551266,821.43084233662432,80.63557578565927,23.53501262405694,10069.10493308315,-568.44065627351119,13966.317630740898,-13966.317630740898,568.44065627351119,19630.16305943111,0.0
265012.02908761695,3907225.878295721,-2500.0,23409.056032535107,2017.9507319392073,1348.6775429402355,1003.2538199392457,96.323853081755601,29.759291318644557,11824.226777561122,-710.25404389120649,16423.500449956111,-16423.500449956111,710.25404389120649,23081.58238274699,0.0
270012.02908761695,3907225.878295721,-2500.0,27710.204056984847,2379.8200019780702,1513.9461373942256,1236.0925837004429,115.6150022166722,37.92330715082786,13998.527724360718,-893.5370850157542,19471.236409203368,-19471.236409203368,893.5370850157542,27362.444188695386,0.0
275012.02908761695,3907225.878295721,-2500.0,33093.349315958811,2830.5797032327705,1706.955496728204,1537.167119312408,139.29108861509377,48.689794865213301,16720.338512594244,-1132.351200567231,23290.835033837102,-23290.835033837102,1132.351200567231,32727.449352778105,0.0
280012.02908761695,3907225.878295721,-2500.0,39906.926768918638,3398.1188824351843,1935.0688943944047,1930.359248608981,168.10981850070311,62.935475385849131,20166.155798737924,-1446.0779200001434,28131.533582044955,-28131.533582044955,1446.0779200001434,39526.706631430447,0.0
285012.02908761695,3907225.878295721,-2500.0,48636.605751367752,4120.845886346161,2209.7176441659235,2448.9970757706492,202.47539404872506,81.782702507924355,24582.05178396685,-1861.4949629071089,34340.407720686024,-34340.407720686024,1861.4949629071089,48247.666318842414,0.0
290012.02908761695,3907225.878295721,-2500.0,59969.070913672673,5052.0801642794731,2550.3686664223164,3139.779326692109,241.58593015679344,106.56676753279677,30316.038391717782,-2415.505575758325,42407.205668623566,-42407.205668623566,2415.505575758325,59577.846092048698,0.0
295012.02908761695,3907225.878295721,-2500.0,74889.688566677636,6266.0552097568207,2993.4377012289838,4068.2060057620397,281.31588387246819,138.63354602315621,37867.666895317445,-3158.3900488224499,53032.141123606998,-53032.141123606998,3158.3900488224499,74499.323291270106,0.0
300012.02908761695,3907225.878295721,-2500.0,94833.950172900863,7865.3488233615108,3613.108832893935,5325.9244597950292,309.01608639706939,178.71720064781297,47965.105147776885,-4156.6517939279584,67228.917176772913,-67228.917176772913,4156.6517939279584,94431.451635912614,0.0
305012.02908761695,3907225.878295721,-2500.0,121925.03126301874,9987.2016369026478,4571.9789710758187,7040.6985362000996,290.71621008403696,225.44979862149205,61686.521681512524,-5492.3055493810243,86481.056365627577,-86481.056365627577,5492.3055493810243,121445.09091903125,0.0
310012.02908761695,3907225.878295721,-2500.0,159349.91342897038,12797.808682058145,6249.2111234559952,9391.770013242347,139.41948867909002,272.32262195253622,80653.173468912079,-7249.3067262513505,112975.67895347303,-112975.67895347303,7249.3067262513505,158576.92182753791,0.0
315012.02908761695,3907225.878295721,-2500.0,211956.07474054414,16432.736307389598,9577.7991373107925,12643.747054220938,-363.84947187522022,302.24829389302829,107335.95584265744,-9463.2214685776125,149937.3598170784,-149937.3598170784,9463.2214685776125,210262.37635445051,0.0
320012.02908761695,3907225.878295721,-2500.0,287182.04926821723,20722.970517010341,16961.198237296841,17251.677493841442,-1766.4661158904551,273.62213152149837,145532.60079801426,-11988.02593119927,202046.79026727437,-202046.79026727437,11988.02593119927,282838.57834977849,0.0
325012.02908761695,3907225.878295721,-2500.0,396411.40853133518,24046.052813831124,34783.997110999539,24183.06406434649,-5433.2656008535505,11.498260833050125,201093.51089397637,-14311.378917418493,275774.61753643537,-275774.61753643537,14311.378917418493,384884.21761657833,0.0
330012.02908761695,3907225.878295721,-2500.0,556872.94223084068,18459.280026601267,79816.61683496552,35412.980664624876,-14824.244407730681,-1896.0330144205479,283413.25088402204,-16506.454004864761,379382.50706124795,-379382.50706124795,16506.454004864761,527906.22135363461,0.0
335012.02908761695,3907225.878295721,-2500.0,799847.35637425969,-28939.374044453019,191110.55108799884,50485.29386078073,-39357.217970916266,-17320.342019164218,415735.34386245382,-29610.601756652235,527691.3393251145,-527691.3393251145,29610.601756652235,745445.65189066844,0.0
340012.02908761695,3907225.878295721,-2500.0,1254970.0895995554,-208570.76539456783,451609.96034817019,38547.544623918962,-96714.639939925866,-117068.51658056788,720771.58676931052,-102106.94899317436,800908.92976777314,-800908.92976777314,102106.94899317436,1260420.7706073003,0.0
345012.02908761695,3907225.878295721,-2500.0,2778984.3625852512,-574636.40148897178,1519889.5091605491,-105941.59620903258,248953.95574653853,-280609.40951880091,1663681.8559164177,-46502.225562173291,1619750.967642454,-1619750.967642454,46502.225562173291,2881725.3844889663,0.0
350012.02908761695,3907225.878295721,-2500.0,1091959.1467703849,996150.71223110054,-4080463.0006474974,544633.23215478624,-2237467.5145041435,-282462.88886014931,3309386.4564801212,-1457084.4071606956,1986320.7533255005,-1986320.7533255005,1457084.4071606956,6357633.4636917347,0.0
355012.02908761695,3907225.878295721,-2500.0,538357.5056355882,-230742.00256411085,-1063635.4047548298,26973.187165133699,-246479.95009571954,-24987.258157999098,862625.07714031765,-830525.61724142556,780950.29091932008,-780950.29091932008,830525.61724142556,1524935.9531629221,0.0
360012.02908761695,3907225.878295721,-2500.0,288219.6920944195,-76159.553832017918,-11369.261521138917,-86967.52153885334,-97920.358395779651,16598.182826614568,224348.14919153316,-105101.36768449922,222994.44394939012,-222994.44394939012,105101.36768449922,388603.98064989992,0.0
365012.02908761695,3907225.878295721,-2500.0,225963.90843162479,78966.558327732186,144780.97315904297,-44559.250904442168,-7559.8201012585123,4140.977624342293,142754.00236587474,115206.1867608741,104037.98937890278,-104037.98937890278,-115206.1867608741,250245.93931464557,0.0
370012.02908761695,3907225.878295721,-2500.0,213728.96874632774,123108.68906489751,116749.96845306901,-17128.905156857538,3049.84577279318,-1263.0127402268754,151841.51035604096,138386.92364737147,98492.6530164797,-98492.6530164797,-138386.92364737147,284872.11514805426,0.0
375012.02908761695,3907225.878295721,-2500.0,198995.60174550678,112744.80419294603,73690.074621686363,-10800.187004200418,-221.89634823788464,-1268.6943344844535,134853.12193312211,108516.77126079919,103730.49637147701,-103730.49637147701,-108516.77126079919,263053.78286059893,0.0
380012.02908761695,3907225.878295721,-2500.0,174152.3894998497,88309.671746834822,44459.578988905218,-9374.95652373757,-2195.5136110083877,-556.11031623408974,111085.52941784829,75557.732122260422,99008.352681529548,-99008.352681529548,-75557.732122260422,219906.28296283595,0.0
385012.02908761695,3907225.878295721,-2500.0,145940.14731698524,65512.745685359885,27356.300911597315,-8236.6484840258727,-2543.5704713922823,-120.07474712444517,88860.986148779775,50877.335916389762,87546.574284273665,-87546.574284273665,-50877.335916389762,176561.68918315039,0.0
390012.02908761695,3907225.878295721,-2500.0,119588.87600506413,47922.132968541722,17584.658033672444,-6922.4548500702085,-2239.8625488065386,65.915168868362414,70260.181427695439,34247.57765588515,74224.107197322126,-74224.107197322126,-34247.57765588515,139811.1479182356,0.0
395012.02908761695,3907225.878295721,-2500.0,97152.952428629942,35175.708430759791,11886.922100962916,-5629.8734137660913,-1792.0455020736017,123.78508947030873,55466.827061640215,23365.966976292955,61673.634578799538,-61673.634578799538,-23365.966976292955,110581.9850309592,0.0
400012.02908761695,3907225.878295721,-2500.0,78877.098927215367,26108.333497341417,8435.9161638227342,-4499.0060470718954,-1381.2046203260368,127.61429571926712,44005.13447296997,16246.789965711258,50855.036670721616,-50855.036670721616,-16246.789965711258,87906.861496992016,0.0
405012.02908761695,3907225.878295721,-2500.0,64283.997766301865,19655.812985392906,6251.2346055855178,-3570.2837015372475,-1051.450461512248,112.39076865140727,35300.761752142804,11532.242973981929,41906.349308825331,-41906.349308825331,-11532.242973981929,70443.959626706928,0.0
410012.02908761695,3907225.878295721,-2500.0,52714.170926389401,15023.262765933296,4805.0052633060532,-2831.9020967618198,-800.03167349582361,92.843382194525233,28623.118483661518,8355.6901813954191,34642.235189521103,-34642.235189521103,-8355.6901813954191,56976.51096035591,0.0
415012.02908761695,3907225.878295721,-2500.0,43542.381368374241,11655.134396348258,3806.4338636049229,-2253.7517589548543,-612.04469367725937,74.513313966283704,23433.753333665652,6174.1417370240379,28787.487834129002,-28787.487834129002,-6174.1417370240379,46530.125882356937,0.0
420012.02908761695,3907225.878295721,-2500.0,36244.382711154001,9171.6446196462657,3090.2434929643077,-1803.5616585134107,-472.15242955238858,59.063581109297978,19366.664160954118,4646.7413314633413,24072.238781899134,-24072.238781899134,-4646.7413314633413,38362.294542373143,0.0
425012.02908761695,3907225.878295721,-2500.0,30403.478461531999,7314.040366574799,2559.1847119850604,-1452.9759127208406,-367.77119530851309,46.636682679741959,16150.321705977529,3557.1500883860153,20264.089740337091,-20264.089740337091,-3557.1500883860153,31918.685136064734,0.0
430012.02908761695,3907225.878295721,-2500.0,25696.432269821144,5905.0298920439145,2153.9685123114323,-1179.0287965109699,-289.37651864150871,36.856421742684539,13583.259068985495,2765.9572088930954,17173.820572755085,-17173.820572755085,-2765.9572088930954,26788.084573853303,0.0
435012.02908761695,3907225.878295721,-2500.0,21875.139481588758,4821.9357404600423,1837.1692491800068,-963.83204779306595,-229.99761696237275,29.230566053577206,11515.710504749402,2181.8042979133579,14651.448318199513,-14651.448318199513,-2181.8042979133579,22665.284490762824,0.0
440012.02908761695,3907225.878295721,-2500.0,18749.693665808987,3978.8472048664398,1584.3607169518,-793.71184923050498,-184.5985804486979,23.299991565046255,9835.7825820933886,1743.7778657401514,12579.536682888433,-12579.536682888433,-1743.7778657401514,19322.720656876307,0.0
445012.02908761695,3907225.878295721,-2500.0,16174.493855576151,3314.8239618297207,1379.0944483485359,-658.30012436304207,-149.55104104579922,18.681975543378428,8459.2949201969732,1410.5658078539691,10866.526803175757,-10866.526803175757,-1410.5658078539691,16589.567776343229,0.0
450012.02908761695,3907225.878295721,-2500.0,14037.462890314378,2786.0780405009682,1209.9700847341485,-549.75174904021912,-122.23352982023046,15.073448735936621,7322.4233905977781,1153.6869015966295,9441.0363375386696,-9441.0363375386696,-1153.6869015966295,14336.59911754011,0.0
250012.02908761695,3912225.878295721,-2500.0,15397.43430027216,244.47028802953199,964.2592368369834,586.34815744838397,13.964554723249879,15.606661692146924,7715.3165945189821,-1339.7365868568004,10940.422998310743,-10940.422998310743,1339.7365868568004,14970.632835265278,0.0
255012.02908761695,3912225.878295721,-2500.0,17842.745427883823,210.01826964408593,1072.3689766796888,705.5052225228867,12.943912293715961,19.446576796783368,8940.8590275230872,-1639.1222311962783,12704.748208679004,-12704.748208679004,1639.1222311962783,17367.732017381837,0.0
260012.02908761695,3912225.878295721,-2500.0,20819.084040587233,150.4415450444028,1196.9692046817822,855.44588571641657,10.524578052269069,24.416467857974023,10433.051354079045,-2022.2835502082517,14857.356775331365,-14857.356775331365,2022.2835502082517,20289.746875528752,0.0
265012.02908761695,3912225.878295721,-2500.0,24474.17356250872,53.213306177412591,1341.53718785111,1045.7956101171171,5.8270697336527997,30.892587706693618,12266.369011393699,-2517.8228921707596,17507.501727221403,-17507.501727221403,2517.8228921707596,23883.990078462131,0.0
270012.02908761695,3912225.878295721,-2500.0,29006.175985947866,-100.67259681124091,1510.7092491122676,1289.6662318712636,-2.5733370555137887,39.381811769989632,14540.887683964223,-3165.9885837606944,20802.088004109064,-20802.088004109064,3165.9885837606944,28348.553258800923,0.0
275012.02908761695,3912225.878295721,-2500.0,34684.158783311839,-340.41232865930562,1710.9414211108699,1605.0422890327595,-17.016261577889679,50.558439726455866,17392.782261400771,-4024.211430253099,24941.050404958063,-24941.050404958063,4024.211430253099,33953.130877405747,0.0
280012.02908761695,3912225.878295721,-2500.0,41878.18631567643,-711.51588814227739,1951.7305446148243,2016.7170126472147,-41.409832788248558,65.294739875348952,21009.846988006291,-5175.6728302860884,30199.97806115292,-30199.97806115292,5175.6728302860884,41069.752344445827,0.0
285012.02908761695,3912225.878295721,-2500.0,51104.098702043091,-1286.08941766818,2247.9857206128327,2558.9254914341477,-82.417946522006986,84.656270379207911,25654.754850098761,-6742.7396434205875,36963.767122977806,-36963.767122977806,6742.7396434205875,50218.70560993957,0.0
290012.02908761695,3912225.878295721,-2500.0,63091.021367042093,-2180.4970701883171,2624.8461817693906,3278.7366279978687,-151.68419218365193,109.77442941630154,31700.465789499245,-8908.3633193836977,45777.252691434303,-45777.252691434303,8908.3633193836977,62138.102360516219,0.0
295012.02908761695,3912225.878295721,-2500.0,78884.35277904605,-3586.4253089558724,3127.9713548883019,4239.8800333675063,-270.15179808635179,141.3971299421562,39684.987904549052,-11950.596729821751,57422.054327162004,-57422.054327162004,11950.596729821751,77890.545265676512,0.0
300012.02908761695,3912225.878295721,-2500.0,100004.55501281591,-5826.8761156960973,3846.5306656920507,5525.5246231100846,-476.79399547848647,178.62686683967038,50397.57691031805,-16298.758481016685,73033.819429126495,-73033.819429126495,16298.758481016685,99028.537643650052,0.0
305012.02908761695,3912225.878295721,-2500.0,128693.97132697944,-9459.8252896242284,4967.2194992159029,7235.3366123605228,-847.072251707124,215.75679430563349,65017.236083538803,-22624.800458972932,94280.667942062049,-94280.667942062049,22624.800458972932,127853.18270581489,0.0
310012.02908761695,3912225.878295721,-2500.0,168302.14956611695,-15475.163066362411,6908.126609392908,9463.8747140796968,-1533.9136934934672,234.93538166318319,85341.180640664432,-31988.647138861976,123630.05472586941,-123630.05472586941,31988.647138861976,167820.65060289914,0.0
315012.02908761695,3912225.878295721,-2500.0,223882.9438302652,-25678.107401872945,10670.855577696735,12225.515115765074,-2863.5286964184329,189.96221195014252,114172.91593293622,-46050.979034811353,164724.60178360794,-164724.60178360794,46050.979034811353,224176.22869648342,0.0
320012.02908761695,3912225.878295721,-2500.0,303077.86344429135,-43450.019874416139,18831.615962461277,15221.472136681688,-5572.1469212765551,-33.97266616460287,155995.17375313432,-67296.790993858172,222806.77544797852,-222806.77544797852,67296.790993858172,304903.67528655782,0.0
325012.02908761695,3912225.878295721,-2500.0,417127.42796084005,-75280.414599071271,38564.056395917272,17003.191752181439,-11431.142886131262,-807.47336900221853,218144.40879373794,-98824.718314997954,304658.18521050864,-304658.18521050864,98824.718314997954,421930.94676388212,0.0
330012.02908761695,3912225.878295721,-2500.0,580113.42684839771,-134036.02171995351,91859.485143219528,10703.294353469035,-25053.523863659662,-4334.5325875191593,313236.75724101724,-141430.71012626105,415007.78339859721,-415007.78339859721,141430.71012626105,592229.67928234045,0.0
335012.02908761695,3912225.878295721,-2500.0,796643.3262752872,-249683.98284977605,254725.18024178853,-42944.495419351217,-57978.682807321173,-26697.060706501441,472477.88422339188,-179407.20048635552,535352.09464709763,-535352.09464709763,179407.20048635552,853243.88054289354,0.0
340012.02908761695,3912225.878295721,-2500.0,1034009.2770316334,-553132.57522084936,788243.12665153306,-366216.52357971796,-61732.62599533808,-94057.829195248763,887145.77126963751,-175085.08390400236,569917.78601171856,-569917.78601171856,175085.08390400236,1545101.6153743989,0.0
345012.02908761695,3912225.878295721,-2500.0,-2132817.4505750742,-267140.46781767299,3238943.7744777645,-1500720.719906878,1690295.3687959879,1436045.295441248,3557271.626249535,1796489.3618128954,-2613471.4224695554,2613471.4224695554,-1796489.3618128954,6161444.3817767892,0.0
350012.02908761695,3912225.878295721,-2500.0,-955290.93605624698,-217078.78815569196,-2802845.6356372442,-105985.35686127504,-261452.00395400997,197516.25229172406,1539441.6477778957,-1543628.9432220156,259488.65832836146,-259488.65832836146,1543628.9432220156,2693034.8790011597,0.0
355012.02908761695,3912225.878295721,-2500.0,-420905.49700775789,-274304.04195480625,-985656.19169048022,58879.913417236465,25843.032538625663,99348.141411048666,602341.5913521864,-703282.07013626315,63564.118638620013,-63564.118638620013,703282.07013626315,1059034.0131664944,0.0
360012.02908761695,3912225.878295721,-2500.0,-221926.10987841265,-144836.02118881757,-233791.52867590223,30152.945797046985,-11710.730433004843,13615.977506528634,197844.62999505558,-218251.96867131029,-62007.341976979704,62007.341976979704,218251.96867131029,352827.31151105306,0.0
365012.02908761695,3912225.878295721,-2500.0,-103778.07170074579,-8936.5202619806842,34169.769081733837,4572.9555589466345,-6771.4364984222111,2076.4520396870885,70361.678442964709,24411.442206954172,-86035.734265702515,86035.734265702515,-24411.442206954172,126776.42128321374,0.0
370012.02908761695,3912225.878295721,-2500.0,-15883.028794547014,63783.469231919924,90074.288203251141,-1381.7552245109564,-3435.7426956785744,-333.74505586242162,82973.259032299713,104162.57846051562,-51487.054339516872,51487.054339516872,-104162.57846051562,148550.68640656432,0.0
375012.02908761695,3912225.878295721,-2500.0,38653.553692226429,84147.32976345373,79868.371037382225,-3539.1642478383765,-3622.6253911909121,-514.5431838937692,86726.020394222724,108770.81508984944,-11306.028478415166,11306.028478415166,-108770.81508984944,161760.23477372574,0.0
380012.02908761695,3912225.878295721,-2500.0,64439.89786837151,78884.385029740835,58252.159656357151,-4630.1066831337421,-3834.2053680882764,-248.82335369208494,79078.457109341078,89405.897724355775,15561.178046073379,-15561.178046073379,-89405.897724355775,150330.62743832672,0.0
385012.02908761695,3912225.878295721,-2500.0,71690.511658035597,65439.76796696597,40147.065871242354,-4858.7082859406255,-3492.9887069819297,-37.733379129600237,67461.246951656169,67420.158885676792,28961.562465114439,-28961.562465114439,-67420.158885676792,129737.76567815669,0.0
390012.02908761695,3912225.878295721,-2500.0,69240.060294135939,51590.543820922561,27474.435247608293,-4530.999624215764,-2893.125934467811,66.059725502277473,55796.580568963975,49256.987357590515,33524.913103591323,-33524.913103591323,-49256.987357590515,108220.91969899445,0.0
395012.02908761695,3912225.878295721,-2500.0,62642.551834887505,39884.668498882587,19070.338976586841,-3956.9232465815376,-2279.7926046403586,101.36872791687018,45567.890941563193,35726.165633038465,33306.342176454047,-33306.342176454047,-35726.165633038465,88993.280681957098,0.0
400012.02908761695,3912225.878295721,-2500.0,54854.280332183182,30706.64352666308,13547.89323196811,-3332.7850608740146,-1755.0473008670629,103.4031578590895,37105.655507212032,26027.98253278753,30868.351000150578,-30868.351000150578,-26027.98253278753,72894.252529834281,0.0
405012.02908761695,3912225.878295721,-2500.0,47266.551101909899,23727.584885653192,9881.2283270702374,-2754.0171177447392,-1339.7790027297644,92.219023953635457,30285.886899510144,19155.496179657552,27619.633172044312,-27619.633172044312,-19155.496179657552,59804.565396455888,0.0
410012.02908761695,3912225.878295721,-2500.0,40440.844707048753,18475.295309357643,7399.3243428270525,-2255.4887806136321,-1022.7847288974427,77.449223776633218,24847.511607560751,14277.755223356642,24266.676533696573,-24266.676533696573,-14277.755223356642,49291.859105900832,0.0
415012.02908761695,3912225.878295721,-2500.0,34533.875270128039,14523.265451677718,5680.194720326579,-1841.9786982539576,-784.49927278335576,63.16939570386058,20520.688681247062,10788.02518062427,21130.352387164097,-21130.352387164097,-10788.02518062427,40877.35805021401,0.0
420012.02908761695,3912225.878295721,-2500.0,29520.8422846914,11534.326718747443,4460.3467122471266,-1505.5967912282545,-606.14642619419487,50.809276811933664,17075.396120325142,8263.4155888923251,18332.375087559856,-18332.375087559856,-8263.4155888923251,34132.132020076337,0.0
425012.02908761695,3912225.878295721,-2500.0,25306.127674401443,9255.917794285424,3574.0099648685623,-1234.4817017914838,-472.40054142076229,40.641150236830953,14398.188544550099,6414.0538892971563,15897.112664470704,-15897.112664470704,-6414.0538892971563,28702.170422922005,0.0
430012.02908761695,3912225.878295721,-2500.0,21775.325951577859,7503.0650982508168,2915.3428903978356,-1016.6846239708865,-371.56511559829642,32.484184404879827,12230.178317595841,5041.7379424529163,13804.802191640236,-13804.802191640236,-5041.7379424529163,24306.040075144596,0.0
435012.02908761695,3912225.878295721,-2500.0,18818.007941986871,6141.3350606913391,2415.5257838135085,-841.6572320219359,-294.98498805938146,26.019772462939539,10456.622303865821,4010.3110577443958,12018.440604779022,-12018.440604779022,-4010.3110577443958,20723.879649976672,0.0
440012.02908761695,3912225.878295721,-2500.0,16336.415375907527,5073.0224853477112,2028.9213728595842,-700.63767735765487,-236.34107761690692,20.921861248676727,8996.4529471349615,3225.4453691699405,10496.881207971121,-10496.881207971121,-3225.4453691699405,17785.185122641153,0.0
445012.02908761695,3912225.878295721,-2500.0,14247.565889621595,4226.7990320276149,1724.6509695994816,-586.57035066261858,-191.03821135089137,16.904151958416421,7786.4998280462778,2621.1033403273391,9200.7786581074233,-9200.7786581074233,-2621.1033403273391,15357.894930113314,0.0
450012.02908761695,3912225.878295721,-2500.0,12482.577701797902,3550.2461235812771,1481.4055772632137,-493.86610132868378,-155.73105424804106,13.731545848300089,6777.4473170270257,2150.5309391984383,8094.9794634998334,-8094.9794634998334,-2150.5309391984383,13339.535227823419,0.0
250012.02908761695,3917225.878295721,-2500.0,15615.64613156966,-824.34497622503272,1076.3548790997609,594.47978915528881,-30.637763915587168,15.820175664274551,7845.825582222139,-2212.9618643863132,11226.497566433689,-11226.497566433689,2212.9618643863132,15199.895246819869,0.0
255012.02908761695,3917225.878295721,-2500.0,18066.170348788655,-1094.5275686379655,1220.0170847456213,714.26613838838273,-43.302275760509062,19.68937382926266,9086.870776721873,-2693.4133036868989,13018.807986242891,-13018.807986242891,2693.4133036868989,17623.413301642955,0.0
260012.02908761695,3917225.878295721,-2500.0,21037.260750380094,-1456.345332186927,1393.6689480808554,864.52351620814352,-61.090165013753669,24.683761649241404,10595.488319167094,-3305.2755514410401,15197.380147799844,-15197.380147799844,3305.2755514410401,20573.109377448178,0.0
265012.02908761695,3917225.878295721,-2500.0,24668.745876128425,-1945.3885152538494,1606.8295053979389,1054.5334461890116,-86.291463523676555,31.169652119772675,12445.323094363423,-4092.3694746615993,17867.178201865972,-17867.178201865972,4092.3694746615993,24194.720433848521,0.0
270012.02908761695,3917225.878295721,-2500.0,29145.701883002024,-2613.2773321857198,1873.3226898766106,1296.7879105442262,-122.3529984000583,39.633416600709573,14734.794500825905,-5115.8617689339835,21167.415791265015,-21167.415791265015,5115.8617689339835,28683.29993316481,0.0
275012.02908761695,3917225.878295721,-2500.0,34715.342447620518,-3535.9944706750357,2213.8223829711351,1608.1523704497981,-174.53872713639754,50.70842920042189,17596.948434757003,-6462.2232131819128,25284.384326951724,-25284.384326951724,6462.2232131819128,34302.944249610708,0.0
280012.02908761695,3917225.878295721,-2500.0,41710.80094376862,-4827.1763722630412,2660.2422030106159,2011.3800905482083,-251.01261747025683,65.185805919743288,21213.804031582506,-8255.3182778819973,30469.481391203029,-30469.481391203029,8255.3182778819973,41415.573456548926,0.0
285012.02908761695,3917225.878295721,-2500.0,50584.581020329104,-6659.7085328499998,3263.5489981759742,2536.933285154822,-364.64220274170407,83.965711727280393,25837.476746456065,-10674.978664486687,37064.45565932084,-37064.45565932084,10674.978664486687,50523.391815552437,0.0
290012.02908761695,3917225.878295721,-2500.0,61955.18707798214,-9301.4672168591351,4108.1356913619784,3224.7574100290249,-536.04456390214307,107.84216821629914,31821.596162205929,-13985.783403381049,45536.277266628174,-45536.277266628174,13985.783403381049,62332.174492276055,0.0
295012.02908761695,3917225.878295721,-2500.0,76670.54673402854,-13175.672402306727,5339.2567916003864,4124.7797229822763,-798.78883578990462,136.85104674476855,39668.456950015556,-18581.870297355435,56523.676086221254,-56523.676086221254,18581.870297355435,77846.405869699345,0.0
300012.02908761695,3917225.878295721,-2500.0,95889.55284245142,-18964.756800228653,7217.5182515315646,5292.5713879707455,-1208.3073710506721,168.56017946015325,50100.377059331433,-25056.382643196637,70894.449066500383,-70894.449066500383,25056.382643196637,98513.262760231097,0.0
305012.02908761695,3917225.878295721,-2500.0,121172.76426484212,-27792.375997165571,10232.091653273721,6770.5575086398012,-1856.9219252120931,193.89275934811332,64168.687673330001,-34306.503428108961,89801.457401609485,-89801.457401609485,34306.503428108961,126441.12119238696,0.0
310012.02908761695,3917225.878295721,-2500.0,154540.27654081385,-41546.573092307022,15348.059363955355,8529.7079576552896,-2897.5027829472524,187.58853361291847,83423.947451717409,-47680.962066368171,114690.42967314753,-114690.42967314753,47680.962066368171,164731.11507705919,0.0
315012.02908761695,3917225.878295721,-2500.0,198354.76699315183,-63453.906975261467,24578.964184364104,10307.035125674021,-4571.6915126327667,88.164048457633044,110199.92996195667,-67140.664708962795,147107.16141376575,-147107.16141376575,67140.664708962795,217977.83907673575,0.0
320012.02908761695,3917225.878295721,-2500.0,254592.15755365594,-99064.050340459551,42401.768065351425,11166.68831230063,-7192.4040492356598,-242.14001225972555,148145.01904048622,-95230.049465582357,187832.11025355128,-187832.11025355128,95230.049465582357,293022.5704153314,0.0
325012.02908761695,3917225.878295721,-2500.0,322170.93857795594,-157672.68748070596,79520.315587631223,8247.4596121063005,-10756.841954835576,-1143.4116018588188,203105.78538877174,-133894.72759801461,233862.5115893094,-233862.5115893094,133894.72759801461,400115.33990312595,0.0
330012.02908761695,3917225.878295721,-2500.0,388639.41461586248,-252597.55782328878,163768.94529299458,-7637.1055858962409,-12201.412714600827,-4218.946145148615,284737.07148341602,-177728.99384639272,268661.71006740746,-268661.71006740746,177728.99384639272,555518.09497830947,0.0
335012.02908761695,3917225.878295721,-2500.0,415507.03125381586,-386397.348945526,376957.84834462649,-70810.080436761942,11897.118009918438,-20577.55035492215,419452.5901728418,-179661.30898031383,236653.16128809977,-236653.16128809977,179661.30898031383,798887.13724851119,0.0
340012.02908761695,3917225.878295721,-2500.0,388340.76529829093,-362443.54539943038,1117320.115464078,-260439.12747019698,166281.22812212148,62659.813444424311,700825.38971478317,241277.96320996995,-35917.735141063778,35917.735141063778,-241277.96320996995,1247166.224946467,0.0
345012.02908761695,3917225.878295721,-2500.0,-774804.04880426067,845252.80591321387,-1515599.7728790543,695431.90890389797,-365737.37033953128,-223072.2004541858,1287813.5730509802,-1821.5099342123576,-180572.55189141817,180572.55189141817,1821.5099342123576,2292909.0564283552,1.0
350012.02908761695,3917225.878295721,-2500.0,-348058.50624706701,2532.0611277017265,-1436699.2852743631,-248522.52519080302,-162977.34648380449,113293.43905769331,844713.04330094939,-708337.39556906396,213916.69817437028,-213916.69817437028,708337.39556906396,1471470.4622665662,0.0
355012.02908761695,3917225.878295721,-2500.0,-377401.3650355186,-267722.9272076101,-804525.3889875476,-16366.069381539139,79025.872286251586,38228.207129842311,494051.4431901346,-605837.52287981333,33007.741151134076,-33007.741151134076,605837.52287981333,875941.63951870066,0.0
360012.02908761695,3917225.878295721,-2500.0,-320487.78528692736,-205217.13327811559,-314022.64936863899,34113.047817870487,39257.555631439238,4120.2429584830115,268432.68048288312,-299860.72311070829,-97415.078503708093,97415.078503708093,299860.72311070829,487616.97822209192,0.0
365012.02908761695,3917225.878295721,-2500.0,-224184.74879920066,-93744.833847171802,-60970.271073830139,21286.423890544385,11812.256496920822,-319.67536718007881,135555.85968076167,-82757.086827343213,-128896.14273510486,128896.14273510486,82757.086827343213,261455.00790121206,0.0
370012.02908761695,3917225.878295721,-2500.0,-132823.00201492553,-11351.21545686862,36590.288266027179,9755.7083276174089,1839.6533978768307,-608.03945912089773,85845.970573006955,27254.9939723766,-107495.09028770946,107495.09028770946,-27254.9939723766,156412.63440763886,0.0
375012.02908761695,3917225.878295721,-2500.0,-62671.995579508053,31715.005705860247,59428.57809991551,3440.2204326971114,-1832.6105163974537,-405.19901683966373,68905.118679259234,66764.903901756232,-70509.585131523156,70509.585131523156,-66764.903901756232,119356.59998549984,0.0
380012.02908761695,3917225.878295721,-2500.0,-16403.245829903582,47146.144743803059,54681.257280101228,142.86781800726916,-3027.3765532139532,-185.78163054824822,59114.585092551883,71249.937597191689,-37491.82640820821,37491.82640820821,-71249.937597191689,104206.69602177289,0.0
385012.02908761695,3917225.878295721,-2500.0,10452.249414551392,48010.831867610366,43194.719067566963,-1458.2002655986043,-3113.7516183766406,-39.82023252801946,50807.079614850096,62336.71344725907,-14163.539941675528,14163.539941675528,-62336.71344725907,92066.6847334099,0.0
390012.02908761695,3917225.878295721,-2500.0,24099.587028793176,42833.987808963218,32277.74332616878,-2099.0662826837452,-2751.6109905781918,36.168900895140403,43115.046886241777,50337.72057147749,253.83758139628844,-253.83758139628844,-50337.72057147749,79893.107266424151,0.0
395012.02908761695,3917225.878295721,-2500.0,29716.12605441083,36008.06836223272,23715.929318003233,-2225.5626244582691,-2268.5924188709005,66.892745249208673,36214.264505377243,39249.85246926223,8270.1305813051531,-8270.1305813051531,-39249.85246926223,68243.827903853555,0.0
400012.02908761695,3917225.878295721,-2500.0,30839.340950566599,29437.722767474555,17449.33400292023,-2102.4374901432038,-1807.6586313676635,73.363050019691684,30260.866653885834,30191.925721805201,12196.598246076037,-12196.598246076037,-30191.925721805201,57764.030408049941,0.0
405012.02908761695,3917225.878295721,-2500.0,29645.189806474351,23782.516259232711,12973.614982456802,-1877.3090351170333,-1417.7098219751201,68.662289916254878,25261.082023750278,23168.831589506146,13690.015887999427,-13690.015887999427,-23168.831589506146,48713.980595344459,0.0
410012.02908761695,3917225.878295721,-2500.0,27388.237088868496,19153.459712592463,9789.8943263631918,-1626.7242491522593,-1105.6411634720919,59.824390259352924,21127.212410084707,17844.126089309866,13816.70117445737,-13816.70117445737,-17844.126089309866,41082.601112489647,0.0
415012.02908761695,3917225.878295721,-2500.0,24756.903125972647,15452.499380280018,7511.0219138037901,-1386.9783412000813,-862.54760259296086,50.252726329150349,17735.548213759259,13837.916945142159,13224.234925430828,-13224.234925430828,-13837.916945142159,34728.854544331865,0.0
420012.02908761695,3917225.878295721,-2500.0,22110.037481500025,12523.008396261424,5860.8697962481056,-1172.8894450451089,-675.47913932160031,41.410967077312677,14959.895844085635,10823.066045787577,12291.325124736637,-12291.325124736637,-10823.066045787577,29469.237467447954,0.0
425012.02908761695,3917225.878295721,-2500.0,19621.248623837524,10210.123511309854,4648.9237256294791,-988.47015740650352,-532.08131969200724,33.801049348792567,12686.672318098359,8543.8801324539781,11232.434856231317,-11232.434856231317,-8543.8801324539781,25121.492870172635,0.0
430012.02908761695,3917225.878295721,-2500.0,17363.097481890305,8380.9946893545894,3745.1310473006515,-832.69726361505593,-422.0507713695406,27.483606939750494,10819.835934793935,6808.8311086218109,10164.57703794334,-10164.57703794334,-6808.8311086218109,21522.882266815737,0.0
435012.02908761695,3917225.878295721,-2500.0,15354.832722871304,6928.4428365734639,3060.647717958966,-702.49715479090298,-337.29448140552427,22.338817059174204,9282.418731899792,5477.1314421307998,9148.0637392965273,-9148.0637392965273,-5477.1314421307998,18535.46890477978,0.0
440012.02908761695,3917225.878295721,-2500.0,13588.985872884756,5768.5321831929814,2534.3654440194673,-594.22234276123868,-271.64050651842194,18.189897849681898,8044.5352370105311,4446.0024842597595,8210.8184588295717,-8210.8184588295717,-4446.0024842597595,16045.550620610782,0.0
445012.02908761695,3917225.878295721,-2500.0,12045.900243610584,4836.4520031734392,2123.8230716626167,-504.33229012815116,-220.44833333220569,14.858490416237611,7021.42110824878,3640.4289412131266,7362.6680584316136,-7362.6680584316136,-3640.4289412131266,13960.777408714752,0.0
450012.02908761695,3917225.878295721,-2500.0,10701.500495022816,4082.450955211712,1799.1627145594118,-429.66994325444864,-180.24910825636169,12.185803749528437,6156.9640372646545,3005.468036441549,6603.6697930179344,-6603.6697930179344,-3005.468036441549,12206.707660617167,0.0
250012.02908761695,3922225.878295721,-2500.0,15437.089448403138,-1852.301854177859,1303.7455007738297,588.65744547336703,-73.855683520069661,15.709575216203737,7852.499306060462,-2937.1439620127821,11176.834362253387,-11176.834362253387,2937.1439620127821,15197.489452787799,0.0
255012.02908761695,3922225.878295721,-2500.0,17785.35438087552,-2338.1115899430924,1514.9176780518342,704.68594984914137,-97.380236971554524,19.492706992800592,9075.519790955499,-3550.2464424672935,12904.551379584129,-12904.551379584129,3550.2464424672935,17584.456679027022,0.0
260012.02908761695,3922225.878295721,-2500.0,20607.89863523985,-2972.0937739664478,1780.3297229969114,849.23342480436133,-129.31327346677506,24.34987590466805,10555.800436730076,-4323.4332429357364,14985.111400131411,-14985.111400131411,4323.4332429357364,20477.68126887269,0.0
265012.02908761695,3922225.878295721,-2500.0,24022.371139269213,-3807.4590058153753,2119.8064146813185,1030.5300891241889,-173.08862167585656,30.616468735256127,12361.622627365145,-5306.9543809656752,17506.453369140287,-17506.453369140287,5306.9543809656752,24012.741663699577,0.0
270012.02908761695,3922225.878295721,-2500.0,28179.813215147202,-4919.6569889907896,2562.5696205051336,1259.3993935496005,-233.72916710784332,38.728778621599908,14583.057564886578,-6569.3496906947248,20581.313199586708,-20581.313199586708,6569.3496906947248,28368.962102253488,0.0
275012.02908761695,3922225.878295721,-2500.0,33274.40205324017,-6417.0100703391554,3152.6659098310906,1550.0234399737499,-318.66336260290404,49.238422974301585,17339.977757599456,-8204.8565673432295,24354.195991450106,-24354.195991450106,8204.8565673432295,33785.755668573416,0.0
280012.02908761695,3922225.878295721,-2500.0,39555.208936487594,-8457.0292950475941,3958.0770763250348,1920.7789725663781,-438.99026728384479,62.800730475307304,20793.283877610073,-10343.926633557732,29009.465642666939,-29009.465642666939,10343.926633557732,40585.711606868113,0.0
285012.02908761695,3922225.878295721,-2500.0,47339.030926964137,-11271.721393935637,5086.4066680881069,2394.8915151753677,-611.43570560852402,80.093768024120095,25160.644633531767,-13167.974270125191,34779.396502698226,-34779.396502698226,13167.974270125191,49207.321305127371,0.0
290012.02908761695,3922225.878295721,-2500.0,57020.860709876921,-15207.102248621331,6712.5815353321177,3000.1883732039196,-861.32957711728875,101.54783696217361,30738.410193250118,-16929.392687239088,41948.635928028794,-41948.635928028794,16929.392687239088,60251.268718096624,0.0
295012.02908761695,3922225.878295721,-2500.0,69072.442822773286,-20785.022441895166,9129.1986961826915,3766.1142464205527,-1226.94735889144,126.62701364026034,37931.58775482628,-21976.711447530812,50845.73091810257,-50845.73091810257,21976.711447530812,74545.29286413145,0.0
300012.02908761695,3922225.878295721,-2500.0,84004.623792013037,-28798.972691370833,12840.808911469292,4713.5666272327062,-1765.1418738750906,152.07769132538672,47293.390164324512,-28780.084544674533,61798.507039278993,-61798.507039278993,28780.084544674533,93233.115150875543,0.0
305012.02908761695,3922225.878295721,-2500.0,102233.73474489483,-40457.486234467848,18746.286144873942,5827.2576091035971,-2556.1219606090253,167.9454713320057,59574.120866534548,-37936.937860950893,74996.667255015782,-74996.667255015782,37936.937860950893,117890.8975594675,0.0
310012.02908761695,3922225.878295721,-2500.0,123707.74746432882,-57578.14711178359,28503.642687546555,6988.2405473195959,-3697.3105695024196,149.33101669285819,75783.695959458986,-50090.45946330014,90124.525998092882,-90124.525998092882,50090.45946330014,150666.78905626226,0.0
315012.02908761695,3922225.878295721,-2500.0,146945.92121950845,-82767.825120134425,45283.664921115815,7824.1649353201046,-5248.3600532280052,42.086369805849543,97616.165646194553,-65549.972984667984,105431.02736457673,-105431.02736457673,65549.972984667984,194420.17098393716,0.0
320012.02908761695,3922225.878295721,-2500.0,166671.14551525537,-119228.91348072128,75360.551031818264,7425.6392275426469,-6995.487246176951,-252.77895193686842,128064.48338434841,-82961.183885200997,115431.76704878049,-115431.76704878049,82961.183885200997,252820.35273384739,0.0
325012.02908761695,3922225.878295721,-2500.0,168169.50722890033,-168626.94200399017,131399.65288013639,4012.3906989244565,-7600.7801782266279,-884.52041170638904,169958.43795393599,-95004.854042555482,105358.31652557025,-105358.31652557025,95004.854042555482,330517.69181254128,0.0
330012.02908761695,3922225.878295721,-2500.0,114848.37838508555,-220597.32293147116,238014.095569244,-4461.4139493605899,-1838.1519255700866,-2291.6102095094138,229248.26874860504,-74960.761545635425,38638.299158140639,-38638.299158140639,74960.761545635425,435176.50123600411,0.0
335012.02908761695,3922225.878295721,-2500.0,-72230.140177678171,-207285.08951532104,429285.89503472514,-12246.789089823118,26253.710383783302,-7458.2693522160016,326177.3236158879,62849.542120076781,-163941.76989653806,163941.76989653806,-62849.542120076781,595523.84120001923,0.0
340012.02908761695,3922225.878295721,-2500.0,-471439.48438905209,230194.16986837619,516013.52235731197,64693.847768454914,53684.505852364826,-2279.0403714364643,551138.97598437988,529892.9045929031,-550070.69162760396,550070.69162760396,-529892.9045929031,955024.13556876336,0.0
345012.02908761695,3922225.878295721,-2500.0,-187386.05428574525,393547.29850175581,-792638.6592409052,13971.648202061848,-171979.61775554024,31184.61396944827,554925.75123277016,-62240.276709325815,63938.478764304004,-63938.478764304004,62240.276709325815,1048975.3740004271,0.0
350012.02908761695,3922225.878295721,-2500.0,-130972.43330728122,-36132.730387207273,-914724.35577117302,-74777.169293668427,-46545.658316660054,28616.365681660685,489074.98654287442,-497955.18758179853,211393.36650446232,-211393.36650446232,497955.18758179853,889946.50480952335,0.0
355012.02908761695,3922225.878295721,-2500.0,-221156.38274678792,-225167.06242287232,-633857.29874833813,-21627.260743656218,41494.468161234967,9842.9954093620581,377209.35148914973,-498952.86890521605,83487.262584496115,-83487.262584496115,498952.86890521605,691148.04465041298,0.0
360012.02908761695,3922225.878295721,-2500.0,-251791.27110933122,-212785.39522609793,-326532.93008895381,14420.023712976119,37296.441398602154,857.13061559813616,256900.15763326097,-321520.48648242245,-42282.90845705758,42282.90845705758,321520.48648242245,478466.97827946855,0.0
365012.02908761695,3922225.878295721,-2500.0,-218315.20992270453,-136918.15435979588,-122516.01905217599,17460.2379688377,18504.180286752657,-752.06863642957148,159774.67975220969,-152863.45783354508,-97488.551862402761,97488.551862402761,152863.45783354508,306350.07637218229,0.0
370012.02908761695,3922225.878295721,-2500.0,-161653.93334141289,-64634.921048632241,-16736.867107655726,11994.662675442562,6919.8054367223804,-663.95460816826244,97891.947228667414,-42550.451657976409,-102569.66864817607,102569.66864817607,42550.451657976409,191564.14044413681,0.0
375012.02908761695,3922225.878295721,-2500.0,-105996.69212169696,-15259.534330311384,26681.160993649231,6801.4731760908508,1308.8766275918356,-401.38492287712785,68297.58462506409,15188.579154765685,-84022.47773303029,84022.47773303029,-15188.579154765685,124844.31385378957,0.0
380012.02908761695,3922225.878295721,-2500.0,-61420.330162595943,12108.198384808622,38338.064930293891,3253.0614503491656,-1107.2062759937828,-200.40138267590825,51424.075017811236,38764.116866739118,-59559.896061993059,59559.896061993059,-38764.116866739118,89820.18468324047,0.0
385012.02908761695,3922225.878295721,-2500.0,-29804.112900535576,24277.150235900022,36669.339018855848,1093.4022012065391,-1951.0477578908608,-74.449989662799624,41220.543092030188,44040.840138871761,-37769.737006797237,37769.737006797237,-44040.840138871761,71480.667083478271,0.0
390012.02908761695,3922225.878295721,-2500.0,-9230.0344709310775,27688.028996440909,30768.08414062456,-115.3372571292511,-2066.1579646669752,-4.6349368613972075,34210.179632433195,41082.810177472638,-21284.384838595939,21284.384838595939,-41082.810177472638,60238.581055676783,0.0
395012.02908761695,3922225.878295721,-2500.0,3232.2837946910845,26729.985828120152,24442.464101246889,-727.78445661517742,-1879.6174623730778,29.264778881460927,28809.038911867468,35259.37371318139,-9912.4332001572639,9912.4332001572639,-35259.37371318139,51804.748947155982,0.0
400012.02908761695,3922225.878295721,-2500.0,10228.491802376362,23945.844019831278,18989.472590184021,-988.88843241303209,-1597.9458616715399,42.458659140626764,24391.179601146257,29071.258425550386,-2546.101437100886,2546.101437100886,-29071.258425550386,44727.553338220307,0.0
405012.02908761695,3922225.878295721,-2500.0,13744.71378956326,20654.199571357749,14664.730671158506,-1054.7011842875486,-1313.3299449552462,44.754918781392675,20701.679500759856,23512.018947036137,1977.4046798371237,-1977.4046798371237,-23512.018947036137,38593.251583140831,0.0
410012.02908761695,3922225.878295721,-2500.0,15139.444355628815,17469.868677966388,11356.260884018546,-1019.2616221853101,-1061.3788901666514,41.896934247138958,17608.26488305382,18864.74616406675,4593.6526868318242,-4593.6526868318242,-18864.74616406675,33274.867641199373,0.0
415012.02908761695,3922225.878295721,-2500.0,15293.143110047404,14637.609093951947,8860.8844009983168,-936.77149759093618,-851.4477052653732,37.010253780938228,15017.248412591143,15112.878857715163,5976.4169493357567,-5976.4169493357567,-15112.878857715163,28698.056736643292,0.0
420012.02908761695,3922225.878295721,-2500.0,14757.05118553932,12221.468189987374,6983.8719386481389,-837.17551433462381,-681.80409299851567,31.683312067681854,12849.90585606326,12134.383056182365,6583.9035821288508,-6583.9035821288508,-12134.383056182365,24786.808261697919,0.0
425012.02908761695,3922225.878295721,-2500.0,13867.572465106565,10204.747934579502,5566.8191626571088,-736.20354277695571,-546.82057251557615,26.653693314948857,11037.396596725301,9786.3660962502418,6717.5979757952291,-6717.5979757952291,-9786.3660962502418,21459.663372039642,0.0
430012.02908761695,3922225.878295721,-2500.0,12825.243233158279,8539.9246740122435,4489.2265932738701,-641.50972673002332,-440.15908883115702,22.212547894778858,9520.0600103198285,7937.8759359426558,6571.7486938872034,-6571.7486938872034,-7937.8759359426558,18635.644767145579,0.0
435012.02908761695,3922225.878295721,-2500.0,11746.359856706684,7172.1911666338692,3662.1677010284011,-556.29705204517359,-356.03401402242793,18.42821005168544,8247.1340200424711,6479.7028739826274,6269.5863811296895,-6269.5863811296895,-6479.7028739826274,16239.376489825911,0.0
440012.02908761695,3922225.878295721,-2500.0,10695.75595251435,6049.6811737764883,3020.8574637240117,-481.40630586020603,-289.59985928552976,15.267823021483768,7176.1447496956398,5324.7776928925541,5888.1894363903812,-5888.1894363903812,-5324.7776928925541,14203.802960312551,0.0
445012.02908761695,3922225.878295721,-2500.0,9707.2245694341473,5127.1968660224038,2518.2536568970422,-416.49267129832305,-236.96773371874642,12.657725180498392,6272.0427393329137,4405.2343044052786,5474.9773575781064,-5474.9773575781064,-4405.2343044052786,12470.977214760574,0.0
250012.02908761695,3927225.878295721,-2500.0,14894.707206091965,-2778.2703704289429,1626.453901832158,569.95949978019257,-113.38896095407603,15.297373524153466,7740.6801645314827,-3475.6369191367403,10812.909847659888,-10812.909847659888,3475.6369191367403,14972.945450120738,0.0
255012.02908761695,3927225.878295721,-2500.0,17048.735505347307,-3440.2515777148328,1928.2324169405572,678.4051205300417,-146.16639060123302,18.892384583829571,8914.9411161821881,-4163.4061391600662,12394.817716388119,-12394.817716388119,4163.4061391600662,17265.46153392845,0.0
260012.02908761695,3927225.878295721,-2500.0,19603.000544866638,-4289.7434453597607,2314.778210190098,812.09981659681762,-189.85905956137921,23.471323478546992,10326.443919114166,-5018.3259969817782,14271.0605264203,-14271.0605264203,5018.3259969817782,20025.925592631414,0.0
265012.02908761695,3927225.878295721,-2500.0,22643.424824763064,-5389.0378524167609,2817.9124183914064,977.71929269582563,-248.62317324770362,29.323977725204379,12034.495511291023,-6087.6744791339688,16503.676911950995,-16503.676911950995,6087.6744791339688,23372.864497326878,0.0
270012.02908761695,3927225.878295721,-2500.0,26273.956744244348,-6824.0573530198517,3484.2053335976439,1183.7189362334796,-328.38267715048073,36.816578848076027,14115.675437683001,-7433.2806731278561,19166.65016671623,-19166.65016671623,7433.2806731278561,27460.020843071339,0.0
275012.02908761695,3927225.878295721,-2500.0,30617.967416630392,-8714.2154693192369,4383.0322327956419,1440.6397495213921,-437.63494058956707,46.393400787714505,16669.287809956448,-9135.7575670318565,22345.758887183765,-22345.758887183765,9135.7575670318565,32487.893969250534,0.0
280012.02908761695,3927225.878295721,-2500.0,35816.666802797059,-11226.494470806607,5619.6560097354459,1761.2182383998449,-588.61526419593747,58.550034091886751,19824.407578656112,-11299.219000395458,26135.206758289511,-26135.206758289511,11299.219000395458,38719.010121943815,0.0
285012.02908761695,3927225.878295721,-2500.0,42020.382545149645,-14595.268863286923,7356.8507906903287,2159.9099965564542,-798.92802238173033,73.731621953732358,23748.685150069869,-14055.337790960586,30627.038587652009,-30627.038587652009,14055.337790960586,46497.731151152424,0.0
290012.02908761695,3927225.878295721,-2500.0,49363.999302280048,-19149.236562685895,9851.2228939965753,2650.9506668420599,-1093.6694506652291,92.062675139531933,28658.574397603952,-17563.438566510078,35885.102465586358,-35885.102465586358,17563.438566510078,56274.887499183802,0.0
295012.02908761695,3927225.878295721,-2500.0,57908.573811426402,-25345.135986846039,13515.125858604877,3243.0837925478318,-1507.7051995383429,112.69493952609244,34829.343127611646,-21998.115199837499,41886.659356830394,-41886.659356830394,21998.115199837499,68635.876566601204,0.0
300012.02908761695,3927225.878295721,-2500.0,67512.424823042224,-33801.273660702478,19023.299958691121,3927.156913987078,-2086.5747946795573,132.37369846097505,42600.148725210303,-27503.327642441538,48397.233191654508,-48397.233191654508,27503.327642441538,84326.592353630302,0.0
305012.02908761695,3927225.878295721,-2500.0,77557.831937470226,-45302.706014964038,27496.684350368909,4649.542633471704,-2881.0033549097202,142.53952851373037,52365.173577785084,-34061.945978534553,54709.346595780851,-54709.346595780851,34061.945978534553,104261.73035034278,0.0
310012.02908761695,3927225.878295721,-2500.0,86390.39416018402,-60687.144451828812,40812.2856042204,5260.9917883937305,-3920.6088933845003,124.29768256327974,65016.309820198039,-41158.710405494145,59110.116999712889,-59110.116999712889,41158.710405494145,129480.86345980963,0.0
315012.02908761695,3927225.878295721,-2500.0,90219.706799688167,-80340.576188386694,62082.274470231881,5436.9994974967831,-5129.7828659465486,42.677243405899091,81757.283814469192,-46951.344618046242,57838.039644847806,-57838.039644847806,46951.344618046242,160989.79205243604,0.0
320012.02908761695,3927225.878295721,-2500.0,81161.692204931082,-102533.09309639657,96172.914812881223,4626.0484971269998,-6107.9195250854673,-149.17947236889219,102980.38943509554,-46327.759444847681,43222.347050323086,-43222.347050323086,46327.759444847681,199430.68171400623,0.0
325012.02908761695,3927225.878295721,-2500.0,44652.49363300774,-118561.45695547789,149081.64524834408,2331.223058247992,-5697.8149453610831,-466.73337694702604,129651.37724138978,-26797.776606212479,1263.8149291746467,-1263.8149291746467,26797.776606212479,244820.56953160127,0.0
330012.02908761695,3927225.878295721,-2500.0,-39406.562395013847,-100468.02722243963,219810.08965888096,-359.67528472574293,-1772.4005082139361,-811.63377289861126,163998.73934850347,37374.236551696602,-86662.447131120047,86662.447131120047,-37374.236551696602,298277.85507009202,0.0
335012.02908761695,3927225.878295721,-2500.0,-167711.84153261557,16766.056736961415,257488.61165125083,2745.1536544052638,5345.5436605285813,-808.99522195837176,213336.76373303117,173509.16836991007,-211022.68611482912,211022.68611482912,-173509.16836991007,372339.16487223748,0.0
340012.02908761695,3927225.878295721,-2500.0,-202908.14080417721,254228.31801158629,48304.795560987593,16341.613665876679,-2523.2165927356218,2471.6066039783996,283985.96576340107,267432.07633254101,-203381.45629531131,203381.45629531131,-267432.07633254101,498408.55584635021,0.0
345012.02908761695,3927225.878295721,-2500.0,-38947.111505270324,254420.27201698729,-444372.81078361836,2437.3981415875719,-26443.271138224827,7978.1533601297751,326408.66231727559,-15981.383569016496,80006.089552697085,-80006.089552697085,15981.383569016496,617981.61248864536,0.0
350012.02908761695,3927225.878295721,-2500.0,-11312.948488101865,1225.2523634148804,-622066.05892390292,-19942.248100681016,-4392.3173442419766,6172.7364732144706,320666.30047604191,-328334.27314651455,197982.17200708381,-197982.17200708381,328334.27314651455,620693.16769781196,0.0
355012.02908761695,3927225.878295721,-2500.0,-94623.614033793885,-154734.99318600461,-500084.02533290425,-9195.6333052458631,23123.115972772837,2537.0942775826397,280672.0447463165,-384929.7641092281,120935.24265957694,-120935.24265957694,384929.7641092281,535648.80095618498,0.0
360012.02908761695,3927225.878295721,-2500.0,-154719.08085713626,-179367.63386296862,-308983.07262883184,6395.2859193231025,25653.522069975024,190.00794499476888,216050.40474223581,-296406.52527108055,17508.920197402767,-17508.920197402767,296406.52527108055,412681.90197018656,0.0
365012.02908761695,3927225.878295721,-2500.0,-164781.76674275077,-140943.79364429828,-154753.85467684144,11595.065870495895,17022.838303863158,-528.84114087881301,151913.74918218216,-180384.8722530317,-47083.683369358405,47083.683369358405,180384.8722530317,293769.62968386151,0.0
370012.02908761695,3927225.878295721,-2500.0,-143471.4575522744,-89093.127086349938,-57533.894390732188,10343.045146517326,8821.2678834534763,-527.12079201544555,100957.36655801797,-87385.145111440783,-71930.037385569958,71930.037385569958,87385.145111440783,199752.83761952407,0.0
375012.02908761695,3927225.878295721,-2500.0,-110454.88767216488,-45448.503749305259,-5907.0831333914666,7356.0080602397175,3584.3943043388495,-362.87440052795836,69556.153065963663,-27176.599234937254,-71765.397043752484,71765.397043752484,27176.599234937254,133933.53659842763,0.0
380012.02908761695,3927225.878295721,-2500.0,-77592.414128391887,-15478.212980456192,16954.003992326165,4605.4456205486395,739.84689535382722,-211.60203360348714,49878.429582787649,6112.7733290663418,-60001.041524645087,60001.041524645087,-6112.7733290663418,91622.78310908415,0.0
385012.02908761695,3927225.878295721,-2500.0,-50193.211496785727,2378.5450906897822,24283.060639857566,2574.1399288159996,-624.7435282330448,-105.94196790669847,37386.884984886878,21561.22133597466,-45172.631728007247,45172.631728007247,-21561.22133597466,66054.208775888401,0.0
390012.02908761695,3927225.878295721,-2500.0,-29547.821197065085,11629.481067283443,24323.059896377796,1222.883803968102,-1169.5536550624684,-40.644588736315995,29386.002628830011,26711.180963913925,-31518.120873199274,31518.120873199274,-26711.180963913925,50965.597122388521,0.0
395012.02908761695,3927225.878295721,-2500.0,-15004.441833710916,15505.172675897853,21515.679819943045,384.95981356882521,-1295.638471880992,-3.8073878164815174,23992.276441066468,26586.612176339018,-20543.842570663423,20543.842570663423,-26586.612176339018,41684.830370086114,0.0
400012.02908761695,3927225.878295721,-2500.0,-5265.0861094895708,16335.273971648852,17991.234782692893,-102.45548010325015,-1227.529837379474,14.977134324412287,20083.924938508255,24129.031278991082,-12372.426198364914,12372.426198364914,-24129.031278991082,35369.707254052097,0.0
405012.02908761695,3927225.878295721,-2500.0,973.03467054211637,15601.142384859673,14648.968519806769,-364.51256968334383,-1083.4754933324998,23.107385783462384,17062.98779316627,20903.011896523218,-6580.6088835592755,6580.6088835592755,-20903.011896523218,30578.292431332502,0.0
410012.02908761695,3927225.878295721,-2500.0,4780.1196599529576,14170.482605992642,11793.731700327695,-487.97955413374137,-921.87050425283701,25.340086994875378,14623.648290113852,17666.175274731253,-2621.7588021538077,2621.7588021538077,-17666.175274731253,26661.179673419327,0.0
415012.02908761695,3927225.878295721,-2500.0,6954.6944070699219,12518.787435698738,9469.7815944487847,-529.60745434244723,-769.07721596268982,24.543361711471935,12604.114976879291,14740.245681945396,-0.20236369962549361,0.20236369962549361,-14740.245681945396,23335.779378722949,0.0
420012.02908761695,3927225.878295721,-2500.0,8061.148565939734,10888.635694823,7621.8706669271423,-525.11360547918366,-635.1224066926203,22.362037446375698,10909.984237235787,12227.155816879433,1677.7755554864389,-1677.7755554864389,-12227.155816879433,20469.692935179759,0.0
425012.02908761695,3927225.878295721,-2500.0,8485.3837899956488,9391.3824896633869,6167.3864243267799,-496.32825917657294,-522.17165050056849,19.695526265001174,9478.8741567581292,10126.451647993574,2704.7965610330511,-2704.7965610330511,-10126.451647993574,17988.017027838632,0.0
430012.02908761695,3927225.878295721,-2500.0,8485.5831082147561,8067.814516205297,5025.6591369127436,-456.24248796688289,-428.92709675621882,17.008408431662488,8264.9246322614308,8395.6856226785094,3290.3419288766163,-3290.3419288766163,-8395.6856226785094,15837.692600773871,0.0
435012.02908761695,3927225.878295721,-2500.0,8231.7820218089273,6922.7675907977437,4127.8593337742823,-412.35967320079749,-352.81736989654206,14.519898148407483,7232.0358983872111,6979.8458658120571,3581.0292925293134,-3581.0292925293134,-6979.8458658120571,13974.98711676833,0.0
440012.02908761695,3927225.878295721,-2500.0,7834.5047915370133,5944.2286744857902,3418.716227342532,-368.8418328518386,-291.03081258569722,12.316068165319075,6350.7803262747821,5824.7026187736683,3678.0259320239256,-3678.0259320239256,-5824.7026187736683,12361.572992723162,0.0
445012.02908761695,3927225.878295721,-2500.0,7364.6445513555582,5113.514097852194,2855.1689057088502,-327.85208515359108,-240.96028301468854,10.413896203709287,5596.8038091578946,4882.1028123961105,3650.4641886388899,-3650.4641886388899,-4882.1028123961105,10963.442932125377,0.0
250012.02908761695,3932225.878295721,-2500.0,14044.215602701064,-3554.3512490895896,2014.504940215282,540.23400776705694,-147.39337988110373,14.623107412459374,7521.5185387066604,-3811.3553911746967,10178.258960290754,-10178.258960290754,3811.3553911746967,14546.904720817261,0.0
255012.02908761695,3932225.878295721,-2500.0,15935.407226185554,-4340.1134726086138,2417.7847991254935,638.13263525096124,-187.23547653879913,17.947695621356587,8621.1711052540086,-4514.4986610908363,11552.381138558332,-11552.381138558332,4514.4986610908363,16696.166987438406,0.0
260012.02908761695,3932225.878295721,-2500.0,18136.166901881526,-5331.8357708810772,2936.9585887605713,757.14102523243105,-239.5268591191535,22.138959727968775,9930.7398912502085,-5371.6474742646697,13146.735152034007,-13146.735152034007,5371.6474742646697,19261.162544358762,0.0
265012.02908761695,3932225.878295721,-2500.0,20697.146120084857,-6591.4651639058911,3614.537534907955,902.13694193539527,-308.66567930047222,27.432259901150143,11498.277932166589,-6419.3575588465419,14993.851713796903,-14993.851713796903,6419.3575588465419,22338.969792871114,0.0
270012.02908761695,3932225.878295721,-2500.0,23671.783557079278,-8201.23416868411,4511.6231619413702,1078.9321480413778,-400.73843550119682,34.114309346161818,13383.892462105565,-7701.8138629076066,17125.226923571117,-17125.226923571117,7701.8138629076066,26051.955837689515,0.0
275012.02908761695,3932225.878295721,-2500.0,27110.617331553669,-10270.163145464008,5717.1784794251134,1294.1677385388684,-524.17119467522832,42.514506524635529,15662.503711060435,-9270.6250826766936,19565.053429507876,-19565.053429507876,9270.6250826766936,30554.201735104609,0.0
280012.02908761695,3932225.878295721,-2500.0,31049.322376673223,-12941.860274960429,7362.3500310347663,1554.8351787378074,-690.57506492971982,52.967809383366848,18426.692013533146,-11182.179087828663,22317.858703764017,-22317.858703764017,11182.179087828663,36038.803019842679,0.0
285012.02908761695,3932225.878295721,-2500.0,35485.066890619957,-16402.614679404327,9642.7025372754251,1867.0031911787862,-915.74095517485694,65.713372842182849,21788.903747301567,-13489.456306848726,25344.972147994406,-25344.972147994406,13489.456306848726,42745.160105251693,0.0
290012.02908761695,3932225.878295721,-2500.0,40331.508483766527,-20886.427177472022,12852.605180024913,2232.9536837070068,-1220.5290047511962,80.657218586369325,25881.324029611289,-16221.900691781459,28520.785594058743,-28520.785594058743,16221.900691781459,50963.984782132669,0.0
295012.02908761695,3932225.878295721,-2500.0,45335.34115216491,-26667.868540888874,17437.582367914067,2645.2898572727345,-1630.8486381419016,96.869610887416499,30849.74752131166,-19340.247390224198,31552.92725815103,-31552.92725815103,19340.247390224198,61034.822850725242,0.0
300012.02908761695,3932225.878295721,-2500.0,49925.800955890452,-34020.01803822082,24070.533449800019,3075.6935337822883,-2174.5795071519933,111.60912610774835,36834.488263529718,-22640.087170339342,33839.914547190325,-33839.914547190325,22640.087170339342,73325.577067690276,0.0
305012.02908761695,3932225.878295721,-2500.0,52953.912906810459,-43083.27899017444,33750.412820627585,3455.4562477851941,-2870.2764988146464,118.65407302524864,44259.837272915109,-25553.314177980235,34226.773219133232,-34226.773219133232,25553.314177980235,88174.598807370028,0.0
310012.02908761695,3932225.878295721,-2500.0,52274.252210644503,-53521.774651278989,47886.601366927185,3647.5200462500111,-3696.7238289701077,106.17809126714519,53699.511617191383,-26756.598436421649,30617.496833286852,-30617.496833286852,26756.598436421649,105766.32610126684,0.0
315012.02908761695,3932225.878295721,-2500.0,44188.710175388696,-63706.364006150827,68202.347138809724,3424.8960074990396,-4525.1935347287763,56.43979117398105,64964.285362032053,-23458.080253264452,19474.712096607422,-19474.712096607422,23458.080253264452,125921.4544113665,0.0
320012.02908761695,3932225.878295721,-2500.0,23121.28157546615,-68962.73403873216,95869.177671992744,2519.5399520291094,-5004.8458792378624,-44.763712736540029,78085.766738244885,-10335.884924806702,-4396.2942690925611,4396.2942690925611,10335.884924806702,147905.26983912644,0.0
325012.02908761695,3932225.878295721,-2500.0,-16880.757277806904,-58521.433634180314,128088.56984190833,898.89727106963119,-4489.9871295869107,-174.45303139573846,93234.547118524337,21013.7988361678,-46069.377788938422,46069.377788938422,-21013.7988361678,170910.74661307834,0.0
330012.02908761695,3932225.878295721,-2500.0,-74238.003123043309,-13372.564036224974,147996.33568466746,-633.52204115655127,-2436.3231349186426,-218.48171938287811,111942.22158419089,77452.87318235531,-101661.19205453168,101661.19205453168,-77452.87318235531,197415.2956703548,0.0
335012.02908761695,3932225.878295721,-2500.0,-120181.65388415534,80657.084103630506,106296.27334701369,-489.93213371431386,62.859259011451712,43.194300063804008,139028.27486048877,140862.75243225813,-135831.62303021076,135831.62303021076,-140862.75243225813,240905.41469225628,0.0
340012.02908761695,3932225.878295721,-2500.0,-96081.764830967179,176406.36202532763,-63299.158926562159,220.12334979236354,-110.31237488003414,828.90692830462035,177166.37987792748,128303.9610992829,-76394.939060672914,76394.939060672914,-128303.9610992829,317249.41095116595,0.0
345012.02908761695,3932225.878295721,-2500.0,-15586.271880489134,153757.68433123079,-302461.96819674119,-3468.9098066665933,-9.8906334784274463,1694.696217862876,210380.13373057509,-28890.827829472564,65573.119588162313,-65573.119588162313,28890.827829472564,398138.37233241618,0.0
350012.02908761695,3932225.878295721,-2500.0,9308.4451648720824,21691.277459056426,-421345.43578840414,-6837.0822750321458,7887.4552918523368,1648.9347853809688,218215.79007544089,-207325.09446497232,143669.23226227821,-143669.23226227821,207325.09446497232,428907.03292987513,0.0
355012.02908761695,3932225.878295721,-2500.0,-33854.242337531432,-90001.796114234894,-381259.06195397215,-2561.920743619175,16672.307438067732,822.73082971373378,203905.32305311493,-274986.77090138791,116067.33965115037,-116067.33965115037,274986.77090138791,398866.02575271728,0.0
360012.02908761695,3932225.878295721,-2500.0,-84002.22301026393,-130827.54302920242,-271336.17453892349,4241.7905558645834,18027.214665126914,19.751856618384075,170776.09392413477,-244497.71907499654,49189.169738660392,-49189.169738660392,244497.71907499654,332069.76380755974,0.0
365012.02908761695,3932225.878295721,-2500.0,-109270.80744485024,-121232.1151391031,-162716.14794522431,7853.2993061861544,13905.265170837058,-349.36263694496336,131103.08328504485,-175178.36093364249,-6919.4262942993373,6919.4262942993373,175178.36093364249,255731.10608114826,0.0
370012.02908761695,3932225.878295721,-2500.0,-109811.81319412473,-91000.499638278212,-82189.761823600362,8058.8455842271969,8744.6437525717974,-392.57481369847613,94766.732383544411,-106547.32419814254,-38824.711638112873,38824.711638112873,106547.32419814254,187031.2214283456,0.0
375012.02908761695,3932225.878295721,-2500.0,-95637.836059064139,-58709.470585434072,-31446.983330130788,6601.3712256495364,4673.3396032401224,-308.33233060495564,67222.69779636398,-53970.937286033797,-50376.275391207797,50376.275391207797,53970.937286033797,132761.28255334878,0.0
380012.02908761695,3932225.878295721,-2500.0,-75814.546512012239,-32358.649346279766,-3348.9558946528491,4778.8017970394785,2021.3839513191376,-205.86352809937136,48733.024116116954,-19248.747949666351,-49328.501029296349,49328.501029296349,19248.747949666351,93332.321729844538,0.0
385012.02908761695,3932225.878295721,-2500.0,-56015.36305680871,-13746.113385405497,10162.723185556526,3175.3156040442714,484.70730436931632,-122.79979293844374,35919.083393486777,1134.4924464881151,-42234.752359512,42234.752359512,-1134.4924464881151,66351.145171777302,0.0
390012.02908761695,3932225.878295721,-2500.0,-38964.55076173976,-1899.7491692085518,15309.451126400681,1953.3240120630344,-317.4107616603701,-65.069200808759263,27256.475769872533,11679.593897630799,-33312.618962476889,33312.618962476889,-11679.593897630799,48684.517298195715,0.0
395012.02908761695,3932225.878295721,-2500.0,-25486.953487017614,4944.6883495835409,16131.090407858306,1093.9689298066969,-680.25155827993763,-28.367994047568093,21423.4759383212,16146.39136991888,-24786.564800928725,24786.564800928725,-16146.39136991888,37403.114624588452,0.0
400012.02908761695,3932225.878295721,-2500.0,-15416.750633827856,8444.3263853115932,14976.345566712596,521.87875874795918,-798.86217865064827,-6.6137010126288818,17411.241765991028,17171.373618393409,-17575.753951325933,17575.753951325933,-17171.373618393409,30157.957517773117,0.0
405012.02908761695,3932225.878295721,-2500.0,-8191.7100573632797,9864.8744872294628,13097.549423824526,157.91080058137734,-791.61053549878864,5.3600589331599231,14534.353191630653,16421.952057293645,-11882.882678078126,11882.882678078126,-16421.952057293645,25294.60357836098,0.0
410012.02908761695,3932225.878295721,-2500.0,-3174.0815439946023,10074.689193095941,11107.815280168756,-63.123922727965258,-726.23064812924599,11.285352678400233,12367.29013405837,14877.572112944901,-7580.508562144988,7580.508562144988,-14877.572112944901,21788.031842303662,0.0
415012.02908761695,3932225.878295721,-2500.0,207.09584758754721,9630.3312486043833,9274.7708991237341,-189.54424818464588,-639.50939937289172,13.644377945196361,10660.387217821393,13077.737497058974,-4426.4366021612777,4426.4366021612777,-13077.737497058974,19067.743629794619,0.0
420012.02908761695,3932225.878295721,-2500.0,2411.3100589785954,8870.9946098107175,7691.2302414313954,-255.141078384335,-550.26214974261995,14.005162329334979,9269.630725971936,11299.040299181748,-2168.0028643635778,2168.0028643635778,-11299.040299181748,16836.552459446983,0.0
425012.02908761695,3932225.878295721,-2500.0,3787.214657797917,7994.3310314043629,6367.9002859033126,-282.70159831307649,-467.28623942369825,13.320528213984641,8110.0920440154905,9668.842832526545,-584.29897310037904,584.29897310037904,-9668.842832526545,14942.030161373032,0.0
430012.02908761695,3932225.878295721,-2500.0,4590.1104181838455,7109.9030909455923,5281.1145092177858,-287.21199119546844,-394.01575771862963,12.150295174281622,7128.9135691368665,8233.7718044850844,502.40270443229383,-502.40270443229383,-8233.7718044850844,13302.780838563254,0.0
435012.02908761695,3932225.878295721,-2500.0,5002.7304870753296,6274.2891199487121,4396.1077227646192,-278.33858273703254,-331.15190637405499,10.811598484972896,6290.7501106577856,6999.1670738965968,1228.6477777526457,-1228.6477777526457,-6999.1670738965968,11870.996060582271,0.0
440012.02908761695,3932225.878295721,-2500.0,5153.8935127495361,5513.1897299842103,3677.6063483031326,-262.20934837076123,-278.10697732815629,9.4756052483603295,5570.2202715071599,5951.0203012078928,1696.4869657422964,-1696.4869657422964,-5951.0203012078928,10614.796087046636,0.0
445012.02908761695,3932225.878295721,-2500.0,5133.4311864090623,4834.916814654759,3094.073751140581,-242.63819998410199,-233.76996743708901,8.2280314853133696,4947.9910573716843,5067.7112867679161,1980.8908046460883,-1980.8908046460883,-5067.7112867679161,9510.225647268584,0.0
250012.02908761695,3937225.878295721,-2500.0,12956.275083678509,-4149.7098047775216,2432.6596601228134,501.84775984666788,-174.61978082490504,13.737761345167232,7210.5934524721979,-3946.4480328211553,9331.7417276362576,-9331.7417276362576,3946.4480328211553,13948.504316054601,0.0
255012.02908761695,3937225.878295721,-2500.0,14543.205629826205,-5001.5427671019033,2935.2464597908643,587.25285554788979,-219.04924277678106,16.733907176602841,8216.0374404369522,-4611.7853526874833,10459.587547001716,-10459.587547001716,4611.7853526874833,15917.450856708669,0.0
260012.02908761695,3937225.878295721,-2500.0,16344.19411676424,-6057.0382773642878,3580.0012592889352,689.24526850477503,-276.45407623215613,20.464200958802994,9399.59855741295,-5402.3748777257424,11728.452383728298,-11728.452383728298,5402.3748777257424,18241.357861681758,0.0
265012.02908761695,3937225.878295721,-2500.0,18376.74991964002,-7369.6332245517187,4416.3408136282269,810.91448729419778,-351.02932544867349,25.107855820480566,10797.240177128984,-6339.4468103971067,13142.933253678259,-13142.933253678259,6339.4468103971067,20994.195653563125,0.0
270012.02908761695,3937225.878295721,-2500.0,20649.01347427618,-9006.3699947118257,5513.4305047749795,955.54461299992579,-448.37667724947295,30.872173853793779,12451.877429453551,-7443.9614257985795,14696.259442277378,-14696.259442277378,7443.9614257985795,24265.458105767029,0.0
275012.02908761695,3937225.878295721,-2500.0,23149.843476777798,-11049.809910365006,6968.7418714079085,1126.222197223711,-575.91701051873963,37.977649553801243,14413.816537605817,-8732.3357379444569,16360.457326800584,-16360.457326800584,8732.3357379444569,28162.137873856394,0.0
280012.02908761695,3937225.878295721,-2500.0,25831.79890097144,-13598.173082733285,8920.272102841509,1325.0056746347316,-743.31917243326757,46.617586249575638,16740.211990084499,-10207.762974375342,18069.806067762667,-18069.806067762667,10207.762974375342,32809.51010198216,0.0
285012.02908761695,3937225.878295721,-2500.0,28582.519006663486,-16760.734462378539,11563.575701825412,1551.3046634154521,-962.78267704127063,56.866685188908406,19492.396921885742,-11843.394733985093,19693.443813944141,-19693.443813944141,11843.394733985093,38349.028163268609,0.0
290012.02908761695,3937225.878295721,-2500.0,31177.696620524024,-20642.153360196495,15174.240032564436,1798.8993896575325,-1248.7619351790561,68.495945790281326,22728.955544865436,-13550.786670324815,20990.94929015651,-20990.94929015651,13550.786670324815,44930.168807734735,0.0
295012.02908761695,3937225.878295721,-2500.0,33206.36118562561,-25302.787787410794,20134.039767327558,2050.7769216521083,-1616.1895522997704,80.627789473414325,26490.86666735883,-15122.35087542104,21542.689931890374,-21542.689931890374,15122.35087542104,52690.758577981796,0.0
300012.02908761695,3937225.878295721,-2500.0,33958.903619856836,-30669.452592325761,26951.128899960688,2270.8975436318547,-2075.2285328972448,91.164741901350794,30947.90760481586,-16130.075112102506,20647.22301191543,-20647.22301191543,16130.075112102506,61717.353906273725,0.0
305012.02908761695,3937225.878295721,-2500.0,32278.15322959956,-36349.186250519422,36242.495986444948,2392.9138314276447,-2618.8769163115612,96.015873116833916,36493.071664921277,-15757.396088952113,17189.332264127337,-17189.332264127337,15757.396088952113,71975.903491386431,0.0
310012.02908761695,3937225.878295721,-2500.0,26416.869101533346,-41268.133535294277,48589.511468364122,2309.8580178490383,-3197.9317437296172,88.597083003351514,42829.331703594034,-12551.771047984754,9528.3931959108832,-9528.3931959108832,12551.771047984754,83213.18710140686,0.0
315012.02908761695,3937225.878295721,-2500.0,14076.93134246909,-43045.706668666477,64042.185150611476,1879.9166752927774,-3679.7358575149228,61.269619794357986,49867.866591884034,-4165.2068047089369,-4403.1377588220266,4403.1377588220266,4165.2068047089369,94885.634701861301,0.0
320012.02908761695,3937225.878295721,-2500.0,-6874.4399083873041,-37152.156849846608,80782.593998528246,983.39908130855849,-3805.5965000134097,12.435199120419149,57540.837541088127,12549.215999378801,-26257.130454586477,26257.130454586477,-12549.215999378801,106370.57294431562,0.0
325012.02908761695,3937225.878295721,-2500.0,-35998.174447979916,-16614.526971186366,92181.015588208655,-330.45709210029509,-3219.0328646434004,-37.4162809069215,66267.831403717995,39894.616265597702,-54568.199759871153,54568.199759871153,-39894.616265597702,118208.29782291227,0.0
330012.02908761695,3937225.878295721,-2500.0,-65356.794866226403,24870.042799365849,82349.137408748895,-1685.7013812053101,-1703.5632050600523,-30.729834146063659,77963.988700671704,73671.629878483101,-79185.40823050341,79185.40823050341,-73671.629878483101,135308.08586748864,0.0
335012.02908761695,3937225.878295721,-2500.0,-75968.483570209777,81285.023663031199,26287.585326866483,-2597.0576798300372,440.81253846249189,103.84917179450787,96058.628303980891,92939.678712658468,-76947.335437887523,76947.335437887523,-92939.678712658468,168246.9257538573,0.0
340012.02908761695,3937225.878295721,-2500.0,-51173.881959533799,119225.31415239973,-87821.745966208255,-3197.69589271925,2731.324071010577,362.39118955672092,120674.65419774427,60932.572091206406,-26599.529796041439,26599.529796041439,-60932.572091206406,220419.66902015102,0.0
345012.02908761695,3937225.878295721,-2500.0,-8958.1989980739963,97338.374822236874,-218697.84914024541,-3807.9997051491973,5747.5665225441735,577.96703610557677,143206.61422906996,-32957.894262536611,51281.409322962056,-51281.409322962056,32957.894262536611,273219.06086372864,0.0
350012.02908761695,3937225.878295721,-2500.0,7882.2644772574849,24062.466759826668,-292799.88156913087,-3187.787402130964,9965.8374237487933,530.0781759365334,152729.39298474556,-136761.72475435125,99602.073120262212,-99602.073120262212,136761.72475435125,300530.50273007801,0.0
355012.02908761695,3937225.878295721,-2500.0,-11517.766305628906,-48864.152384885274,-284698.86335099145,-311.62805905812633,13285.738485312184,227.19335621146382,147925.47019005037,-191701.41171104999,93996.90141771044,-93996.90141771044,191701.41171104999,292689.76215075009,0.0
360012.02908761695,3937225.878295721,-2500.0,-43953.799926535918,-88148.533308242157,-225279.77183962692,3258.3180436960602,13539.211678327152,-98.299614047575915,131441.31703124213,-189070.82698535657,56571.497340488291,-56571.497340488291,189070.82698535657,258160.46687476907,0.0
365012.02908761695,3937225.878295721,-2500.0,-68162.146609883916,-94054.045707048965,-153609.41140222043,5537.3753888799883,11171.825579386292,-276.48582579670369,107788.70820645461,-152688.44882321302,15906.724248032755,-15906.724248032755,152688.44882321302,211459.80519643976,0.0
370012.02908761695,3937225.878295721,-2500.0,-77673.155541843415,-80395.209011511412,-92105.362824529628,6075.3814811903239,7889.3936448931845,-306.78707501480409,83320.070290339689,-107061.6219090157,-13662.778658219177,13662.778658219177,107061.6219090157,164310.79792852767,0.0
375012.02908761695,3937225.878295721,-2500.0,-75103.23702154342,-59780.208885034095,-47708.643152696153,5449.8146898779305,4920.8551283778652,-258.84911073956312,61846.157186264871,-66243.123612249066,-29777.490861600039,29777.490861600039,66243.123612249066,123225.73016161613,0.0
380012.02908761695,3937225.878295721,-2500.0,-65486.914418793021,-39708.718914414705,-19221.082031679303,4346.2189536380238,2710.9872247707285,-189.40140417622288,46108.608261694368,-35296.187878028133,-35351.184644878558,35351.184644878558,35296.187878028133,90511.396775137706,0.0
385012.02908761695,3937225.878295721,-2500.0,-53125.165100859929,-23398.247527622334,-2687.5541229201253,3204.1633497937669,1247.0348415311601,-126.14884407902173,34496.318478737572,-14275.889425289019,-34347.501870176857,34347.501870176857,14275.889425289019,66012.14887633652,0.0
390012.02908761695,3937225.878295721,-2500.0,-40787.426445982441,-11508.115751094887,5909.3587879657571,2224.3075534030318,357.59648480336176,-77.674238278293075,26089.923199603985,-1234.3364339293203,-30029.304148178984,30029.304148178984,1234.3364339293203,48470.563878128705,0.0
395012.02908761695,3937225.878295721,-2500.0,-29894.140268200332,-3507.893902397177,9689.8504142493675,1462.0913647943416,-139.79158739217172,-43.847186370019934,20138.535037161426,6129.772432329486,-24558.626697004984,24558.626697004984,-6129.772432329486,36328.037514184958,0.0
400012.02908761695,3937225.878295721,-2500.0,-20954.86689984865,1503.0391314111348,10769.000504378302,904.17843311416436,-389.40044055319527,-21.681526840827225,15958.695646454318,9775.6577651456028,-19153.441747631801,19153.441747631801,-9775.6577651456028,28110.59070418078,0.0
405012.02908761695,3937225.878295721,-2500.0,-13966.344332602857,4398.9816462658737,10459.217463372643,512.91026434223545,-491.50799881560692,-7.8886185604644474,12999.646758627614,11144.442803182719,-14384.702024911698,14384.702024911698,-11144.442803182719,22584.740912377627,0.0
410012.02908761695,3937225.878295721,-2500.0,-8688.6837687426578,5884.1724656942297,9521.6525431671453,247.72516319794082,-510.81583035065023,0.25306852967375892,10855.836496330119,11207.743811471222,-10439.949295651275,10439.949295651275,-11207.743811471222,18807.521593247071,0.0
415012.02908761695,3937225.878295721,-2500.0,-4807.8460927140241,6473.24646113777,8371.3560652476754,73.608901225967713,-486.97000293773539,4.7417532335511376,9249.5755014643055,10581.963071973618,-7307.6028103100634,7307.6028103100634,-10581.963071973618,16120.258576489803,0.0
420012.02908761695,3937225.878295721,-2500.0,-2017.9565223751626,6520.1231159181834,7219.2309575370746,-36.773892243287598,-443.24632630919211,6.9519796950385944,8000.8714492819818,9639.3773790286396,-4889.0312975964744,4889.0312975964744,-9639.3773790286396,14101.450376912175,0.0
425012.02908761695,3937225.878295721,-2500.0,-55.454504806872706,6257.9933660418301,6161.6587892656607,-103.59555758681078,-392.73127402613352,7.790224942991971,6996.8341237941158,8594.3700064784389,-3059.6459661440485,3059.6459661440485,-8594.3700064784389,12499.826020580735,0.0
430012.02908761695,3937225.878295721,-2500.0,1292.2723107730135,5835.3210961078057,5233.8294247497397,-141.22932670856906,-342.39320197031208,7.8362948112898803,6167.2727340784677,7563.5522052556771,-1698.5938870670216,1698.5938870670216,-7563.5522052556771,11171.964001216544,0.0
435012.02908761695,3937225.878295721,-2500.0,2190.0777502823453,5343.6379228729038,4440.1058665603969,-159.6790210037708,-295.64049707146489,7.4519303488313628,5467.8927508967572,6605.1129104582251,-700.86413510965531,700.86413510965531,-6605.1129104582251,10036.909498850491,0.0
440012.02908761695,3937225.878295721,-2500.0,2762.5837618308547,4837.3724904641422,3770.6796500236178,-165.79086209121976,-253.87649042039368,6.8572332207817901,4869.7653008240086,5743.5269169752028,19.589241575994038,-19.589241575994038,-5743.5269169752028,9047.9091553945909,0.0
250012.02908761695,3942225.878295721,-2500.0,11707.821053744636,-4551.5960257008146,2845.4111868159594,457.4061283418377,-194.45964096270825,12.698170744063235,6826.263193326623,-3899.3394145369894,8339.6760553299991,-8339.6760553299991,3899.3394145369894,13212.245053843853,0.0
255012.02908761695,3942225.878295721,-2500.0,12975.926009825142,-5413.7380023006053,3433.457494363553,529.40048922910046,-240.9964848471152,15.332651580671296,7724.7015225514415,-4485.1426865235335,9206.642079750889,-9206.642079750889,4485.1426865235335,14976.659892224736,0.0
260012.02908761695,3942225.878295721,-2500.0,14368.020359643369,-6459.8250298859448,4181.0522451326378,613.5188948679189,-300.12983191180336,18.565187616392929,8767.807927544116,-5158.1806302729246,10139.705231178425,-10139.705231178425,5158.1806302729246,17032.064146877299,0.0
265012.02908761695,3942225.878295721,-2500.0,15874.726266509937,-7729.3389922959568,5139.412874108978,711.27065837970235,-375.51170045468967,22.522156106243106,9979.9091277740899,-5923.3116720286698,11120.986869324486,-11120.986869324486,5923.3116720286698,19430.124509094203,0.0
270012.02908761695,3942225.878295721,-2500.0,17469.786153537818,-9267.3822831411599,6377.7474493640839,823.81121227139124,-471.80400750135681,27.339392429624624,11387.923122165237,-6778.2983862518849,12115.088781221719,-12115.088781221719,6778.2983862518849,22229.639943323215,0.0
275012.02908761695,3942225.878295721,-2500.0,19099.108858540727,-11122.281580551617,7989.4519237173281,951.40861193885178,-594.83841543475205,33.143799231831167,13020.15307842949,-7707.0068170473187,13058.619799474056,-13058.619799474056,7707.0068170473187,25495.325960757662,0.0
280012.02908761695,3942225.878295721,-2500.0,20663.984618701204,-13339.308515034139,10099.73379582768,1092.5069630287769,-751.64937526993572,40.014774345571908,14903.59034164605,-8667.7769504291991,13844.370446465329,-13844.370446465329,8667.7769504291991,29294.399412019658,0.0
285012.02908761695,3942225.878295721,-2500.0,21996.065712225154,-15946.893521655003,12873.889655889201,1242.1516733956148,-950.16600681259797,47.908881328252939,17058.609602202803,-9573.9875547976935,14298.072992351632,-14298.072992351632,9573.9875547976935,33689.289710330711,0.0
290012.02908761695,3942225.878295721,-2500.0,22821.736321233642,-18928.865129556816,16523.439252179473,1389.4712553990425,-1198.1274468219613,56.52610452627836,19489.336315290617,-10262.515914105141,14145.943103676706,-14145.943103676706,10262.515914105141,38723.965575864335,0.0
295012.02908761695,3942225.878295721,-2500.0,22715.339725963877,-22171.728212390357,21302.547968576753,1513.9279459642974,-1500.4058617368707,65.092595203905148,22236.439371015204,-10444.762319043732,12973.451846150043,-12973.451846150043,10444.762319043732,44400.628100106413,0.0
300012.02908761695,3942225.878295721,-2500.0,21047.903878718673,-25369.928138610816,27476.449236298908,1580.4016329395997,-1853.351468148338,72.059601046587019,25632.808571589314,-9636.4579626986324,10183.688329011506,-10183.688329011506,9636.4579626986324,50644.386748786434,0.0
305012.02908761695,3942225.878295721,-2500.0,16957.668112008152,-27867.360986515687,35221.208973743051,1534.3894643808774,-2234.2041213964294,74.817861281384552,29392.30642300615,-7073.0791427032582,4984.8477640535839,-4984.8477640535839,7073.0791427032582,57260.245066932373,0.0
310012.02908761695,3942225.878295721,-2500.0,9414.5609887303217,-28422.986191817017,44372.367883748731,1301.6269938497558,-2583.9876892116195,69.79154421049526,33437.783358157649,-1654.2478539819535,-3514.5644508523933,3514.5644508523933,1654.2478539819535,63912.109434821701,0.0
315012.02908761695,3942225.878295721,-2500.0,-2462.9066171164795,-24951.356674181447,53879.294904933617,801.79594311108065,-2786.2955639848774,53.765624036250763,37700.401357938368,7942.3395870607465,-15931.031567325925,15931.031567325925,-7942.3395870607465,70227.573044383287,0.0
320012.02908761695,3942225.878295721,-2500.0,-18577.26999399122,-14495.359663843588,60798.559921998414,-9.8358057645726902,-2656.6659923130082,27.656445675261207,42311.329662342701,22636.107017980379,-31665.436794680041,31665.436794680041,-22636.107017980379,76298.128772395052,0.0
325012.02908761695,3942225.878295721,-2500.0,-36334.262123754881,5851.4683826901528,58924.280518598971,-1071.6272872010313,-1977.2693074056299,2.4194480793827733,48034.670745695694,41230.455026544805,-47192.139981996981,47192.139981996981,-41230.455026544805,83970.578338944018,0.0
330012.02908761695,3942225.878295721,-2500.0,-49168.178744539007,35887.182074762124,38325.828230778148,-2167.4244133051602,-607.57531518990481,0.89251340693007819,56627.217080830109,57383.533331080303,-54355.905854062767,54355.905854062767,-57383.533331080303,98232.733354048803,0.0
335012.02908761695,3942225.878295721,-2500.0,-48127.165651639421,67178.173994182085,-10606.914891659562,-3003.4678982299461,1397.5321004779462,43.025689677733212,69807.39257744918,57642.683078433351,-42097.961240698591,42097.961240698591,-57642.683078433351,124468.55756539054,0.0
340012.02908761695,3942225.878295721,-2500.0,-30098.611046304701,81763.463112201658,-85584.849245644058,-3366.4440719801141,3848.3873594279607,114.16490211524402,86435.978414577956,27613.087927732842,-6141.8354793976523,6141.8354793976523,-27613.087927732842,160630.47200371287,0.0
345012.02908761695,3942225.878295721,-2500.0,-6509.6624709479802,64521.804213594376,-162807.27480644928,-3067.8827219978562,6559.0850657934507,152.63372274421096,101495.60680145751,-31303.460434941615,39538.225228665775,-39538.225228665775,31303.460434941615,195348.71630220156,0.0
350012.02908761695,3942225.878295721,-2500.0,4280.5298650896375,21034.503239698701,-209804.46656425143,-1838.9442512211508,9098.1397891055349,98.806922123327965,109365.56862508559,-94645.516823938437,69826.072759393952,-69826.072759393952,94645.516823938437,215732.36412735027,0.0
355012.02908761695,3942225.878295721,-2500.0,-4225.4157523898466,-25911.047560776082,-212435.10302141929,236.51001706577568,10606.417112010913,-33.941859219066416,108573.07629705311,-134717.91036902482,71743.939972267777,-71743.939972267777,134717.91036902482,215854.93048451401,0.0
360012.02908761695,3942225.878295721,-2500.0,-23472.063020940837,-57460.300692011704,-181210.87638384482,2427.9069477582952,10479.399202848885,-168.63652946232358,100532.22420950895,-142275.60717836354,52140.530002330175,-52140.530002330175,142275.60717836354,198374.98293808213,0.0
365012.02908761695,3942225.878295721,-2500.0,-41812.388032643925,-69010.638332691029,-135807.26697558811,3941.516178456618,8961.4395031022013,-243.61719912214048,86625.815296712986,-125437.68398933535,25376.825032638786,-25376.825032638786,125437.68398933535,170426.47978212571,0.0
370012.02908761695,3942225.878295721,-2500.0,-52887.271943812986,-65505.030501240486,-91448.028566854307,4502.420897333529,6807.7437575206741,-251.57019571675514,70598.569266256498,-97347.161196994741,1941.9759255369863,-1941.9759255369863,97347.161196994741,139139.13936979437,0.0
375012.02908761695,3942225.878295721,-2500.0,-55877.063567584839,-54105.576239013943,-55530.129539633745,4302.5810019415885,4688.3791929557128,-217.45991517913038,55185.789325012673,-68129.536500497881,-13988.170355485243,13988.170355485243,68129.536500497881,109464.70243939928,0.0
380012.02908761695,3942225.878295721,-2500.0,-52768.734970919184,-40404.590720862165,-29702.911965750598,3682.8016845495481,2951.1653803990835,-168.16548053817013,42165.109464765163,-43145.769825239156,-22449.175145486224,22449.175145486224,43145.769825239156,83964.199191046137,0.0
385012.02908761695,3942225.878295721,-2500.0,-46148.588441893262,-27647.686063616318,-12718.806039835914,2925.2540677348243,1679.6191227429144,-120.34652657234875,32399.7809786291,-24142.496727205456,-25245.296335456667,25245.296335456667,24142.496727205456,63440.945949579575,0.0
390012.02908761695,3942225.878295721,-2500.0,-38151.271350237133,-17225.47134558978,-2402.3584662556805,2199.3471939683527,820.68440053110385,-81.04374320076758,24885.056607055463,-10857.340680237434,-24448.050445109311,24448.050445109311,10857.340680237434,47676.41234791727,0.0
395012.02908761695,3942225.878295721,-2500.0,-30184.981004100082,-9401.4372081982583,3345.0430460062112,1581.914870452774,277.47554646830895,-51.602314608823022,19261.85825802289,-2208.5735800446291,-21746.913176721318,21746.913176721318,2208.5735800446291,35983.46173762629,0.0
400012.02908761695,3942225.878295721,-2500.0,-23015.432605263257,-3890.3641392421787,6176.9955052977321,1092.7913016460984,-44.296055936319711,-30.840167164827783,15133.02800747181,3028.8206108995482,-18298.004412642513,18298.004412642513,-3028.8206108995482,27540.997629939066,0.0
405012.02908761695,3942225.878295721,-2500.0,-16956.003261519509,-218.49565434424449,7260.009585079225,723.19300988421617,-219.8519272483806,-16.838375940970906,12128.82905812145,5920.2370223370817,-14793.215292055826,14793.215292055826,-5920.2370223370817,21564.062715056956,0.0
410012.02908761695,3942225.878295721,-2500.0,-12047.545348394198,2090.3162024938356,7358.9889195908945,453.28497018352886,-303.41748866778374,-7.7465337920343256,9939.6034857817613,7282.8843181621396,-11591.400196638964,11591.400196638964,-7282.8843181621396,17375.857196249286,0.0
415012.02908761695,3942225.878295721,-2500.0,-8190.5525979739932,3438.0687332947819,6948.6196757037987,261.41844224902616,-331.70427055564352,-2.0626542980546088,8324.408936480042,7697.7354211783195,-8840.379154429731,8840.379154429731,-7697.7354211783195,14431.735744217485,0.0
420012.02908761695,3942225.878295721,-2500.0,-5228.9494155531002,4134.5244713825077,6309.8083599961074,128.22381386536594,-328.48921514963672,1.3328757303594219,7106.5576574759443,7556.7010342717876,-6567.6264317758742,6567.6264317758742,-7556.7010342717876,12320.866070961241,0.0
425012.02908761695,3942225.878295721,-2500.0,-2997.1343386790618,4405.2311498447616,5600.8786661939421,37.931113344441769,-308.6339949142494,3.2326999020380929,6162.6249051307377,7113.6254354732937,-4739.6966371954568,4739.6966371954568,-7113.6254354732937,10753.56223622076,0.0
430012.02908761695,3942225.878295721,-2500.0,-1343.0436890257893,4408.1321606870752,4905.7587526616217,-21.62263770761917,-281.12395398613921,4.179262538253341,5409.4581320304287,6527.1255740907527,-3297.7564894585394,3297.7564894585394,-6527.1255740907527,9538.2070460531922,0.0
435012.02908761695,3942225.878295721,-2500.0,-137.11329126628701,4250.6127492554378,4264.8327886847837,-59.50416623940518,-251.19490942897411,4.5347894336118557,4792.2114756969686,5892.6887440324545,-2177.0792630510859,2177.0792630510859,-5892.6887440324545,8554.3387455349366,0.0
255012.02908761695,3947225.878295721,-2500.0,11331.99257168877,-5588.1650095972163,3872.4191046487786,468.07722126395242,-253.30242018872156,13.824313513594376,7173.2398396320668,-4178.7446922869849,7880.8297691495945,-7880.8297691495945,4178.7446922869849,13923.002590074908,0.0
260012.02908761695,3947225.878295721,-2500.0,12336.683803384491,-6564.5966427726889,4689.5755682814242,534.72628564860042,-311.21028465065297,16.554907576629603,8070.5125760950523,-4703.8907461245262,8495.7301752201456,-8495.7301752201456,4703.8907461245262,15699.701290293777,0.0
265012.02908761695,3947225.878295721,-2500.0,13360.151731887183,-7716.4074540778274,5720.6761507982837,609.69387673721769,-383.53427540865772,19.833916898182789,9093.905659609356,-5265.9406086571389,9080.0829730026962,-9080.0829730026962,5265.9406086571389,17736.909027524176,0.0
270012.02908761695,3947225.878295721,-2500.0,14354.77079038038,-9065.1264265270293,7027.5663098795658,692.55018713300888,-473.76902155268294,23.737793857837413,10256.835005383076,-5843.7706808468829,9581.6425979389678,-9581.6425979389678,5843.7706808468829,20067.431898311333,0.0
275012.02908761695,3947225.878295721,-2500.0,15243.759242998902,-10625.141940113512,8689.0203777518109,781.63194679658682,-585.94436726401682,28.320054673743066,11569.93610026414,-6397.28277930902,9920.0281294956894,-9920.0281294956894,6397.28277930902,22721.899619831645,0.0
280012.02908761695,3947225.878295721,-2500.0,15908.18200634485,-12393.750698560396,10802.917761320214,873.18692102588159,-724.36354743359016,33.577194202133647,13037.45392793994,-6856.0797069328946,9974.9301005042871,-9974.9301005042871,6856.0797069328946,25723.518258197233,0.0
285012.02908761695,3947225.878295721,-2500.0,16170.191139872231,-14333.584217221302,13485.468056097247,960.09416783260542,-892.92414772225573,39.390766934073966,14651.358313331048,-7102.7587644382138,9571.3686120631246,-9571.3686120631246,7102.7587644382138,29079.475909268789,0.0
290012.02908761695,3947225.878295721,-2500.0,15773.736717800472,-16342.881792571354,16862.831974767341,1030.0704086680739,-1093.6617992062099,45.43471255474843,16394.224632204186,-6949.635089221837,8463.7628721252113,-8463.7628721252113,6949.635089221837,32767.911299813863,0.0
295012.02908761695,3947225.878295721,-2500.0,14367.785687331872,-18207.694515733026,21045.719190819331,1063.4221507797565,-1323.9506486338039,51.04652159304603,18551.683343183598,-6109.5868618708892,6324.741316456747,-6324.741316456747,6109.5868618708892,36720.315944440103,0.0
300012.02908761695,3947225.878295721,-2500.0,11505.438426516246,-19530.558211014075,26069.074324698795,1030.8363001814203,-1571.6001909739925,55.080913788363731,20888.993043781145,-4167.7343004671793,2753.644572653523,-2753.644572653523,4167.7343004671793,40803.122178076701,0.0
305012.02908761695,3947225.878295721,-2500.0,6688.3558506516301,-19637.404942026886,31765.887373615751,892.67048421138543,-1807.1740963837847,55.830560799497107,23347.648513456101,-575.9022428332205,-2663.1000074105409,2663.1000074105409,575.9022428332205,44813.743160267353,0.0
310012.02908761695,3947225.878295721,-2500.0,-489.23851335078467,-17490.057141530007,37530.050330702288,602.87641572528992,-1973.8969483585022,51.224096214719118,25880.908465725021,5275.6941546076705,-10180.694235042818,10180.694235042818,-5275.6941546076705,48535.51178081346,0.0
315012.02908761695,3947225.878295721,-2500.0,-10020.396244964328,-11696.170548097969,41927.832416921672,122.50753473320582,-1978.7163303532357,39.642232621539407,28532.737164618025,13800.017129136191,-19530.033050048994,19530.033050048994,-13800.017129136191,51955.883707275141,0.0
320012.02908761695,3947225.878295721,-2500.0,-20944.772619168842,-828.83595230106459,42202.676217417378,-553.11473793659093,-1694.168077435211,21.591695723022596,31626.168552610536,24606.423614115287,-29306.98633434315,29306.98633434315,-24606.423614115287,55810.443830536125,0.0
325012.02908761695,3947225.878295721,-2500.0,-30757.681643608372,15614.590186453835,34006.400556529712,-1358.8679836118697,-985.96130087324309,1.5557673378743937,35989.156421266351,35467.096735387589,-36302.320193324849,36302.320193324849,-35467.096735387589,62356.438761020763,0.0
330012.02908761695,3947225.878295721,-2500.0,-35464.930706022024,35481.351840977979,12245.913934044454,-2140.6695843540892,227.65894484501896,-12.590964000580925,42802.243589306541,41310.996032397634,-35558.570025281348,35558.570025281348,-41310.996032397634,75049.409630438066,0.0
335012.02908761695,3947225.878295721,-2500.0,-31451.188792654852,52436.711972195306,-25787.897452287474,-2684.5592029044019,1912.4672328702991,-15.763212402043038,52583.087390838373,34849.068626534659,-22548.14166550602,22548.14166550602,-34849.068626534659,95517.801122121251,0.0
340012.02908761695,3947225.878295721,-2500.0,-19194.513518302057,57370.669294698731,-75589.906962418157,-2784.401020042581,3898.8844949263244,-14.841322337755969,64031.07795058249,10833.669351057715,2279.2067785374002,-2279.2067785374002,-10833.669351057715,120718.63584750504,0.0
345012.02908761695,3947225.878295721,-2500.0,-5276.8510228291298,44462.942622248258,-123751.30579026441,-2298.6680023348895,5897.2860915332658,-28.692245454541805,74216.778546707152,-27640.864798844377,30529.323297395473,-30529.323297395473,27640.864798844377,144001.93653578099,0.0
350012.02908761695,3947225.878295721,-2500.0,1664.1571422075965,17178.450770549971,-154511.38059852811,-1213.8135110654296,7508.921769822251,-71.158026138106877,80162.875965221072,-68092.056649241771,50089.854626825945,-50089.854626825945,68092.056649241771,158687.31955817691,0.0
355012.02908761695,3947225.878295721,-2500.0,-2051.3073713621548,-13514.317716694364,-160045.28268290072,261.26024135374496,8323.4522205940084,-133.11858997923395,81031.198368806829,-96569.014243454352,53966.179318079645,-53966.179318079645,96569.014243454352,161322.01537701787,0.0
360012.02908761695,3947225.878295721,-2500.0,-13247.364493581907,-37172.395882035278,-143850.75665689795,1721.4937307256623,8151.5212120084143,-187.93792280237599,77224.361328241765,-106507.29845007557,44034.937099847026,-44034.937099847026,106507.29845007557,152600.76552825846,0.0
365012.02908761695,3947225.878295721,-2500.0,-25937.407911504481,-49319.427297131355,-115617.80952791079,2786.2216146670316,7155.9374002928334,-214.26148563708122,69051.059157032156,-100069.90839730148,27214.400193284178,-27214.400193284178,100069.90839730148,135960.45725899821,0.0
370012.02908761695,3947225.878295721,-2500.0,-35588.092097247114,-51012.391082190246,-84724.38488382996,3294.401275760406,5720.4321361669508,-208.87551688275727,58664.564653505724,-83751.711371329089,10111.557868243952,-10111.557868243952,83751.711371329089,115507.52867947379,0.0
375012.02908761695,3947225.878295721,-2500.0,-40452.545511115793,-45804.83147104735,-57127.975537144208,3307.0385386537491,4221.8583612583761,-181.7201962864286,47889.775784086327,-63973.143580440927,-3458.4969696509979,3458.4969696509979,63973.143580440927,94614.334018411173,0.0
380012.02908761695,3947225.878295721,-2500.0,-40856.256469355292,-37309.375558280874,-35332.165920383857,2991.9234819938588,2901.3745790817306,-145.45145504696333,37914.985643130072,-45089.791091778083,-12339.089600156261,12339.089600156261,45089.791091778083,75439.196068376797,0.0
385012.02908761695,3947225.878295721,-2500.0,-38054.05213382635,-28141.521382639767,-19556.951594593076,2518.9175245188153,1857.2279607541273,-109.35283639539061,29706.515559367803,-29271.229547668758,-16969.609986352894,16969.609986352894,29271.229547668758,59036.382139022717,0.0
390012.02908761695,3947225.878295721,-2500.0,-33421.51362541251,-19797.918804467823,-8909.8497884156604,2011.7638768361639,1092.5055975143716,-78.240336904601776,23343.431105320702,-17128.889383126465,-18422.389251188797,18422.389251188797,17128.889383126465,45682.507436349981,0.0
395012.02908761695,3947225.878295721,-2500.0,-28070.663146255341,-12920.316122243468,-2168.0036578549812,1542.3516116775666,564.78330819871223,-53.64486953610156,18335.020404643674,-8407.7615922945297,-17819.69461646046,17819.69461646046,8407.7615922945297,35200.610641319778,0.0
400012.02908761695,3947225.878295721,-2500.0,-22751.294425116368,-7621.8370491422456,1816.7383522894577,1142.9289168032412,218.97845549496299,-35.288650855613881,14484.72887430982,-2492.2315427310577,-16075.761048330955,16075.761048330955,2492.2315427310577,27200.321554784936,0.0
405012.02908761695,3947225.878295721,-2500.0,-17892.341998299406,-3746.2850720877941,3964.1861841914028,821.04162495109665,3.9248556013923901,-22.146616962190343,11572.159245296789,1297.5048818748164,-13835.575277813328,13835.575277813328,-1297.5048818748164,21227.284517045333,0.0
410012.02908761695,3947225.878295721,-2500.0,-13688.594389590435,-1035.5460106390876,4946.5277490024746,571.26900159366141,-121.57419579063205,-13.0398102992507,9388.8172202697588,3564.640258450876,-11505.938664005498,11505.938664005498,-3564.640258450876,16842.903329462119,0.0
415012.02908761695,3947225.878295721,-2500.0,-10185.435117370022,778.32062521505907,5225.511243905612,382.80088942396304,-188.10290063999471,-6.9052793821510186,7754.8820055174001,4788.6918258480928,-9315.6143005084705,9315.6143005084705,-4788.6918258480928,13660.236699869954,0.0
420012.02908761695,3947225.878295721,-2500.0,-7344.3549085467321,1930.9707435413509,5103.9705466375362,243.6927211427392,-217.19683425116082,-2.886846139742139,6524.648307103349,5325.9369718667967,-7373.9400333702524,7373.9400333702524,-5325.9369718667967,11356.69855409244,0.0
425012.02908761695,3947225.878295721,-2500.0,-5087.2046787580912,2612.3268722197686,4772.9984577165887,142.93151690282204,-223.4534991415789,-0.33671369078365876,5585.7373477994624,5429.0239810286866,-5716.8739492753639,5716.8739492753639,-5429.0239810286866,9676.0590034867291,0.0
430012.02908761695,3947225.878295721,-2500.0,-3323.1792988814086,2967.3808923151223,4348.8365446189973,71.229149593052171,-216.47322086885487,1.215640305474833,4855.02948528857,5270.8994872118365,-4339.1779692573291,4339.1779692573291,-5270.8994872118365,8424.8720460707391,0.0
435012.02908761695,3947225.878295721,-2500.0,-1963.6319340598614,3102.8122974191865,3899.3646624133335,21.150141127593173,-202.40276301168137,2.1026660751086075,4273.1279677763814,4966.5102659897084,-3215.1250757511343,3215.1250757511343,-4966.5102659897084,7464.6045721219407,0.0
255012.02908761695,3952225.878295721,-2500.0,9696.1366537908561,-5553.0080400867319,4223.0733508333333,406.36110752423463,-256.84824596715401,12.281342928310123,6586.5747795379193,-3743.2435142983868,6558.3033526320833,-6558.3033526320833,3743.2435142983868,12803.597871698681,0.0
260012.02908761695,3952225.878295721,-2500.0,10356.488373330829,-6416.5603651952097,5071.9289599998265,456.89535428166363,-311.2100561452956,14.531668066333415,7340.3459116595604,-4109.8850200945599,6892.6404111526917,-6892.6404111526917,4109.8850200945599,14306.065426228688,0.0
265012.02908761695,3952225.878295721,-2500.0,10964.998068094879,-7401.7700164800717,6123.0065082558822,511.41911478665298,-377.61904611785042,17.176179336253131,8181.9884763517312,-4464.7614867363918,7140.264935451125,-7140.264935451125,4464.7614867363918,15995.670048016585,0.0
270012.02908761695,3952225.878295721,-2500.0,11464.837405888429,-8509.0756003367042,7425.5173699527913,568.47937156089722,-458.37944201021764,20.245661813689402,9114.53934644527,-4774.4036055792194,7243.1490170117004,-7243.1490170117004,4774.4036055792194,17885.171568908416,0.0
275012.02908761695,3952225.878295721,-2500.0,11773.801413843272,-9724.9611592383208,9037.1907759779297,625.32418836517809,-555.80956631700531,23.740836087391823,10135.908362755874,-4985.5912035232086,7119.6594752508699,-7119.6594752508699,4985.5912035232086,19980.542862528429,0.0
280012.02908761695,3952225.878295721,-2500.0,11776.466977275899,-11011.242086671897,11021.692190882879,677.23234772501871,-671.8132170793491,27.604526828435851,11235.352105267064,-5016.6102496153826,6658.0165747349029,-6658.0165747349029,5016.6102496153826,22275.77149145542,0.0
285012.02908761695,3952225.878295721,-2500.0,11316.362926094662,-12288.46630689288,13441.006645508087,716.62287745430319,-807.05524650446114,31.678654100961253,12390.101956262954,-4746.2147944407625,5710.5346829444679,-5710.5346829444679,4746.2147944407625,24745.66660452306,0.0
290012.02908761695,3952225.878295721,-2500.0,10191.191767372837,-13411.476198885815,16338.079501992608,731.98940709922817,-959.49658392280946,35.643585478972973,13786.725594927322,-4001.5567887711641,4092.1444772050008,-4092.1444772050008,4001.5567887711641,27337.095864671643,0.0
295012.02908761695,3952225.878295721,-2500.0,8157.6373440760872,-14136.145727748948,19701.800216153151,706.87650096837672,-1121.9767381728366,38.942980923329181,15299.807663841882,-2549.3449152177018,1590.4783154304196,-1590.4783154304196,2549.3449152177018,29961.171393830889,0.0
300012.02908761695,3952225.878295721,-2500.0,4958.0935737001128,-14080.2369169918,23402.251721403001,619.4653218481302,-1278.562635607939,40.718060173583709,16864.718477976159,-100.81594385900928,-1998.9518567750279,1998.9518567750279,100.81594385900928,32494.291765968999,0.0
305012.02908761695,3952225.878295721,-2500.0,389.30649265349393,-12691.698578729718,27081.008731972353,443.91986734057656,-1399.7106143272845,39.801601597888791,18451.69334689921,3647.4155871542789,-6790.6966542515365,6790.6966542515365,-3647.4155871542789,34808.108322372296,0.0
310012.02908761695,3952225.878295721,-2500.0,-5562.0129749601856,-9259.7114663370958,29986.079295418309,155.35090503527999,-1437.2688780995752,34.875394759603481,20075.568337632951,8897.8503093085819,-12653.158524450602,12653.158524450602,-8897.8503093085819,36871.801092529124,0.0
315012.02908761695,3952225.878295721,-2500.0,-12503.647746503828,-3039.841224911378,30770.765639826306,-259.53519842583245,-1322.316215074309,24.904483163223965,21881.839050758139,15510.095226434838,-18964.194525767416,18964.194525767416,-15510.095226434838,38995.426227665048,0.0
320012.02908761695,3952225.878295721,-2500.0,-19389.469512963758,6401.3184915650809,27359.335666768719,-785.78229765185688,-971.39913122238909,9.8423269014050039,24265.669510560343,22604.327908810668,-24331.17893810679,24331.17893810679,-22604.327908810668,42219.702525430752,0.0
325012.02908761695,3952225.878295721,-2500.0,-24425.412511312803,18552.979271624456,17136.810777072849,-1362.5428343880519,-307.42068962503333,-8.7936662118702014,27891.790017435604,28114.007978721911,-26488.012238004678,26488.012238004678,-28114.007978721911,48448.662799306512,0.0
330012.02908761695,3952225.878295721,-2500.0,-25487.346739197816,31213.098019104898,-2146.499793090034,-1876.8990230314605,704.42151223478106,-28.367371576743203,33369.723942156081,28691.555279015338,-22788.194628865131,22788.194628865131,-28691.555279015338,59443.670550010975,0.0
335012.02908761695,3952225.878295721,-2500.0,-21323.239546851331,40305.711263457662,-30595.570449369548,-2182.6851672086127,2018.5016172419107,-47.190004820453069,40640.007643127596,20662.621717941085,-11651.063638521835,11651.063638521835,-20662.621717941085,75073.90656843668,0.0
340012.02908761695,3952225.878295721,-2500.0,-13056.324516032237,41223.559755004804,-64352.569786822809,-2144.6552733852095,3489.9963609255919,-66.81392106244796,48648.576243293435,2331.9927288581075,5524.2185899659662,-5524.2185899659662,-2331.9927288581075,92816.107357242567,0.0
345012.02908761695,3952225.878295721,-2500.0,-4456.159298555528,31655.013752139777,-95736.498946457461,-1692.3827279640377,4888.5535078958119,-91.182325231975298,55672.003311601897,-23661.514374259077,23771.755859033288,-23771.755859033288,23661.514374259077,108793.36396091028,0.0
350012.02908761695,3952225.878295721,-2500.0,98.115292165356834,13744.864288479552,-116517.27218025771,-866.02200080547652,5947.7232358646761,-121.6389214353522,60068.165513828768,-50531.195707499079,36809.331763060938,-36809.331763060938,50531.195707499079,119367.9616346243,0.0
355012.02908761695,3952225.878295721,-2500.0,-1495.8373511987311,-6821.4820523285516,-122242.9452874323,170.382901059375,6451.928950601271,-152.83922711424231,61589.971815041361,-70807.37505340873,40735.222186182051,-40735.222186182051,70807.37505340873,122508.7668825916,0.0
360012.02908761695,3952225.878295721,-2500.0,-8057.7861326776956,-24161.114153594375,-113968.99410396144,1179.7963356572266,6329.8954852252009,-175.20036202085819,59875.661288038289,-80223.990084713208,35856.208671715423,-35856.208671715423,80223.990084713208,118278.6122401145,0.0
365012.02908761695,3952225.878295721,-2500.0,-16543.021245923141,-34934.004068753427,-96495.800251401262,1953.4084863923208,5683.3954554835318,-181.66246902595651,55046.383617568499,-78913.045629283646,25485.08484788991,-25485.08484788991,78913.045629283646,108341.04171977119,0.0
370012.02908761695,3952225.878295721,-2500.0,-24068.094642468819,-38797.851322484203,-75366.224735842115,2389.4899827073323,4723.6644926363688,-171.72249976160728,48320.840622133692,-69921.756667860129,13527.715049191949,-13527.715049191949,69921.756667860129,95017.165644791676,0.0
375012.02908761695,3952225.878295721,-2500.0,-28997.120830909145,-37298.015732495609,-54831.966538709879,2500.5194897804145,3671.4719377551123,-150.11707762274796,40861.728907071607,-57044.067161035666,2838.5780466738724,-2838.5780466738724,57044.067161035666,80482.72866805931,0.0
380012.02908761695,3952225.878295721,-2500.0,-30966.621331328784,-32550.384790687091,-37276.618145993685,2368.09645226771,2688.8776158135111,-123.16517888910705,33543.536868663672,-43393.227238285152,-5193.6372950657969,5193.6372950657969,43393.227238285152,66354.000921491403,0.0
385012.02908761695,3952225.878295721,-2500.0,-30418.698166951257,-26410.426773387589,-23534.342110107151,2091.2185422657503,1861.8968996872388,-96.041603237992533,26903.699906656988,-30928.872183906788,-10326.895546719285,10326.895546719285,30928.872183906788,53611.16849362135,0.0
390012.02908761695,3952225.878295721,-2500.0,-28114.695333252937,-20165.636578184756,-13474.618796810899,1753.894388301889,1215.5794890442594,-71.857479992318602,21507.054806054286,-20572.328460105084,-12962.575347363034,12962.575347363034,20572.328460105084,42706.010540147057,0.0
395012.02908761695,3952225.878295721,-2500.0,-24814.211406029804,-14547.237756188411,-6511.2860603833278,1413.8523263872828,738.20739038865963,-51.914954802504781,17225.507739957771,-12530.446707931726,-13738.959309163867,13738.959309163867,12530.446707931726,33726.015226744181,0.0
400012.02908761695,3952225.878295721,-2500.0,-21124.212425151512,-9869.4360708295808,-1935.7084761134333,1104.0733969614516,401.58511202080035,-36.336943546873172,13792.279520339989,-6611.338089218104,-13288.076947787398,13288.076947787398,6611.338089218104,26544.499340675447,0.0
405012.02908761695,3952225.878295721,-2500.0,-17462.288011421511,-6183.8596106328487,907.91902062156828,839.21366811767314,173.91471426142809,-24.639379976425218,11092.687749772347,-2453.7018529105635,-12126.390762813699,12126.390762813699,2453.7018529105635,20931.479103494319,0.0
410012.02908761695,3952225.878295721,-2500.0,-14078.037689437813,-3402.4569054237331,2553.6563088221865,622.34364090861675,26.336349714017906,-16.118231890784291,8999.2141111455403,335.03072023967798,-10628.413364440914,10628.413364440914,-335.03072023967798,16624.422914738439,0.0
415012.02908761695,3952225.878295721,-2500.0,-11094.699822495191,-1379.5123131715152,3403.9223135669895,450.2121611508129,-64.635673428034991,-10.062382229530979,7389.7130542768318,2109.3810099247353,-9041.1706071404187,9041.1706071404187,-2109.3810099247353,13367.760852601692,0.0
420012.02908761695,3952225.878295721,-2500.0,-8550.9118001032803,40.66993834854712,3746.207422508659,316.76001114515776,-116.88208256920676,-5.8512570374862456,6156.3621527107343,3159.8310941307168,-7512.9597298667959,7512.9597298667959,-3159.8310941307168,10931.812736531381,0.0
425012.02908761695,3952225.878295721,-2500.0,-6434.3889833975772,999.95483971288672,3777.8663188433934,215.19965505249104,-143.41557699475223,-2.9844858550655782,5209.0167139439109,3710.3162109231903,-6122.5873021302068,6122.5873021302068,-3710.3162109231903,9119.996890923152,0.0
430012.02908761695,3952225.878295721,-2500.0,-4705.9593854524901,1617.1271144740965,3630.0431543054297,139.10610000511937,-153.3981342333521,-1.0775605603120681,4475.4259740243688,3926.3252187407143,-4903.5136893245617,4903.5136893245617,-3926.3252187407143,7770.3854012864667,0.0
255012.02908761695,3957225.878295721,-2500.0,8134.6912324787936,-5346.6555621550551,4468.6703425945625,346.73080891254267,-252.94937328310004,10.764037282534472,5986.9432296527593,-3228.9024652124999,5299.1796395293668,-5299.1796395293668,3228.9024652124999,11660.540701497506,0.0
260012.02908761695,3957225.878295721,-2500.0,8505.9185302742426,-6071.8411586227612,5312.1970778240147,383.11136157268606,-302.15272430347443,12.574454004085599,6605.4641973722846,-3442.609615591844,5401.9051964321861,-5401.9051964321861,3442.609615591844,12904.547727583304,0.0
265012.02908761695,3957225.878295721,-2500.0,8779.5450544457071,-6866.5505680479391,6334.58572659317,420.21206334490046,-360.8406341388191,14.650540871609492,7279.6068816721045,-3606.7598562116318,5384.1182515576957,-5384.1182515576957,3606.7598562116318,14273.76242920153,0.0
270012.02908761695,3957225.878295721,-2500.0,8899.0079057274215,-7715.0731789862893,7569.8663760648942,456.04880470499751,-430.25187393410908,16.991025198138093,8005.2061483913658,-3682.3449079608276,5190.5634345637791,-5190.5634345637791,3682.3449079608276,15766.982514166639,0.0
275012.02908761695,3957225.878295721,-2500.0,8788.7366279764683,-8584.7348781165274,9052.8015185901149,487.46081903470764,-511.27528886858573,19.562709447154607,8772.1498478360918,-3613.062246866612,4749.1857360079357,-4749.1857360079357,3613.062246866612,17374.517335091474,0.0
280012.02908761695,3957225.878295721,-2500.0,8351.1016545164839,-9416.570866012933,10813.131278144854,509.654807285392,-603.96987434731921,22.279053810137096,9562.1752538031269,-3320.0788977561288,3969.3744768920806,-3969.3744768920806,3320.0788977561288,19074.215246599266,0.0
285012.02908761695,3957225.878295721,-2500.0,7465.655712211812,-10112.545455733649,12864.330611976664,515.68359875216424,-706.76677342615653,24.969424861076636,10485.937938394329,-2697.1050504556201,2743.1875909058576,-2743.1875909058576,2697.1050504556201,20827.059867336717,0.0
290012.02908761695,3957225.878295721,-2500.0,5993.8823768721577,-10519.449026631946,15183.295745489148,495.96396710803242,-815.21928582113389,27.341208672093661,11500.274693398156,-1608.2282018518047,953.12870436992603,-953.12870436992603,1608.2282018518047,22573.924258760617,0.0
295012.02908761695,3957225.878295721,-2500.0,3794.8191653287181,-10411.559746596173,17676.041433495258,438.07644518919989,-920.18391780222441,28.937997310907285,12535.824896581482,106.38414346795469,-1507.6245444290776,1507.6245444290776,-106.38414346795469,24237.634032072769,0.0
300012.02908761695,3957225.878295721,-2500.0,759.46112941613114,-9478.5309000647048,20123.967857304327,327.31222114567254,-1005.4366099647355,29.113066540853357,13573.599099362087,2607.4849594303259,-4693.9335503292277,4693.9335503292277,-2607.4849594303259,25739.893382750673,0.0
305012.02908761695,3957225.878295721,-2500.0,-3127.0742503086708,-7333.0562963921329,22108.014539823351,148.70694079411351,-1045.0706869671192,27.045375106116218,14618.09260999451,6001.5011403786375,-8536.6332146447749,8536.6332146447749,-6001.5011403786375,27052.313976412417,0.0
310012.02908761695,3957225.878295721,-2500.0,-7691.4227270589399,-3564.9338646144288,22919.24459198882,-108.52862522219692,-1001.7114182504527,21.846614621512266,15738.756840260654,10234.500659247751,-12735.364008739361,12735.364008739361,-10234.500659247751,28312.02975689662,0.0
315012.02908761695,3957225.878295721,-2500.0,-12460.849653957059,2120.7590742920374,21491.92587664456,-443.60898047923797,-827.60711071486116,12.791679798729451,17131.254823403127,14924.6806202157,-16633.500250346384,16633.500250346384,-14924.6806202157,30016.761561263327,0.0
320012.02908761695,3957225.878295721,-2500.0,-16592.572184140758,9651.2268296705915,16443.829066675891,-834.6832885823743,-471.52073437125773,-0.36178935823760305,19155.05480569043,19160.698427494055,-19140.909834898761,19140.909834898761,-19160.698427494055,33177.612257190573,0.0
325012.02908761695,3957225.878295721,-2500.0,-18959.234068455655,18250.321315325393,6359.7033564723279,-1230.9510535881141,106.25618664158242,-17.138200494176694,22241.083296772787,21380.076790077437,-18839.483050816001,18839.483050816001,-21380.076790077437,39039.212660849196,0.0
330012.02908761695,3957225.878295721,-2500.0,-18522.273591143512,26194.560372986591,-9567.4059816245735,-1552.9724298995454,912.10027281607745,-36.471846584507148,26616.916799468974,19554.379884032849,-14433.101455866596,14433.101455866596,-19554.379884032849,48213.821078545821,0.0
335012.02908761695,3957225.878295721,-2500.0,-14981.784946753374,30997.788818145102,-30641.212358702214,-1707.3329982640823,1898.0873553255115,-57.280137508164643,32032.265994303867,11909.3220625906,-5550.7374402559581,5550.7374402559581,-11909.3220625906,60031.738355307702,0.0
340012.02908761695,3957225.878295721,-2500.0,-9346.6188918091302,30295.850441173468,-54042.040383933541,-1615.5365808947699,2954.0151242804909,-78.989604440638089,37729.090698687702,-1919.6205708309658,6492.8220480069467,-6492.8220480069467,1919.6205708309658,72700.167850262558,0.0
345012.02908761695,3957225.878295721,-2500.0,-3818.5638225842617,23168.352177724948,-75246.879045258494,-1247.6839783691769,3922.3677208390886,-101.19554881560255,42674.984692902151,-20007.300270117878,18718.291407303055,-18718.291407303055,20007.300270117878,83919.551206649179,0.0
350012.02908761695,3957225.878295721,-2500.0,-758.87608701812474,10964.179469001507,-89697.660120243701,-645.26901455363395,4637.6215112288364,-122.47069816617802,45928.36704552803,-38466.515867873182,27667.864553059186,-27667.864553059186,38466.515867873182,91616.182244172698,0.0
355012.02908761695,3957225.878295721,-2500.0,-1400.0109485770358,-3182.7831432495518,-94772.586611783816,82.412022455386648,4979.0481828965085,-139.7091941354044,47634.229273096797,-53080.159148658422,31080.538411722577,-31080.538411722577,53080.159148658422,94564.725615192205,0.0
360012.02908761695,3957225.878295721,-2500.0,-5317.8928259817894,-15859.887481204876,-90680.600774171951,793.37992553357844,4912.9413114258014,-149.22354287134937,46957.293913816204,-61123.9912862212,28809.083067888692,-28809.083067888692,61123.9912862212,92647.860643178428,0.0
365012.02908761695,3957225.878295721,-2500.0,-10946.495940677913,-24768.037668134275,-79839.823368289653,1363.8602025852697,4499.068564652247,-148.82645034159316,44087.919563253534,-62146.679940676091,22451.017844616006,-22451.017844616006,62146.679940676091,86680.1008174241,0.0
370012.02908761695,3957225.878295721,-2500.0,-16530.312656615737,-29203.116042126479,-65485.990235891193,1725.7926687854331,3858.0908245258165,-139.00726236748562,39713.292427200642,-57509.691976343274,14261.794045478418,-14261.794045478418,57509.691976343274,77973.305412206493,0.0
375012.02908761695,3957225.878295721,-2500.0,-20817.289606508068,-29710.561307218541,-50481.767029191891,1873.3953940185572,3123.0235990905858,-122.42971061428345,34559.977975350695,-49367.988641724703,6197.1807897844301,-6197.1807897844301,49367.988641724703,67897.729495892039,0.0
380012.02908761695,3957225.878295721,-2500.0,-23262.79813060629,-27438.279790424604,-36755.952353952111,1844.7855933313012,2401.8187631963374,-102.53216775613129,29238.693153156324,-39795.541863097555,-523.12535377896711,523.12535377896711,39795.541863097555,57593.937755618666,0.0
385012.02908761695,3957225.878295721,-2500.0,-23894.242548339673,-23598.426654798655,-25278.291363786771,1696.2389723254159,1762.2538829458222,-82.316361734759653,24180.345587879208,-30333.577057263225,-5408.0963224175284,5408.0963224175284,30333.577057263225,47859.020111315069,0.0
390012.02908761695,3957225.878295721,-2500.0,-23063.92014793132,-19173.605887923011,-16298.902935705764,1482.3013553463709,1234.6329314773732,-63.794246525986367,19638.727415511385,-21901.889728589584,-8480.1067721841464,8480.1067721841464,21901.889728589584,39156.367264375833,0.0
395012.02908761695,3957225.878295721,-2500.0,-21233.56097931266,-14828.621592106607,-9637.3870544886613,1245.6690300402443,822.60466422208117,-47.980401709016419,15957.931497674501,-14906.73164911918,-10034.452750862774,10034.452750862774,14906.73164911918,31685.604953863745,0.0
400012.02908761695,3957225.878295721,-2500.0,-18838.399135870433,-10939.834828516729,-4915.97660071461,1014.8321101447141,514.6681974384843,-35.147118314718476,12993.476597960791,-9408.0452494241981,-10457.529452001996,10457.529452001996,9408.0452494241981,25466.322407860243,0.0
405012.02908761695,3957225.878295721,-2500.0,-16224.30381724592,-7669.4366566861954,-1710.6222048344296,805.94430248892627,292.96246009336471,-25.119824734702757,10578.036260214376,-5271.3428283160083,-10118.905484923098,10118.905484923098,5271.3428283160083,20411.212915441436,0.0
410012.02908761695,3957225.878295721,-2500.0,-13633.716175277277,-5042.2459861613324,368.24077987916525,626.1413370137135,138.73503672565454,-17.509416223230996,8642.0028353912294,-2277.7607626300546,-9322.1912794771433,9322.1912794771433,2277.7607626300546,16380.13977518066,0.0
415012.02908761695,3957225.878295721,-2500.0,-11217.151041438625,-3007.0345805476286,1642.7311168061892,476.76239536717026,35.147088268474597,-11.865853085258548,7108.7805443231282,-192.11117011005717,-8292.9679008419007,8292.9679008419007,192.11117011005717,13215.472833338281,0.0
420012.02908761695,3957225.878295721,-2500.0,-9054.197392903654,-1478.6932585193888,2362.0550697703575,355.86961622004452,-31.66186418002825,-7.7611511683541847,5904.2748573966301,1201.2335895852757,-7185.8097523994566,7185.8097523994566,-1201.2335895852757,10762.665430770692,0.0
425012.02908761695,3957225.878295721,-2500.0,-7174.9845858182989,-363.93948541011315,2710.2571806135174,259.97677577686267,-72.480628280446055,-4.8267605683811645,4961.8320765614435,2083.5226203415004,-6098.6066075540857,6098.6066075540857,-2083.5226203415004,8880.670265082008,0.0
430012.02908761695,3957225.878295721,-2500.0,-5578.1548058280459,424.85407280671564,2818.5888064194974,185.12110765922034,-95.385082505591797,-2.7635232643930268,4224.3246249535832,2598.8800791547537,-5087.7076654061575,5087.7076654061575,-2598.8800791547537,7446.2586223416774,0.0
260012.02908761695,3962225.878295721,-2500.0,6835.5008042761447,-5588.7617447409357,5410.122094830228,315.47892761277222,-286.24797134820648,10.740593849594381,5888.5114638958512,-2758.2863715611311,4069.6035557774248,-4069.6035557774248,2758.2863715611311,11538.126216036668,0.0
265012.02908761695,3962225.878295721,-2500.0,6854.915601112345,-6189.9769855860177,6364.2777899565217,338.40523058140877,-336.35699913346076,12.326201543830381,6413.8962018379088,-2761.0580008539614,3858.3210648258578,-3858.3210648258578,2761.0580008539614,12622.794053072699,0.0
270012.02908761695,3962225.878295721,-2500.0,6702.3550993733397,-6789.0595034823473,7485.3594944644647,357.64144394776486,-393.84413966055587,14.05395384703615,6960.5997407880104,-2650.0367609384939,3464.9233211994824,-3464.9233211994824,2650.0367609384939,13773.397763094412,0.0
275012.02908761695,3962225.878295721,-2500.0,6315.5247708512325,-7343.0477478032408,8786.8769443961191,370.09243261860229,-458.53233197461719,15.872034832276125,7514.7420150067173,-2373.319765770615,2832.5973045208038,-2832.5973045208038,2373.319765770615,14972.126710853485,0.0
280012.02908761695,3962225.878295721,-2500.0,5620.4441939415165,-7785.2748131542921,10269.868445102651,371.44346823075921,-529.23762756385133,17.682561248566682,8138.905643130799,-1864.0214086826584,1896.4650031602835,-1896.4650031602835,1864.0214086826584,16190.843075243032,0.0
285012.02908761695,3962225.878295721,-2500.0,4535.0357923658303,-8017.2814784529983,11910.960279279823,355.92822783288983,-603.0971107351553,19.32130871962223,8839.7542976497316,-1040.2731387720444,588.95112634289785,-588.95112634289785,1040.2731387720444,17389.800124486203,0.0
290012.02908761695,3962225.878295721,-2500.0,2978.2975444325007,-7900.780537817227,13643.567500764078,316.2394307544364,-674.62451236256629,20.534594441512471,9548.0993209463741,190.32956246065714,-1148.4588600286588,1148.4588600286588,-190.32956246065714,18519.558887544932,0.0
295012.02908761695,3962225.878295721,-2500.0,888.37468432276262,-7252.8618182402251,15330.188770625007,243.78396195982151,-734.49474363068714,20.957934138143969,10251.510880964655,1917.5978254511151,-3343.465328519836,3343.465328519836,-1917.5978254511151,19530.853296064168,0.0
300012.02908761695,3962225.878295721,-2500.0,-1746.9789344496694,-5850.8365716856306,16725.198580485969,129.59549078748694,-768.19090315055064,20.109191707640257,10950.736055601441,4200.7355431884625,-5957.4616713377109,5957.4616713377109,-4200.7355431884625,20401.460231278954,0.0
305012.02908761695,3962225.878295721,-2500.0,-4846.0784138971831,-3457.545520531487,17432.079981409126,-33.697308858038632,-754.90795049331985,17.409503786508694,11680.639882393622,7018.1827963083651,-8834.871652781927,8834.871652781927,-7018.1827963083651,21194.273511367766,0.0
310012.02908761695,3962225.878295721,-2500.0,-8180.4624405024388,118.06975095246608,16869.102190782716,-248.51215415866338,-667.51060125457013,12.256638516616917,12542.26053519113,10190.967285786153,-11643.62318893639,11643.62318893639,-10190.967285786153,22157.190605483582,0.0
315012.02908761695,3962225.878295721,-2500.0,-11333.226957340636,4911.9961034683256,14274.468046200678,-507.64560991511786,-474.7854761570805,4.1569648504686025,13730.968822739773,13287.616387866874,-13829.528225916103,13829.528225916103,-13287.616387866874,23828.52368650648,0.0
320012.02908761695,3962225.878295721,-2500.0,-13709.018807831551,10651.994641062425,8801.6272507546855,-789.33853577161426,-147.34804075932843,-7.1049183203442325,15516.561391303179,15546.632818517057,-14631.800284956418,14631.800284956418,-15546.632818517057,26988.18197147944,0.0
325012.02908761695,3962225.878295721,-2500.0,-14650.184423193123,16608.182021245491,-240.77093558858581,-1054.4971722232833,332.24840321273433,-21.329684476989591,18129.95527792372,15893.41577980808,-13225.194587981985,13225.194587981985,-15893.41577980808,32280.079945043712,0.0
330012.02908761695,3962225.878295721,-2500.0,-13689.307320311182,21558.564264548295,-12998.051547899197,-1249.462895461425,956.88251562089374,-37.891230153519786,21598.544006054344,13153.137873951719,-9030.121117943685,9030.121117943685,-13153.137873951719,39738.492675352842,0.0
335012.02908761695,3962225.878295721,-2500.0,-10874.315418749404,24011.174427534577,-28649.190422299835,-1316.8360704243742,1684.4827874001485,-55.865203088534514,25654.571754918958,6506.2869400629388,-2125.2846526171647,2125.2846526171647,-6506.2869400629388,48668.323963711817,0.0
340012.02908761695,3962225.878295721,-2500.0,-6968.2985184756963,22729.653112856366,-45233.324780521769,-1213.2477569688524,2436.5479187869373,-74.166431329736483,29777.08755143173,-3947.1352966632485,6467.0568414267955,-6467.0568414267955,3947.1352966632485,57859.165539887406,0.0
345012.02908761695,3962225.878295721,-2500.0,-3292.6683064853514,17364.494542809727,-60006.196506870816,-927.97943540989127,3110.4784052868022,-91.519166489986631,33332.899092756154,-16863.916441462188,14917.550874556371,-14917.550874556371,16863.916441462188,65912.106446281032,0.0
350012.02908761695,3962225.878295721,-2500.0,-1188.0904397199317,8782.8391511255777,-70317.222223757999,-493.2432440479285,3604.7831837463928,-106.32107298735856,35844.738662406009,-29917.598678297687,21226.229427495931,-21226.229427495931,29917.598678297687,71595.508979634906,0.0
355012.02908761695,3962225.878295721,-2500.0,-1398.967302409194,-1196.4773033766392,-74568.926430015359,21.162656356588577,3848.6487763275723,-116.7278270135938,37434.823354900138,-40616.215106654519,24034.105647385353,-24034.105647385353,40616.215106654519,74148.774611664732,0.0
360012.02908761695,3962225.878295721,-2500.0,-3791.1903479824559,-10528.926160048448,-72693.399761974943,528.63463651636755,3822.6772439937217,-121.1795139948769,37273.286899819279,-47208.823344549492,23100.775160026977,-23100.775160026977,47208.823344549492,73424.158848498671,0.0
365012.02908761695,3962225.878295721,-2500.0,-7543.20649194407,-17670.883673573611,-65932.374889710467,952.58060202335651,3560.6564660319495,-119.07080425810366,35564.148571458449,-49158.501938614834,19203.355730598705,-19203.355730598705,49158.501938614834,69824.346241123465,0.0
370012.02908761695,3962225.878295721,-2500.0,-11599.669364404057,-21930.767342593681,-56179.645796871955,1246.2571578921579,3132.747493172069,-111.05769553987373,32698.692137622784,-47029.109832731629,13639.297740176939,-13639.297740176939,47029.109832731629,64097.597413793432,0.0
375012.02908761695,3962225.878295721,-2500.0,-15078.271317222167,-23400.151170186713,-45311.394660135382,1398.0938450057367,2620.4581566651341,-98.782288885172079,29129.048228190648,-42015.909256480998,7694.5672414983092,-7694.5672414983092,42015.909256480998,57100.51842530851,0.0
380012.02908761695,3962225.878295721,-2500.0,-17465.644660874663,-22656.046958998497,-34771.581632997972,1424.3064359237933,2095.4444246497478,-84.26328888550745,25270.678914451109,-35446.201487452534,2315.9285916674125,-2315.9285916674125,35446.201487452534,49614.080292789658,0.0
385012.02908761695,3962225.878295721,-2500.0,-18615.524892646474,-20445.066976910599,-25446.313435430384,1356.0218597334683,1608.4160088251081,-69.330768762750864,21448.41329750582,-28444.878090944519,-1978.4574389925838,1978.4574389925838,28444.878090944519,42244.358227180106,0.0
390012.02908761695,3962225.878295721,-2500.0,-18642.249518881246,-17462.967641750394,-17730.054853236332,1227.5414493734579,1187.6445071462465,-55.313482336116891,17881.664236997869,-21796.974193873171,-5033.0853706800299,5033.0853706800299,21796.974193873171,35397.304635490938,0.0
395012.02908761695,3962225.878295721,-2500.0,-17794.766684091632,-14248.037609257479,-11669.899143348313,1068.8520315430519,843.20002955090797,-42.980298077099363,14695.278513817744,-15950.930027604234,-6931.2398304748785,6931.2398304748785,15950.930027604234,29300.044403897802,0.0
400012.02908761695,3962225.878295721,-2500.0,-16357.07177995597,-11158.950821741259,-7111.0526932071525,902.44556360645629,573.03010785803997,-32.636642021723112,12103.574839906973,-11090.600579960914,-7877.0009396214391,7877.0009396214391,11090.600579960914,24042.355905461631,0.0
405012.02908761695,3962225.878295721,-2500.0,-14587.406767048918,-8398.6787183076776,-3809.0230241818413,743.1066334674648,368.48050735877479,-24.272419881302252,9997.6420067052004,-7223.4182260460657,-8109.6057416421972,8109.6057416421972,7223.4182260460657,19620.620691724722,0.0
410012.02908761695,3962225.878295721,-2500.0,-12690.691735539482,-6054.9659197736601,-1502.018738933823,599.20139374459734,218.31781886928704,-17.697873998490234,8257.6412526280546,-4256.9735972694816,-7852.8486362993717,7852.8486362993717,4256.9735972694816,15975.141453039496,0.0
415012.02908761695,3962225.878295721,-2500.0,-10813.064967717597,-4140.278536387952,49.682237964537109,474.41670312747578,111.21423131084035,-12.645193237241807,6839.8492649032969,-2054.6024153305671,-7291.7692307114185,7291.7692307114185,2054.6024153305671,13017.839795875971,0.0
420012.02908761695,3962225.878295721,-2500.0,-9048.3088783416388,-2623.8780137476438,1047.0558267228205,369.37930183716128,37.037756145140193,-8.8330354281720744,5696.6845103573833,-470.61904577038331,-6566.831128959564,6566.831128959564,470.61904577038331,10650.791179586089,0.0
425012.02908761695,3962225.878295721,-2500.0,-7448.9132972547623,-1454.4445451492186,1649.1659937857467,282.9267499828382,-12.64798237838397,-6.0015318300959031,4781.75098435769,630.28239543219161,-5777.4659146238373,5777.4659146238373,-630.28239543219161,8777.3931376343407,0.0
260012.02908761695,3967225.878295721,-2500.0,5371.1014717481421,-5021.3837241640704,5377.3509378248618,255.20733256124166,-265.63742366155367,9.0671699835844599,5206.3885677080261,-2099.8908768367037,2919.1052536299203,-2919.1052536299203,2099.8908768367037,10238.892828173575,0.0
265012.02908761695,3967225.878295721,-2500.0,5209.9348021819978,-5441.3596655782057,6235.1689884526304,267.09925427170924,-307.07145281046928,10.243125072098714,5603.832178650202,-1976.4904402712136,2579.6005580559558,-2579.6005580559558,1976.4904402712136,11078.848768530906,0.0
270012.02908761695,3967225.878295721,-2500.0,4878.8334554686016,-5817.8216893716963,7212.5626874056434,273.98090439748654,-353.02683197742567,11.473019981972476,6001.1947202256288,-1729.7895876809921,2068.8970962960884,-2068.8970962960884,1729.7895876809921,11943.065734382841,0.0
275012.02908761695,3967225.878295721,-2500.0,4331.022806360068,-6104.8898679713348,8305.7331673505414,273.10371272965079,-402.62185897100522,12.697709238229805,6430.7294282563134,-1316.719073956298,1346.887620866923,-1346.887620866923,1316.719073956298,12811.301905025648,0.0
280012.02908761695,3967225.878295721,-2500.0,3516.1016340190672,-6237.7833492261207,9494.5558812947602,260.89428044519985,-453.96416109387997,13.820595032992891,6927.7773937167012,-686.42667220957799,373.33575389325017,-373.33575389325017,686.42667220957799,13656.441183797386,0.0
285012.02908761695,3967225.878295721,-2500.0,2385.5132459118777,-6128.9457433910693,10731.928829970957,232.91689649664215,-503.64172292107367,14.694696397199476,7426.3200574663351,216.59271413223587,-885.15717034545128,885.15717034545128,-216.59271413223587,14445.999936269871,0.0
290012.02908761695,3967225.878295721,-2500.0,902.45245461721072,-5666.1206967099661,11928.826054464516,184.00537602259661,-546.08076384871708,15.109719621320179,7917.8461770073063,1444.8328780816919,-2443.1997658261507,2443.1997658261507,-1444.8328780816919,15148.05011168573,0.0
295012.02908761695,3967225.878295721,-2500.0,-942.33776011202349,-4715.3537338853612,12934.999871514789,108.70442244365809,-572.82767910397808,14.783451181971223,8401.7956427259342,3032.8337730940843,-4278.1293519579604,4278.1293519579604,-3032.8337730940843,15746.041206061158,0.0
300012.02908761695,3967225.878295721,-2500.0,-3108.3313415354601,-3133.6535110630443,13517.242077268755,2.1997896085590223,-571.91828774251564,13.363059565146804,8896.4311256029032,4971.8982420564698,-6304.5074693151037,6304.5074693151037,-4971.8982420564698,16269.460564638375,0.0
305012.02908761695,3967225.878295721,-2500.0,-5478.643415350487,-797.59077681542556,13341.116755034744,-138.09314877685404,-527.66173865841154,10.447443327121906,9456.106284723639,7172.5848424577835,-8344.1346402981744,8344.1346402981744,-7172.5848424577835,16846.69287540442,0.0
310012.02908761695,3967225.878295721,-2500.0,-7836.5412037713777,2346.2457435198262,11968.582419833632,-310.24009620281475,-421.36702214098148,5.6384143708179275,10189.291523633423,9417.5777056363149,-10100.259210004981,10100.259210004981,-9417.5777056363149,17769.731866703405,0.0
315012.02908761695,3967225.878295721,-2500.0,-9860.355703694644,6208.4747254975564,8891.8052109177861,-505.08709363762881,-233.67169281870244,-1.3762702826339528,11258.985042315066,11317.411113800632,-11153.906029006243,11153.906029006243,-11317.411113800632,19507.190140938816,0.0
320012.02908761695,3967225.878295721,-2500.0,-11159.212407819237,10475.710477850633,3627.6052848511558,-703.99127370673,51.008796342517144,-10.721121282419961,12838.926495605192,12296.825565305389,-11009.04683581911,11009.04683581911,-12296.825565305389,22556.690229717638,0.0
325012.02908761695,3967225.878295721,-2500.0,-11369.475044597872,14558.34559288027,-4113.4251947962666,-878.43059079003706,438.06595623978382,-22.242026033459037,15026.560935958862,11653.586761933613,-9211.6391312455453,9211.6391312455453,-11653.586761933613,27162.488354717269,0.0
330012.02908761695,3967225.878295721,-2500.0,-10307.412490827764,17626.367542715798,-14206.390371161246,-993.12708011392181,915.74630209724126,-35.46494254519402,17765.491136702338,8726.7583012572577,-5540.5782152394559,5540.5782152394559,-8726.7583012572577,33140.70318412983,0.0
335012.02908761695,3967225.878295721,-2500.0,-8124.6777598064446,18784.677236849388,-25925.53230963532,-1013.4767275800406,1450.5255552687108,-49.618001166096469,20828.731460202733,3165.3674449999207,-210.8744116085752,210.8744116085752,-3165.3674449999207,39922.496817256222,0.0
340012.02908761695,3967225.878295721,-2500.0,-5367.1248057335797,17375.010196633364,-37925.616303385279,-916.03391253936275,1988.211796655663,-63.694196375529927,23862.98282732048,-4798.1287515000367,6030.4907844213431,-6030.4907844213431,4798.1287515000367,46700.135931978715,0.0
345012.02908761695,3967225.878295721,-2500.0,-2850.6504560669141,13285.638419523926,-48492.322411340603,-698.37118829563553,2462.7692267087309,-76.523200900902168,26470.028970573407,-14235.559545844928,12031.265091378449,-12031.265091378449,14235.559545844928,52599.023141386606,0.0
350012.02908761695,3967225.878295721,-2500.0,-1370.5738817179308,7087.1060603154738,-56019.318181708382,-383.52410675541699,2811.4737111524819,-86.870429554224884,28560.168167529362,-23701.088755273227,16584.971899939042,-16584.971899939042,23701.088755273227,56860.544952282362,0.0
355012.02908761695,3967225.878295721,-2500.0,-1390.0343167256269,-117.80687318055288,-59502.009257342201,-15.848510199819744,2991.2583621589756,-93.615215579489757,29854.709785206443,-31662.991815060661,18846.950377624991,-18846.950377624991,31662.991815060661,58999.195562096349,0.0
360012.02908761695,3967225.878295721,-2500.0,-2884.7326977239791,-7064.8951780641219,-58799.903812158358,350.83451123089594,2989.5280397132751,-96.01843350363275,29943.137506325089,-36978.312279752776,18592.788939264508,-18592.788939264508,36978.312279752776,58882.374639374902,0.0
365012.02908761695,3967225.878295721,-2500.0,-5414.0392231679407,-12720.220023090096,-54561.928003204295,667.8287859124847,2824.9675506988169,-93.955210382635215,28928.584329649748,-39175.455735727694,16201.819655807227,-16201.819655807227,39175.455735727694,56709.615286612447,0.0
370012.02908761695,3967225.878295721,-2500.0,-8341.9554237657212,-16511.481732745338,-47907.7842438058,902.70951304780033,2538.8545841005835,-87.972106006112924,27037.13618748125,-38451.004462308891,12424.784251544126,-12424.784251544126,38451.004462308891,52913.399343505873,0.0
375012.02908761695,3967225.878295721,-2500.0,-11069.193493829785,-18347.085266111964,-40055.076708016837,1043.3486980712812,2181.7099638916698,-79.116000001322888,24551.326813002943,-35456.254708620872,8092.4897300378852,-8092.4897300378852,35456.254708620872,48030.326354093231,0.0
380012.02908761695,3967225.878295721,-2500.0,-13178.930720611055,-18487.7494579335,-32042.160081974685,1095.1928300035174,1801.0315132155979,-68.634242924442702,21750.631815506098,-31021.290119463298,3896.8111192037795,-3896.8111192037795,31021.290119463298,42587.838061161943,0.0
385012.02908761695,3967225.878295721,-2500.0,-14476.25871802461,-17371.674264930942,-24598.151921581088,1074.8534238841999,1433.6573377450736,-57.688625543228753,18871.952582956361,-25932.262129663693,291.4275387738362,-291.4275387738362,25932.262129663693,37030.370808235275,0.0
390012.02908761695,3967225.878295721,-2500.0,-14953.125922338852,-15466.811719597659,-18134.900969386661,1003.3381729914207,1103.2666847359928,-47.176440982899138,16091.889410442047,-20806.549210250196,-2508.0280288084232,2508.0280288084232,20806.549210250196,31687.171685283407,0.0
395012.02908761695,3967225.878295721,-2500.0,-14722.511635948595,-13179.101646916562,-12807.700182585917,900.96471523078048,821.57761260197219,-37.674200211324717,13525.822952085202,-16056.086412736027,-4469.7100655799859,4469.7100655799859,16056.086412736027,26771.600638314041,0.0
400012.02908761695,3967225.878295721,-2500.0,-13953.933965310433,-10813.540378222868,-8597.5998193475207,784.51992139697711,591.31372443081477,-29.469101377882524,11237.33695097762,-11906.817381215795,-5676.9034997518065,5676.9034997518065,11906.817381215795,22398.443861858665,0.0
405012.02908761695,3967225.878295721,-2500.0,-12825.543638152922,-8571.5252125775351,-5386.6955548355027,666.29550390483882,409.45387701284653,-22.630558807121322,9361.4440366216531,-8442.9488795154357,-6268.2432809601842,6268.2432809601842,8442.9488795154357,18608.064344259979,0.0
410012.02908761695,3967225.878295721,-2500.0,-11495.604430484604,-6567.1791209800585,-3014.6036876081644,554.3142714697301,269.9573475939909,-17.087306660758394,7830.5534029327046,-5654.6900935667791,-6395.4684622228096,6395.4684622228096,5654.6900935667791,15390.203552021398,0.0
415012.02908761695,3967225.878295721,-2500.0,-10089.845904581882,-4849.9840047321868,-1314.9143140540041,453.1225604657601,165.69891489462535,-12.693011420574024,6550.133495994939,-3478.5566104034806,-6198.5012799934575,6198.5012799934575,3478.5566104034806,12703.836848759027,0.0
420012.02908761695,3967225.878295721,-2500.0,-8699.3774598393811,-3426.4433347932727,-135.37907599990223,364.72623591498086,89.665899114672001,-9.2720688353761336,5491.8293131099435,-1826.7764523815788,-5793.8354167691032,5793.8354167691032,1826.7764523815788,10492.029778967593,0.0
425012.02908761695,3967225.878295721,-2500.0,-7384.3839673596203,-2277.5612198973495,653.24280345825173,289.43936963697115,35.586827901560156,-6.6487084230109694,4625.1678670980255,-606.33430537526556,-5271.588214433159,5271.588214433159,606.33430537526556,8692.06070370413,0.0
265012.02908761695,3972225.878295721,-2500.0,3839.6672040775311,-4676.0688134579641,5978.0612472795037,206.44248297305376,-275.43473907172995,8.4171169513481274,4861.2403263611541,-1282.8109020561196,1542.5479681195334,-1542.5479681195334,1282.8109020561196,9664.1727895255972,0.0
270012.02908761695,3972225.878295721,-2500.0,3404.931176983222,-4865.8075545409902,6798.3200492235765,204.60476163178649,-310.87991146744986,9.2548661442815501,5161.6056450451069,-947.99851697355598,979.49087128121641,-979.49087128121641,947.99851697355598,10296.229096623785,0.0
275012.02908761695,3972225.878295721,-2500.0,2782.864810867391,-4941.2137156079471,7677.6389425365142,194.97984890574284,-347.28257451413458,10.027756906089159,5522.0076673051526,-459.87468614678016,241.74807857885446,-241.74807857885446,459.87468614678016,10906.076111278482,0.0
280012.02908761695,3972225.878295721,-2500.0,1943.2707729420465,-4845.1996863109134,8582.4740453040395,174.79635168915277,-382.45596781671964,10.64780550188993,5881.6780526909924,216.04426595326422,-690.43980493014305,690.43980493014305,-216.04426595326422,11471.85631674403,0.0
285012.02908761695,3972225.878295721,-2500.0,863.34597390734905,-4506.4179991888468,9453.641095438843,140.85918467652394,-412.95318435412111,10.990265728733124,6234.2640794437675,1111.6568786061664,-1825.0590490691732,1825.0590490691732,-1111.6568786061664,11972.309388226487,0.0
290012.02908761695,3972225.878295721,-2500.0,-463.71847219214612,-3841.1299976812847,10195.817170677434,89.776735256252095,-433.67554040587368,10.887719944369083,6578.823187862442,2247.9476832540599,-3148.2282582182211,3148.2282582182211,-2247.9476832540599,12395.285858934249,0.0
295012.02908761695,3972225.878295721,-2500.0,-2016.9673068728662,-2759.9032615322367,10665.906262209952,18.425389565207702,-437.51250605128854,10.127392986725168,6925.2646302684598,3621.5402491005011,-4610.6564499617807,4610.6564499617807,-3621.5402491005011,12754.664919295456,0.0
300012.02908761695,3972225.878295721,-2500.0,-3733.6324432728165,-1181.9856278508523,10662.945132434841,-75.264264545401929,-415.15628869915213,8.4577458057956889,7303.9493618293254,5185.2667273066245,-6111.7608312848888,6111.7608312848888,-5185.2667273066245,13119.326263502713,0.0
305012.02908761695,3972225.878295721,-2500.0,-5495.84309189942,939.86163083877034,9924.9083325042411,-191.15701304737047,-355.32280406707054,5.6078559764611891,7776.7412040162535,6823.6604435952713,-7485.0293935551481,7485.0293935551481,-6823.6604435952713,13651.645872785404,0.0
310012.02908761695,3972225.878295721,-2500.0,-7124.3197042067914,3583.1609442327544,8141.104379634241,-325.47591170335829,-245.68868891027196,1.3245841663095466,8441.7192438321999,8328.0657529462769,-8491.9499767004527,8491.9499767004527,-8328.0657529462769,14630.379920255673,0.0
315012.02908761695,3972225.878295721,-2500.0,-8388.5855433554898,6612.3213771789324,4991.2626426471079,-469.3726192079958,-74.848801190844114,-4.5727410399877026,9417.6497453907614,9382.0908618907615,-8835.8390268755338,8835.8390268755338,-9382.0908618907615,16400.649701971637,0.0
320012.02908761695,3972225.878295721,-2500.0,-9044.0037947135097,9741.1697469974861,220.48160151008523,-608.0842870201127,164.59050020104354,-12.127855126414843,10801.09283045952,9574.7796924117192,-8208.2052781567927,8208.2052781567927,-9574.7796924117192,19224.763291656258,0.0
325012.02908761695,3972225.878295721,-2500.0,-8899.8615510538766,12525.021243030409,-6251.8161349972033,-721.47854336629302,472.12716698669095,-21.188563820162599,12614.522676622666,8461.0704310653637,-6373.7613251738558,6373.7613251738558,-8461.0704310653637,23134.187400929939,0.0
330012.02908761695,3972225.878295721,-2500.0,-7906.4920372746838,14410.274089370865,-14213.274020290921,-786.70192016774217,835.71448178431945,-31.373183009830932,14777.686694897649,5678.6538801560137,-3281.4731570655322,3281.4731570655322,-5678.6538801560137,27899.455325605282,0.0
335012.02908761695,3972225.878295721,-2500.0,-6226.821807902289,14856.251710851591,-23081.789314728099,-783.03686549863278,1229.9764857327277,-42.076688799852882,17114.233484566841,1101.6566337473776,838.60552785643483,-838.60552785643483,-1101.6566337473776,33092.10315495199,0.0
340012.02908761695,3972225.878295721,-2500.0,-4244.4447103713082,13507.517696433682,-31933.116920230172,-697.9610165446594,1617.9357593163875,-52.515942844388519,19384.114575208234,-5027.0532434319757,5452.0458069066935,-5452.0458069066935,5027.0532434319757,38170.374338906324,0.0
345012.02908761695,3972225.878295721,-2500.0,-2477.1195139517245,10350.081709071635,-39666.644807808341,-532.30669696564121,1956.925438519243,-61.812685100623604,21331.272592207748,-12063.459758137424,9814.6060412452625,-9814.6060412452625,12063.459758137424,42572.642741459349,0.0
350012.02908761695,3972225.878295721,-2500.0,-1414.7661108579221,5767.9226308850721,-45273.718402227554,-302.11877893163023,2207.5508712625615,-69.109958693303057,23083.209073557566,-19079.141756389628,13171.672429757056,-13171.672429757056,19079.141756389628,45816.35100921816,0.0
355012.02908761695,3972225.878295721,-2500.0,-1353.685866973708,455.19776288987725,-48104.175131433563,-35.855629872968315,2342.8187446686006,-73.712141624923888,24131.527950987962,-25099.802657999877,14982.126372655694,-14982.126372655694,25099.802657999877,47583.377854134953,0.0
360012.02908761695,3972225.878295721,-2500.0,-2308.5381178242005,-4782.892014969133,-48015.650911751225,232.37364085432631,2354.04252664348,-75.227088381832715,24333.0584684895,-29365.282928732449,15063.345084870845,-15063.345084870845,29365.282928732449,47766.313930392818,0.0
365012.02908761695,3972225.878295721,-2500.0,-4037.8780805337028,-9248.3900840873048,-45351.797654500566,470.96557225265684,2251.40548107819,-73.657692029050665,23738.698329498577,-31499.492688614839,13598.933703852303,-13598.933703852303,31499.492688614839,46462.91574181246,0.0
370012.02908761695,3972225.878295721,-2500.0,-6154.5804924866807,-12498.115680193063,-40783.761139916067,657.31597172916554,2059.4521734338941,-69.394878944758091,22481.137279147242,-31536.220538740607,11027.771472478293,-11027.771472478293,31536.220538740607,43926.79748671141,0.0
375012.02908761695,3972225.878295721,-2500.0,-8257.5673880475715,-14382.757914159256,-35101.635912706894,780.71926120582748,1809.8063310761395,-63.111333359865313,20738.473494499169,-29823.56713962401,7884.0325401391783,-7884.0325401391783,29823.56713962401,40496.562879552519,0.0
380012.02908761695,3972225.878295721,-2500.0,-10030.540673147056,-14996.651970012847,-29037.085697478713,841.59599914649709,1533.9747468549485,-55.600408964407343,18698.251709178563,-26873.694105161718,4657.96729958166,-4657.96729958166,26873.694105161718,36526.978197772347,0.0
385012.02908761695,3972225.878295721,-2500.0,-11286.091705037838,-14584.811349530193,-23158.061686533965,848.34991792873916,1258.2566940527038,-47.619521242881234,16530.289991633799,-23222.044244746365,1714.1231739394516,-1714.1231739394516,23222.044244746365,32337.7275245132,0.0
390012.02908761695,3972225.878295721,-2500.0,-11962.514879650218,-13450.040970711738,-17835.872112632776,813.52915513125743,1001.3836272598519,-39.784951895438709,14371.20110256165,-19331.485181696218,-731.65989868278666,731.65989868278666,19331.485181696218,28184.727585725126,0.0
395012.02908761695,3972225.878295721,-2500.0,-12093.482073541139,-11884.171395860072,-13262.661852431385,750.53321399245874,774.43674077314006,-32.526290463103066,12319.392557982725,-15547.376092999253,-2594.8409870062751,2594.8409870062751,15547.376092999253,24251.284662533355,0.0
400012.02908761695,3972225.878295721,-2500.0,-11769.895267353671,-10129.26802995929,-9493.3314278841026,671.42079301442845,582.13240731408075,-26.091786081965893,10437.364512622502,-12092.108289381642,-3886.2579051564253,3886.2579051564253,12092.108289381642,20652.830539896666,0.0
405012.02908761695,3972225.878295721,-2500.0,-11106.266304509383,-8363.7920805926369,-6492.1408866366219,585.82537218665061,424.62062935715005,-20.581618635946754,8758.3929925247376,-9082.6906825505412,-4674.1024084938799,4674.1024084938799,9082.6906825505412,17448.82101695496,0.0
410012.02908761695,3972225.878295721,-2500.0,-10216.783284720997,-6704.9954822007003,-4172.8977439430928,500.70403648174573,299.22067465640703,-15.991023063002872,7367.5453944949613,-6557.3875794073892,-5052.6190760903892,5052.6190760903892,6557.3875794073892,14656.872115928425,0.0
415012.02908761695,3972225.878295721,-2500.0,-9201.3530236422484,-5219.4739907429321,-2428.5752143537475,420.58646649785163,201.81106025380799,-12.250383025699872,6231.4733196131228,-4502.3107354273161,-5120.3737779292023,5120.3737779292023,4502.3107354273161,12266.049258085755,0.0
420012.02908761695,3972225.878295721,-2500.0,-8139.5755079361297,-3936.1854956823149,-1150.5191576694274,348.04932233930606,127.80516152949356,-9.2569557618231286,5271.0335686811623,-2873.4961827661646,-4967.4222601443798,4967.4222601443798,2873.4961827661646,10247.869054579623,0.0
270012.02908761695,3977225.878295721,-2500.0,2241.6005630092432,-3976.153972912156,6288.6459972487282,148.30617110570537,-269.66106115810396,7.3836316227815129,4467.395033399971,-311.39719187175848,159.32644920676989,-159.32644920676989,311.39719187175848,8838.8809330341646,0.0
275012.02908761695,3977225.878295721,-2500.0,1605.8096501527632,-3893.6100909443999,6964.1813581503702,133.45331369666073,-295.03012688937338,7.8233957853668548,4732.548236335093,203.59562347690135,-544.84576270659988,544.84576270659988,-203.59562347690135,9253.294984729866,0.0
280012.02908761695,3977225.878295721,-2500.0,801.7147472242757,-3640.2953409416077,7612.3541266042303,109.33279898175631,-317.27784393179826,8.0895130177837711,4991.2941331480597,871.05990683126151,-1389.630827202702,1389.630827202702,-871.05990683126151,9618.3601628489487,0.0
285012.02908761695,3977225.878295721,-2500.0,-175.6637011610697,-3162.0972395729091,8170.7491322575179,73.786487923258719,-333.23014752806029,8.0805001752282219,5242.6510516546496,1704.1986773963563,-2366.2123026069216,2366.2123026069216,-1704.1986773963563,9925.1600161351853,0.0
290012.02908761695,3977225.878295721,-2500.0,-1315.1309910033995,-2401.2568645439314,8548.3266769523343,24.771268247341172,-338.52723173418059,7.6670255561017759,5492.1509041255404,2701.8799145362732,-3444.9327303132927,3444.9327303132927,-2701.8799145362732,10180.077407181379,0.0
295012.02908761695,3977225.878295721,-2500.0,-2581.5579367375885,-1303.9870813970199,8619.6425482080722,-39.234264096483294,-327.49382823782514,6.693244136019036,5757.335168441693,3838.0672864440016,-4566.5022898021716,4566.5022898021716,-3838.0672864440016,10421.225341929232,0.0
300012.02908761695,3977225.878295721,-2500.0,-3908.2143756147834,166.63777035658828,8222.2650580296959,-118.632619018594,-293.19373825696744,4.9842596456379553,6074.4873021664444,5048.503956425895,-5633.5295363017758,5633.5295363017758,-5048.503956425895,10741.326385654458,0.0
305012.02908761695,3977225.878295721,-2500.0,-5191.8968548301291,2011.8482332303249,7161.3379301566756,-211.93733101588174,-227.81533496512162,2.3623621938848123,6503.1962468891343,6216.5457341711062,-6505.5669182087986,6505.5669182087986,-6216.5457341711062,11307.072412551963,0.0
310012.02908761695,3977225.878295721,-2500.0,-6295.0878252609718,4173.6630191817294,5226.5013043771241,-314.93476953267975,-123.54912699928245,-1.3259845825508618,7121.7715885887783,7162.5556272714812,-7002.7095003950008,7002.7095003950008,-7162.5556272714812,12346.904472452481,0.0
315012.02908761695,3977225.878295721,-2500.0,-7060.2334166691626,6511.4976381511751,2226.2561405487932,-420.00872446331925,25.93053333058953,-6.1739696948643088,8007.145534374984,7644.3214418341568,-6923.9123666688529,6923.9123666688529,-7644.3214418341568,14079.106407224188,0.0
320012.02908761695,3977225.878295721,-2500.0,-7339.8597452540498,8788.4327094916007,-1958.4367580240739,-515.98906685764155,223.42700594438881,-12.173457606540284,9203.7208477693712,7378.0213683426718,-6084.8197784040422,6084.8197784040422,-7378.0213683426718,16609.619555131285,0.0
325012.02908761695,3977225.878295721,-2500.0,-7041.0074889946618,10680.417185984403,-7307.5485464148578,-588.93651618848719,465.9549409255813,-19.178866411673372,10697.994009103471,6087.4576484037816,-4373.9617662208229,4373.9617662208229,-6087.4576484037816,19878.494446198274,0.0
330012.02908761695,3977225.878295721,-2500.0,-6173.2396682809322,11820.355157487316,-13600.603720661791,-624.13805781956239,742.91475958594901,-26.887551872467647,12411.841170196534,3580.5211014183906,-1815.2033680085644,1815.2033680085644,-3580.5211014183906,23676.599755481453,0.0
335012.02908761695,3977225.878295721,-2500.0,-4879.9002806910266,11878.506047457606,-20389.450177660183,-609.19293033877125,1035.5986120601979,-34.846001188693279,14213.19959862145,-164.02788338733978,1387.8680763249818,-1387.8680763249818,164.02788338733978,27691.023082812484,0.0
340012.02908761695,3977225.878295721,-2500.0,-3430.0672130868084,10661.388636024851,-27033.79697442086,-537.49324130249192,1318.790719473473,-42.486897854077,15937.511151065955,-4932.8062230761689,4854.4332190729028,-4854.4332190729028,4932.8062230761689,31553.941689233256,0.0
345012.02908761695,3977225.878295721,-2500.0,-2160.8109463263349,8192.6498483680552,-32809.019789503756,-410.92842098940326,1564.6157400214938,-49.195777269625346,17482.413884028625,-10274.475860776975,8092.2196494783811,-8092.2196494783811,10274.475860776975,34895.530300771716,0.0
350012.02908761695,3977225.878295721,-2500.0,-1383.9565853462414,4736.2603000823183,-37061.901345836246,-240.62065863696532,1747.8537681246598,-54.39797222048238,18895.414283411603,-15575.541893646536,10614.16506431712,-10614.16506431712,15575.541893646536,37399.927077094522,0.0
355012.02908761695,3977225.878295721,-2500.0,-1294.0064206752334,743.55994656283838,-39360.615833823809,-45.112515116695768,1851.1384647799543,-57.652912235917263,19745.78347747021,-20197.430619064682,12064.05704226277,-12064.05704226277,20197.430619064682,38853.622723758912,0.0
360012.02908761695,3977225.878295721,-2500.0,-1916.7378398120104,-3258.4427581920331,-39582.355173294272,153.5449478259556,1868.3038402234711,-58.733024453031916,19989.820491954142,-23624.676332811538,12300.647229968064,-12300.647229968064,23624.676332811538,39173.059146328182,0.0
365012.02908761695,3977225.878295721,-2500.0,-3117.2930842096639,-6792.6997511165919,-37910.332541812582,334.46968272729328,1804.8235727293793,-57.662627797605474,19651.815410676005,-25568.682796802659,11410.120002116553,-11410.120002116553,25568.682796802659,38404.438030548481,0.0
370012.02908761695,3977225.878295721,-2500.0,-4656.8147165690298,-9525.5821755014313,-34752.89100307061,481.82803370858704,1675.4525425935046,-54.702506066539961,18810.814989311079,-25996.248633847681,9652.0646834357321,-9652.0646834357321,25996.248633847681,36698.594122713272,0.0
375012.02908761695,3977225.878295721,-2500.0,-6267.7071061103434,-11303.984852194182,-30625.493306475139,586.85988554749099,1500.18182925578,-50.286028258073685,17580.327666209509,-25088.08192041998,7370.7285586630023,-7370.7285586630023,25088.08192041998,34271.354766454155,0.0
380012.02908761695,3977225.878295721,-2500.0,-7717.8731692915298,-12139.581181413701,-26039.179369607646,647.86987682027188,1299.9714868503938,-44.925027292003861,16086.568318804322,-23157.448930504637,4908.3405994819477,-4908.3405994819477,23157.448930504637,31361.761812060591,0.0
385012.02908761695,3977225.878295721,-2500.0,-8847.7300876315985,-12161.07437218274,-21423.156340869089,668.72982937568361,1093.4151498773788,-39.122174191625859,14450.316769273275,-20563.519435123424,2544.8106394729093,-2544.8106394729093,20563.519435123424,28197.666153669437,0.0
390012.02908761695,3977225.878295721,-2500.0,-9578.9409489867321,-11558.069246646699,-17088.600287111498,656.73208478636718,894.84472178717544,-33.304567542930052,12774.897981729679,-17643.34133012181,470.59143427088566,-470.59143427088566,17643.34133012181,24973.218878318752,0.0
395012.02908761695,3977225.878295721,-2500.0,-9903.1134109811592,-10533.229610628148,-13226.256982134533,620.52062336708059,713.79936801528675,-27.790268836147622,11140.439730596561,-14671.518395699342,-1213.2365886750285,1213.2365886750285,14671.518395699342,21838.334442104639,0.0
400012.02908761695,3977225.878295721,-2500.0,-9861.0451118718138,-9270.042458096008,-9924.7448228027515,568.52135767255072,555.45703968097962,-22.783740805457203,9603.1366459332476,-11845.407651810296,-2478.6421901705389,2478.6421901705389,11845.407651810296,18897.577822564457,0.0
405012.02908761695,3977225.878295721,-2500.0,-9520.9524126631022,-7916.2837288686114,-7197.2637644502056,507.99069298372615,421.55994265391138,-18.390157899110633,8197.7493291587271,-9288.2403626442519,-3348.3460880561547,3348.3460880561547,9288.2403626442519,16215.029093875926,0.0
410012.02908761695,3977225.878295721,-2500.0,-8960.5301751959578,-6579.5647719505823,-5008.2495043750023,444.60530459465826,311.46280720161553,-14.638323689590784,6942.0447454667274,-7061.9433122642022,-3874.4808844118738,3874.4808844118738,7061.9433122642022,13822.043796347196,0.0
415012.02908761695,3977225.878295721,-2500.0,-8254.5666642058804,-5330.412572084183,-3295.4814460693592,382.43305028234096,223.07381011220176,-11.504517625007885,5888.8031530450089,-5183.1830994878164,-4121.6713483110689,4121.6713483110689,5183.1830994878164,11725.634207319568,0.0
275012.02908761695,3982225.878295721,-2500.0,732.88967521174357,-2981.0513444967437,6215.9216074192846,85.982307493788738,-247.35869065972449,6.0316462761889138,4054.9092027192864,693.55997356936996,-1075.9748024144146,1075.9748024144146,-693.55997356936996,7838.5640738204575,0.0
280012.02908761695,3982225.878295721,-2500.0,-1.8679105672496412,-2629.2503692417972,6643.4900407496289,60.677644255944394,-259.65995539626886,6.0589447001268857,4242.1944099978382,1317.4928517690507,-1811.5136800978823,1811.5136800978823,-1317.4928517690507,8066.0000040172317,0.0
285012.02908761695,3982225.878295721,-2500.0,-854.79029715551269,-2080.2540030470986,6947.2444515563084,26.223895734045765,-265.03540612352037,5.8315087654580893,4426.2124995267213,2058.1468525977148,-2622.8143909502046,2622.8143909502046,-2058.1468525977148,8251.8470300193349,0.0
290012.02908761695,3982225.878295721,-2500.0,-1805.5073690339125,-1297.5370323850223,7046.2527408711876,-18.465119089892735,-259.93016229972835,5.252235313335583,4617.4066034561329,2900.5764134506785,-3473.5903126139851,3473.5903126139851,-2900.5764134506785,8417.7561591302092,0.0
295012.02908761695,3982225.878295721,-2500.0,-2814.8771909438883,-253.42807002988388,6836.5576484015155,-73.885700687757094,-239.98786402102976,4.2096233530270535,4837.6411730386017,3807.5552857595817,-4304.7501879879592,4304.7501879879592,-3807.5552857595817,8618.065293614125,0.0
300012.02908761695,3982225.878295721,-2500.0,-3821.6193181546564,1060.6764244576291,6192.7833093512882,-139.5231255826202,-200.21181609165492,2.5851036155461276,5123.6957742345876,4711.3339431174027,-5030.8906891194893,5030.8906891194893,-4711.3339431174027,8953.7385761264613,0.0
305012.02908761695,3982225.878295721,-2500.0,-4742.085626934555,2621.2503955610641,4975.7426125449829,-213.36858614141278,-135.36856970944928,0.26574522123863553,5526.6450641062111,5506.6033668558011,-5540.6506747188178,5540.6506747188178,-5506.6033668558011,9573.1467899266154,0.0
310012.02908761695,3982225.878295721,-2500.0,-5475.6849112913169,4358.5639532044606,3048.7680181901242,-291.4674082638993,-40.706607083316136,-2.8364228283825685,6102.8915937896209,6048.0065477132221,-5703.9622048546253,5703.9622048546253,-6048.0065477132221,10640.319498533414,0.0
315012.02908761695,3982225.878295721,-2500.0,-5918.2795654157271,6145.5495128150833,304.50886487955302,-367.65888409513985,86.991225077807385,-6.7608736057517387,6896.6425515734309,6156.7836252802017,-5389.0879929033645,5389.0879929033645,-6156.7836252802017,12272.513067796472,0.0
320012.02908761695,3982225.878295721,-2500.0,-5984.2051146910289,7795.7089978559006,-3298.9446219336687,-433.71650666364081,248.11370733150855,-11.472895602299175,7921.3331101986723,5641.1961306810335,-4490.482497759067,4490.482497759067,-5641.1961306810335,14488.411224515787,0.0
325012.02908761695,3982225.878295721,-2500.0,-5634.0090616859061,9076.9368229073443,-7698.7537242088874,-480.0864849964438,438.9392583054821,-16.842995331778582,9149.5803196718443,4332.8901364514877,-2964.3600165574653,2964.3600165574653,-4332.8901364514877,17200.45165599597,0.0
330012.02908761695,3982225.878295721,-2500.0,-4900.2055957111625,9745.6464974547071,-12696.900971607449,-497.30311289595795,650.77618623503236,-22.63707856581269,10514.383518142822,2135.4576670705892,-862.97926433988391,862.97926433988391,-2135.4576670705892,20237.425389096989,0.0
335012.02908761695,3982225.878295721,-2500.0,-3899.6691011635085,9598.694479084641,-17954.313111261228,-477.92221240186387,869.99871378840442,-28.524605594215554,11918.24764876747,-926.79918312877874,1646.3057098206164,-1646.3057098206164,926.79918312877874,23372.784709374271,0.0
340012.02908761695,3982225.878295721,-2500.0,-2822.199123775295,8530.7903199609191,-23022.33441157659,-418.52502776331369,1079.316587858943,-34.107035737363034,13247.134029841041,-4678.5442177619034,4291.0627663370315,-4291.0627663370315,4678.5442177619034,26353.029682496883,0.0
345012.02908761695,3982225.878295721,-2500.0,-1892.4551355598669,6577.3567643851529,-27412.769625150493,-321.14680961972874,1260.2553820917808,-38.964957640649779,14543.238740695859,-8799.5157983666195,6738.4152301693575,-6738.4152301693575,8799.5157983666195,28928.922075552488,0.0
350012.02908761695,3982225.878295721,-2500.0,-1314.6761055158308,3923.4674157374238,-30690.968067651975,-193.5339609800551,1396.3465751953393,-42.717047269228082,15645.316890681248,-12873.944320152021,8665.2030056713829,-8665.2030056713829,12873.944320152021,30888.385472420734,0.0
355012.02908761695,3982225.878295721,-2500.0,-1219.5769504884022,871.0033114645903,-32563.329029673576,-47.982637294288317,1476.1548018382889,-45.079229203659558,16338.129137544,-16472.096873993571,9831.1336933727598,-9831.1336933727598,16472.096873993571,32084.939628981825,0.0
360012.02908761695,3982225.878295721,-2500.0,-1633.4784014869533,-2226.4420995349496,-32930.241465347215,100.96924922610052,1495.2357832839041,-45.909431829055741,16588.803295435529,-19237.756000021527,10129.096331457946,-10129.096331457946,19237.756000021527,32454.621106680635,0.0
365012.02908761695,3982225.878295721,-2500.0,-2479.851505720746,-5038.077479229014,-31889.108938149417,239.29049922901697,1456.4750304462698,-45.227142760062939,16408.029528267041,-20952.755356220212,9596.5401985605822,-9596.5401985605822,20952.755356220212,32017.412849718294,0.0
370012.02908761695,3982225.878295721,-2500.0,-3609.092369850991,-7315.4411618627264,-29692.11629868926,355.82264803519536,1368.8421393898034,-43.201002879189829,15843.532030125723,-21560.936034277926,8388.7710437786809,-8388.7710437786809,21560.936034277926,30864.170201417328,0.0
375012.02908761695,3982225.878295721,-2500.0,-4842.0530422907241,-8922.0332992832555,-26678.416324192603,443.66996648114815,1245.1060790172844,-40.109325392251669,14968.525923689984,-21151.308463123249,6729.0273804382832,-6729.0273804382832,21151.308463123249,29134.032392426227,0.0
380012.02908761695,3982225.878295721,-2500.0,-6011.1672721015357,-9831.8421482150334,-23204.288804976459,500.44601216268569,1099.2784293769844,-36.286614806674649,13868.463068818675,-19914.09857496656,4854.840397628097,-4854.840397628097,19914.09857496656,26988.912799700189,0.0
385012.02908761695,3982225.878295721,-2500.0,-6988.370104069596,-10105.792326238407,-19588.777268690083,527.59536295707721,944.44666099945846,-32.069498957440914,12629.077097868556,-18088.094698591529,2975.8188784978993,-2975.8188784978993,18088.094698591529,24590.744671877055,0.0
390012.02908761695,3982225.878295721,-2500.0,-7696.6823685078307,-9858.7465983772636,-16082.177548853788,529.20983496378278,791.35964698858015,-27.755566282816908,11327.553545758003,-15914.34475529239,1249.5598214824195,-1249.5598214824195,15914.34475529239,22084.843430505287,0.0
395012.02908761695,3982225.878295721,-2500.0,-8108.2123765142351,-9227.6803075866719,-12856.079214110721,510.7550883467934,647.8158269209697,-23.579208481561288,10027.37106304064,-13604.143277695504,-225.12444253236117,225.12444253236117,13604.143277695504,19590.307669267211,0.0
400012.02908761695,3982225.878295721,-2500.0,-8233.9398650462408,-8347.2052936055807,-10008.919243191343,477.99492776828674,518.69330289539539,-19.703434066612008,8776.4252143581289,-11322.6088585302,-1402.6523770289223,1402.6523770289223,11322.6088585302,17196.639396410668,0.0
405012.02908761695,3982225.878295721,-2500.0,-8110.5201109009195,-7334.3113575098996,-7579.9563355495766,436.24324337040264,406.37768026028334,-16.225600342478842,7607.5550134037885,-9184.9581964802746,-2278.7051010648447,2278.7051010648447,9184.9581964802746,14964.868336037587,0.0
410012.02908761695,3982225.878295721,-2500.0,-7787.8098539639632,-6281.354991828227,-5565.8868255988364,389.94785407906443,311.36182070530629,-13.188251373136705,6540.5416941331005,-7261.0816009510127,-2876.6320710362907,2876.6320710362907,7261.0816009510127,12931.37078460004,0.0
275012.02908761695,3987225.878295721,-2500.0,102.01962973096698,-2206.6861354264029,5471.2164720547607,50.065505325120377,-204.98216193835873,4.594421978282285,3478.9978227122615,1036.1124598360577,-1409.4943887530624,1409.4943887530624,-1036.1124598360577,6640.9958098174111,0.0
280012.02908761695,3987225.878295721,-2500.0,-547.94027515735308,-1801.7704167300064,5716.7640115765444,25.337273731526775,-209.89856961341147,4.4687405338639108,3617.5482329228066,1596.6184282254367,-2030.3329531449053,2030.3329531449053,-1596.6184282254367,6779.6920621010286,0.0
285012.02908761695,3987225.878295721,-2500.0,-1273.2736825475463,-1230.7751503532249,5821.5565708333143,-6.5047396215639797,-207.90841512918641,4.1174850508306831,3758.872960882356,2232.7534604394727,-2685.1123930433382,2685.1123930433382,-2232.7534604394727,6897.8038600997033,0.0
290012.02908761695,3987225.878295721,-2500.0,-2050.290850279071,-473.24220468689987,5717.1414649370354,-45.907940675039114,-196.21413493728588,3.4692975315470638,3916.4861337393795,2922.1793997169284,-3336.7974340184078,3336.7974340184078,-2922.1793997169284,7027.9577194645017,0.0
295012.02908761695,3987225.878295721,-2500.0,-2841.5428737839807,480.70983795480015,5320.835557542825,-92.76148057370699,-171.57227868851086,2.4462848673828947,4113.5067388495881,3624.1774064097872,-3931.890473957239,3931.890473957239,-3624.1774064097872,7232.312996919436,0.0
300012.02908761695,3987225.878295721,-2500.0,-3595.035700483219,1622.926748281287,4539.2492063942054,-146.11635347540073,-130.48391454386746,0.96997586395214197,4383.2936391252788,4275.1051573772284,-4399.8801023940186,4399.8801023940186,-4275.1051573772284,7606.8202874395674,0.0
305012.02908761695,3987225.878295721,-2500.0,-4246.1735927955406,2918.7761820784604,3276.3159522822743,-203.90054035693879,-69.550402466287125,-1.0288016272230949,4765.7023212674903,4785.787404421575,-4656.0409123297177,4656.0409123297177,-4785.787404421575,8268.7391550714838,0.0
310012.02908761695,3987225.878295721,-2500.0,-4723.7571662815044,4299.4143794862666,1447.0129857587688,-262.70054163864518,13.98063021371421,-3.5968075132870201,5297.6721951138452,5043.0818590419121,-4609.2119024340818,4609.2119024340818,-5043.0818590419121,9321.6847481805798,0.0
315012.02908761695,3987225.878295721,-2500.0,-4960.8487171166253,5657.5759431827873,-1003.0937647306044,-317.71136137403886,121.49816586533311,-6.7428406087811057,6000.9085162403298,4918.1831079228041,-4175.6274986300932,4175.6274986300932,-4918.1831079228041,10815.334291199622,0.0
320012.02908761695,3987225.878295721,-2500.0,-4909.9675150612184,6850.48715429203,-4074.4083024166912,-362.96930156544772,252.22918687363114,-10.422488705419489,6872.5184572269563,4283.6139875752933,-3298.3194339626652,3298.3194339626652,-4283.6139875752933,12727.27238106087,0.0
325012.02908761695,3987225.878295721,-2500.0,-4559.9209904622194,7713.1937233995759,-7690.7613070948864,-391.95381391677529,402.53451115106094,-14.526800283520977,7882.3119686835535,3038.7763975996413,-1969.0238862761744,1969.0238862761744,-3038.7763975996413,14970.662327925525,0.0
330012.02908761695,3987225.878295721,-2500.0,-3949.2415919609634,8083.4051550969134,-11685.261822030565,-398.5589227991141,565.54241323625138,-18.87844026937654,8975.9707534583613,1140.3279869120333,-246.57793577790932,246.57793577790932,-1140.3279869120333,17411.476427055361,0.0
335012.02908761695,3987225.878295721,-2500.0,-3170.0178049569577,7834.7970096718464,-15802.865819431025,-378.29913000070269,731.36553976864934,-23.239901877914022,10081.753005554327,-1370.4697924584475,1735.9925406942039,-1735.9925406942039,1370.4697924584475,19885.42121793906,0.0
340012.02908761695,3987225.878295721,-2500.0,-2357.3477717790979,6910.7919546639287,-19725.191040125374,-329.47122722189022,888.04227428302681,-27.334414107183203,11121.692149538327,-4353.7733077840267,3782.2635510979508,-3782.2635510979508,4353.7733077840267,22215.01510878071,0.0
345012.02908761695,3987225.878295721,-2500.0,-1664.2225661963719,5347.7424779115536,-23116.356001173273,-253.91606597250993,1023.1370681446053,-30.877911451690604,12218.090358674084,-7579.3040337542407,5662.5239648165916,-5662.5239648165916,7579.3040337542407,24228.691018472626,0.0
350012.02908761695,3987225.878295721,-2500.0,-1227.8412332947589,3277.7708287626897,-25680.118217716557,-157.07845312499944,1125.6850429799351,-33.616659143864737,13088.615032184985,-10758.89134869555,7157.0692095690201,-7157.0692095690201,10758.89134869555,25780.775750781198,0.0
355012.02908761695,3987225.878295721,-2500.0,-1137.9516608158292,907.87762022172888,-27212.600447491943,-47.260221727011654,1187.996805515533,-35.364033130905447,13656.272755078042,-13596.495327401857,8100.2003075254561,-8100.2003075254561,13596.495327401857,26768.750981489033,0.0
360012.02908761695,3987225.878295721,-2500.0,-1417.821879420495,-1519.2907218908808,-27635.118094998881,65.77086420734004,1206.8359772986291,-36.027156206236533,13896.085784972796,-15841.476729546283,8411.1644941809918,-8411.1644941809918,15841.476729546283,27143.875342718271,0.0
365012.02908761695,3987225.878295721,-2500.0,-2023.5085074878034,-3770.8936143654441,-26998.562790150219,172.43476517822,1183.6735787136527,-35.617114830383322,13811.835893571695,-17329.53681421834,8103.1674196883987,-8103.1674196883987,17329.53681421834,26912.898592881793,0.0
370012.02908761695,3987225.878295721,-2500.0,-2859.867740058949,-5662.2309152792923,-25460.89268174825,264.80909719696552,1124.022827226886,-34.240896992776769,13432.658805972067,-18001.063292702449,7270.0554605370244,-7270.0554605370244,18001.063292702449,26131.126813883337,0.0
375012.02908761695,3987225.878295721,-2500.0,-3806.1184043102044,-7078.8785982877125,-23247.514070865313,337.5756290175259,1036.1280236259875,-32.078114982001338,12806.356481335339,-17895.361289438479,6057.7964755407684,-6057.7964755407684,17895.361289438479,24889.314544261892,0.0
380012.02908761695,3987225.878295721,-2500.0,-4742.0701032415709,-7980.441979862977,-20607.409966050946,388.31469386545228,929.41608745531084,-29.348556677358989,11991.237414502422,-17126.954520038831,4631.2180744923862,-4631.2180744923862,17126.954520038831,23297.936660358569,0.0
385012.02908761695,3987225.878295721,-2500.0,-5568.1626214449334,-8389.631456243711,-17775.803597779814,417.22716025829703,813.09238081157605,-26.279457204098495,11048.2634205219,-15853.757936280554,3145.1924682607441,-3145.1924682607441,15853.757936280554,21472.205948592884,0.0
390012.02908761695,3987225.878295721,-2500.0,-6216.2777712295037,-8373.2883827151745,-14949.240877536866,426.49215984960847,695.12534585419814,-23.079287335414875,10034.749974392415,-14246.277789380176,1725.4785890195208,-1725.4785890195208,14246.277789380176,19520.155875244553,0.0
395012.02908761695,3987225.878295721,-2500.0,-6651.7651572254881,-8021.8217086431032,-12273.983516688539,419.49481527641916,581.69670364666069,-19.919539572498127,9000.1696158927043,-12463.729659408124,460.19275428357832,-460.19275428357832,12463.729659408124,17534.774341506793,0.0
400012.02908761695,3987225.878295721,-2500.0,-6869.1908925275848,-7431.5798126240888,-9845.3009322487669,400.10979495686439,477.06662120622639,-16.927654668610966,7984.0507123236785,-10639.2886572647,-600.03559108885838,600.03559108885838,10639.2886572647,15590.125356388926,0.0
405012.02908761695,3987225.878295721,-2500.0,-6884.8482131359433,-6692.2875515358937,-7713.8029325719363,372.14739167493912,383.7325106782406,-14.187610578551853,7015.5718050875585,-8873.8158643932038,-1436.4064732511097,1436.4064732511097,8873.8158643932038,13740.668853971958,0.0
410012.02908761695,3987225.878295721,-2500.0,-6728.5713663436836,-5879.772101733648,-5895.1533297019105,338.99436605179102,302.75048184281064,-11.745084528970313,6114.3355379714512,-7235.9614828854465,-2053.8376097126388,2053.8376097126388,7235.9614828854465,12022.782613023135,0.0
285012.02908761695,3992225.878295721,-2500.0,-1507.7084929385994,-578.32600224319424,4812.8007046233897,-28.204676930040154,-160.82741438898836,2.8271673543912041,3215.8699637233094,2278.359411026513,-2621.1003735543536,2621.1003735543536,-2278.359411026513,5810.9005963814579,0.0
290012.02908761695,3992225.878295721,-2500.0,-2133.1350712326107,126.66784333715489,4566.8119400380092,-62.158238394772816,-145.32175859310996,2.1715890934429485,3355.5399071744109,2827.5626278622685,-3106.3232264561784,3106.3232264561784,-2827.5626278622685,5938.4731554869386,0.0
295012.02908761695,3992225.878295721,-2500.0,-2745.6763400653413,974.83060774890816,4055.9314472507454,-101.11915709679948,-118.82228086823707,1.2175651697803425,3541.0426589627141,3355.027908489255,-3515.8649665205635,3515.8649665205635,-3355.027908489255,6168.2992176789494,0.0
300012.02908761695,3992225.878295721,-2500.0,-3303.3446484217088,1949.1942576136191,3212.6323516057432,-143.99381849020739,-78.940791059400311,-0.085488141427483455,3800.106287860136,3804.7768602739816,-3793.8157838025381,3793.8157838025381,-3804.7768602739816,6582.1340762595537,0.0
305012.02908761695,3992225.878295721,-2500.0,-3757.8808223283759,3012.1220359825224,1972.7708753577699,-188.87380712809554,-23.543253671896707,-1.7781176921486102,4161.3643154268957,4104.2938550721119,-3877.6088114297627,3877.6088114297627,-4104.2938550721119,7262.9938968275028,0.0
310012.02908761695,3992225.878295721,-2500.0,-4060.1397181245334,4101.5341129456401,286.28069190773675,-232.94971756647197,48.85515462540571,-3.8820797878397202,4646.6841757651155,4167.7493674290527,-3704.9508708827016,3704.9508708827016,-4167.7493674290527,8267.5328152845905,0.0
315012.02908761695,3992225.878295721,-2500.0,-4168.2683406524566,5130.3032104306685,-1869.1559109262623,-272.55596522387469,138.61503236675583,-6.3903370615958544,5263.7932094122225,3903.8672884553712,-3224.2811475522353,3224.2811475522353,-3903.8672884553712,9606.1988720425925,0.0
320012.02908761695,3992225.878295721,-2500.0,-4057.8278944432459,5990.8167903902267,-4473.3038636672436,-303.40655145089602,244.49115538387838,-9.2581759446320184,6002.3763528829431,3229.0310237293679,-2407.8289092117275,2407.8289092117275,-3229.0310237293679,11241.47553944534,0.0
325012.02908761695,3992225.878295721,-2500.0,-3731.7927725723985,6566.1200278172473,-7450.8163535159165,-321.05259384126157,363.25882951130416,-12.39719665466232,6834.3092062241558,2084.7496401853273,-1264.8471757219309,1264.8471757219309,-2084.7496401853273,13097.497913504854,0.0
330012.02908761695,3992225.878295721,-2500.0,-3227.296177829322,6747.468293724236,-10665.426768180752,-321.53783291775409,489.58898063306663,-15.674906164719985,7716.7212058525974,456.51992084688851,148.80018169555132,-148.80018169555132,-456.51992084688851,15071.26382442521,0.0
335012.02908761695,3992225.878295721,-2500.0,-2615.7800289849129,6455.7011696601585,-13925.241519314821,-302.15155826106172,616.29732287618322,-18.921899984369929,8596.7365089119212,-1610.8717367224974,1728.9963852018725,-1728.9963852018725,1610.8717367224974,17042.835591182593,0.0
340012.02908761695,3992225.878295721,-2500.0,-1994.4366064519756,5661.4068308814585,-17001.375057611192,-262.10860547673218,735.02077729472262,-21.946200794154226,9471.0332471813126,-4007.3448761112645,3332.7456100795112,-3332.7456100795112,4007.3448761112645,18886.011053081475,0.0
345012.02908761695,3992225.878295721,-2500.0,-1469.5166142628004,4397.673979933893,-19658.272488271512,-202.95922728953306,837.2557563207564,-24.554696537778398,10356.604929416235,-6565.1129173405816,4798.5463584762465,-4798.5463584762465,6565.1129173405816,20480.380685093904,0.0
350012.02908761695,3992225.878295721,-2500.0,-1135.2813081414417,2760.3967702339614,-21689.663301382261,-128.57324398473676,915.56526299485427,-26.577504298914899,11052.44487512432,-9080.3960139147111,5973.7535507910843,-5973.7535507910843,9080.3960139147111,21723.818914436415,0.0
355012.02908761695,3992225.878295721,-2500.0,-1054.5643503250958,894.67796770412053,-22951.240989074788,-44.655015600886188,964.67924171216055,-27.889885192977694,11520.482519703008,-11344.949581604988,6741.8138521853598,-6741.8138521853598,11344.949581604988,22543.256494630321,0.0
360012.02908761695,3992225.878295721,-2500.0,-1246.7562603727088,-1029.5335524955908,-23381.522749422227,42.113695936805556,982.22049586900073,-28.429093942242766,11741.673098736555,-13179.422831123187,7041.7827566074029,-7041.7827566074029,13179.422831123187,22901.506630574135,0.0
365012.02908761695,3992225.878295721,-2500.0,-1686.452378243361,-2845.888294994671,-23005.977014812252,125.09077766595792,968.89210141585602,-28.199515170884585,11716.366495314172,-14459.836776510272,6875.080698763255,-6875.080698763255,14459.836776510272,22798.805570432476,0.0
370012.02908761695,3992225.878295721,-2500.0,-2312.2390314381155,-4416.6650154092631,-21924.824123359118,198.6035175325658,928.11867545779455,-27.268848221129435,11462.501021951055,-15131.114902328049,6298.8513761130116,-6298.8513761130116,15131.114902328049,22269.083666613398,0.0
375012.02908761695,3992225.878295721,-2500.0,-3041.9494248691085,-5648.8323408241622,-20289.489235157293,258.59182656719025,865.2819824585988,-25.753323640298582,11011.656639595429,-15206.106798340697,5409.4134492894846,-5409.4134492894846,15206.106798340697,21372.217927256661,0.0
380012.02908761695,3992225.878295721,-2500.0,-3789.4407466785715,-6499.148412696808,-18274.842293656988,302.87469234599746,786.77213998842092,-23.798415090805889,10403.970256310909,-14752.876659855256,4321.5016504281029,-4321.5016504281029,14752.876659855256,20184.221117282555,0.0
385012.02908761695,3992225.878295721,-2500.0,-4478.6341633629854,-6969.6634084276284,-16053.806700286614,331.06155025444588,699.07680737747785,-21.558554804627548,9682.9677406636783,-13875.487896324517,3148.8216042292588,-3148.8216042292588,13875.487896324517,18787.365858402503,0.0
390012.02908761695,3992225.878295721,-2500.0,-5052.4232663364901,-7097.046940719807,-13778.57430733048,344.21120807006952,608.06704951744382,-19.179990902798668,8891.1315442044979,-12693.760423974865,1989.6132486956731,-1989.6132486956731,12693.760423974865,17261.778512690711,0.0
395012.02908761695,3992225.878295721,-2500.0,-5476.0607077165796,-6939.5697953603503,-11569.882817026381,344.36923129136784,518.55115790547393,-16.788085589660657,8066.6578591740035,-11326.073184422305,918.58520909327672,-918.58520909327672,11326.073184422305,15679.333688476478,0.0
400012.02908761695,3992225.878295721,-2500.0,-5736.0608494157268,-6564.8255417375422,-9513.6481544903745,334.09971900901007,434.09094504336412,-14.480920889487129,7241.5233389027853,-9877.3109516093791,-15.299741384259505,15.299741384259505,9877.3109516093791,14100.049160259212,0.0
290012.02908761695,3997225.878295721,-2500.0,-2112.9987987040927,550.98038116421935,3587.7806189892594,-70.654443389803362,-105.15954526342369,1.2405287864655743,2905.6971545189954,2661.9103043022042,-2830.4230540667668,2830.4230540667668,-2661.9103043022042,5086.7447098457487,0.0
295012.02908761695,3997225.878295721,-2500.0,-2582.5209828394995,1290.9718903437629,3015.1594965517529,-102.67971192447857,-78.633096702061451,0.37912317165866005,3084.9191954468924,3045.7707224460983,-3097.8398507519896,3097.8398507519896,-3045.7707224460983,5347.6307211456624,0.0
300012.02908761695,3997225.878295721,-2500.0,-2991.1712089136427,2111.4564213409308,2161.2434913746342,-136.86450936264791,-41.359188166159079,-0.74879265548472329,3333.93156740419,3339.6743318440917,-3239.2684390253257,3239.2684390253257,-3339.6743318440917,5789.4886769539435,0.0
305012.02908761695,3997225.878295721,-2500.0,-3303.7642148638342,2976.2027909944677,984.75613177518824,-171.55521451588129,7.9474664694189894,-2.1656645877651881,3671.7296855988238,3486.2347299693183,-3209.5682534802909,3209.5682534802909,-3486.2347299693183,6464.8912916112959,0.0
310012.02908761695,3997225.878295721,-2500.0,-3487.104267274844,3831.9721458704653,-541.38246697495276,-204.50575962607812,69.991233166986191,-3.8786868768875311,4109.6278984451401,3421.4957011208385,-2967.1665749461777,2967.1665749461777,-3421.4957011208385,7398.7647318091485,0.0
315012.02908761695,3997225.878295721,-2500.0,-3515.8729650056202,4609.5978323187474,-2420.7648828711149,-232.95711033556705,144.58826887234667,-5.8738051922358032,4647.4479314065338,3081.5839230358483,-2481.637619399266,2481.637619399266,-3081.5839230358483,8581.7380664208795,0.0
320012.02908761695,3997225.878295721,-2500.0,-3379.2147431311982,5228.6396120130976,-4624.3509458153594,-253.84121559111009,230.3819497749129,-8.1103323536225904,5272.3749752749791,2412.4043717572281,-1742.2956218094528,1742.2956218094528,-2412.4043717572281,9974.0033812891816,0.0
325012.02908761695,3997225.878295721,-2500.0,-3086.5642379990577,5606.1044269599561,-7083.7279171103964,-264.11632286361385,324.6539019179682,-10.5184977394757,5960.0731498322284,1381.3962906188081,-766.05733682774007,766.05733682774007,-1381.3962906188081,11512.841807480365,0.0
330012.02908761695,3997225.878295721,-2500.0,-2670.8171475703944,5668.6680952841107,-9689.4272562491569,-261.20571151821241,423.31095090630953,-13.000062172585642,6677.1258898209426,-10.795445513756221,397.78816663239763,-397.78816663239763,10.795445513756221,13119.554758367722,0.0
335012.02908761695,3997225.878295721,-2500.0,-2187.0671471557475,5366.4601390933931,-12296.534124289239,-243.46988495891404,521.11007988152915,-15.433946568693734,7384.6356220396146,-1721.8035880188506,1668.2491219487122,-1668.2491219487122,1721.8035880188506,14705.799897372763,0.0
340012.02908761695,3997225.878295721,-2500.0,-1706.0282736387774,4685.2728604521872,-14738.383471170482,-210.60902020637081,612.13717669995344,-17.686792655458177,8141.2886577427762,-3665.3753124994009,2940.1339107327349,-2940.1339107327349,3665.3753124994009,16180.494257101125,0.0
345012.02908761695,3997225.878295721,-2500.0,-1302.8246383539638,3653.6644891960991,-16846.870571959254,-163.88470751123091,690.48734312563658,-19.626394266291594,8850.1906246783419,-5717.6768801521703,4097.9409943870669,-4097.9409943870669,5717.6768801521703,17457.626977101929,0.0
350012.02908761695,3997225.878295721,-2500.0,-1043.5347855258465,2342.2980257178415,-18475.588820780715,-106.08015887675667,751.02758423225043,-21.137654732019566,9412.4859851008259,-7731.9809744000131,5033.5340137329831,-5033.5340137329831,7731.9809744000131,18464.26961002218,0.0
355012.02908761695,3997225.878295721,-2500.0,-972.93851101522409,854.90394312322564,-19520.608941226201,-41.181009662254311,790.08221151965927,-22.135972345491815,9800.8925176615921,-9559.0314551199444,5663.4413862977181,-5663.4413862977181,9559.0314551199444,19147.470735639479,0.0
360012.02908761695,3997225.878295721,-2500.0,-1106.7595634303411,-687.25623761104112,-19934.029557490554,26.163828819591838,805.89101158706228,-22.577767131467958,10000.814571612143,-11068.461155519302,5941.4544174185921,-5941.4544174185921,11068.461155519302,19478.73525186173,0.0
365012.02908761695,3997225.878295721,-2500.0,-1430.3054141734606,-2163.6173532690336,-19727.403894543288,91.281283657472727,798.745066589884,-22.463587292381952,10010.9871249671,-12166.240650358273,5863.5785493456588,-5863.5785493456588,12166.240650358273,19455.28077354933,0.0
370012.02908761695,3997225.878295721,-2500.0,-1903.3729724649845,-3470.8955070067145,-18965.040039749994,150.07200457423005,770.79210819312254,-21.835967409234101,9842.5103209867939,-12804.503351080872,5464.7646132926011,-5464.7646132926011,12804.503351080872,19098.01287241207,0.0
375012.02908761695,3997225.878295721,-2500.0,-2469.5039454026514,-4534.6072908548258,-17749.772225865639,199.44886977044931,725.58388601516708,-20.770573073980593,9516.4807918417227,-12982.486811644059,4809.1619111761984,-4809.1619111761984,12982.486811644059,18446.868082601384,0.0
380012.02908761695,3997225.878295721,-2500.0,-3066.7914593167652,-5313.9732770687988,-16205.224176940146,237.55433770916503,667.4879444067833,-19.364607781874515,9060.7813924510574,-12739.793029065942,3977.0446357092596,-3977.0446357092596,12739.793029065942,17554.614492144916,0.0
385012.02908761695,3997225.878295721,-2500.0,-3637.6062771290467,-5800.5818714034167,-14458.582295027536,263.75667310884381,601.09403846181522,-17.723561823897448,8506.6617557286536,-12144.778222249592,3051.736991073175,-3051.736991073175,12144.778222249592,16480.310431543297,0.0
390012.02908761695,3997225.878295721,-2500.0,-4135.5158018202237,-6012.5477710323648,-12626.794880527706,278.47478520454194,530.71771280840176,-15.95043736413888,7885.6394923700436,-11281.325557059932,2109.0418109170214,-2109.0418109170214,11281.325557059932,15283.417123273972,0.0
395012.02908761695,3997225.878295721,-2500.0,-4528.7931931378007,-5986.399149470516,-10807.579242823957,282.90408609839221,460.05625381167914,-14.136649507251645,7227.0620092053341,-10236.71032043105,1210.4195634755506,-1210.4195634755506,10236.71032043105,14019.194850493473,0.0
295012.02908761695,4002225.878295721,-2500.0,-2387.3996764023809,1477.6811156448605,2168.3636810844559,-100.01939554008922,-48.347510832506288,-0.17835966753012494,2717.4621815652754,2726.1368354733963,-2701.1363972251461,2701.1363972251461,-2726.1368354733963,4708.0610134072094,0.0
300012.02908761695,4002225.878295721,-2500.0,-2683.9132885612366,2162.3929049687013,1336.5537368849773,-127.13332618355314,-14.351937316663676,-1.1419975837375109,2955.0428668762738,2901.9022674706357,-2746.7897422974784,2746.7897422974784,-2901.9022674706357,5162.5922944558815,0.0
305012.02908761695,4002225.878295721,-2500.0,-2894.8677193000763,2862.0660786316084,244.58419030825124,-153.86783444294704,28.927397923159297,-2.3192216116324555,3267.365986479866,2940.1974954888269,-2645.3037438834713,2645.3037438834713,-2940.1974954888269,5812.8978340722433,0.0
310012.02908761695,4002225.878295721,-2500.0,-2998.3170350290638,3532.4083459097865,-1119.9250103208481,-178.45979741880529,81.730361769578721,-3.7093662256376874,3658.9397308813031,2793.982708320882,-2369.6336401240515,2369.6336401240515,-2793.982708320882,6664.8551332404722,0.0
315012.02908761695,4002225.878295721,-2500.0,-2979.6449262962883,4119.2640361361227,-2750.2366042010726,-198.84858547201742,143.61271872205029,-5.296110112962312,4125.581328178122,2419.0339698717803,-1902.9584063381631,1902.9584063381631,-2419.0339698717803,7700.8144636988563,0.0
320012.02908761695,4002225.878295721,-2500.0,-2835.7754236165124,4562.7333130867955,-4614.9680107938648,-212.84004964599416,213.28174934793859,-7.0446250916012696,4654.4618528793471,1780.9402288035774,-1244.2447172708946,1244.2447172708946,-1780.9402288035774,8884.1475051755406,0.0
325012.02908761695,4002225.878295721,-2500.0,-2578.4940279494094,4803.7628367980078,-6654.6785714549624,-218.34710971961431,288.50841793993101,-8.9006026507410319,5225.2936366369195,862.94726635685402,-412.83487707935137,412.83487707935137,-862.94726635685402,10164.318850104417,0.0
330012.02908761695,4002225.878295721,-2500.0,-2235.748891129268,4792.6051114999327,-8782.1107687022177,-213.68277318972659,366.16063408929318,-10.791370089191549,5812.1686310846135,-326.83275613635317,549.37548921122334,-549.37548921122334,326.83275613635317,11481.161089994303,0.0
335012.02908761695,4002225.878295721,-2500.0,-1849.9971282736103,4497.7724397123093,-10887.213216092092,-197.85822601976969,442.38841162899274,-12.630297484966702,6391.5000120860241,-1750.7356471428438,1579.4428815461547,-1579.4428815461547,1750.7356471428438,12768.958825314756,0.0
340012.02908761695,4002225.878295721,-2500.0,-1473.2723162955413,3913.5285244610591,-12847.117433560068,-170.82361859662788,512.96072603455593,-14.323880571237648,7045.6209111626731,-3341.1756704054196,2599.1608904107225,-2599.1608904107225,3341.1756704054196,13961.045147563696,0.0
345012.02908761695,4002225.878295721,-2500.0,-1159.5691409783251,3063.8786415372533,-14539.924474231893,-133.58841758620201,573.71632256853809,-15.781021978284519,7619.0453708456407,-5005.6300046900451,3524.621015403718,-3524.621015403718,5005.6300046900451,14994.98240765741,0.0
350012.02908761695,4002225.878295721,-2500.0,-956.0568028455956,2001.6218559926454,-15859.903982833603,-88.178212506421389,621.05400154950894,-16.922553036603357,8077.978320434775,-6636.7145803648491,4277.8640029385933,-4277.8640029385933,6636.7145803648491,15817.814887569453,0.0
355012.02908761695,4002225.878295721,-2500.0,-895.17126829846347,802.2292205133956,-16731.014550071523,-37.422027364537932,652.36877924523208,-17.690466061438404,8402.3876952357405,-8125.6304881648193,4798.125524869658,-4798.125524869658,8125.6304881648193,16390.583422614829,0.0
360012.02908761695,4002225.878295721,-2500.0,-989.50324547257981,-446.30348705191574,-17115.884956127662,15.393876960455145,666.34660906308545,-18.053737255163725,8581.0158999236119,-9376.2281505632945,5050.1410859865737,-5050.1410859865737,9376.2281505632945,16691.32084465295,0.0
365012.02908761695,4002225.878295721,-2500.0,-1230.6271664446353,-1655.3912919152326,-17018.513661208421,66.935650671568808,663.06258223353257,-18.011024182501668,8611.9291362749027,-10316.712909926659,5027.7451482164761,-5027.7451482164761,10316.712909926659,16716.034278251707,0.0
370012.02908761695,4002225.878295721,-2500.0,-1591.8784805844045,-2747.0158223917397,-16480.55723735741,114.21253727276299,643.87486505607615,-17.588906164878289,8502.0020571237474,-10906.746923761804,4752.3199985084284,-4752.3199985084284,10906.746923761804,16477.60238481783,0.0
375012.02908761695,4002225.878295721,-2500.0,-2034.0609670313704,-3661.9646213979427,-15572.594325847493,154.87757515837981,611.15264083019986,-16.837148029969097,8265.4733061696206,-11139.012060194424,4266.9731028937058,-4266.9731028937058,11139.012060194424,16002.929979088998,0.0
380012.02908761695,4002225.878295721,-2500.0,-2512.469189293407,-4364.0231721387236,-14382.668971289673,187.3963408315814,567.90689944026678,-15.820912080411098,7921.8918144405752,-11035.718901946053,3628.2196502911943,-3628.2196502911943,11035.718901946053,15328.979449603545,0.0
385012.02908761695,4002225.878295721,-2500.0,-2983.6044229369518,-4840.1096887289868,-13004.580936348026,211.07726729088179,517.4014423132295,-14.612995527171838,7493.8378180604223,-10641.58460920049,2897.1794101347091,-2897.1794101347091,10641.58460920049,14498.407937893402,0.0
390012.02908761695,4002225.878295721,-2500.0,-3410.3799990038201,-5097.2032500229207,-11527.881670656558,225.98655936492304,462.80913109567712,-13.286171207405845,7004.7582422335627,-10015.204498383373,2131.9541626317978,-2131.9541626317978,10015.204498383373,13555.449983555929,0.0
305012.02908761695,4007225.878295721,-2500.0,-2533.7181278084581,2703.879199109464,-302.90092860789798,-136.88464502931291,42.374132464955338,-2.3260490148585951,2927.6358069026514,2466.0248793381616,-2173.5334815903179,2173.5334815903179,-2466.0248793381616,5266.1091267753436,0.0
310012.02908761695,4007225.878295721,-2500.0,-2584.0984038824799,3228.0138954445656,-1513.4965257315564,-155.21555324763088,87.135971630598206,-3.4528464983030283,3275.4356333800015,2271.0089539284963,-1887.7336716249656,1887.7336716249656,-2271.0089539284963,6033.1045621541462,0.0
315012.02908761695,4007225.878295721,-2500.0,-2538.3790786360019,3670.1645277866505,-2924.0886626241336,-169.77889717297563,138.47157429122629,-4.7166993227821701,3679.3233547449327,1887.097924630008,-1452.1785306310276,1452.1785306310276,-1887.097924630008,6935.4016129799475,0.0
320012.02908761695,4007225.878295721,-2500.0,-2397.7535812691353,3985.7703543304015,-4504.2920876886637,-179.0038258208651,195.22662607267179,-6.0887291562783892,4127.5698241794771,1292.9101574575106,-870.99801935589812,870.99801935589812,-1292.9101574575106,7941.3640337930628,0.0
325012.02908761695,4007225.878295721,-2500.0,-2174.2511684931928,4132.655180563901,-6203.7160599122026,-181.45210912772592,255.60167545114228,-7.5270312378805899,4603.5930832301701,481.19337997429068,-163.29979589288288,163.29979589288288,-481.19337997429068,9010.7329011645725,0.0
330012.02908761695,4007225.878295721,-2500.0,-1891.090223934428,4076.8767652809174,-7953.007019156059,-176.0140521516993,317.20055262293573,-8.9778689690844775,5087.3915394381838,-536.7299274988477,636.01746677242022,-636.01746677242022,536.7299274988477,10097.324127373613,0.0
335012.02908761695,4007225.878295721,-2500.0,-1581.0658103905171,3798.5912284971218,-9668.032221849433,-162.0982124634715,377.17562486676132,-10.378889414575056,5596.9360625063073,-1728.4407125999455,1477.935983972744,-1477.935983972744,1728.4407125999455,11151.756513111197,0.0
340012.02908761695,4007225.878295721,-2500.0,-1282.8922735737879,3296.7069433098241,-11257.136564772976,-139.77706068445946,432.46502478543908,-11.664157426385845,6135.3052538691836,-3040.8374314344801,2303.7003237266908,-2303.7003237266908,3040.8374314344801,12124.587859691099,0.0
345012.02908761695,4007225.878295721,-2500.0,-1035.9649403311266,2591.1319784280126,-12630.623057314522,-109.85186829825848,480.09493820577018,-12.769906982431953,6603.722450732751,-4403.9842707786693,3051.4695894185961,-3051.4695894185961,4403.9842707786693,12969.818505343357,0.0
350012.02908761695,4007225.878295721,-2500.0,-874.51204385622509,1721.8246562452318,-13710.930079486168,-73.814135781714526,517.50019486013014,-13.641331163619158,6981.7356611640407,-5738.1197251886078,3664.1415975142554,-3664.1415975142554,5738.1197251886078,13648.407529367549,0.0
355012.02908761695,4007225.878295721,-2500.0,-822.38026738856058,744.5731750163468,-14441.611583343363,-33.701683771960106,542.80706316000317,-14.237934800880184,7254.4037246972193,-6962.7131754452366,4096.8181259758949,-4096.8181259758949,6962.7131754452366,14131.288922235968,0.0
360012.02908761695,4007225.878295721,-2500.0,-889.60249458550993,-275.77566438368353,-14793.402194875827,8.1278290077181907,555.02657999442954,-14.537260919784355,7412.9821392530384,-8005.8908567371273,4322.3859361292052,-4322.3859361292052,8005.8908567371273,14401.410880606531,0.0
365012.02908761695,4007225.878295721,-2500.0,-1071.4514279038142,-1273.28872030754,-14766.292428480103,49.264318204352428,554.12547085415667,-14.537109641055327,7455.3532965700015,-8812.4212479405869,4334.1316029914597,-4334.1316029914597,8812.4212479405869,14454.488921242921,0.0
370012.02908761695,4007225.878295721,-2500.0,-1350.0298265447186,-2188.5623631334597,-14387.466542444645,87.504774121019111,540.96829473113416,-14.254354051279808,7385.7549616842753,-9348.8553616755416,4145.0636738677067,-4145.0636738677067,9348.8553616755416,14298.407863096592,0.0
375012.02908761695,4007225.878295721,-2500.0,-1697.8425508393154,-2974.6281205322548,-13705.856268965435,121.06070572144674,517.1517361889936,-13.721635078178956,7213.8860700162404,-9605.1505719760062,3784.3909723253246,-3784.3909723253246,9605.1505719760062,13951.456769010698,0.0
380012.02908761695,4007225.878295721,-2500.0,-2082.4095036812487,-3600.3505126828791,-12784.658414116881,148.68615466524417,484.76994561723143,-12.983315308273761,6953.5767925488244,-9592.9461458243386,3292.1727555828434,-3292.1727555828434,9592.9461458243386,13439.757085624826,0.0
320012.02908761695,4012225.878295721,-2500.0,-2042.2386922899823,3488.0832746234246,-4332.1741034416073,-151.0826112643891,177.40335653889505,-5.2490999047361209,3675.4751318684025,915.8074686410464,-590.97052363175749,590.97052363175749,-915.8074686410464,7121.8518587245599,0.0
325012.02908761695,4012225.878295721,-2500.0,-1849.3778618531023,3570.092339247848,-5754.9476999896042,-151.59562701905725,226.1482982976263,-6.3705120345592343,4074.3869813107299,200.79154668233571,12.024723923761215,-12.024723923761215,-200.79154668233571,8019.1768007753235,0.0
330012.02908761695,4012225.878295721,-2500.0,-1614.7022454065927,3488.5199306467803,-7203.2010117512191,-145.95849907575069,275.38798526874609,-7.492031110084671,4476.3648705917412,-671.94077506550354,679.39673071005507,-679.39673071005507,671.94077506550354,8921.7193764114108,0.0
335012.02908761695,4012225.878295721,-2500.0,-1363.6479916254232,3230.953183322702,-8612.1538378686109,-133.8234239828511,322.99973539632674,-8.5685171458127503,4930.1041023578928,-1674.9757783590769,1372.8262439666271,-1372.8262439666271,1674.9757783590769,9792.0001485985777,0.0
340012.02908761695,4012225.878295721,-2500.0,-1125.328430711392,2798.7576115378374,-9912.6654892126026,-115.31635384743996,366.74292225313496,-9.552961807018967,5373.2679895999663,-2766.4149235479349,2047.7209197800373,-2047.7209197800373,2766.4149235479349,10592.897139379429,0.0
345012.02908761695,4012225.878295721,-2500.0,-928.88691035013562,2208.3376714922415,-11037.841454821404,-91.071570726838431,404.46406070813214,-10.400437194411499,5759.3839378706643,-3892.8149310995418,2657.8957128423394,-2657.8957128423394,3892.8149310995418,11290.059292430318,0.0
350012.02908761695,4012225.878295721,-2500.0,-799.53413421953906,1490.291298131355,-11929.96541829739,-62.199602981156509,434.3099127436746,-11.072347505004728,6073.3760784383903,-4994.1270506282617,3160.9175850135684,-3160.9175850135684,4994.1270506282617,11854.302106343021,0.0
355012.02908761695,4012225.878295721,-2500.0,-755.04302465017588,686.45377873478537,-12546.579180329925,-30.188658464490654,454.91420825287281,-11.540001826847609,6303.9503586898491,-6009.9088844467078,3523.1563623171273,-3523.1563623171273,6009.9088844467078,12263.661593425399,0.0
360012.02908761695,4012225.878295721,-2500.0,-803.40382981490018,-154.70960606949669,-12864.64886009146,3.2462825489706582,465.52661922663259,-11.787165577902156,6444.2643243691764,-6885.7601761129827,3723.6021469532084,-3723.6021469532084,6885.7601761129827,12504.805199689781,0.0
365012.02908761695,4012225.878295721,-2500.0,-942.08175005765077,-983.526886816461,-12882.141860165517,36.341125798198064,466.0640445133734,-11.811270347189502,6492.2556742956904,-7578.8561258730442,3755.7712883748809,-3755.7712883748809,7578.8561258730442,12573.603642914846,0.0
335012.02908761695,3797225.878295721,-7500.0,-727.37509006969299,-1367.8915968736239,-13541.072548184467,-155.78946660122421,-1463.4417424321687,-113.16546482450362,6943.905054413719,-8250.1820309942814,4157.8393693029066,-4157.8393693029066,8250.1820309942814,13584.902313310069,0.0
340012.02908761695,3797225.878295721,-7500.0,-540.3504009139134,-451.02752624050066,-13640.237330113048,-51.52187363286459,-1472.5918055245784,-113.61727220182173,6929.5392636390898,-7554.5598317240347,4189.8210887288078,-4189.8210887288078,7554.5598317240347,13583.192383669468,0.0
345012.02908761695,3797225.878295721,-7500.0,-460.9537775616468,498.90323295453004,-13408.932419862505,55.770259271633584,-1449.38239944116,-111.88898532948228,6814.2769929383321,-6641.1371044164171,4028.4286529219667,-4028.4286529219667,6641.1371044164171,13392.156395356986,0.0
350012.02908761695,3797225.878295721,-7500.0,-496.08415866096925,1424.8410446053319,-12841.385830871124,160.34172660202816,-1393.3713108701734,-107.9639129790075,6598.6545373995405,-5554.0644543845647,3675.2956258001304,-3675.2956258001304,5554.0644543845647,13013.095998490635,0.0
355012.02908761695,3797225.878295721,-7500.0,-639.84268133900991,2269.0631707322827,-11956.144441225024,256.41864179050924,-1306.344127778141,-101.96276114117313,6288.662684840272,-4352.6773124561159,3149.5958943243586,-3149.5958943243586,4352.6773124561159,12457.833332298542,0.0
360012.02908761695,3797225.878295721,-7500.0,-873.82311742108152,2979.8008961411215,-10795.229271785345,338.80976153509062,-1192.2273400497072,-94.137633365604103,5895.7454669786603,-3105.4249059885519,2486.5518006011075,-2486.5518006011075,3105.4249059885519,11748.362451441089,0.0
365012.02908761695,3797225.878295721,-7500.0,-1169.4811382666699,3517.1922669105998,-9420.050525992905,403.45412636142152,-1056.7228972629,-84.849377185794452,5481.5508835517167,-1882.3613340593222,1733.4448284117427,-1733.4448284117427,1882.3613340593222,10915.465668126146,0.0
370012.02908761695,3797225.878295721,-7500.0,-1492.1528776430193,3857.4718204734568,-7904.7356915006512,447.81144616112198,-906.72149146957327,-74.533126103240619,5069.1723646221835,-747.53028376027692,943.82629160442912,-943.82629160442912,747.53028376027692,9996.4879612944387,0.0
375012.02908761695,3797225.878295721,-7500.0,-1805.8952061307564,3994.6703080568809,-6328.0729974356218,471.03238229766833,-749.59423425488887,-63.656687056962198,4636.1328853708928,247.3939921802023,171.04305787075441,-171.04305787075441,-247.3939921802023,9032.5888340743186,0.0
380012.02908761695,3797225.878295721,-7500.0,-2078.1728828157425,3939.6956797447433,-4765.498716449476,473.89641499246386,-592.48205684233108,-52.678554565352506,4201.3897244874561,1067.2119803992309,-537.71421990757062,537.71421990757062,-1067.2119803992309,8065.8511758240566,0.0
385012.02908761695,3797225.878295721,-7500.0,-2283.5306538184195,3717.2182625281903,-3282.4282767058871,458.54995587449764,-441.69167638978865,-42.011488246562863,3782.8681587602814,1694.6020147035601,-1145.8417049270947,1145.8417049270947,-1694.6020147035601,7136.5584442135269,0.0
320012.02908761695,3802225.878295721,-7500.0,-2079.4520390266816,-4178.8669558996098,-12978.949882620404,-504.40072444365154,-1481.7116806984136,-121.6622735888964,7307.1312115993042,-10140.484546675294,3401.8193924596671,-3401.8193924596671,10140.484546675294,14272.679328938128,0.0
325012.02908761695,3802225.878295721,-7500.0,-1616.9353079733135,-3552.6771918541576,-14077.612086118672,-424.37409909611063,-1594.2122095319066,-129.44575453199832,7625.5440237641078,-10257.820178426515,4010.7696167457716,-4010.7696167457716,10257.820178426515,14901.193945482453,0.0
330012.02908761695,3802225.878295721,-7500.0,-1187.8923631310017,-2732.9853442235312,-14941.509676898886,-323.93487097180883,-1681.732247779137,-135.375409059807,7853.6678619403529,-10082.776561551087,4488.2714192781896,-4488.2714192781896,10082.776561551087,15360.755016974528,0.0
335012.02908761695,3802225.878295721,-7500.0,-832.6197332848825,-1748.6175192276855,-15494.225038336361,-206.47395205247278,-1736.9509320643822,-138.98232074319901,7974.6557707973679,-9593.698226705792,4783.8036245446183,-4783.8036245446183,9593.698226705792,15619.395658416837,0.0
340012.02908761695,3802225.878295721,-7500.0,-587.27078331970665,-648.01185980253808,-15672.320865107395,-77.289102895269721,-1753.9021680319581,-139.89524000974836,7975.7282484297557,-8792.9226960899432,4857.1402670425514,-4857.1402670425514,8792.9226960899432,15652.915405626105,0.0
345012.02908761695,3802225.878295721,-7500.0,-477.95329354150459,503.72375699073615,-15434.726392727442,56.745803404631587,-1728.8202182325119,-137.89073616005817,7849.8433722508416,-7710.0718599537877,4685.3446613183614,-4685.3446613183614,7710.0718599537877,15448.115540846395,0.0
350012.02908761695,3802225.878295721,-7500.0,-515.71371857271424,1631.0159063457704,-14770.284663294351,187.80485738709282,-1660.7994721038867,-132.93003408958168,7596.9366420300867,-6401.4958508966292,4268.0116541916732,-4268.0116541916732,6401.4958508966292,15005.230710236023,0.0
355012.02908761695,3802225.878295721,-7500.0,-693.68695577005747,2656.541211216188,-13701.679048053922,307.95073222168986,-1552.1191369107814,-125.17561659409175,7224.5021222113155,-4945.3854719374567,3629.3432289554321,-3629.3432289554321,4945.3854719374567,14339.093780523839,0.0
360012.02908761695,3802225.878295721,-7500.0,-987.30797142783831,3510.9513095092602,-12284.527506112208,410.05366470006925,-1408.1377567425029,-114.98188919219209,6748.1074647523101,-3433.0574696426238,2816.2256059516831,-2816.2256059516831,3433.0574696426238,13478.735341580748,0.0
365012.02908761695,3802225.878295721,-7500.0,-1357.7556046057232,4141.664619235944,-10601.476631210548,488.6166368846367,-1236.7496547185642,-102.86120543864803,6278.9059430605294,-1957.9400282956753,1892.4207586609546,-1892.4207586609546,1957.9400282956753,12465.395194219045,0.0
370012.02908761695,3802225.878295721,-7500.0,-1757.9460443431622,4518.9310655096133,-8752.3193615676628,540.35167705141419,-1047.4945274515778,-89.430518979832812,5777.8559968029977,-604.40727409102067,929.98305571719527,-929.98305571719527,604.40727409102067,11349.242737440238,0.0
375012.02908761695,3802225.878295721,-7500.0,-2139.7248424639151,4638.0203239417215,-6842.0933547525819,564.40699088669942,-850.4872137101022,-75.347598264829941,5254.3826509288619,561.34741515281416,-0.28625254002946576,0.28625254002946576,-561.34741515281416,10185.319553866044,0.0
380012.02908761695,3802225.878295721,-7500.0,-2460.672129605297,4517.3930760755175,-4969.4734593445628,562.23020220791625,-655.36274822624614,-61.247696575908542,4733.7478364850022,1496.8404551286228,-837.39669455164926,837.39669455164926,-1496.8404551286228,9029.30401180236,0.0
385012.02908761695,3802225.878295721,-7500.0,-2689.1721650252011,4193.6444762970377,-3217.4901931829777,537.13107245355548,-470.41102010036002,-47.690279498906278,4239.0837889993018,2184.6364177601722,-1536.1956346810673,1536.1956346810673,-2184.6364177601722,7933.5641374370161,0.0
390012.02908761695,3802225.878295721,-7500.0,-2807.0086440282312,3714.6347301353276,-1647.7984379954676,493.66264770702907,-302.01160522420093,-35.122249822036608,3789.5122193546804,2629.9411855870144,-2070.1316259413265,2070.1316259413265,-2629.9411855870144,6943.644466654755,0.0
395012.02908761695,3802225.878295721,-7500.0,-2809.4407797001404,3132.3470991307295,-298.76875248913291,436.95445197121347,-154.40158626953351,-23.85974573514488,3398.6253208395556,2855.5992371728921,-2430.8637264366348,2430.8637264366348,-2855.5992371728921,6094.9452434470668,0.0
310012.02908761695,3807225.878295721,-7500.0,-3582.083322214306,-5657.9649559204909,-11306.730479648622,-731.66003297648228,-1381.6870546167265,-122.19312663596368,7256.8080044028902,-10297.15241162384,1966.6032139261233,-1966.6032139261233,10297.15241162384,14203.460977034827,0.0
315012.02908761695,3807225.878295721,-7500.0,-3094.5984865168284,-5472.3937907239497,-12942.33987171726,-695.92574332648178,-1559.2770985781683,-135.33696395821266,7811.2311041845687,-11074.647310572886,2838.0346104959954,-2838.0346104959954,11074.647310572886,15279.579046799805,0.0
320012.02908761695,3807225.878295721,-7500.0,-2543.8550260262355,-5043.8967082525396,-14512.328976739589,-632.28341883657572,-1727.6217891398085,-147.5700698617967,8309.6491491340694,-11620.872306240501,3697.5793485477043,-3697.5793485477043,11620.872306240501,16252.460874928636,0.0
325012.02908761695,3807225.878295721,-7500.0,-1971.1070488971925,-4355.6762123055832,-15918.972848080301,-539.61072196529028,-1876.6060012353191,-158.18417273966173,8725.9065998526276,-11864.242741115031,4480.0829417476707,-4480.0829417476707,11864.242741115031,17072.500986456635,0.0
330012.02908761695,3807225.878295721,-7500.0,-1427.2528441296731,-3412.7051819024209,-17055.334604515829,-419.1467930554536,-1995.4216186795702,-166.44646627130012,9033.917992585315,-11745.356200241717,5113.5460663373015,-5113.5460663373015,11745.356200241717,17690.178116004627,0.0
335012.02908761695,3807225.878295721,-7500.0,-967.22417372240409,-2246.6392468588647,-17815.967556702184,-274.90138484962989,-2073.6408502811773,-171.67192011696704,9210.0541128199966,-11227.570465520648,5527.5251212116254,-5527.5251212116254,11227.570465520648,18060.618702057021,0.0
340012.02908761695,3807225.878295721,-7500.0,-642.09875569411122,-917.32008961583119,-18110.407188175504,-113.70998648243567,-2102.5114983958574,-173.30543431652416,9235.798592301353,-10306.491451103284,5663.6127592444018,-5663.6127592444018,10306.491451103284,18148.704502678855,0.0
345012.02908761695,3807225.878295721,-7500.0,-490.21755493354038,490.49507746685163,-17877.35363321839,55.174452169223414,-2076.2706631496449,-171.0011951521405,9100.2911192215124,-9015.9332932206325,5486.1569916308281,-5486.1569916308281,9015.9332932206325,17933.996958252857,0.0
350012.02908761695,3807225.878295721,-7500.0,-529.27562968210009,1875.5920296326753,-17096.609737604609,220.96859593026124,-1993.2118066060114,-164.68268022699908,8802.3001528962068,-7428.1791699349187,4990.7401204427379,-4990.7401204427379,7428.1791699349187,17414.606465072611,0.0
355012.02908761695,3807225.878295721,-7500.0,-751.5428092271203,3132.9714842373319,-15795.744051924466,372.61560294189354,-1856.2457082496508,-154.57054727309455,8351.2151027280051,-5647.4673598105501,4207.9791796347918,-4207.9791796347918,5647.4673598105501,16609.194449805476,0.0
360012.02908761695,3807225.878295721,-7500.0,-1123.8205377816164,4168.3963118091278,-14049.28973824308,500.18996807849976,-1672.7803434721425,-141.16935224961478,7790.3509007363073,-3797.298267944785,3201.0976768816454,-3201.0976768816454,3797.298267944785,15556.552340407168,0.0
365012.02908761695,3807225.878295721,-7500.0,-1592.5234686603785,4911.6253942066505,-11970.07340160286,596.1625713338326,-1453.8984865183322,-125.2150123691454,7233.4715268567479,-2003.9855846148803,2057.3307153026517,-2057.3307153026517,2003.9855846148803,14312.703706481725,0.0
370012.02908761695,3807225.878295721,-7500.0,-2092.7943525190844,5325.3466032709794,-9694.2960687443556,656.26442784032997,-1212.9832349696696,-107.59133326453116,6619.3708140066628,-379.97997983467155,874.95250848621993,-874.95250848621993,379.97997983467155,12945.978790534133,0.0
375012.02908761695,3807225.878295721,-7500.0,-2559.3855305569709,5407.9440793525055,-7363.6329586343336,679.78523716492805,-964.07333364315457,-89.230749612118046,5982.1460308467422,989.42344980546909,-251.04779589458389,251.04779589458389,-989.42344980546909,11530.910906145227,0.0
380012.02908761695,3807225.878295721,-7500.0,-2936.6735738815664,5189.9928554110375,-5108.1857992661853,669.29355082492168,-720.27725063391335,-71.019090270088711,5355.4698517698971,2053.5161996540787,-1241.424977239697,1241.424977239697,-2053.5161996540787,10141.921994959854,0.0
385012.02908761695,3807225.878295721,-7500.0,-3185.6665583154204,4725.9675052827351,-3033.4971442517217,629.90064082435219,-492.52655937719925,-53.717038837886136,4769.2770301868113,2797.0105016910575,-2040.8635319029572,2040.8635319029572,-2797.0105016910575,8847.4886080655469,0.0
390012.02908761695,3807225.878295721,-7500.0,-3286.9814566037921,4083.6102009307283,-1213.3829733140392,568.27713390164399,-288.83136224765252,-37.909410922909487,4247.1068441058196,3235.2713007260286,-2620.9286308236783,2620.9286308236783,-3235.2713007260286,7704.9148698437803,0.0
395012.02908761695,3807225.878295721,-7500.0,-3239.9733637472082,3333.4632383852063,311.33365117076289,491.64453361386524,-114.06400082063203,-23.984983302857032,3804.0271121201886,3406.0405394470499,-2978.2667498427136,2978.2667498427136,-3406.0405394470499,6755.2577299563818,0.0
400012.02908761695,3807225.878295721,-7500.0,-3059.0732743865351,2540.4343259304746,1529.39256348558,406.91827816933073,29.81584593510604,-12.142610849100178,3445.4089672391774,3360.011104406663,-3129.5120260200333,3129.5120260200333,-3360.011104406663,6018.131109916636,0.0
405012.02908761695,3807225.878295721,-7500.0,-2768.7444239863275,1758.3142956392596,2452.8079724953504,320.10236190801004,143.24362054311126,-2.4171692569068752,3167.0610153347729,3152.1904014950478,-3104.6795830990177,3104.6795830990177,-3152.1904014950478,5487.8605540412336,0.0
305012.02908761695,3812225.878295721,-7500.0,-4803.0439674887921,-6489.4328286132823,-10300.228592248824,-896.0556730311464,-1348.9485467912057,-128.20164891919768,7414.4952689316642,-10298.539778016595,860.65673048809822,-860.65673048809822,10298.539778016595,14559.450881933742,0.0
310012.02908761695,3812225.878295721,-7500.0,-4372.1278243436418,-6630.1680809669815,-12248.071938565878,-895.76964588281396,-1572.3539447216167,-145.69740546845077,8141.5925838297317,-11509.414625995154,1843.0083520932803,-1843.0083520932803,11509.414625995154,15965.018836856249,0.0
315012.02908761695,3812225.878295721,-7500.0,-3810.0720246516175,-6520.4009748323124,-14257.755869844479,-864.19701052814435,-1799.3550241510391,-163.10153182468753,8841.1370199095854,-12559.434999269939,2904.3743008575811,-2904.3743008575811,12559.434999269939,17322.162617643047,0.0
320012.02908761695,3812225.878295721,-7500.0,-3148.5278211913651,-6110.2317995136727,-16229.600101939504,-796.54808070191132,-2018.8000933409587,-179.56448229369857,9481.7729834861602,-13349.348600878855,3981.0191186638458,-3981.0191186638458,13349.348600878855,18571.51973516119,0.0
325012.02908761695,3812225.878295721,-7500.0,-2437.9176990368082,-5367.3756205870495,-18038.115764637903,-690.22631429630951,-2217.1289089124948,-194.09789520433165,10028.686852678609,-13778.543352306167,4989.5426686911651,-4989.5426686911651,13778.543352306167,19647.069053928222,0.0
330012.02908761695,3812225.878295721,-7500.0,-1744.6224092460316,-4287.5868013256031,-19540.191315005039,-545.83885488470924,-2379.3234525031548,-205.65051932208721,10446.088382383874,-13758.563752380407,5833.2247711286982,-5833.2247711286982,13758.563752380407,20480.848362479144,0.0
335012.02908761695,3812225.878295721,-7500.0,-1143.8304904260322,-2903.3249567830658,-20589.391539467913,-367.96029624226475,-2490.4184784760023,-213.21498864645292,10700.559291776075,-13228.970501309323,6413.3113647477112,-6413.3113647477112,13228.970501309323,21009.351599320773,0.0
340012.02908761695,3812225.878295721,-7500.0,-708.35955818738557,-1287.8372898274222,-21055.489505870552,-165.38834205878439,-2537.4515336888353,-215.95675091289428,10765.015242873351,-12172.651313772636,6644.2978305409197,-6644.2978305409197,12172.651313772636,21181.141540589146,0.0
345012.02908761695,3812225.878295721,-7500.0,-495.18088913987822,447.95216990331244,-20846.085522300804,49.32812646904803,-2511.5232924471429,-213.33912815453334,10622.61926697082,-10626.479103565991,6470.5038326751965,-6470.5038326751965,10626.479103565991,20964.422719048605,0.0
350012.02908761695,3812225.878295721,-7500.0,-532.771588314209,2166.9015060188099,-19925.780184578027,261.15148111040787,-2409.549225063241,-205.22215226671798,10269.976498967559,-8683.517729497129,5879.9721409618251,-5879.9721409618251,8683.517729497129,20353.304625524932,0.0
355012.02908761695,3812225.878295721,-7500.0,-812.97618146729394,3724.3072108742758,-18327.627948113222,454.46087679845147,-2235.2386402672478,-191.90954068069865,9718.8416289005636,-6484.4533067168604,4911.4177331055844,-4911.4177331055844,6484.4533067168604,19371.27740294355,0.0
360012.02908761695,3812225.878295721,-7500.0,-1290.3160849508067,4990.0767230973952,-16152.861206271489,615.23794325173196,-1998.9758413552947,-174.12945554212681,9074.6099923972561,-4198.8345903119443,3651.2992653157567,-3651.2992653157567,4198.8345903119443,18070.870420347121,0.0
365012.02908761695,3812225.878295721,-7500.0,-1889.6168712948365,5869.0775470985545,-13557.941333696106,733.04249509671615,-1716.5542693474601,-152.95070938947666,8384.2232250749039,-2000.0106609908125,2220.8684735292527,-2220.8684735292527,2000.0106609908125,16529.359718907188,0.0
370012.02908761695,3812225.878295721,-7500.0,-2520.1654093386655,6314.5438619252727,-10731.559351827931,802.32701093881701,-1407.0129563654423,-129.6508654081986,7624.8737646283162,-39.717246873801173,756.15044909572214,-756.15044909572214,39.717246873801173,14841.21429456083,0.0
375012.02908761695,3812225.878295721,-7500.0,-3092.5028347427528,6331.4498666611989,-7867.1911095113555,822.8177849718154,-1090.0663734876987,-105.56198550698565,6843.6024591963833,1571.583588145008,-613.96636903997251,613.96636903997251,-1571.583588145008,13108.728728144297,0.0
380012.02908761695,3812225.878295721,-7500.0,-3533.3655500888617,5969.898454355347,-5137.6823385261132,798.96166101153472,-783.6893005991642,-81.924722943049801,6085.6213032617061,2774.6135623830705,-1786.1023845534585,1786.1023845534585,-2774.6135623830705,11432.413097727938,0.0
385012.02908761695,3812225.878295721,-7500.0,-3795.335246310965,5311.3656780186575,-2677.0499094370325,738.67546738522105,-502.31515750874189,-59.773786389300028,5389.7069502974082,3560.6222135567377,-2693.4112584683853,2693.4112584683853,-3560.6222135567377,9902.184602275438,0.0
390012.02908761695,3812225.878295721,-7500.0,-3859.85031664909,4452.1013756171287,-571.9213591879078,651.77091875625592,-255.88316534313961,-39.869758250085695,4784.3511221709396,3962.3281742546569,-3308.1163228752248,3308.1163228752248,-3962.3281742546569,8589.3753062607593,0.0
395012.02908761695,3812225.878295721,-7500.0,-3734.3285498937503,3487.7791827981728,1137.8779253772082,548.42634288029069,-49.726491905100303,-22.678884493022135,4284.9952276298018,4040.272699845214,-3636.8899446310193,3636.8899446310193,-4040.272699845214,7538.856614845954,0.0
400012.02908761695,3812225.878295721,-7500.0,-3445.4918342238743,2502.1184329085741,2452.09697330873,437.97401933629112,114.88838365519717,-8.3935338367202625,3892.9652136999948,3868.4930268688822,-3711.8502318005476,3711.8502318005476,-3868.4930268688822,6761.7643929928208,0.0
405012.02908761695,3812225.878295721,-7500.0,-3031.3120747591888,1560.4645345452734,3399.4306418383512,328.12776118542172,239.84231913617688,3.0198998241860275,3596.9538588029272,3522.3906931919632,-3580.1702667831082,3580.1702667831082,-3522.3906931919632,6232.9238212582623,0.0
410012.02908761695,3812225.878295721,-7500.0,-2533.5381496569989,707.89466766830833,4026.3732428487201,224.6457930517206,329.12586015068342,11.760319407758509,3377.2441990566103,3070.2210050066374,-3294.6254339076499,3294.6254339076499,-3070.2210050066374,5898.6237906490869,0.0
415012.02908761695,3812225.878295721,-7500.0,-1991.9545329002356,-29.372241799796434,4387.505526683477,131.34034493172274,387.87749522602621,18.130668145207515,3211.3451703019946,2568.3622558968359,-2906.3835563520565,2906.3835563520565,-2568.3622558968359,5693.8897784510909,0.0
300012.02908761695,3817225.878295721,-7500.0,-6084.4649249543218,-6934.58603267134,-8723.3852121647287,-1035.3377649742347,-1245.1507919377486,-129.21045454937507,7347.5431529662237,-9662.8080764324222,-536.97005619082483,536.97005619082483,9662.8080764324222,14500.924887995152,0.0
305012.02908761695,3817225.878295721,-7500.0,-5823.575294709718,-7454.6721626391172,-10848.753496949674,-1081.9992374859805,-1504.7852589818801,-150.89940147688262,8237.211247023095,-11264.94974237118,436.30549037127912,-436.30549037127912,11264.94974237118,16216.028775102934,0.0
310012.02908761695,3817225.878295721,-7500.0,-5370.5766291760101,-7763.1947499091511,-13185.045076705173,-1098.7676712616965,-1784.9009252418393,-173.71918423301375,9141.0936294284438,-12826.433249863543,1588.5791626590453,-1588.5791626590453,12826.433249863543,17962.878005775419,0.0
315012.02908761695,3817225.878295721,-7500.0,-4733.1133279276883,-7778.9433368083801,-15653.659792671811,-1076.7711260418475,-2075.5789088152324,-196.80986030994075,10026.759285556023,-14236.018585318085,2876.0085946064974,-2876.0085946064974,14236.018585318085,19680.283710883585,0.0
320012.02908761695,3817225.878295721,-7500.0,-3943.4427331852798,-7425.8810893418186,-18135.075840358222,-1008.2561172207551,-2362.6478292234633,-219.02751507017095,10853.994215595219,-15361.804801793647,4223.9226587288376,-4223.9226587288376,15361.804801793647,21292.168481098175,0.0
325012.02908761695,3817225.878295721,-7500.0,-3061.5599727676545,-6647.1272845901494,-20469.404496466763,-888.12122289144872,-2627.9822305531525,-238.99128186871704,11576.431808821333,-16062.898594272783,5526.8168388038266,-5526.8168388038266,16062.898594272783,22710.632643089033,0.0
330012.02908761695,3817225.878295721,-7500.0,-2173.3487091470306,-5421.110362881408,-22465.121833395828,-715.56281471974432,-2850.6525835956913,-255.18599072391089,12144.71332346712,-16207.921639268989,6655.0326143220873,-6655.0326143220873,16207.921639268989,23841.946040961073,0.0
335012.02908761695,3817225.878295721,-7500.0,-1381.9507872210563,-3776.5380899447628,-23917.779383625792,-495.46509043975203,-3009.036192310306,-266.12339053787304,12511.203108702221,-15698.726996662484,7469.5383082032959,-7469.5383082032959,15698.726996662484,24595.544504694142,0.0
340012.02908761695,3817225.878295721,-7500.0,-792.07210078069727,-1801.4505623640375,-24638.048169721093,-239.07072341279274,-3083.7404091667781,-270.54132202726527,12635.846199471089,-14495.026153104591,7844.0916981567207,-7844.0916981567207,14495.026153104591,24895.270254703464,0.0
345012.02908761695,3817225.878295721,-7500.0,-489.43068381843761,358.44847988153913,-24485.111469460084,36.48493051473222,-3060.8885310031801,-267.60684025185287,12492.347670940519,-12633.462417822289,7691.1221052594574,-7691.1221052594574,12633.462417822289,24691.319962917878,0.0
350012.02908761695,3817225.878295721,-7500.0,-520.22876437603782,2515.083243854287,-23397.850670462398,309.96948305244501,-2935.0263893633778,-257.0777667826315,12073.398013910775,-10234.017435845843,6984.8108285760354,-6984.8108285760354,10234.017435845843,23970.469659210456,0.0
355012.02908761695,3817225.878295721,-7500.0,-877.05251966703486,4465.8002937096226,-21414.857393579077,558.98224632326435,-2710.8523486793524,-239.38074177835142,11393.80255584031,-7489.0771049515124,5773.8713164998999,-5773.8713164998999,7489.0771049515124,22762.207592786435,0.0
360012.02908761695,3817225.878295721,-7500.0,-1496.6854651433482,6027.853627917264,-18675.623920560061,763.41819502311864,-2403.1402712480872,-215.58048414124775,10647.330786946939,-4635.2654186124946,4178.3488530709001,-4178.3488530709001,4635.2654186124946,21138.682779233266,0.0
365012.02908761695,3817225.878295721,-7500.0,-2271.7634776094437,7070.4397650075734,-15400.912542800173,908.61549198575665,-2034.7599770373649,-187.24543826911804,9782.0341369619582,-1914.4391263131902,2369.7428931268742,-2369.7428931268742,1914.4391263131902,19208.294170513986,0.0
370012.02908761695,3817225.878295721,-7500.0,-3073.2841578386092,7535.2398022490252,-11856.441363804481,987.38654573297492,-1633.1973464509563,-156.23633061768993,8834.3028119035444,465.92980750966387,539.3786989105032,-539.3786989105032,-465.92980750966387,17103.807239806192,0.0
375012.02908761695,3817225.878295721,-7500.0,-3777.083303317394,7440.2128421331881,-8309.9049788658194,1000.4755117928197,-1226.4672077173177,-124.46558349081556,7869.4240252365898,2362.3088562234293,-1135.809169306579,1135.809169306579,-2362.3088562234293,14967.650915059268,0.0
380012.02908761695,3817225.878295721,-7500.0,-4286.4375768597092,6867.1721417449917,-4992.51911578005,955.48155995373554,-839.38993224632759,-93.674508852906285,6948.5961408241219,3708.0564604549236,-2520.7064081971903,2520.7064081971903,-3708.0564604549236,12936.961272486378,0.0
385012.02908761695,3817225.878295721,-7500.0,-4545.1924889776483,5938.664887089486,-2073.581408133577,864.71370525953319,-490.98988588213064,-65.267607477458,6121.9112048357047,4509.1727058889246,-3536.5767554765116,3536.5767554765116,-4509.1727058889246,11129.940736775123,0.0
390012.02908761695,3817225.878295721,-7500.0,-4539.8282643039784,4791.8473840651213,348.8004843791702,742.65051968474745,-193.34243163640934,-40.222400124120838,5422.7603927889577,4827.4555429270968,-4161.7031521069221,4161.7031521069221,-4827.4555429270968,9633.295319740424,0.0
395012.02908761695,3817225.878295721,-7500.0,-4292.5598976486372,3556.0621824551054,2242.7995407448352,603.62677954292542,48.239588016936999,-19.076385737986534,4864.4085336409016,4758.0566443863754,-4421.3205248719805,4421.3205248719805,-4758.0566443863754,8490.0910058814516,0.0
400012.02908761695,3817225.878295721,-7500.0,-3849.528882781764,2337.9261036132862,3628.8391351041769,460.14622498972733,234.07478795590748,-1.9743020206966904,4440.0018621223007,4407.8790846152069,-4372.0658689435231,4372.0658689435231,-4407.8790846152069,7691.1317373385791,0.0
405012.02908761695,3817225.878295721,-7500.0,-3268.1742460069504,1214.6057173391539,4562.0637845590081,321.95246123774291,368.5253520712339,11.246888976775379,4127.0672311984108,3878.9171108631585,-4085.9053761174987,4085.9053761174987,-3878.9171108631585,7178.6333392600345,0.0
410012.02908761695,3817225.878295721,-7500.0,-2606.6517821011389,233.76067116337515,5115.7186242461739,195.77706279826526,458.37217014964847,20.959707348628569,3895.5182502800762,3257.9775880106904,-3636.8707887155874,3636.8707887155874,-3257.9775880106904,6867.1093551083904,0.0
415012.02908761695,3817225.878295721,-7500.0,-1916.6132552634008,-582.27606402501613,5367.9477731037123,85.572222207881779,511.42751212067469,27.653386754957008,3715.8553634238642,2612.2386617973516,-3092.0297511036688,3092.0297511036688,-2612.2386617973516,6671.2556166272861,0.0
420012.02908761695,3817225.878295721,-7500.0,-1239.3922674915127,-1230.4238616891464,5392.808691147281,-6.9870222848048229,535.50872972154559,31.857843342530948,3564.441395798252,1989.097765023575,-2506.6340446053041,2506.6340446053041,-1989.097765023575,6524.8190847585201,0.0
290012.02908761695,3822225.878295721,-7500.0,-7042.5847440178086,-5926.2637920862153,-4921.8915149438717,-1015.2153606221432,-832.58299461653871,-102.13068522726797,6099.2100998193546,-6663.4261193325856,-2652.3390248465294,2652.3390248465294,6663.4261193325856,12185.320923107683,0.0
295012.02908761695,3822225.878295721,-7500.0,-7253.3243587488341,-6861.5212796788119,-6688.620376952249,-1127.3676268048166,-1070.6813417139522,-124.24542710420475,7031.2908405569242,-8361.785694579783,-2081.7343855074632,2081.7343855074632,8361.785694579783,13986.071981091603,0.0
300012.02908761695,3822225.878295721,-7500.0,-7279.8818628629879,-7753.1715593071876,-8806.8021824784391,-1227.5656506329246,-1349.2942691735957,-149.33874074212287,8051.7105213971245,-10234.677179826876,-1266.1671985938392,1266.1671985938392,10234.677179826876,15949.340020841151,0.0
305012.02908761695,3822225.878295721,-7500.0,-7082.5824971540287,-8521.9063488973479,-11277.36088856525,-1305.5001425398066,-1666.8499432813735,-177.09323767850515,9138.2032186539527,-12221.040622784085,-188.13096267499168,188.13096267499168,12221.040622784085,18043.44108861858,0.0
310012.02908761695,3822225.878295721,-7500.0,-6634.2031712909511,-9068.9326046609112,-14066.608223560761,-1349.0485014000035,-2017.5183098855864,-206.84088416328942,10263.282047086146,-14223.34188503222,1146.3575208692209,-1146.3575208692209,14223.34188503222,20217.070571668308,0.0
315012.02908761695,3822225.878295721,-7500.0,-5929.9706065575574,-9281.989655038502,-17093.492040495545,-1345.2103545786879,-2389.9723309441815,-237.49514366840788,11387.833946539617,-16104.536286155811,2697.1044429799895,-2697.1044429799895,16104.536286155811,22396.589725551399,0.0
320012.02908761695,3822225.878295721,-7500.0,-4997.7923314868622,-9047.7055076087854,-20219.033297950999,-1281.7208769041993,-2766.5275925257183,-267.52408485101353,12460.732812362654,-17691.508609211531,4380.5922982895218,-4380.5922982895218,17691.508609211531,24485.394460761559,0.0
325012.02908761695,3822225.878295721,-7500.0,-3905.8343941072635,-8270.8660492402287,-23242.266719110641,-1149.3169672618858,-3123.1126237512708,-294.99650852941579,13420.327634343526,-18788.151378809445,6065.9733105707219,-6065.9733105707219,18788.151378809445,26366.692040819784,0.0
330012.02908761695,3822225.878295721,-7500.0,-2763.5376575137784,-6899.0219147897251,-25907.719106035096,-944.38954384453916,-3430.5338030843,-317.72179262534758,14198.303874093152,-19199.949747481649,7580.500740187571,-7580.500740187571,19199.949747481649,27910.793034770533,0.0
335012.02908761695,3822225.878295721,-7500.0,-1712.2652796637249,-4947.8520526277334,-27928.729078276934,-671.46262204478694,-3657.3509424946888,-333.49055600373515,14726.19556080586,-18769.00514264814,8727.9277018004177,-8727.9277018004177,18769.00514264814,28987.506708650584,0.0
340012.02908761695,3822225.878295721,-7500.0,-903.74655256514052,-2519.631460764082,-29027.47490075275,-344.70065214219608,-3774.2777799974856,-340.38885483693434,14944.144341076484,-17413.749434804056,9320.3546405574489,-9320.3546405574489,17413.749434804056,29482.923683833284,0.0
345012.02908761695,3822225.878295721,-7500.0,-468.6390467970416,194.10910965694438,-28986.688834991801,12.367571910143932,-3759.44510836464,-337.12846233407987,14810.664947346326,-15162.854849964275,9218.8163909427858,-9218.8163909427858,15162.854849964275,29318.264966219467,0.0
350012.02908761695,3822225.878295721,-7500.0,-482.73760631387381,2932.2650326028038,-27701.330708849222,369.3780458416017,-3603.3157616646363,-323.31097826309599,14311.461085289679,-12170.592470742666,8372.2165722747468,-8372.2165722747468,12170.592470742666,28467.035398352389,0.0
355012.02908761695,3822225.878295721,-7500.0,-942.06900430044448,5406.0014527615776,-25213.97575994681,693.69672116328809,-3311.754660761801,-299.55390805878886,13502.299068492041,-8703.6596606562398,6841.0107788762853,-6841.0107788762853,8703.6596606562398,26965.806256306052,0.0
360012.02908761695,3822225.878295721,-7500.0,-1757.3736824783407,7353.6030314306172,-21719.986079000129,956.02074565548878,-2906.1365796182122,-267.43727362874017,12590.603487072902,-5098.3973401072972,4794.7015424723986,-4794.7015424723986,5098.3973401072972,24915.338173696604,0.0
365012.02908761695,3822225.878295721,-7500.0,-2772.2488690345444,8592.2064165854845,-17536.843694682171,1135.4931104135112,-2420.1416899394185,-229.28091425455926,11493.788869297339,-1698.4434301513304,2480.580594852318,-2480.580594852318,1698.4434301513304,22470.495375418108,0.0
370012.02908761695,3822225.878295721,-7500.0,-3799.8791976629741,9050.0193853556084,-13045.50707583083,1222.8903773743725,-1894.0600325042171,-187.80583744409961,10299.272134967963,1208.4896453071688,172.51877489655237,-172.51877489655237,-1208.4896453071688,19821.249215166423,0.0
375012.02908761695,3822225.878295721,-7500.0,-4665.7747521453412,8769.7741416961271,-8621.4797379198098,1221.0965223858191,-1368.1691405995084,-145.76007898066422,9098.9554575995644,3435.8315497033486,-1883.7145948459379,1883.7145948459379,-3435.8315497033486,17168.974494430837,0.0
380012.02908761695,3822225.878295721,-7500.0,-5242.4174875576191,7885.2551431552138,-4575.74029084208,1143.0179651150479,-876.92914632660438,-105.58346845261649,7976.2656004476912,4914.3352079852484,-3511.8687432527772,3511.8687432527772,-4914.3352079852484,14702.555646122561,0.0
385012.02908761695,3822225.878295721,-7500.0,-5466.6164725225044,6581.887732597289,-1119.5885928946666,1007.8685691820929,-445.25533213111498,-69.169938617975973,6995.2934031822251,5679.8033298502905,-4623.62534691359,4623.62534691359,-5679.8033298502905,12576.649886797723,0.0
390012.02908761695,3822225.878295721,-7500.0,-5338.251273933598,5055.3673370256038,1643.077520259217,837.05278129470867,-87.278693560564292,-37.754009189761021,6192.780133604856,5842.1163755436701,-5213.9904043909683,5213.9904043909683,-5842.1163755436701,10891.498993809375,0.0
395012.02908761695,3822225.878295721,-7500.0,-4905.5608651438733,3479.2648183038805,3701.6535506920363,650.68440365873857,192.76646889966935,-11.916473257374959,5574.6490578131925,5548.4516522572339,-5340.9520858894557,5340.9520858894557,-5548.4516522572339,9675.1613537112316,0.0
400012.02908761695,3822225.878295721,-7500.0,-4244.7406293686963,1986.5092837747959,5112.8682010274551,465.30977300674874,398.3301992798763,8.3198684692944695,5119.3260909933642,4951.1633682112997,-5099.1401019449359,5099.1401019449359,-4951.1633682112997,8878.0114863246472,0.0
405012.02908761695,3822225.878295721,-7500.0,-3440.5923956895135,664.09480946033864,5972.5518187514062,292.9110157389934,537.86899590004055,23.344759315750725,4788.1435678406979,4185.7562768970874,-4595.5029701492767,4595.5029701492767,-4185.7562768970874,8393.3289065421231,0.0
410012.02908761695,3822225.878295721,-7500.0,-2572.1423406860099,-442.80160525782287,6391.5509052236393,140.93485475068209,622.35692278689874,33.804389151185411,4538.6791510736221,3359.6628463845741,-3931.4200209432897,3931.4200209432897,-3359.6628463845741,8098.7431103105982,0.0
415012.02908761695,3822225.878295721,-7500.0,-1704.2951308472682,-1321.8089410890916,6478.5783685313645,12.959300813994524,663.34455718452762,40.463092785235304,4334.9839949637408,2549.6337308259717,-3192.271233174105,3192.271233174105,-2549.6337308259717,7892.3116132146051,0.0
420012.02908761695,3822225.878295721,-7500.0,-884.71711071007553,-1983.1137684322553,6330.0697360571558,-90.364246220555231,671.6656514841377,44.09776818443256,4151.847206970273,1804.5860245537715,-2443.3438654140018,2443.3438654140018,-1804.5860245537715,7706.5405300292859,0.0
425012.02908761695,3822225.878295721,-7500.0,-144.34507014212875,-2450.2455864825115,6025.665581734338,-170.35608008262599,656.7246442476054,45.428165005787008,3974.3473330913016,1151.0471774642308,-1730.1010419262832,1730.1010419262832,-1151.0471774642308,7505.0768218669573,0.0
290012.02908761695,3827225.878295721,-7500.0,-8104.6551630779713,-6209.6092448595036,-4396.1765579980793,-1152.9189790895666,-836.99480858771278,-113.00299400645449,6560.787949485114,-6478.4103767535889,-3565.7615155912408,3565.7615155912408,6478.4103767535889,13028.796384735455,0.0
295012.02908761695,3827225.878295721,-7500.0,-8506.8611130604077,-7391.6087467216175,-6306.4890279273277,-1305.2688391573586,-1111.7086987089556,-140.06840731015302,7574.7059843303541,-8435.059581989879,-3051.4116510287781,3051.4116510287781,8435.059581989879,15138.074808106083,0.0
300012.02908761695,3827225.878295721,-7500.0,-8702.0700446329192,-8575.7395925979563,-8669.0961180708709,-1449.138823997112,-1441.6790368733034,-171.41260543786245,8786.0885237233451,-10661.397567213382,-2235.1103579244254,2235.1103579244254,10661.397567213382,17483.053748206701,0.0
305012.02908761695,3827225.878295721,-7500.0,-8627.8439850690756,-9669.321827303047,-11510.099656103657,-1571.424743038998,-1827.6773646752783,-206.79151968675296,10110.676735448906,-13101.52521443582,-1076.3037796758117,1076.3037796758117,13101.52521443582,20035.21507794171,0.0
310012.02908761695,3827225.878295721,-7500.0,-8231.9930153630994,-10547.983781195782,-14815.883115112352,-1655.7275199773037,-2265.1143937498032,-245.47619742899141,11511.326902792443,-15650.366221199512,440.13625838174084,-440.13625838174084,15650.366221199512,22740.070905660195,0.0
315012.02908761695,3827225.878295721,-7500.0,-7487.0464148469073,-11060.011071422794,-18512.81467236728,-1683.3126059049384,-2741.8984117157543,-286.12254914309233,12942.190707179627,-18144.617538360755,2287.226311787711,-2287.226311787711,18144.617538360755,25511.620241756336,0.0
320012.02908761695,3827225.878295721,-7500.0,-6407.1226278884342,-11039.986078107506,-22447.287522284103,-1635.1586865355362,-3236.591803703755,-326.69295040033165,14339.230179172164,-20361.3900154619,4378.9322134178938,-4378.9322134178938,20361.3900154619,28229.086040363647,0.0
325012.02908761695,3827225.878295721,-7500.0,-5063.3334084823209,-10334.136926214105,-26372.432128306122,-1495.2199184777653,-3717.6011275430551,-364.4868053951742,15620.914747871837,-22030.460697991279,6558.274143810042,-6558.274143810042,22030.460697991279,30738.199590389569,0.0
330012.02908761695,3827225.878295721,-7500.0,-3591.3828632698869,-8836.8921690899151,-29950.211702707933,-1254.6388326077085,-4144.2786799279629,-396.32638670905646,16692.541613235124,-22865.187766492989,8597.9372208409368,-8597.9372208409368,22865.187766492989,32859.301167693062,0.0
335012.02908761695,3827225.878295721,-7500.0,-2183.9088781862797,-6533.0621531629249,-32778.002994682618,-916.10335472664156,-4470.689915835449,-418.92044000402245,17455.007339866992,-22613.21638183916,10221.032224677441,-10221.032224677441,22613.21638183916,34403.977178805697,0.0
340012.02908761695,3827225.878295721,-7500.0,-1062.1085251466609,-3533.7238182769056,-34444.491193226655,-496.98859726151574,-4652.1951097098345,-429.36693462388581,17817.837687847197,-21120.2166925315,11145.817661529392,-11145.817661529392,21120.2166925315,35199.966186187834,0.0
345012.02908761695,3827225.878295721,-7500.0,-427.79352075727201,-89.586353072386757,-34610.052168429727,-29.724740029710379,-4653.9601906155376,-425.6926323942256,17714.8273024562,-18390.25570514963,11149.501912934829,-11149.501912934829,18390.25570514963,35121.266890183622,0.0
350012.02908761695,3827225.878295721,-7500.0,-407.02258259826885,3432.458273310307,-33093.498218235298,441.69878582610295,-4459.3638029094445,-407.28608342041957,17119.247240091583,-14619.626670585563,10134.790327072962,-10134.790327072962,14619.626670585563,34117.231072607159,0.0
355012.02908761695,3827225.878295721,-7500.0,-1005.1825191654765,6612.8100667433546,-29936.341362692161,868.94952513906367,-4075.5736927939411,-375.08677940955471,16181.214293999961,-10183.44711697493,8174.558539498169,-8174.558539498169,10183.44711697493,32232.317107966413,0.0
360012.02908761695,3827225.878295721,-7500.0,-2094.1078711282094,9068.4621638594363,-25416.799534676487,1208.5951806333489,-3534.0521235976039,-331.47443357847732,15015.595134753285,-5569.4964766414096,5512.4867327573966,-5512.4867327573966,5569.4964766414096,29609.557198122038,0.0
365012.02908761695,3827225.878295721,-7500.0,-3440.8797257318915,10539.030483387083,-20001.364073108849,1430.5947622203289,-2885.3043050029169,-279.89215674317779,13608.276768945598,-1276.0833849386133,2512.9372387751509,-2512.9372387751509,1276.0833849386133,26474.841017412688,0.0
370012.02908761695,3827225.878295721,-7500.0,-4769.532622734072,10938.608366629112,-14247.128029906338,1523.3690389021913,-2189.3165993860166,-224.30867116854381,12087.112591033194,2291.7990586684173,-424.45405625027354,424.45405625027354,-2291.7990586684173,23105.462759235743,0.0
375012.02908761695,3827225.878295721,-7500.0,-5831.828577428234,10356.597667724593,-8688.3437050279317,1494.0830228507286,-1504.6328685198137,-168.64773202951457,10583.412408313172,4892.8524572971346,-2954.3570031403228,2954.3570031403228,-4892.8524572971346,19790.760872565494,0.0
380012.02908761695,3827225.878295721,-7500.0,-6460.9872575163326,9012.8723998131336,-3744.4289976278451,1364.6095586768154,-879.23426709955334,-116.29949193785183,9211.424877798825,6467.6543181470224,-4848.8313047377505,4848.8313047377505,-6467.6543181470224,16792.863983972973,0.0
385012.02908761695,3827225.878295721,-7500.0,-6593.2032207042248,7189.5949325051615,327.25118118226362,1165.0402656118374,-345.29633250110624,-69.788934266984469,8051.3525067877317,7109.0675413522522,-6018.4417539628566,6018.4417539628566,-7109.0675413522522,14310.943469278951,0.0
390012.02908761695,3827225.878295721,-7500.0,-6257.6443057549322,5165.5164292500422,3431.6327805721712,927.00084648655559,81.758669005972081,-30.637416301854156,7138.4144498294499,7005.6072749335717,-6495.0925411549515,6495.0925411549515,-7005.6072749335717,12448.623826637649,0.0
395012.02908761695,3827225.878295721,-7500.0,-5546.918095263105,3170.2890979986205,5603.1913617910423,678.4868206269075,400.87404933758842,0.59365785257230563,6461.6551763514863,6381.5697009641644,-6392.6415687976823,6392.6415687976823,-6381.5697009641644,11191.952300468749,0.0
400012.02908761695,3827225.878295721,-7500.0,-4582.6226938133759,1363.8682108698106,6959.5416693246352,440.95146219490232,621.22024816963005,24.126526395208035,5975.3719926555677,5450.4395009355831,-5863.189168936844,5863.189168936844,-5450.4395009355831,10420.81128033164,0.0
405012.02908761695,3827225.878295721,-7500.0,-3486.6714274345045,-163.40145236266881,7657.2054942005298,228.50804413628205,757.7870233845257,40.725820138129514,5619.5558327626895,4387.6722177966076,-5061.4418224262736,5061.4418224262736,-4387.6722177966076,9963.8905457209221,0.0
410012.02908761695,3827225.878295721,-7500.0,-2362.9995593086765,-1378.3715517505766,7858.1093854892706,48.618664555387205,827.67779785982259,51.455275431114302,5339.0807397586577,3320.9556205146073,-4122.0973027377759,4122.0973027377759,-3320.9556205146073,9663.5511920371664,0.0
415012.02908761695,3827225.878295721,-7500.0,-1289.4230044631665,-2288.1949840101556,7708.8620066819876,-96.456727711742417,847.51122412777261,57.47545235319086,5093.783952870971,2332.3847431896634,-3149.5741325030999,3149.5741325030999,-2332.3847431896634,9410.2996115876431,0.0
420012.02908761695,3827225.878295721,-7500.0,-316.96197351506379,-2924.2200135024436,7330.9288673909496,-208.03134093964201,831.91633078403913,59.900530434246662,4859.5288592654333,1466.7460441315336,-2216.6965091207721,2216.6965091207721,-1466.7460441315336,9143.8137498464985,0.0
425012.02908761695,3827225.878295721,-7500.0,526.53419109833942,-3329.2327174294742,6818.3929039753893,-289.53768304607092,792.89200053633272,59.714234052279892,4624.6421083291543,741.5731437848433,-1368.5341350541396,1368.5341350541396,-741.5731437848433,8839.200925018702,0.0
430012.02908761695,3827225.878295721,-7500.0,1231.0285527903634,-3548.6467849866776,6240.1071013557512,-345.40331882957508,739.74430393534135,57.732952012806663,4385.4727712886242,156.43268892188709,-628.36874886166845,628.36874886166845,-156.43268892188709,8492.5189181338701,0.0
285012.02908761695,3832225.878295721,-7500.0,-8446.9184707076456,-5017.963998039786,-2098.8433237400127,-1100.6983523987424,-565.8779707815703,-96.032826066294717,6006.5518446198284,-4205.8796846120258,-4758.5875006231108,4758.5875006231108,4205.8796846120258,11711.466679487514,0.0
290012.02908761695,3832225.878295721,-7500.0,-9250.8603257745144,-6344.8712401800967,-3629.364354589914,-1294.4374824641247,-812.33316979103211,-123.15338366285239,7027.1916656083959,-6028.7838140515223,-4643.4609945209641,4643.4609945209641,6028.7838140515223,13834.139549011701,0.0
295012.02908761695,3832225.878295721,-7500.0,-9919.5771600376302,-7806.7714816769249,-5644.6592114308096,-1497.5104862735632,-1124.311785151091,-155.94861961032785,8204.5031177111759,-8240.9662201779411,-4248.4018578684827,4248.4018578684827,8240.9662201779411,16285.623773540998,0.0
300012.02908761695,3832225.878295721,-7500.0,-10369.094273581075,-9342.6090874169622,-8228.5498966234882,-1699.0424013260449,-1510.2469175635383,-194.78181404060913,9541.5771232179668,-10846.732359832649,-3493.1836295050521,3493.1836295050521,10846.732359832649,19070.285868617873,0.0
305012.02908761695,3832225.878295721,-7500.0,-10506.843925090689,-10850.270681889888,-11446.33203203656,-1882.9677516492436,-1975.0900458638394,-239.58951693046558,11138.253129468176,-13807.099953527006,-2303.5608466980475,2303.5608466980475,13807.099953527006,22169.119981008131,0.0
310012.02908761695,3832225.878295721,-7500.0,-10243.871009266515,-12179.37547998073,-15321.707323190021,-2027.6718833436137,-2517.4016527547469,-289.65041979495152,12879.625259781002,-17019.838473934902,-628.94445057710618,628.94445057710618,17019.838473934902,25529.87830467146,0.0
315012.02908761695,3832225.878295721,-7500.0,-9514.4405313065927,-13130.874998588575,-19806.30500146715,-2106.6948742593336,-3125.8388333936305,-343.34787232109835,14701.876509190979,-20300.320443689961,1533.0580664560275,-1533.0580664560275,20300.320443689961,29056.940432947114,0.0
320012.02908761695,3832225.878295721,-7500.0,-8302.2367371415676,-13469.290768943678,-24745.145740863893,-2091.1049013763673,-3775.6205370052394,-397.99385650411011,16526.766985079263,-23369.986901897151,4107.8173299478385,-4107.8173299478385,23369.986901897151,32603.136817636834,0.0
325012.02908761695,3832225.878295721,-7500.0,-6668.6880326512801,-12953.564232204515,-29846.46194647592,-1954.0071477859665,-4426.0955183607757,-449.80940831426722,18247.682466546514,-25862.529975078418,6917.5322104783772,-6917.5322104783772,25862.529975078418,35967.114049702453,0.0
330012.02908761695,3832225.878295721,-7500.0,-4773.9649296269963,-11389.302306532847,-34669.965385253803,-1677.1035856943683,-5020.995594134808,-494.16660222179053,19733.568819578355,-27358.890154057372,9669.7780161598694,-9669.7780161598694,27358.890154057372,38900.568252679666,0.0
335012.02908761695,3832225.878295721,-7500.0,-2876.9745409307989,-8697.3215873953959,-38651.300536570663,-1258.2412553769982,-5493.0114885159774,-526.14693003480488,20840.14869429544,-27458.026165601987,11975.900182075575,-11975.900182075575,27458.026165601987,41129.397167999356,0.0
340012.02908761695,3832225.878295721,-7500.0,-1301.1447949235155,-4981.1662189043327,-41176.935627863277,-717.69788516598305,-5773.5204472568603,-541.3652307364498,21429.117759361092,-25878.190652469901,13411.063461107884,-13411.063461107884,25878.190652469901,42390.266654599334,0.0
345012.02908761695,3832225.878295721,-7500.0,-362.25854506417181,-564.69494516872419,-41708.678366395659,-100.22053163122595,-5806.4431107299497,-536.86967531763787,21393.396065199489,-22564.408279904892,13614.085345263411,-13614.085345263411,22564.408279904892,42479.035940028989,0.0
350012.02908761695,3832225.878295721,-7500.0,-273.36432974165876,4030.7471763193244,-39931.268903087621,529.62570523321995,-5562.8229596508081,-511.83354684777913,20684.998728978466,-17760.332794838076,12402.643977115476,-12402.643977115476,17760.332794838076,41300.924319715283,0.0
355012.02908761695,3832225.878295721,-7500.0,-1061.9381371444524,8182.7749962507805,-35871.59810126626,1099.0261033745317,-5051.0796798712236,-467.79968901171333,19585.3459204067,-12001.305106151623,9859.0154197759184,-9859.0154197759184,12001.305106151623,38907.382300884332,0.0
360012.02908761695,3832225.878295721,-7500.0,-2540.6400285924301,11317.086607938285,-29933.326368597147,1542.5036327650391,-4318.4409298646879,-408.41147911502281,18074.374690788565,-6010.8753442307407,6340.5336527984164,-6340.5336527984164,6010.8753442307407,35505.312670223393,0.0
365012.02908761695,3832225.878295721,-7500.0,-4353.9299359559545,13055.257882412485,-22818.58144937289,1816.308851650552,-3442.0721152460228,-338.75200863148189,16244.650687665446,-528.32863106283662,2397.2023629156802,-2397.2023629156802,528.32863106283662,31431.889228850196,0.0
370012.02908761695,3832225.878295721,-7500.0,-6085.167314717879,13300.648903809606,-15360.019707820342,1906.5640358979767,-2512.6598134876394,-264.51440439043148,14286.647505192266,3867.2624751224366,-1375.4069355038164,1375.4069355038164,-3867.2624751224366,27100.843250021433,0.0
375012.02908761695,3832225.878295721,-7500.0,-7377.1655726844701,12230.557615818414,-8328.7591097377172,1828.7769324957485,-1616.0964559286315,-191.1922210395131,12390.820326326682,6868.48943254799,-4486.9617199078211,4486.9617199078211,-6868.48943254799,22934.909337553883,0.0
380012.02908761695,3832225.878295721,-7500.0,-8016.1812672494207,10209.110120175203,-2289.3327022307876,1620.0031724809919,-819.0986493302189,-123.41008246569149,10713.567881558827,8454.3240494458296,-6648.8203789580066,6648.8203789580066,-8454.3240494458296,19299.111717759184,0.0
385012.02908761695,3832225.878295721,-7500.0,-7954.5905332182956,7667.5541009344697,2459.6810722829314,1327.4411142400309,-162.1183800274564,-64.478810025622735,9350.6370701612923,8823.6570853899666,-7792.2378818237039,7792.2378818237039,-8823.6570853899666,16440.208456998247,0.0
390012.02908761695,3832225.878295721,-7500.0,-7280.1952123521496,5000.299459858109,5864.1867014633644,997.62006851279239,340.34002029005455,-16.223259109802378,8324.1280002975618,8292.0936637950563,-8023.0643639002783,8023.0643639002783,-8292.0936637950563,14436.130309933262,0.0
395012.02908761695,3832225.878295721,-7500.0,-6159.159437546713,2503.5621965126302,8045.2485192847789,668.93612280996786,694.29739527454979,20.919579337037927,7590.1321855505967,7195.7901057709523,-7547.7172947345689,7547.7172947345689,-7195.7901057709523,13182.043192981499,0.0
400012.02908761695,3832225.878295721,-7500.0,-4779.4803415304204,358.23005576671949,9218.6945958219894,368.29776894048024,918.82792628736127,47.601923483693611,7067.0963656988179,5826.8066563244893,-6602.5668791238595,6602.5668791238595,-5826.8066563244893,12450.057554888486,0.0
405012.02908761695,3832225.878295721,-7500.0,-3310.6766442562512,-1356.6050121174678,9628.362431975007,111.14947646355341,1039.0061976930713,65.176749947624984,6670.3450168384788,4403.7400044036522,-5404.3570272784136,5404.3570272784136,-4403.7400044036522,11997.150290954944,0.0
410012.02908761695,3832225.878295721,-7500.0,-1883.2231844929292,-2636.1675541839727,9502.4052999531687,-96.492834239729646,1080.6024780633945,75.323990053090284,6334.6538492648215,3068.9898555106106,-4124.8331626602185,4124.8331626602185,-3068.9898555106106,11642.522423911225,0.0
415012.02908761695,3832225.878295721,-7500.0,-583.82308392536606,-3521.1653241874324,9031.3317729936316,-255.27510543773357,1066.8318952784227,79.759043094054846,6019.9326530887165,1900.8055497369146,-2884.3679428303526,2884.3679428303526,-1900.8055497369146,11283.474730230741,0.0
420012.02908761695,3832225.878295721,-7500.0,539.74059396342841,-4074.2479932542083,8361.7077677787947,-369.86936367753157,1016.8427151405884,80.043663103906965,5706.6445882632315,930.44993266801475,-1756.9858335149283,1756.9858335149283,-930.44993266801475,10876.627856635832,0.0
425012.02908761695,3832225.878295721,-7500.0,1469.6579768938625,-4363.7293660182431,7599.0079443870254,-446.88739813590445,945.40538041741308,77.491728580833552,5388.5424996991242,158.63214393464079,-780.31615789048669,780.31615789048669,-158.63214393464079,10413.790520994144,0.0
430012.02908761695,3832225.878295721,-7500.0,2208.6567476116115,-4453.9079858246732,6814.5836636490985,-493.44029067677911,863.28839966302132,73.142927756175737,5066.5526721721817,-431.37837444644765,33.731186269195035,-33.731186269195035,431.37837444644765,9903.9962740330466,0.0
435012.02908761695,3832225.878295721,-7500.0,2771.9184810973807,-4400.3218746965904,6053.5902805158184,-516.2654752899432,777.93739987971355,67.779356554414932,4744.7190679299129,-864.47142788387976,689.70814999298034,-689.70814999298034,864.47142788387976,9362.6643126207837,0.0
280012.02908761695,3837225.878295721,-7500.0,-8153.3932093324356,-3427.0093450880954,-47.201852847524464,-970.97626140950172,-285.68039482303783,-74.725441147338543,5363.5593824758344,-1812.9384345185035,-5462.8395831328298,5462.8395831328298,1812.9384345185035,10187.953086899872,0.0
285012.02908761695,3837225.878295721,-7500.0,-9304.7194642956183,-4720.6976068666354,-1094.4554417952083,-1187.1605044971227,-483.16544459294283,-99.81576242629194,6328.6246104081683,-3304.2464336610628,-5768.0715741800796,5768.0715741800796,3304.2464336610628,12179.792781615886,0.0
290012.02908761695,3837225.878295721,-7500.0,-10434.742260904917,-6255.737625246149,-2584.8657065591797,-1430.7313033378944,-747.77015777489851,-131.44615661556116,7479.3112507826927,-5237.0394817413944,-5874.8811784120353,5874.8811784120353,5237.0394817413944,14564.342983155049,0.0
295012.02908761695,3837225.878295721,-7500.0,-11462.060371884252,-8019.1387305259896,-4640.1399606966152,-1696.0620289516096,-1094.5157623513644,-170.64000579734846,8835.841339606015,-7675.9070967041698,-5685.1794042514721,5685.1794042514721,7675.9070967041698,17382.437468090593,0.0
300012.02908761695,3837225.878295721,-7500.0,-12279.343436962141,-9961.4300430607927,-7390.578633737101,-1971.8915551267289,-1538.1338276914255,-218.19103721053631,10411.950378946207,-10662.741107436079,-5084.4618617383603,5084.4618617383603,10662.741107436079,20660.594923976303,0.0
305012.02908761695,3837225.878295721,-7500.0,-12756.885056126077,-11980.320924666481,-10958.546776946803,-2239.532200947383,-2090.4338976338245,-274.38668372722503,12210.663177882619,-14193.715622754557,-3952.3345793116177,3952.3345793116177,14193.715622754557,24399.581041337551,0.0
310012.02908761695,3837225.878295721,-7500.0,-12754.736153549433,-13904.52609785106,-15429.906065090496,-2471.4989260117341,-2756.2557432000722,-338.6434779990845,14348.067760969843,-18188.861934852153,-2183.2992329538047,2183.2992329538047,18188.861934852153,28559.662899534931,0.0
315012.02908761695,3837225.878295721,-7500.0,-12146.853685460708,-15483.443480057746,-20811.141166389625,-2631.3794403276884,-3527.9935862306174,-409.08976645017583,16666.695763793279,-22457.366975196717,279.78221720991314,-279.78221720991314,22457.366975196717,33043.427422999077,0.0
320012.02908761695,3837225.878295721,-7500.0,-10859.018786848419,-16392.153059740118,-26973.83235798655,-2676.106505392333,-4379.301658062187,-482.20395026553018,19055.011715773755,-26667.215660787384,3400.2211391147921,-3400.2211391147921,26667.215660787384,37679.085340044963,0.0
325012.02908761695,3837225.878295721,-7500.0,-8917.0054112148991,-16263.754411688216,-33595.754898580883,-2561.7920730631859,-5259.5470166569003,-552.67818571680459,21376.319353643645,-30334.705586477809,6997.4917748860753,-6997.4917748860753,30334.705586477809,42209.356136442359,0.0
330012.02908761695,3837225.878295721,-7500.0,-6492.5891017045478,-14759.488809339367,-40119.453760663324,-2253.6484386631182,-6091.7272130275796,-613.72110008589584,23450.488597042939,-32855.376548338187,10710.258530574738,-10710.258530574738,32855.376548338187,46293.701076051693,0.0
335012.02908761695,3837225.878295721,-7500.0,-3924.2123127652198,-11676.49262746864,-45760.392370407608,-1738.8593777219701,-6777.1935247130441,-657.94848881639643,25066.845834973712,-33596.387024423952,14000.069768691628,-14000.069768691628,33596.387024423952,49532.472529607236,0.0
340012.02908761695,3837225.878295721,-7500.0,-1683.6880357457717,-7071.300023158894,-49598.979963063,-1038.8269450589694,-7209.6890429541163,-678.78994019360277,26011.71382344445,-32053.955239600677,16224.806059270906,-16224.806059270906,32053.955239600677,51519.134220930573,0.0
345012.02908761695,3837225.878295721,-7500.0,-270.9713505672309,-1349.6976747157375,-50770.439899444173,-215.12463934083797,-7297.9927674590499,-672.03310659836438,26109.188240547239,-28044.047725985249,16792.278956769951,-16792.278956769951,28044.047725985249,51918.106198981484,0.0
350012.02908761695,3837225.878295721,-7500.0,-52.695360810145743,4740.747356509838,-48718.913499876944,636.2355934442586,-6991.5886117398932,-636.90462143856109,25298.70354137351,-21852.661455256915,15361.747653724567,-15361.747653724567,21852.661455256915,50552.905067227606,0.0
355012.02908761695,3837225.878295721,-7500.0,-1105.8050349610469,10255.78910338043,-43423.929420765839,1403.6369946330969,-6299.759092618553,-576.23037219393939,23966.208751613416,-14254.677740192696,12011.827954569344,-12011.827954569344,14254.677740192696,47476.623953464608,0.0
360012.02908761695,3837225.878295721,-7500.0,-3151.3098551829512,14310.200539500889,-35482.889596920388,1986.739027473011,-5294.9599165968857,-495.68686395079453,21978.039568272194,-6350.8827223325907,7277.916650204771,-7277.916650204771,6350.8827223325907,42994.657626966291,0.0
365012.02908761695,3837225.878295721,-7500.0,-5631.1580073961668,16341.262133975721,-25981.884085550806,2321.3358940075855,-4097.3527167111633,-402.597679412947,19564.818856519862,733.17007138893064,2013.3168174021514,-2013.3168174021514,-733.17007138893064,37623.611433209138,0.0
370012.02908761695,3837225.878295721,-7500.0,-7901.0880044292535,16255.780190138736,-16196.028622772401,2392.4418102311561,-2845.9614441793128,-304.76362803191796,17016.760181034057,6156.0836923731922,-2873.6073371884349,2873.6073371884349,-6156.0836923731922,31995.972173928218,0.0
375012.02908761695,3837225.878295721,-7500.0,-9442.4764231255976,14397.971988630381,-7253.9789706561842,2231.5636277095487,-1667.599742938412,-209.51739588062657,14614.123050002718,9539.9443577186739,-6681.0184016207268,6681.0184016207268,-9539.9443577186739,26739.817383931731,0.0
380012.02908761695,3837225.878295721,-7500.0,-9993.6146451919922,11376.426642001155,92.696232405008544,1901.4311465219105,-654.27070604697099,-122.95434626170841,12568.887379298687,10964.274216228667,-9060.0841758523711,9060.0841758523711,-10964.274216228667,22360.787880171185,0.0
385012.02908761695,3837225.878295721,-7500.0,-9561.8109634625889,7851.1958321831662,5532.2018267293397,1475.9360996929679,145.64774665514113,-49.34688764383916,10984.057520649247,10821.26204842245,-10012.440228548418,10012.440228548418,-10821.26204842245,19137.856995308757,0.0
390012.02908761695,3837225.878295721,-7500.0,-8346.2573951139493,4371.8351014298769,9116.7073035509347,1022.8529797512334,723.59161429861592,9.1337835528997644,9844.606615691313,9628.5777743850722,-9784.0945435474077,9784.0945435474077,-9628.5777743850722,17055.968521560291,0.0
395012.02908761695,3837225.878295721,-7500.0,-6631.2526228228489,1303.3103373396523,11123.477766607575,593.55071850726029,1099.5300500402898,52.294676017913119,9049.6061473079917,7878.9316266794494,-8730.0277581308292,8730.0277581308292,-7878.9316266794494,15843.463485825241,0.0
400012.02908761695,3837225.878295721,-7500.0,-4697.2406630508849,-1173.1169660445905,11920.474556437093,219.9749046610211,1308.9239488150999,81.459735038099012,8470.4461039825055,5957.6669584544534,-7204.6757203616717,7204.6757203616717,-5957.6669584544534,15132.315655954755,0.0
405012.02908761695,3837225.878295721,-7500.0,-2769.2026729247227,-3017.7749055649892,11871.232438913426,-83.223528214720204,1391.842960688597,98.856993918996892,7999.3886862214276,4120.9657523248134,-5499.0166531949289,5499.0166531949289,-4120.9657523248134,14619.56976650774,0.0
410012.02908761695,3837225.878295721,-7500.0,-999.49309427181367,-4279.9882473396847,11283.990334405597,-314.15142666133795,1385.796200760333,107.04550790045784,7567.9140157448082,2510.958005939171,-3819.1186356971366,3819.1186356971366,-2510.958005939171,14125.456067559653,0.0
415012.02908761695,3837225.878295721,-7500.0,527.05323970294023,-5052.9202090830122,10394.694888686707,-478.834873294234,1322.1088804300737,108.49474667631863,7142.2760152872252,1185.4859337259541,-2291.0808236561793,2291.0808236561793,-1185.4859337259541,13572.15901189018,0.0
420012.02908761695,3837225.878295721,-7500.0,1777.9319173301144,-5442.121480929075,9370.0778200915756,-587.22838568297198,1224.8783825012458,105.34161465000639,6711.4987951686444,148.28765020759107,-977.92529816366232,977.92529816366232,-148.28765020759107,12943.042094851966,0.0
425012.02908761695,3837225.878295721,-7500.0,2755.9800776739289,-5547.1437282824045,8319.7315648410986,-650.43123609223267,1111.443883568714,99.295522949793821,6276.6562920750166,-626.83209739108793,101.1925472547959,-101.1925472547959,626.83209739108793,12250.793917164461,0.0
430012.02908761695,3837225.878295721,-7500.0,3484.7995372397049,-5452.8830471702286,7310.2726555234231,-679.01554736397668,993.53855462022432,91.64076778672711,5843.7914185645159,-1179.2541411915281,954.32020046810021,-954.32020046810021,1179.2541411915281,11518.443999500269,0.0
435012.02908761695,3837225.878295721,-7500.0,3997.9648574735979,-5227.0828099928694,6378.1362511091547,-682.1915198005388,878.59891279256215,83.290079338702114,5420.062714238903,-1551.2220386227041,1604.199002417673,-1604.199002417673,1551.2220386227041,10769.709349340064,0.0
275012.02908761695,3842225.878295721,-7500.0,-7200.25834546845,-1649.031973433966,1566.0700814460031,-776.29438740777948,-25.480558215529097,-51.0794690008684,4725.8011160905717,415.70436416764642,-5565.1282196767934,5565.1282196767934,-415.70436416764642,8674.9633275830383,0.0
280012.02908761695,3842225.878295721,-7500.0,-8570.4217955800814,-2742.3483826606148,1017.6979239368186,-991.52955369431425,-161.30534859977627,-72.277507514196458,5579.3503743944675,-612.10746824213811,-6226.5607166475529,6226.5607166475529,612.10746824213811,10404.71748960651,0.0
285012.02908761695,3842225.878295721,-7500.0,-10046.420848991716,-4130.4670035721565,126.24183210352804,-1248.2247427253812,-356.90651391576097,-100.14714437942004,6626.9479145433816,-2056.1732454270136,-6808.1023812168096,6808.1023812168096,2056.1732454270136,12548.703283862376,0.0
290012.02908761695,3842225.878295721,-7500.0,-11574.141848987876,-5848.5792478248541,-1238.0558017942171,-1547.5937861192233,-630.91987940684919,-136.25423791845137,7903.878572129759,-4022.2894968027031,-7221.8213366791097,7221.8213366791097,4022.2894968027031,15180.04987309866,0.0
295012.02908761695,3842225.878295721,-7500.0,-13065.92014760197,-7911.9421177042477,-3235.8526355235285,-1886.553541591016,-1005.0775920647407,-182.22233342038427,9445.1653558211656,-6620.3694265441791,-7347.9074828848552,7347.9074828848552,6620.3694265441791,18370.53502912568,0.0
300012.02908761695,3842225.878295721,-7500.0,-14393.661865720011,-10297.806315985594,-6054.7459421292842,-2255.1261997384568,-1502.8823353002117,-239.50243512385637,11281.286947499702,-9948.0403667793107,-7033.6354393948495,7033.6354393948495,9948.0403667793107,22181.402023830236,0.0
305012.02908761695,3842225.878295721,-7500.0,-15386.623439956022,-12920.831833288315,-9894.7880637997896,-2633.2995718112506,-2146.666160404317,-308.98783061144275,13431.620148503953,-14062.542112855419,-6100.2044484016324,6100.2044484016324,14062.542112855419,26648.873733208951,0.0
310012.02908761695,3842225.878295721,-7500.0,-15839.387654566111,-15603.810815022964,-14937.010753528315,-2987.880537769654,-2952.3422567846292,-390.44970777391029,15902.77847227725,-18938.281126348244,-4363.3908664221035,4363.3908664221035,18938.281126348244,31763.362598869018,0.0
315012.02908761695,3842225.878295721,-7500.0,-15537.27367675924,-18049.914467373783,-21288.125156891649,-3270.5017850967974,-3921.364576803383,-481.82594299811541,18814.824546407108,-24410.676363135601,-1674.6604462038576,1674.6604462038576,24410.676363135601,37442.4695518929,0.0
320012.02908761695,3842225.878295721,-7500.0,-14306.081542319358,-19829.588545343897,-28897.715567966745,-3418.7194335088475,-5030.1749197522549,-578.512552862343,21939.678487386573,-30114.470388844631,2012.9364083710589,-2012.9364083710589,30114.470388844631,43500.324701692574,0.0
325012.02908761695,3842225.878295721,-7500.0,-12087.68177757187,-20403.334582928204,-37454.433550910639,-3362.7146297843233,-6219.0584152370393,-672.9657444845559,25081.24617394009,-35437.64968135464,6558.3090480458341,-6558.3090480458341,35437.64968135464,49620.196532157272,0.0
330012.02908761695,3842225.878295721,-7500.0,-9028.9351373229565,-19205.643266945117,-46287.385469453991,-3039.6287603048627,-7384.7126738658781,-755.0592498635491,27995.20354842993,-39527.856907007226,11546.95875856579,-11546.95875856579,39527.856907007226,55342.669883911738,0.0
335012.02908761695,3842225.878295721,-7500.0,-5548.9566106713946,-15805.782973723342,-54326.032984236044,-2415.0871831670515,-8383.0569806366766,-813.58032326742136,30374.32339210789,-41397.554371376784,16252.406142568321,-16252.406142568321,41397.554371376784,60086.587326375666,0.0
340012.02908761695,3842225.878295721,-7500.0,-2328.079334231687,-10126.536518018353,-60191.771054333927,-1506.6109049064121,-9048.6135525592381,-838.804752258289,31885.433857700376,-40158.48933356379,19707.417220594183,-19707.417220594183,40158.48933356379,63219.314770382829,0.0
345012.02908761695,3842225.878295721,-7500.0,-164.95019675670289,-2642.9910026727548,-62476.95489965997,-398.2835635644077,-9231.6044026483323,-825.30789988558013,32234.579283241546,-35356.634437282308,20931.155459065605,-20931.155459065605,35356.634437282308,64180.787182305481,0.0
350012.02908761695,3842225.878295721,-7500.0,297.04981960332168,5568.0709394554842,-60184.673881525036,765.18831880871903,-8843.814933869513,-773.60054091812935,31395.7999370568,-27284.113708119134,19283.081530489952,-19283.081530489952,27284.113708119134,62640.533075416024,0.0
355012.02908761695,3842225.878295721,-7500.0,-1128.1299189291176,13038.869139289709,-53169.869505365976,1809.7365362908902,-7894.5756375125293,-689.58493589822672,29684.214758328093,-17076.339636501976,14799.081313067949,-14799.081313067949,17076.339636501976,58636.101187447843,0.0
360012.02908761695,3842225.878295721,-7500.0,-4017.1046570152625,18361.101123030592,-42335.463802555329,2579.4078142887242,-6497.8855755868926,-582.29464531406325,27024.70110179366,-6456.643130400239,8300.2315868795886,-8300.2315868795886,6456.643130400239,52628.21048901535,0.0
365012.02908761695,3842225.878295721,-7500.0,-7465.698711482557,20675.960004739725,-29415.089647842735,2979.929491520968,-4844.3046409571225,-461.55950977899738,23792.087977368523,2809.6929498654495,1152.5951830649719,-1152.5951830649719,-2809.6929498654495,45432.346252248375,0.0
370012.02908761695,3842225.878295721,-7500.0,-10451.206963464812,19935.485527237102,-16415.35186378393,2999.3425701827919,-3149.26504053388,-336.81634554333374,20439.858787168279,9480.5829755614905,-5222.6680037056767,5222.6680037056767,-9480.5829755614905,38042.188965071015,0.0
375012.02908761695,3842225.878295721,-7500.0,-12217.511094557422,16805.447109893605,-5008.5827878118662,2699.3729368435197,-1600.0971278642105,-216.78870386343556,17385.425209866451,13129.100977358714,-9818.1688963566157,9818.1688963566157,-13129.100977358714,31405.151978444774,0.0
380012.02908761695,3842225.878295721,-7500.0,-12476.882561259445,12312.790447542706,3832.9311552802537,2185.8025654668741,-321.23552660316818,-109.05262074877719,14907.911053093212,14067.09449041014,-12256.086340872656,12256.086340872656,-14067.09449041014,26205.217794737102,0.0
385012.02908761695,3842225.878295721,-7500.0,-11375.50160425735,7463.4018509964253,9866.4911181395037,1573.4463981035299,634.83930745485134,-19.172745516866598,13090.629280394329,13033.665854435088,-12714.872112069816,12714.872112069816,-13033.665854435088,22687.017655612362,0.0
390012.02908761695,3842225.878295721,-7500.0,-9315.7160631413171,2999.7047755979825,13376.394980789284,959.21458645571022,1275.6168928272803,50.051002678346052,11837.39743874329,10859.368922814672,-11695.263132924509,11695.263132924509,-10859.368922814672,20609.634386731483,0.0
395012.02908761695,3842225.878295721,-7500.0,-6763.2736616546399,-666.31072428471975,14907.44476307052,409.07589044774926,1646.4773289964382,98.658950176133871,10960.288735149663,8242.604057069173,-9780.7129126835025,9780.7129126835025,-8242.604057069173,19441.444100519668,0.0
400012.02908761695,3842225.878295721,-7500.0,-4117.11572526089,-3401.0178147760303,15051.593324929685,-42.570733802196948,1808.7809607649958,128.89056293617645,10279.339594325851,5663.0465624277704,-7479.2915936539439,7479.2915936539439,-5663.0465624277704,18670.800355368166,0.0
405012.02908761695,3842225.878295721,-7500.0,-1655.0916637182031,-5252.8371022132042,14325.097165195304,-386.27347746994667,1823.8815530232305,144.20664810714507,9673.8647933144603,3390.5490394528765,-5157.8569026111882,5157.8569026111882,-3390.5490394528765,17973.728852519274,0.0
410012.02908761695,3842225.878295721,-7500.0,466.16880421514878,-6361.9866943155703,13122.39344969336,-628.70402029227932,1744.2749526963335,148.38158334841424,9083.4394918123216,1536.8223663351068,-3040.3560705200366,3040.3560705200366,-1536.8223663351068,17205.839506239132,0.0
415012.02908761695,3842225.878295721,-7500.0,2185.2957173987347,-6896.5448290537252,11716.791827863635,-784.8246451001188,1610.4385551169021,144.88322242454944,8488.142771419245,113.20132701301361,-1236.7319472400327,1236.7319472400327,-113.20132701301361,16333.286960700172,0.0
420012.02908761695,3842225.878295721,-7500.0,3504.3272194951678,-7015.6751748058305,10282.076338950179,-872.29216866474735,1451.1584971233467,136.56345393062162,7889.0999795709349,-922.6449072158498,221.05416583764008,-221.05416583764008,922.6449072158498,15374.164436239524,0.0
425012.02908761695,3842225.878295721,-7500.0,4461.2337678978165,-6853.071687533773,8918.9427415172449,-908.10305903865924,1285.4803929517691,125.58299132374454,7295.6470786988648,-1635.0832106397022,1347.6646793937268,-1347.6646793937268,1635.0832106397022,14363.885755812602,0.0
430012.02908761695,3842225.878295721,-7500.0,5110.0716140030991,-6512.7832241303558,7678.5515864704557,-906.95334359112212,1125.0802941163026,113.47000258669931,6718.5028571990124,-2091.8749086783341,2181.4396172238735,-2181.4396172238735,2091.8749086783341,13338.32576757732,0.0
435012.02908761695,3842225.878295721,-7500.0,5508.3787699193144,-6071.3862953565576,6580.6938609471381,-880.70517860099301,976.43662201314578,101.23829402401708,6169.0014363554001,-2354.7070660198779,2769.4932857869153,-2769.4932857869153,2354.7070660198779,12327.107974692219,0.0
440012.02908761695,3842225.878295721,-7500.0,5710.129668592238,-5582.6861054597093,5626.6101612169659,-838.47057733084398,842.57006431636171,89.513701034826909,5706.2496172905276,-2475.4279783489828,3159.0294208016985,-3159.0294208016985,2475.4279783489828,11351.95544430082,0.0
275012.02908761695,3847225.878295721,-7500.0,-7092.1050195673424,-693.42010268176227,2528.4949035590876,-730.32430342013481,119.3037334881197,-43.322001367467223,4901.8591156446992,1719.444244202366,-5949.4238147647247,5949.4238147647247,-1719.444244202366,8804.1512242166264,0.0
280012.02908761695,3847225.878295721,-7500.0,-8720.678360613776,-1756.5405683462341,2198.7301936901113,-970.28277041502986,2.0508769419004302,-65.377666695056888,5790.8564536032982,868.34492793092249,-6877.9729095337971,6877.9729095337971,-868.34492793092249,10569.655232193058,0.0
285012.02908761695,3847225.878295721,-7500.0,-10549.449394035248,-3174.7516229795356,1543.6175359998072,-1266.2669623463541,-179.34854053447879,-95.32834297659214,6904.0659811770875,-427.60154899618828,-7792.8770251899186,7792.8770251899186,427.60154899618828,12816.101845684319,0.0
290012.02908761695,3847225.878295721,-7500.0,-12537.914142769208,-5016.7357136796136,412.36095072670753,-1624.1514182128501,-448.82371978481291,-135.36372512473756,8292.4016348294426,-2311.735450330355,-8604.237302881189,8604.237302881189,2311.735450330355,15650.472370982399,0.0
295012.02908761695,3847225.878295721,-7500.0,-14603.884302952561,-7339.6770796858282,-1394.6410797532294,-2045.744699284674,-836.15655400808885,-187.91052284507236,10010.960030477099,-4949.2262980862379,-9177.1099449017929,9177.1099449017929,4949.2262980862379,19187.119871733277,0.0
300012.02908761695,3847225.878295721,-7500.0,-16608.678488813173,-10168.078043943509,-4129.5402338858194,-2525.1900676692121,-1376.3175977017788,-255.3654970295641,12114.721713879473,-8513.211817769301,-9322.5544372700606,9322.5544372700606,8513.211817769301,23538.615549522838,0.0
305012.02908761695,3847225.878295721,-7500.0,-18344.480176510911,-13460.778629756247,-8090.1089996097244,-3044.0220054380143,-2106.7593626061052,-339.58013488760946,14650.914076484971,-13155.044313948703,-8795.5665903498739,8795.5665903498739,13155.044313948703,28799.146248025583,0.0
310012.02908761695,3847225.878295721,-7500.0,-19531.153179135028,-17065.103919196779,-13591.851178722291,-3565.2374187948603,-3061.3066178044937,-441.00983224645859,17647.459888466627,-18951.296190027526,-7308.8167629945974,7308.8167629945974,18951.296190027526,35017.533011182277,0.0
315012.02908761695,3847225.878295721,-7500.0,-19834.549420398005,-20662.311384995046,-20905.186662898454,-4027.7326979922568,-4259.1820948237182,-557.52136571447841,21122.616604281895,-25822.002428052885,-4575.0338050137398,4575.0338050137398,25822.002428052885,42157.702767201052,0.0
320012.02908761695,3847225.878295721,-7500.0,-18922.232087043863,-23719.253125364303,-30143.245427949871,-4344.0454135511427,-5688.4143300624037,-683.03632143502966,25164.818311826089,-33422.874373541905,-392.29457656156592,392.29457656156592,33422.874373541905,50047.346907682935,0.0
325012.02908761695,3847225.878295721,-7500.0,-16570.35264332841,-25478.043237291229,-41095.065846745907,-4406.1316701302658,-7285.2133894161989,-806.54961454387853,29419.884060968143,-41033.642395760042,5220.7114946437578,-5220.7114946437578,41033.642395760042,58321.684173141868,0.0
330012.02908761695,3847225.878295721,-7500.0,-12818.748836675633,-25033.880455394657,-53027.438353464117,-4104.5844015818739,-8915.4908050287613,-912.46380032501781,33535.712284132271,-47497.506568771794,11856.788452333931,-11856.788452333931,47497.506568771794,66380.123037902595,0.0
335012.02908761695,3847225.878295721,-7500.0,-8131.3330184445085,-21553.994921352511,-64532.116012257582,-3363.6497006236436,-10370.527175223597,-983.26592597175511,37067.118679776293,-51302.859817557372,18584.591080093451,-18584.591080093451,51302.859817557372,73386.713901033887,0.0
340012.02908761695,3847225.878295721,-7500.0,-3461.4570109541678,-14647.626282542349,-73558.916674139648,-2185.3402408880047,-11391.545404371947,-1004.6893270457281,39491.50353770869,-50903.818811589583,23966.988097531263,-23966.988097531263,50903.818811589583,78352.987533681415,0.0
345012.02908761695,3847225.878295721,-7500.0,-89.01231664095998,-4783.7475694502318,-77792.494684357618,-683.01261362782043,-11730.55766497663,-971.42651662302069,40309.079681208757,-45294.32322552579,26368.139362320871,-26368.139362320871,45294.32322552579,80330.027767771098,0.0
350012.02908761695,3847225.878295721,-7500.0,834.17592646796334,6494.405440949522,-75408.748353789633,921.88352648341413,-11233.807551951997,-889.59319535786244,39499.274213861943,-34651.927865735117,24570.139826328457,-24570.139826328457,34651.927865735117,78690.574367613022,0.0
355012.02908761695,3847225.878295721,-7500.0,-1119.8405964782821,16845.915890878488,-65955.587147070401,2353.3131562955227,-9910.3075592104833,-773.25115742723983,37267.573380049827,-20652.549191996179,18460.720293908489,-18460.720293908489,20652.549191996179,73408.970996984906,0.0
360012.02908761695,3847225.878295721,-7500.0,-5297.1371029083002,23946.661742165816,-50827.239841127863,3366.8202032596637,-7944.9986705748224,-637.17785558220442,33644.547428828919,-6083.5524939026482,9330.5561875708991,-9330.5561875708991,6083.5524939026482,65196.450601830453,0.0
365012.02908761695,3847225.878295721,-7500.0,-10178.119350164179,26446.108311116492,-32894.386158989371,3826.1197442751268,-5644.771178659752,-491.93543145281728,29240.725590920665,6188.9013240436234,-552.24886301067318,552.24886301067318,-6188.9013240436234,55385.762711859708,0.0
370012.02908761695,3847225.878295721,-7500.0,-14092.144201794967,24453.097672918633,-15413.234156777786,3733.4283625544945,-3344.6352632231169,-344.65887118265186,24784.702980597467,14304.942394747348,-8901.272718404125,8901.272718404125,-14304.942394747348,45586.593104902662,0.0
375012.02908761695,3847225.878295721,-7500.0,-15944.153212126776,19265.223724861611,-881.90499409534846,3206.286799227235,-1318.6756448454958,-202.58934259331781,20902.499896823789,17887.123913454372,-14282.658315292823,14282.658315292823,-17887.123913454372,37243.373760842602,0.0
380012.02908761695,3847225.878295721,-7500.0,-15507.306002522839,12629.052530083765,9525.3347502719516,2421.0937385250572,271.02006281159083,-74.382441430168001,17936.428663143764,17755.442267200662,-16405.094665235411,16405.094665235411,-17755.442267200662,31221.238686977118,0.0
385012.02908761695,3847225.878295721,-7500.0,-13240.856105651725,6054.0442421867965,15837.593988594954,1553.3758923156545,1378.9471397098753,31.903745072213866,15883.547710398925,15259.865607675179,-15842.495585852259,15842.495585852259,-15259.865607675179,27543.944882610351,0.0
390012.02908761695,3847225.878295721,-7500.0,-9901.4817022765164,483.20076861934075,18801.954332257737,737.47079637346758,2047.1611986963887,111.54852311377073,14496.89701587009,11692.846756142249,-13538.573598454581,13538.573598454581,-11692.846756142249,25527.324326926002,0.0
395012.02908761695,3847225.878295721,-7500.0,-6214.2880448912965,-3701.3385536680053,19396.487240752966,52.559297840609986,2364.3739980404398,164.24421031557836,13476.523835414177,7991.8494194683553,-10405.487370639123,10405.487370639123,-7991.8494194683553,24312.900487929226,0.0
400012.02908761695,3847225.878295721,-7500.0,-2707.1387283797135,-6508.2809550823795,18519.316023759948,-471.20935086883333,2430.7728680305036,193.25322839387755,12603.363898702924,4695.8990422741945,-7125.3883882042564,7125.3883882042564,-4695.8990422741945,23299.675194074833,0.0
405012.02908761695,3847225.878295721,-7500.0,317.46866521933043,-8149.3525288086275,16859.39299968052,-837.5101787710114,2336.1130488731842,203.70075251574519,11764.718353544391,2031.8667508920068,-4115.5440032988827,4115.5440032988827,-2031.8667508920068,22209.064058960525,0.0
410012.02908761695,3847225.878295721,-7500.0,2738.8936320309845,-8901.5251260494406,14884.167750459721,-1068.2814102495363,2150.4324227027992,201.01880379014307,10922.972647903134,29.998109665665538,-1576.9858936225646,1576.9858936225646,-29.998109665665538,20970.929415745868,0.0
415012.02908761695,3847225.878295721,-7500.0,4555.8642710323029,-9028.9086836561637,12879.560580562251,-1192.0366143255169,1923.1387921253313,189.98023279537267,10078.950560711906,-1380.6808092343681,434.70005716927557,-434.70005716927557,1380.6808092343681,19611.399106385517,0.0
420012.02908761695,3847225.878295721,-7500.0,5831.9808747670495,-8749.3293336490588,11001.905423171589,-1236.7811797537622,1686.1971003263077,174.30329627560201,9247.5928129084605,-2309.3965393350531,1947.2529736164299,-1947.2529736164299,2309.3965393350531,18186.757765680584,0.0
425012.02908761695,3847225.878295721,-7500.0,6657.4759085921178,-8227.2246431689309,9323.444654844634,-1226.5930263967248,1458.5126940896821,156.63454986172843,8445.5197258251792,-2868.449197567576,3027.6352387912434,-3027.6352387912434,2868.449197567576,16752.803132469246,0.0
430012.02908761695,3847225.878295721,-7500.0,7126.163662777969,-7579.0528616907441,7866.0533141568458,-1180.5528929742752,1250.0070034059997,138.7136244930534,7686.39238683038,-3156.8469848046361,3754.8339934233163,-3754.8339934233163,3156.8469848046361,15353.71718746081,0.0
435012.02908761695,3847225.878295721,-7500.0,7323.5189107552951,-6882.9979970464565,6623.914094342028,-1112.9366909251573,1064.8361684741972,121.59201515440938,7042.6044191531364,-3254.8961299117191,4205.1093995215851,-4205.1093995215851,3254.8961299117191,14020.099567344063,0.0
440012.02908761695,3847225.878295721,-7500.0,7321.8310737160318,-6188.8332458186114,5577.6969354796038,-1033.9502750091217,903.69718781292181,105.83706746940273,6444.9742113019747,-3224.3637081013039,4445.2522908951414,-4445.2522908951414,3224.3637081013039,12770.632250274515,0.0
445012.02908761695,3847225.878295721,-7500.0,7179.3506043498901,-5526.2819054975935,4702.9035567966203,-950.59769802671701,765.37391952228802,91.696051812782088,5884.3331686129277,-3110.9936562001099,4530.4643152612116,-4530.4643152612116,3110.9936562001099,11614.779834433075,0.0
270012.02908761695,3852225.878295721,-7500.0,-5045.2832397466864,1153.8677822704192,3389.2142243100357,-435.51517229224532,334.85009529217251,-15.718040684113664,4404.5278863880876,3458.5852950405997,-5008.4893443829233,5008.4893443829233,-3458.5852950405997,7675.6136808548436,0.0
275012.02908761695,3852225.878295721,-7500.0,-6605.4595524985734,511.54680363685389,3498.9825139110089,-633.16488045693541,292.25044966939754,-30.818174060875258,5119.0658107973595,3186.4782304728569,-6095.5474374503965,6095.5474374503965,-3186.4782304728569,9007.5823883609937,0.0
280012.02908761695,3852225.878295721,-7500.0,-8467.7297175656913,-438.14703370128711,3441.9728390740902,-889.91792619826538,206.05409774207629,-52.560204009759758,6024.8086544152065,2607.7004524519871,-7303.5008845990669,7303.5008845990669,-2607.7004524519871,10747.701249498836,0.0
285012.02908761695,3852225.878295721,-7500.0,-10647.34266067273,-1789.7459476678314,3106.7052127532993,-1218.5359567385772,55.045832607736671,-83.288603553062558,7178.7814968258881,1585.5281241234347,-8592.5650435768839,8592.5650435768839,-1585.5281241234347,13021.049006258825,0.0
290012.02908761695,3852225.878295721,-7500.0,-13132.601642977959,-3651.558218204013,2329.9915011998569,-1631.5779204851542,-189.85774846804432,-125.92234600742125,8650.1789516894733,-59.438595074167097,-9883.9978347626438,9883.9978347626438,59.438595074167097,15976.370446361219,0.0
295012.02908761695,3852225.878295721,-7500.0,-15866.154978318438,-6136.1489821379519,880.36077382772521,-2138.8256051850562,-567.22021325097546,-183.89450427269006,10519.58866917132,-2552.5790452605042,-11042.290506915004,11042.290506915004,2552.5790452605042,19783.876656685748,0.0
300012.02908761695,3852225.878295721,-7500.0,-18720.397658934966,-9339.4516995607555,-1557.9130544838865,-2742.8022001908475,-1125.8576213850868,-260.87592216658715,12875.688397414058,-6159.4576337363806,-11854.925515911269,11854.925515911269,6159.4576337363806,24628.057068305672,0.0
305012.02908761695,3852225.878295721,-7500.0,-21469.30131655794,-13302.218627618589,-5393.3107316413998,-3431.7444090624999,-1923.4140264291912,-360.12052386999449,15807.689615260502,-11161.67546751137,-12014.614875321491,12014.614875321491,11161.67546751137,30691.370614810196,0.0
310012.02908761695,3852225.878295721,-7500.0,-23764.12860423846,-17947.307635988898,-11114.561795545224,-4169.7903616885269,-3020.4895051773519,-483.22346159960892,19391.362511979056,-17800.704247576152,-11114.944747916645,11114.944747916645,17800.704247576152,38123.061254520311,0.0
315012.02908761695,3852225.878295721,-7500.0,-25129.224177840224,-22990.196258234351,-19234.346233799948,-4885.4168058382475,-4467.1930021681274,-628.14444234601842,23669.086365666346,-26173.222296411295,-8679.2566551495638,8679.2566551495638,26173.222296411295,46986.575994370978,0.0
320012.02908761695,3852225.878295721,-7500.0,-25005.721154519662,-27832.89869271393,-30157.10276044187,-5461.8463013763458,-6278.9504200314186,-786.6281657303856,28687.998272466222,-36065.713056792694,-4252.3380510866737,4252.3380510866737,36065.713056792694,57180.806980068701,0.0
325012.02908761695,3852225.878295721,-7500.0,-22880.021171915272,-31479.368694560057,-43938.811967110982,-5737.388036129345,-8401.0043617174506,-941.8812151051892,34405.011371067194,-46738.339298233892,2413.0178139940108,-2413.0178139940108,46738.339298233892,68337.989448175023,0.0
330012.02908761695,3852225.878295721,-7500.0,-18524.38297967472,-32554.66643870571,-59935.292528144579,-5527.6930741212336,-10668.681843628532,-1068.4830830526296,40235.50649769904,-56721.828276741799,11065.605465189743,-11065.605465189743,56721.828276741799,79718.153342582897,0.0
335012.02908761695,3852225.878295721,-7500.0,-12321.992916016741,-29552.430636683654,-76421.636365362516,-4680.3946056718896,-12783.887452612982,-1137.3499108138794,45521.89532924832,-63779.875851020253,20627.82828838117,-20627.82828838117,63779.875851020253,90148.944774935851,0.0
340012.02908761695,3852225.878295721,-7500.0,-5527.9118402370677,-21414.462212132374,-90418.020898628296,-3157.3302972838087,-14340.565557786234,-1127.0978250970538,49443.723458343033,-65269.625720137861,29032.899808999053,-29032.899808999053,65269.625720137861,98091.19533631338,0.0
345012.02908761695,3852225.878295721,-7500.0,-176.71452246638137,-8365.4011191654845,-98097.599644582544,-1108.9967408616737,-14924.677829167598,-1037.5637061500756,51141.088874632893,-59074.17256574145,33552.904017709778,-33552.904017709778,59074.17256574145,101915.71588461431,0.0
350012.02908761695,3852225.878295721,-7500.0,1631.1078348663675,7438.9671917909973,-96048.87844512194,1118.3735470185973,-14270.257791239794,-894.27035516315141,50451.328799234441,-44916.062205149647,31838.818869853014,-31838.818869853014,44916.062205149647,100407.99817149265,0.0
355012.02908761695,3852225.878295721,-7500.0,-1078.8539815443489,22166.900378654846,-83072.354364217521,3079.8652806353512,-12391.627813843677,-734.63544632973435,47514.403158560526,-25257.498868472801,23353.394687561842,-23353.394687561842,25257.498868472801,93351.511617460972,0.0
360012.02908761695,3852225.878295721,-7500.0,-7283.4739416316606,31813.474379603016,-61363.776408155951,4393.9943263848882,-9601.0979649015226,-583.83108087617381,42477.070815473358,-4778.8270073116646,10177.008957006747,-10177.008957006747,4778.8270073116646,81869.64823901809,0.0
365012.02908761695,3852225.878295721,-7500.0,-14317.017972205002,34178.420239576852,-35889.45587843137,4874.2453680193767,-6396.8456896886273,-443.10743522318921,36366.329073111418,11670.04762466769,-3758.6454327219344,3758.6454327219344,-11670.04762466769,68232.517780433191,0.0
370012.02908761695,3852225.878295721,-7500.0,-19364.568025442004,29819.232367698296,-12121.665780300829,4563.6639025242675,-3293.471687906509,-301.48600038346103,30389.219365613029,21277.759720432106,-14661.463490335111,14661.463490335111,-21277.759720432106,55139.554754706398,0.0
375012.02908761695,3852225.878295721,-7500.0,-20889.0869373645,21304.767273618385,6213.8263109182681,3678.1735605866525,-680.96209028798501,-155.06292622320674,25480.303525062336,24028.962714038236,-20559.273869738172,20559.273869738172,-24028.962714038236,44790.317483318802,0.0
380012.02908761695,3852225.878295721,-7500.0,-18981.947572868445,11612.758429046969,17939.355738921426,2504.6520754219914,1242.9891274929671,-13.501354994942174,21987.682054526253,21823.601902195336,-21579.344252078849,21579.344252078849,-21823.601902195336,38087.638689766703,0.0
385012.02908761695,3852225.878295721,-7500.0,-14760.912109928646,2924.3596756290171,23812.719935456847,1303.855341540514,2463.3949246805851,107.70654605175861,19683.704249854462,17053.112182428129,-19121.059646175883,19121.059646175883,-17053.112182428129,34415.475927378553,0.0
390012.02908761695,3852225.878295721,-7500.0,-9562.0360067628862,-3712.2522464856238,25439.651884768678,253.30014913795443,3087.4991194884151,197.31988392182652,18085.192131203559,11631.332611972897,-14852.547639646798,14852.547639646798,-11631.332611972897,32386.758703348209,0.0
395012.02908761695,3852225.878295721,-7500.0,-4433.3369142417314,-8131.9666842354281,24447.509945205038,-562.5770819349475,3273.0767614547976,252.52428002831002,16783.751277217198,6699.7653667178329,-10104.257311243126,10104.257311243126,-6699.7653667178329,30857.805993516013,0.0
400012.02908761695,3852225.878295721,-7500.0,9.7489485191435108,-10648.319934137095,22103.566749425019,-1131.3492867734833,3174.8199013056092,277.40857101027365,15559.294953788445,2747.4622036858664,-5698.2719411589433,5698.2719411589433,-2747.4622036858664,29266.589378737135,0.0
405012.02908761695,3852225.878295721,-7500.0,3518.4705586252335,-11736.056379961174,19248.759169638884,-1482.490695023361,2917.2432989858607,279.38948815933713,14337.295374518721,-147.28016365629401,-2022.8640394750387,2022.8640394750387,147.28016365629401,27462.968256900876,0.0
410012.02908761695,3852225.878295721,-7500.0,6081.7356913320082,-11853.024711801299,16374.197288657482,-1662.2402377134233,2588.2030388905591,266.23263416764013,13117.153672837891,-2108.8562949186826,820.72075776566157,-820.72075776566157,2108.8562949186826,25484.873564846388,0.0
415012.02908761695,3852225.878295721,-7500.0,7811.3660196205774,-11368.336235820863,13729.765499327854,-1717.8150303751092,2243.4143278728716,244.44773101539596,11923.687359418009,-3330.9267069987836,2887.4850354494729,-2887.4850354494729,3330.9267069987836,23425.164787838577,0.0
420012.02908761695,3852225.878295721,-7500.0,8864.3730660668825,-10550.229815831239,11417.040560590813,-1689.7710408947753,1914.6205269201639,218.79859278539641,10783.482338421514,-4006.6341791491695,4299.252501888358,-4299.252501888358,4006.6341791491695,21373.270398769171,0.0
425012.02908761695,3852225.878295721,-7500.0,9399.0799544864021,-9579.8130298261403,9454.8700157264375,-1609.6438796238474,1617.4839417184692,192.42651357748178,9716.2927000911568,-4299.6392418874966,5192.9720598569311,-5192.9720598569311,4299.6392418874966,19396.373271652632,0.0
430012.02908761695,3852225.878295721,-7500.0,9554.6337257151172,-8571.8937763900485,7820.7658188783416,-1500.3379369807067,1357.7446469941901,167.2067112150805,8803.7586461769279,-4337.0523013890142,5695.2034854773392,-5695.2034854773392,4337.0523013890142,17537.647149449876,0.0
435012.02908761695,3852225.878295721,-7500.0,9444.2986976159227,-7594.5516449856259,6475.014196828467,-1377.6192080987514,1135.5055409766514,144.12465517256803,7979.2038477185715,-4212.2828669461132,5912.2052009529934,-5912.2052009529934,4212.2828669461132,15820.502256277965,0.0
440012.02908761695,3852225.878295721,-7500.0,9155.8127207698035,-6684.6668680653975,5373.685532072931,-1251.8182871326405,947.98330525746883,123.58807281601452,7216.9834656788571,-3991.2924179019033,5928.24409791373,-5928.24409791373,3991.2924179019033,14253.982716115295,0.0
445012.02908761695,3852225.878295721,-7500.0,8754.756403452935,-5859.2084547103195,4475.0424610554792,-1129.3480606852702,791.16618381183889,105.65609657032891,6520.9461187796824,-3719.1650536282759,5807.6486936329657,-5807.6486936329657,3719.1650536282759,12837.534671411709,0.0
270012.02908761695,3857225.878295721,-7500.0,-3986.3357997946046,2381.4058468304274,4055.9748285829351,-279.72310774218658,493.27977936858537,0.28015965198788484,4707.69166059502,4705.5816565567784,-4636.3018026561931,4636.3018026561931,-4705.5816565567784,8154.0330171445021,0.0
275012.02908761695,3857225.878295721,-7500.0,-5620.4548409836552,1950.8628931805351,4409.4056910364297,-471.13498570906961,489.43526151176172,-12.541064781709112,5422.699274794546,4751.5947118736358,-5890.3890184207348,5890.3890184207348,-4751.5947118736358,9412.8820982771667,0.0
280012.02908761695,3857225.878295721,-7500.0,-7649.9237525768576,1217.3031891871683,4666.3552068127647,-730.77360705931278,448.33760099065586,-32.250872129130407,6330.0444239268509,4544.6054458491335,-7357.9162672775647,7357.9162672775647,-4544.6054458491335,11070.179514035284,0.0
285012.02908761695,3857225.878295721,-7500.0,-10128.995632123713,62.341600533278807,4725.2998607162517,-1077.5302111569854,347.27452590472478,-61.670478696093888,7497.0309268865967,3938.3711180070745,-9027.5169973185239,9027.5169973185239,-3938.3711180070745,13278.357577814135,0.0
290012.02908761695,3857225.878295721,-7500.0,-13093.246332091681,-1663.0664352256624,4425.3586357278227,-1532.6022195888445,153.16405451980748,-104.4873248535506,9011.1690206963158,2726.8104088094315,-10849.892705788188,10849.892705788188,-2726.8104088094315,16232.030026271716,0.0
295012.02908761695,3857225.878295721,-7500.0,-16537.254227897716,-4135.8090770827466,3519.9840888540471,-2117.2480125725483,-180.80209785278711,-165.28674513707068,10982.161020457002,629.39564918181532,-12713.123948914375,12713.123948914375,-629.39564918181532,20169.747406398954,0.0
300012.02908761695,3857225.878295721,-7500.0,-20380.583292936823,-7546.0028709057133,1644.7827235077425,-2847.9725904254869,-718.3717152042293,-249.32216144499958,13541.368243968596,-2718.220133605244,-14409.197444043019,14409.197444043019,2718.220133605244,25371.115929007672,0.0
305012.02908761695,3857225.878295721,-7500.0,-24420.821552629764,-12060.45339293022,-1715.5032562613537,-3727.6729523662157,-1541.7541218567046,-361.74211745856894,16836.549324645173,-7757.3191240205151,-15594.001674358253,15594.001674358253,7757.3191240205151,32144.719443159345,0.0
310012.02908761695,3857225.878295721,-7500.0,-28277.600100191146,-17749.880485843765,-7246.9254096062996,-4731.2177098033399,-2748.2879870489533,-505.84628335029203,21018.350026137145,-14963.011389262887,-15750.411684675768,15750.411684675768,14963.011389262887,40798.139213848808,0.0
315012.02908761695,3857225.878295721,-7500.0,-31343.481365638472,-24464.111771343421,-15783.285658564128,-5785.0189026941807,-4436.7759216948889,-679.86987133811272,26214.505314070015,-24733.596893455608,-14178.382877644573,14178.382877644573,24733.596893455608,51576.908898389469,0.0
320012.02908761695,3857225.878295721,-7500.0,-32779.647507886264,-31648.125342981017,-28186.240216351227,-6743.8391803789218,-6675.8004571476549,-872.09967960730228,32501.609743027377,-37172.656957983811,-10058.844013358761,10058.844013358761,37172.656957983811,64556.759407431025,0.0
325012.02908761695,3857225.878295721,-7500.0,-31625.175564111258,-38125.44935499729,-45049.786169441475,-7376.1229411918403,-9447.2011860700441,-1055.383899960239,39970.403679201154,-51735.01304104444,-2664.1356690104112,2664.1356690104112,51735.01304104444,79477.921128537419,0.0
330012.02908761695,3857225.878295721,-7500.0,-27110.894188423772,-41953.590364740019,-66152.956036494157,-7381.1215564008107,-12568.182500254514,-1184.9580272603816,48204.114521747913,-66771.802624403426,8208.3748753855434,-8208.3748753855434,66771.802624403426,95531.515721786593,0.0
335012.02908761695,3857225.878295721,-7500.0,-19228.367747658023,-40581.150382699045,-89681.081938717703,-6468.2460176135555,-15622.488136069487,-1207.160105366062,56175.252373856179,-79171.91139561485,21583.228642305236,-21583.228642305236,79171.91139561485,111158.36531112541,0.0
340012.02908761695,3857225.878295721,-7500.0,-9409.7926722932079,-31630.657466395111,-111520.13482502384,-4508.8676111864679,-17969.654653235775,-1085.9866320022365,62597.487313519494,-84554.06551195911,34689.800620136644,-34689.800620136644,84554.06551195911,124003.89109248029,0.0
345012.02908761695,3857225.878295721,-7500.0,-790.77501026395612,-14452.570960523433,-125387.57365034791,-1701.3676661041193,-18909.744808637784,-840.15722282872275,65976.462932588693,-78609.95385630535,43044.939238628867,-43044.939238628867,78609.95385630535,131248.85343674937,0.0
350012.02908761695,3857225.878295721,-7500.0,2748.9809125608235,8162.8252997834879,-124764.7171227123,1391.727181972924,-17989.710118707273,-556.65636829182858,65578.199212835272,-59704.350590313683,42056.16697432111,-42056.16697432111,59704.350590313683,130482.76232957159,0.0
355012.02908761695,3857225.878295721,-7500.0,-1034.684988429437,29794.296285404504,-106602.52499831452,4039.9306450852205,-15265.684814957798,-343.70318726523175,61684.989769451378,-31328.586742689829,30029.364726801734,-30029.364726801734,31328.586742689829,120951.14115759671,0.0
360012.02908761695,3857225.878295721,-7500.0,-10542.331907412854,43172.591549291603,-74402.372931652717,5668.8652642924662,-11296.519241899798,-246.95230683297046,54516.02751795845,-1688.8571370364816,10393.832229374941,-10393.832229374941,1688.8571370364816,104462.54433402745,0.0
365012.02908761695,3857225.878295721,-7500.0,-20851.52336621466,44554.201771051281,-37231.429252797774,6065.0439092601273,-6882.3973716533783,-217.94356621501905,45861.567789223402,20579.456693758984,-9668.6001007928826,9668.6001007928826,-20579.456693758984,85086.480520808895,0.0
370012.02908761695,3857225.878295721,-7500.0,-27062.305331225147,35722.821736074984,-4664.5620070968307,5368.620130993756,-2775.3600821920372,-173.62037921936448,37789.212426416583,31240.720689753034,-23661.51939526436,23661.51939526436,-31240.720689753034,67530.352553764824,0.0
375012.02908761695,3857225.878295721,-7500.0,-27219.130912415047,21871.992904390088,17881.058670366539,3950.2568676496276,502.39835286872312,-73.062330183289561,31651.948253069557,31541.754021075103,-29143.659645174943,29143.659645174943,-31541.754021075103,55039.679518447701,0.0
380012.02908761695,3857225.878295721,-7500.0,-22415.721283696908,8023.4306783528245,29950.89042354437,2253.8723785426619,2732.1216931428949,66.351020745411873,27602.522580332039,25626.810691586201,-27527.269542729868,27527.269542729868,-25626.810691586201,47970.35808229907,0.0
385012.02908761695,3857225.878295721,-7500.0,-15065.373797349808,-2936.8754057930896,33990.629884979571,650.8767746201728,3967.7572510593909,203.18770705025941,24952.659106212606,17551.31503809672,-21827.140306843903,21827.140306843903,-17551.31503809672,44328.115054616494,0.0
390012.02908761695,3857225.878295721,-7500.0,-7345.3986261850605,-10216.628908246701,33070.95545596601,-639.28932050915989,4426.3112994542407,306.0402143165158,22929.879978862897,9902.1727682837954,-14773.50899326571,14773.50899326571,-9902.1727682837954,41903.749457769991,0.0
395012.02908761695,3857225.878295721,-7500.0,-586.50928549917739,-14241.328207162789,29673.115036127008,-1546.0389744966606,4367.7473973319547,364.28238071872801,21081.927879675448,3812.4791193710889,-8096.4432922730821,8096.4432922730821,-3812.4791193710889,39504.770839427663,0.0
400012.02908761695,3857225.878295721,-7500.0,4668.5604642626959,-15863.320044322541,25406.146391156726,-2097.6613995059201,4017.1716259279183,382.62732612523462,19252.164220562314,-512.20517906528039,-2595.859781542722,2595.859781542722,512.20517906528039,36794.631698281431,0.0
405012.02908761695,3857225.878295721,-7500.0,8382.6133336340517,-15919.221848478534,21157.728624454296,-2367.3149582974038,3536.4292240865243,372.2055124007199,17434.964903888602,-3302.4225388929553,1534.3758405540968,-1534.3758405540968,3302.4225388929553,33827.510929544522,0.0
410012.02908761695,3857225.878295721,-7500.0,10764.402788012514,-15063.789447114985,17339.645373990661,-2435.9457745535506,3026.8941740844375,344.41308461447022,15673.067255038439,-4919.9651591548818,4410.0364359912992,-4410.0364359912992,4919.9651591548818,30763.045663923964,0.0
415012.02908761695,3857225.878295721,-7500.0,12100.664046625003,-13750.167065339094,14090.813353093779,-2373.7877324308656,2544.2936877650623,308.22481124695429,14010.196099211344,-5711.3692106395029,6263.5351213422291,-6263.5351213422291,5711.3692106395029,27749.183966864945,0.0
420012.02908761695,3857225.878295721,-7500.0,12668.997892286761,-12266.146775652111,11411.489888594137,-2234.5042756449884,2114.3825027560197,269.70599685885452,12476.009795498792,-5955.9001777320727,7341.3611194123014,-7341.3611194123014,5955.9001777320727,24889.70661602472,0.0
425012.02908761695,3857225.878295721,-7500.0,12702.593777727148,-10781.074926975924,9241.4506158479035,-2055.8173930527305,1745.1934834823317,232.48292757051257,11160.112265823194,-5859.0696663531553,7859.5682426673275,-7859.5682426673275,5859.0696663531553,22244.84937673507,0.0
430012.02908761695,3857225.878295721,-7500.0,12382.505948491529,-9386.0188062717443,7501.3585437207112,-1862.565606999091,1435.2894949856172,198.44274811928199,10001.189982960004,-5563.5995818650517,7990.5502784002438,-7990.5502784002438,5563.5995818650517,19841.483170548054,0.0
435012.02908761695,3857225.878295721,-7500.0,11842.379921715239,-8123.3505592945721,6112.6800824427082,-1670.1337444764056,1178.8303735698662,168.3578411447798,8948.0956191070818,-5164.4588884263758,7864.4004993875515,-7864.4004993875515,5164.4588884263758,17684.090182900032,0.0
440012.02908761695,3857225.878295721,-7500.0,11177.236593139418,-7006.6837718421684,5005.8837855219635,-1487.3793103285755,968.4346033718117,142.34455151043713,8001.9517052249766,-4722.4992955774396,7575.6450944058852,-7575.6450944058852,4722.4992955774396,15763.42496670143,0.0
445012.02908761695,3857225.878295721,-7500.0,10452.556285544457,-6033.6674978773954,4122.8121167788013,-1318.8650566924748,796.6791681813163,120.16900105324264,7158.2235766727681,-4275.1891931938726,7191.0379229560467,-7191.0379229560467,4275.1891931938726,14062.725863233754,0.0
265012.02908761695,3862225.878295721,-7500.0,-1205.359172456356,3681.4812293561904,4018.6840272660233,50.653469127862017,602.55524305832523,25.665789796193138,4548.8361949322489,5406.3466135814542,-2775.2202970596359,2775.2202970596359,-5406.3466135814542,8008.2426373350963,0.0
270012.02908761695,3862225.878295721,-7500.0,-2418.6712201656123,3713.1982794061241,4581.6132987205337,-63.291553836607783,658.59605931683495,21.205678209495421,5142.5035078431056,5896.3761990781713,-3858.677040029927,3858.677040029927,-5896.3761990781713,8975.184583163531,0.0
275012.02908761695,3862225.878295721,-7500.0,-4016.3800921941211,3574.7187171904479,5177.3115973935346,-231.13818359241793,702.55442083568835,12.419498008134347,5869.1764285810405,6312.4664570920195,-5210.1944165532586,5210.1944165532586,-6312.4664570920195,10182.952231710422,0.0
280012.02908761695,3862225.878295721,-7500.0,-6091.9378795381981,3171.3606825754905,5764.9494230703385,-472.53806436275778,720.68313854669043,-2.935320892599683,6778.320012397573,6565.8644111832837,-6870.8541217533002,6870.8541217533002,-6565.8644111832837,11741.623674140006,0.0
285012.02908761695,3862225.878295721,-7500.0,-8747.9013398329134,2369.8338855741445,6266.602937611653,-812.70330745279477,690.88037078773209,-28.035217464585468,7940.969758154687,6516.8581867369421,-8870.4093249892339,8870.4093249892339,-6516.8581867369421,13813.3515733903,0.0
290012.02908761695,3862225.878295721,-7500.0,-12085.376592108258,987.8835752824923,6543.8150416376739,-1282.6999131097843,578.60049073728726,-67.244517037989752,9457.0149147465672,5952.1912120334937,-11210.228341230075,11210.228341230075,-5952.1912120334937,16627.153353907815,0.0
295012.02908761695,3862225.878295721,-7500.0,-16182.497037698109,-1213.9526722282621,6362.4963066589598,-1918.37273974867,331.36825613807935,-126.29736588585386,11462.573665347509,4556.5804175074099,-13834.630461307815,13834.630461307815,-4556.5804175074099,20491.029207975967,0.0
300012.02908761695,3862225.878295721,-7500.0,-21055.616691821077,-4532.0202992802051,5343.1573549667346,-2756.3693375293501,-127.89765322923125,-212.19852089013352,14135.691741223178,1881.3161374056399,-16585.930449219657,16585.930449219657,-1881.3161374056399,25798.489854011208,0.0
305012.02908761695,3862225.878295721,-7500.0,-26595.939982170486,-9297.9919247826947,2896.2064055748956,-3824.7345454471488,-907.50550569470818,-332.41296422490552,17697.534506413911,-2680.532765203523,-19139.627711819288,19139.627711819288,2680.532765203523,33025.841545141324,0.0
310012.02908761695,3862225.878295721,-7500.0,-32476.605765234624,-15813.812677755255,-1849.3182568199754,-5124.4556542513355,-2149.9958486414071,-492.55429894587604,22404.565552094882,-9889.8137496549207,-20922.144168549417,20922.144168549417,9889.8137496549207,42711.861892282723,0.0
315012.02908761695,3862225.878295721,-7500.0,-38036.027607673044,-24209.019101526934,-10094.781968389796,-6598.0710886678771,-4023.6079550452782,-691.34394346023055,28524.671179814588,-20583.108844113576,-21029.964548268257,21029.964548268257,20583.108844113576,55401.113102961514,0.0
320012.02908761695,3862225.878295721,-7500.0,-42172.485462868091,-34179.417874968116,-23329.297236459937,-8084.7243753848716,-6687.701181017268,-911.54053542298698,36293.302293804853,-35444.545711365892,-18205.000346676039,18205.000346676039,35444.545711365892,71519.268256371535,0.0
325012.02908761695,3862225.878295721,-7500.0,-43344.023327560732,-44585.634376339614,-43059.216405407635,-9273.0608988480817,-10211.828700306412,-1107.1523550038044,45916.09187314842,-54524.383190367502,-10983.707698254391,10983.707698254391,54524.383190367502,91139.753790805393,0.0
330012.02908761695,3862225.878295721,-7500.0,-39856.756679864338,-52984.701643728149,-70099.33663796274,-9690.1865987000601,-14435.139441079637,-1193.3149749333149,57383.885703572254,-76429.058136194275,1786.2586923569106,-1786.2586923569106,76429.058136194275,113612.11343882761,0.0
335012.02908761695,3862225.878295721,-7500.0,-30683.239369123206,-55408.171156772529,-103229.63260632685,-8800.0432870523418,-18797.82624777449,-1057.6183618465925,69449.767807451906,-97308.977235986167,19865.20005404581,-19865.20005404581,97308.977235986167,137085.67371022099,0.0
340012.02908761695,3862225.878295721,-7500.0,-16876.142931269434,-47088.35977106959,-137379.68608266348,-6279.2123471865198,-22278.629373090615,-621.29525472270927,80121.433749242933,-110311.76124182862,40086.365639104166,-40086.365639104166,110311.76124182862,158124.41021094934,0.0
345012.02908761695,3862225.878295721,-7500.0,-2889.5373154590643,-25002.554686484895,-162548.05765038572,-2394.2897279360968,-23661.259344492162,49.898491380484586,86779.566420339135,-106970.21150211728,55404.599568360107,-55404.599568360107,106970.21150211728,171874.76849060206,0.0
350012.02908761695,3862225.878295721,-7500.0,4126.0460906854951,8019.2923649372624,-166078.06080293778,1868.8047497411417,-22187.398033183676,683.61451166509528,87175.547779396627,-81971.418224276989,56787.362444828832,-56787.362444828832,81971.418224276989,173423.23571053674,0.0
355012.02908761695,3862225.878295721,-7500.0,-1123.9731524113065,41069.502511008031,-140179.70968760474,5271.1395822228997,-18121.562351184435,947.21702564859356,81909.667006663702,-39655.710768693905,39399.170935983515,-39399.170935983515,39655.710768693905,160491.24113467344,0.0
360012.02908761695,3862225.878295721,-7500.0,-16243.055138052525,60084.67409284944,-90370.590316809146,7051.0485510972403,-12559.025412551033,750.05616530232624,71417.987238321773,4854.174286309627,8953.7578815100969,-8953.7578815100969,-4854.174286309627,136000.58145781167,0.0
365012.02908761695,3862225.878295721,-7500.0,-31547.060306898147,58326.881092299875,-34384.990279322279,7131.8560640067817,-6708.6370927293628,339.95961504218332,58864.004521189265,35141.057269170684,-20536.242909617235,20536.242909617235,-35141.057269170684,107745.12395994167,0.0
370012.02908761695,3862225.878295721,-7500.0,-38233.228103395799,40981.265792049089,10223.874707691759,5839.7117372280727,-1506.348903503753,43.600753684564232,47917.676796951462,45076.104832292622,-37578.612948666327,37578.612948666327,-45076.104832292622,84296.67020305914,0.0
375012.02908761695,3862225.878295721,-7500.0,-34595.91976987425,18786.665049416595,36291.724164433392,3713.1629602859207,2423.7843541366624,-6.8379763400948192,40358.935437720298,39698.005755767044,-40181.429436657658,40181.429436657658,-39698.005755767044,69909.422884287909,0.0
380012.02908761695,3862225.878295721,-7500.0,-24425.485523907912,-151.57770186486471,46250.980231477581,1380.7118003160185,4847.3406302158992,118.35102304430529,35630.140637605466,27652.256334716294,-33162.367715135275,33162.367715135275,-27652.256334716294,62762.801539454638,0.0
385012.02908761695,3862225.878295721,-7500.0,-12431.151605027224,-12815.878908154344,46062.976724971057,-648.91105277686199,5925.6853879109485,290.83875198801513,32301.007731685266,15278.678221488455,-22403.875204540022,22403.875204540022,-15278.678221488455,58639.535352458413,0.0
390012.02908761695,3862225.878295721,-7500.0,-1708.5140026608074,-19588.13770514007,40980.012529630949,-2123.2734135038504,6041.8660447635111,425.38297452196531,29390.612662562678,5451.6613340024314,-11851.827122056009,11851.827122056009,-5451.6613340024314,54862.497374986713,0.0
395012.02908761695,3862225.878295721,-7500.0,6475.1346777709377,-22088.768853584505,34331.370829369553,-3019.7796521136311,5596.4474530841562,494.96493653711275,26544.887107784947,-1264.249330351711,-3287.943669533136,3287.943669533136,1264.249330351711,50629.797069854641,0.0
400012.02908761695,3862225.878295721,-7500.0,12017.914022526276,-21950.458888008805,27823.592420831992,-3441.6878158921145,4896.5609727591436,507.2331155098201,23740.878380653245,-5329.7036764184031,2897.4465567073244,-2897.4465567073244,5329.7036764184031,46012.84466824626,0.0
405012.02908761695,3862225.878295721,-7500.0,15340.802592430724,-20399.203309477329,22155.042808650254,-3527.5697344246832,4135.8940835832946,481.13188683140982,21054.106272265264,-7465.2513377004043,6967.7588285121083,-6967.7588285121083,7465.2513377004043,41298.082766815925,0.0
410012.02908761695,3862225.878295721,-7500.0,16997.965986782634,-18229.893278144707,17498.308704565337,-3402.1761787800347,3417.9892112862854,434.50947954243304,18557.674753378211,-8323.5012426939684,9391.9020259546087,-9391.9020259546087,8323.5012426939684,36737.517947523418,0.0
415012.02908761695,3862225.878295721,-7500.0,17496.978927238753,-15908.055820811576,13791.288803799083,-3159.7704716958119,2787.8066771711083,380.1563189698328,16295.34156004662,-8397.1306494382225,10632.151394026288,-10632.151394026288,8397.1306494382225,32492.381899657415,0.0
420012.02908761695,3862225.878295721,-7500.0,17240.09246247058,-13681.087987950978,10889.213935139833,-2864.3504698699753,2257.1019746977495,325.86461846603765,14363.089082639523,-8024.5800841158416,11067.942549445601,-11067.942549445601,8024.5800841158416,28642.941532328663,0.0
425012.02908761695,3862225.878295721,-7500.0,16521.688658950821,-11663.85431352116,8635.3033212538976,-2555.9515527284188,1821.0774080159383,275.73078924258982,12701.527390260804,-7424.584774699937,10983.703321081173,-10983.703321081173,7424.584774699937,25212.863046414386,0.0
430012.02908761695,3862225.878295721,-7500.0,15546.321030182458,-9895.9845698294794,6889.1527326740816,-2257.7047270671851,1468.0694610677426,231.49001744139645,11221.736106774655,-6731.892179870445,10581.376118169805,-10581.376118169805,6731.892179870445,22191.359802980343,0.0
435012.02908761695,3862225.878295721,-7500.0,14450.505457498584,-8377.2341333669629,5534.974279812197,-1981.6440636423677,1184.6517275559725,193.51671229654244,9916.851206921323,-6025.6141154520365,9998.9941875568911,-9998.9941875568911,6025.6141154520365,19549.038096816941,0.0
440012.02908761695,3862225.878295721,-7500.0,13322.046879077618,-7088.2272326716511,4481.2608346558291,-1732.924440112012,958.05925392269103,161.48060187111273,8773.2779907327877,-5349.4529690465424,9328.0653823920111,-9328.0653823920111,5349.4529690465424,17248.242281265349,0.0
445012.02908761695,3862225.878295721,-7500.0,12215.120946149462,-6002.0469555438012,3657.3491709003201,-1512.6603593054347,777.15393928337915,134.73916205339196,7774.588831365415,-4725.2849023996705,8627.4871937030184,-8627.4871937030184,4725.2849023996705,15249.261075020337,0.0
450012.02908761695,3862225.878295721,-7500.0,11161.288828211482,-5090.3664059040921,3009.3389002401814,-1319.7415847517702,632.65334582344894,112.55629382310121,6903.8662890707174,-4161.9422535961294,7933.8740329039811,-7933.8740329039811,4161.9422535961294,13513.750723441204,0.0
265012.02908761695,3867225.878295721,-7500.0,722.30856980950432,4742.1611542936225,4197.7778499804936,291.30746802059315,722.52581137272966,46.733979706947771,5094.6608376877266,6135.3153661965553,-1576.9090315483359,1576.9090315483359,-6135.3153661965553,9174.3236527559584,0.0
270012.02908761695,3867225.878295721,-7500.0,-281.85940633615002,5066.122942223571,4904.8548295827186,219.23748314274658,819.75521288659684,47.334073392628397,5741.0835741157589,6919.9802738808958,-2598.2120184374139,2598.2120184374139,-6919.9802738808958,10220.564390036339,0.0
275012.02908761695,3867225.878295721,-7500.0,-1689.7477580168868,5289.7911778454372,5714.1650308582084,97.155383007575693,918.13557134099585,44.67775351502803,6512.7198265215529,7729.1398441560686,-3935.2806602113851,3935.2806602113851,-7729.1398441560686,11466.801193759324,0.0
280012.02908761695,3867225.878295721,-7500.0,-3626.9149702709901,5326.6311944742547,6613.2106202025716,-97.150143591201726,1007.3687384302481,36.581113294770333,7452.45774710765,8500.3099642124889,-5663.4184775302747,5663.4184775302747,-8500.3099642124889,12998.40009730388,0.0
285012.02908761695,3867225.878295721,-7500.0,-6246.8400037898537,5044.5345353305956,7560.9644682024627,-394.07423924823439,1068.8630168547436,19.775792613988511,8625.1703783283083,9121.2828501931272,-7862.2379125351554,7862.2379125351554,-9121.2828501931272,14954.364120804763,0.0
290012.02908761695,3867225.878295721,-7500.0,-9727.8231175447254,4247.1267756981397,8463.9102165125696,-834.09156791666385,1070.6575635513493,-10.482384426614738,10129.178425812599,9401.2557698797937,-10602.671852425956,10602.671852425956,-9401.2557698797937,17556.506142186845,0.0
295012.02908761695,3867225.878295721,-7500.0,-14259.410082519797,2651.4515876756291,9136.1804914348304,-1468.8892468548181,959.83486581703426,-60.794542056791229,12111.389290074243,9029.046633709293,-13920.477039468848,13920.477039468848,-9029.046633709293,21144.660980994351,0.0
300012.02908761695,3867225.878295721,-7500.0,-20009.022619855234,-133.76304567973756,9235.7760929695778,-2360.0267859655405,651.78991031942314,-139.75506205098947,14784.767431003995,7516.4116484442548,-17767.343758280447,17767.343758280447,-7516.4116484442548,26210.888232720841,0.0
305012.02908761695,3867225.878295721,-7500.0,-27054.510918894746,-4617.7113778248431,8167.8179573151665,-3571.6922752491637,16.465862818056568,-257.26218032419837,18444.473731392609,4129.4263365993302,-21927.813584905729,21927.813584905729,-4129.4263365993302,33422.821978118431,0.0
310012.02908761695,3867225.878295721,-7500.0,-35264.000070671063,-11399.204708487503,4949.541712200059,-5151.3775507967457,-1135.8963965196579,-421.73456385984099,23476.418690857616,-2175.7407835837039,-25890.3516047704,25890.3516047704,2175.7407835837039,43626.68869445919,0.0
315012.02908761695,3867225.878295721,-7500.0,-44105.797972933033,-21050.054513713854,-1951.1788238242084,-7088.8408679733075,-3060.7600228593201,-632.76145541996118,30348.762881327617,-12766.399453450289,-28671.220663013151,28671.220663013151,12766.399453450289,57814.37241211129,0.0
320012.02908761695,3867225.878295721,-7500.0,-52393.376843265098,-33825.033943110349,-14743.920116283967,-9242.6275971167761,-6055.3474447642693,-865.22353401688508,39575.827592464928,-29192.271693582108,-28627.209378517342,28627.209378517342,29192.271693582108,77014.960582639513,0.0
325012.02908761695,3867225.878295721,-7500.0,-58042.816181025031,-49083.869222992958,-36241.345452015295,-11234.462282050679,-10362.016088889941,-1041.1471364213389,51692.755475564743,-52693.124223042541,-23387.136706491598,23387.136706491598,52693.124223042541,102030.41896864428,0.0
330012.02908761695,3867225.878295721,-7500.0,-58089.931441066525,-64351.581905035637,-69211.045593869421,-12357.188117541256,-15940.287195422443,-994.71478975585387,67307.074633074415,-83061.752422702135,-10218.499323492419,10218.499323492419,83061.752422702135,132899.44397774624,0.0
335012.02908761695,3867225.878295721,-7500.0,-49495.750524162991,-74228.539330203683,-114526.26373371639,-11643.306345940871,-22094.928273518093,-468.43978584141973,85520.361491842661,-116633.10783566735,12603.364177811185,-12603.364177811185,116633.10783566735,167993.45669592597,0.0
340012.02908761695,3867225.878295721,-7500.0,-31442.59627442218,-70189.598564026295,-167542.35910582432,-8337.857433468851,-27170.952966244731,763.90893595165403,103517.9849341073,-143871.04396557654,42868.234029455372,-42868.234029455372,143871.04396557654,202846.69836147592,0.0
345012.02908761695,3867225.878295721,-7500.0,-9005.0079002982875,-43672.218088261194,-213631.25897527713,-2804.0985865237708,-28921.748592488078,2565.1967229534071,116822.87453701513,-149085.81554202799,70699.55876355464,-70699.55876355464,149085.81554202799,229408.19359841209,0.0
350012.02908761695,3867225.878295721,-7500.0,5150.6811739182112,5255.0816269677252,-228250.43340292393,2988.6694893498411,-26047.094284941952,4128.7823622504484,119977.4609698517,-117544.9368965473,78626.086270645232,-78626.086270645232,117544.9368965473,237452.33140148225,0.0
355012.02908761695,3867225.878295721,-7500.0,-1817.9958437290873,58402.229224981551,-190874.82757001906,6752.9125511093034,-19682.911200181476,4384.9551558533549,112196.88556335613,-51923.134487758791,53119.622784698244,-53119.622784698244,51923.134487758791,220193.5287102547,0.0
360012.02908761695,3867225.878295721,-7500.0,-26991.573237245255,86302.189690893123,-109353.42866357754,7932.757986361783,-12312.34040393153,3136.4109420034542,96261.968738084834,18326.056219819417,3400.2250447474853,-3400.2250447474853,-18326.056219819417,182099.8031301446,0.0
365012.02908761695,3867225.878295721,-7500.0,-49691.120006421843,75836.050977520761,-21735.343163663223,7309.8016822418767,-5354.0693791913454,1375.7143825163241,77473.32662903516,59082.457490320332,-40703.440791526256,40703.440791526256,-59082.457490320332,139503.94857993876,0.0
370012.02908761695,3867225.878295721,-7500.0,-53763.826825884724,42177.549873058524,38074.836351040409,5365.1529763320086,685.23908929606534,183.2884762974908,62571.408227478401,62970.516989273186,-58392.382087032813,58392.382087032813,-62970.516989273186,108695.90953222489,0.0
375012.02908761695,3867225.878295721,-7500.0,-41017.504456086324,7842.1760845259741,63808.720755777438,2499.5203928235455,5133.9539364098673,-164.62258137402057,53267.241155389573,45942.474027293465,-52358.013581669489,52358.013581669489,-45942.474027293465,93044.91650033019,0.0
380012.02908761695,3867225.878295721,-7500.0,-21722.790558268916,-15776.533481986811,66558.743077297855,-492.0562584161994,7572.7782607110312,3.4943260784906585,47295.249470105147,24899.702866731939,-35551.931609478757,35551.931609478757,-24899.702866731939,85247.259088470935,0.0
385012.02908761695,3867225.878295721,-7500.0,-3785.8469243495597,-27914.336366865049,58634.222879557208,-2882.9014091123181,8259.3166809531886,301.02648644614266,42419.97070776757,8075.2217913063669,-17959.504908795796,17959.504908795796,-8075.2217913063669,78899.160623793199,0.0
390012.02908761695,3867225.878295721,-7500.0,9570.7992214484439,-31899.221637938637,47693.08642248658,-4388.996926052856,7817.4974729049345,525.8140592726005,37764.943414787522,-2855.2820160006436,-3964.0502061570646,3964.0502061570646,2855.2820160006436,71928.761741672846,0.0
395012.02908761695,3867225.878295721,-7500.0,18104.804799960933,-31207.195181126612,37278.373191860854,-5089.1017732379005,6834.5506734933088,632.60131539372151,33242.787248293425,-8919.8538603997113,5617.4323325764635,-5617.4323325764635,8919.8538603997113,64400.351866065794,0.0
400012.02908761695,3867225.878295721,-7500.0,22758.101345757728,-28287.957036160795,28594.753585983279,-5207.8020137083477,5701.7858242884722,645.5649777248334,28985.00957308376,-11674.675023400274,11450.015016469149,-11450.015016469149,11674.675023400274,56847.288316766848,0.0
405012.02908761695,3867225.878295721,-7500.0,24675.949386715369,-24589.767387249831,21784.915600017823,-4970.6662211210405,4626.6871838079951,602.48612042054833,25111.294389706691,-12418.622823157755,14544.884990783758,-14544.884990783758,12418.622823157755,49705.168400648028,0.0
410012.02908761695,3867225.878295721,-7500.0,24828.280733830339,-20869.964411654484,16602.575006672705,-4549.3147981498869,3695.1652545189845,533.52132414448761,21679.83258480611,-12049.471546908451,15807.819503285227,-15807.819503285227,12049.471546908451,43217.748734425419,0.0
415012.02908761695,3867225.878295721,-7500.0,23926.911037054422,-17474.621918099161,12712.836526614301,-4056.4330375629856,2926.7573976604372,457.65991298768495,18787.054629607021,-11130.447063980733,15922.387789454446,-15922.387789454446,11130.447063980733,37476.982158936029,0.0
420012.02908761695,3867225.878295721,-7500.0,22454.587008073468,-14526.677294992589,9806.6238303205992,-3558.5205153846141,2310.2485873087376,385.09499838967918,16354.758752765476,-9992.5068057661974,15362.206520640628,-15362.206520640628,9992.5068057661974,32480.35310615299,0.0
425012.02908761695,3867225.878295721,-7500.0,20721.520295176815,-12037.636981503763,7633.1998569706939,-3090.8231114268101,1823.2262360587372,320.39368348495145,14238.95408571368,-8818.9517799008918,14438.584386387274,-14438.584386387274,8818.9517799008918,28175.161988222146,0.0
430012.02908761695,3867225.878295721,-7500.0,18918.121399873013,-9969.2134101761367,6000.7310688880025,-2669.253630401286,1441.5829979877308,264.94241001616399,12412.97712874944,-7704.1215831686604,13348.266981701232,-13348.266981701232,7704.1215831686604,24487.028055040726,0.0
435012.02908761695,3867225.878295721,-7500.0,17155.481483893294,-8265.3527986960853,4766.6400251583955,-2298.5695644698276,1143.5126341604155,218.51240955333623,10844.046085459409,-6690.8625560632372,12211.075055501586,-12211.075055501586,6690.8625560632372,21336.264660985926,0.0
440012.02908761695,3867225.878295721,-7500.0,15493.990508006618,-6867.8842382404,3826.4523185598955,-1977.5573927098142,910.77931899696898,180.16566317733742,9498.5012831072381,-5793.3993467143446,11096.874338776743,-11096.874338776743,5793.3993467143446,18646.562710979706,0.0
445012.02908761695,3867225.878295721,-7500.0,13962.512874694045,-5723.4048887437639,3104.0434899897105,-1702.1251692456806,728.74841428289255,148.73910285476433,8344.7090583399131,-5010.8257787678867,10043.850977745327,-10043.850977745327,5010.8257787678867,16348.922508843025,0.0
450012.02908761695,3867225.878295721,-7500.0,12570.901091088379,-4785.7314829787319,2543.9798771545197,-1467.0666035727413,585.94264831062469,123.08303258112139,7354.3272001076402,-4334.870487796954,9070.5550859204322,-9070.5550859204322,4334.870487796954,14382.995153684267,0.0
260012.02908761695,3872225.878295721,-7500.0,3475.0900474211753,5084.177537188818,3514.5690495994331,567.58927513387982,703.88078397080267,63.6681342018706,5134.0193680464654,5688.2500235112166,622.13933850595504,-622.13933850595504,-5688.2500235112166,9579.8454326563096,0.0
265012.02908761695,3872225.878295721,-7500.0,3095.5940813728198,5690.6074376490305,4174.8380776217273,580.12818618882329,824.24705427195124,71.309238660428562,5773.2202531118483,6601.5109895982823,33.381557924747995,-33.381557924747995,-6601.5109895982823,10666.388444908742,0.0
270012.02908761695,3872225.878295721,-7500.0,2447.3176272012984,6325.9365122591335,4975.1162458733097,568.75995916683473,962.45188171063808,78.556868549246971,6516.1090317850903,7649.8755834658823,-803.72438009528059,803.72438009528059,-7649.8755834658823,11907.576007763062,0.0
275012.02908761695,3872225.878295721,-7500.0,1421.1006600322514,6955.34203313947,5939.0997254668328,518.48972452633768,1117.4035977691658,84.335139199291504,7386.9367040759753,8831.4030201487149,-1972.1203648691971,1972.1203648691971,-8831.4030201487149,13338.717275843845,0.0
280012.02908761695,3872225.878295721,-7500.0,-130.36082441046361,7515.4447167953867,7086.1808227326419,407.04926083316514,1284.2708551011258,86.830939625970402,8420.227187547378,10123.003558289065,-3577.1310520029233,3577.1310520029233,-10123.003558289065,15014.963278688849,0.0
285012.02908761695,3872225.878295721,-7500.0,-2402.3061611007579,7897.3524886758305,8421.3448501279054,201.88945637164642,1451.2693247118746,83.113147145846824,9667.674860224357,11462.132468450354,-5747.8008928183935,5747.8008928183935,-11462.132468450354,17028.586968658306,0.0
290012.02908761695,3872225.878295721,-7500.0,-5646.5514637069373,7921.4537387203909,9915.2261418137041,-143.61182553519933,1594.2221475513277,68.623149558633202,11210.072533275765,12716.159476990029,-8632.9009887433713,8632.9009887433713,-12716.159476990029,19540.43655182849,0.0
295012.02908761695,3872225.878295721,-7500.0,-10174.201818184534,7301.5908663669106,11466.563661611244,-694.36315396854445,1667.5857533963035,36.58769403332861,13177.062620188382,13632.649686770372,-12385.167502707489,12385.167502707489,-13632.649686770372,22832.921115351626,0.0
300012.02908761695,3872225.878295721,-7500.0,-16342.471864522009,5597.8678382029702,12834.308846937183,-1536.8609076340069,1590.1470103981362,-22.430795163993942,15777.466261047444,13761.80154313574,-17122.106288532166,17122.106288532166,-13761.80154313574,27388.718728733529,0.0
305012.02908761695,3872225.878295721,-7500.0,-24506.920969045288,2162.9798886090844,13520.007446324997,-2778.0884624332894,1223.3995913995514,-120.18450089301683,19340.532590742401,12342.309944879275,-22843.904611913185,22843.904611913185,-12342.309944879275,33986.562204899215,0.0
310012.02908761695,3872225.878295721,-7500.0,-34907.245498863376,-3898.4337831830494,12574.727060897294,-4532.0650373817052,341.82431599543628,-267.88926904899853,24362.340482720672,8149.0233850689365,-29279.339425173883,29279.339425173883,-8149.0233850689365,43786.304778706814,0.0
315012.02908761695,3872225.878295721,-7500.0,-47438.998357038399,-13705.451990923144,8306.3369986008838,-6877.8772792865539,-1399.9321751086529,-466.82733751551905,31543.183602686277,-673.34100249566836,-35624.206287597139,35624.206287597139,673.34100249566836,58367.466101007361,0.0
320012.02908761695,3872225.878295721,-7500.0,-61256.64105419087,-28396.20195763743,-2106.2793301169272,-9761.1315511030643,-4480.1647712788581,-683.78882381835194,41797.951770502739,-16697.623469537342,-40151.082842046504,40151.082842046504,16697.623469537342,79686.994878649886,0.0
325012.02908761695,3872225.878295721,-7500.0,-74191.844351774707,-48522.029851978747,-22973.360596120474,-12804.997499632076,-9436.980674966102,-796.43707327076379,56266.905716854802,-42976.660641561291,-39750.166484728034,39750.166484728034,42976.660641561291,109878.35660819091,0.0
330012.02908761695,3872225.878295721,-7500.0,-82150.335638463221,-72696.831850408722,-60005.193197794317,-15040.731325828023,-16564.207197795997,-496.48709945366068,76673.718877682695,-81944.438846687044,-29712.643701629524,29712.643701629524,81944.438846687044,150684.43837439042,0.0
335012.02908761695,3872225.878295721,-7500.0,-79159.247941608628,-95204.411377477343,-118671.890631748,-14769.561023419468,-25185.974456153952,804.40430191841324,103714.40120383634,-132525.52489201195,-4663.9530434946428,4663.9530434946428,132525.52489201195,202148.63194037916,0.0
340012.02908761695,3872225.878295721,-7500.0,-59728.495691190663,-103167.88493711899,-198843.63514539952,-10209.366869255582,-32636.609708527136,3820.0711696516346,134343.83485582683,-184568.91953581682,37486.287723818372,-37486.287723818372,184568.91953581682,260136.4756411553,0.0
345012.02908761695,3872225.878295721,-7500.0,-25861.633996930541,-77171.256487428342,-283575.73234219098,-1679.5580697053597,-34332.8386442888,8493.0503368649261,161697.55819120604,-212410.09445605008,86712.152741391212,-86712.152741391212,212410.09445605008,312828.0517731802,0.0
350012.02908761695,3872225.878295721,-7500.0,3010.5112648313348,-5109.8604949276978,-327565.410142201,6251.3948729384019,-27530.773456478892,12587.179781262459,173819.32826468546,-179010.40410409917,111763.41363583601,-111763.41363583601,179010.40410409917,339127.3665019559,0.0
355012.02908761695,3872225.878295721,-7500.0,-4623.1471296125846,86454.51947778558,-274520.43700175133,8351.7695038740057,-16607.150405441149,12551.20556591105,161464.80916600637,-72467.856479971655,74687.328913644844,-74687.328913644844,72467.856479971655,318173.87860786822,0.0
360012.02908761695,3872225.878295721,-7500.0,-49194.272655378023,129346.81061274219,-129714.58552290584,6381.0927104667217,-8526.416561346472,7978.3262912913569,135710.68927784055,46833.858532164057,-12679.240118668491,12679.240118668491,-46833.858532164057,254730.89531302251,0.0
365012.02908761695,3872225.878295721,-7500.0,-81291.493653531608,94833.588447231785,13793.09302992873,4890.8526675194325,-2787.3909932756901,2578.0801879773917,106194.59222785066,98309.633253234584,-78623.27345749471,78623.27345749471,-98309.633253234584,187552.06939811166,0.0
370012.02908761695,3872225.878295721,-7500.0,-72111.273936866361,30398.895147535,87397.941433861284,3146.3695850520776,3278.7158043401041,-509.2116289046038,85468.957530762462,81739.460630906193,-86465.664350457781,86465.664350457781,-81739.460630906193,148266.93384742277,0.0
375012.02908761695,3872225.878295721,-7500.0,-39858.69441194192,-18117.33536474959,101160.57546652514,-116.96695979217733,8275.9080430650611,-1124.6282552619678,73132.028953427143,43744.374227988446,-59979.533921652779,59979.533921652779,-43744.374227988446,130823.31274289015,0.0
380012.02908761695,3872225.878295721,-7500.0,-7544.519826483539,-41779.536433033798,87996.344071526051,-3704.2220939910926,10649.193849014066,-576.88360421970356,64067.00613566555,12472.317291637079,-28345.472300697777,28345.472300697777,-12472.317291637079,118864.96292619494,0.0
385012.02908761695,3872225.878295721,-7500.0,15567.203097355869,-48272.475198763612,68531.260955306221,-6297.5623826397587,10710.072487084857,110.53630552537652,55842.448587866063,-6397.4592954618984,-4000.1185156101892,4000.1185156101892,6397.4592954618984,106379.2187728358,0.0
390012.02908761695,3872225.878295721,-7500.0,29083.014178615187,-45986.462867241913,50904.157833903766,-7566.8503532146769,9501.6747054393891,561.67351748792646,48098.017210465507,-15599.880437363949,11370.164452736777,-11370.164452736777,15599.880437363949,93267.780588417168,0.0
395012.02908761695,3872225.878295721,-7500.0,35440.236333368368,-40219.60767243083,37127.305917732367,-7790.6302051151406,7867.589180090582,759.19037587773914,41021.603309500642,-18875.055161236913,19699.696565149487,-19699.696565149487,18875.055161236913,80528.005375448411,0.0
400012.02908761695,3872225.878295721,-7500.0,37200.041794136487,-33689.949694395626,26990.038500990806,-7376.9912987101698,6268.960157662309,788.25348260203509,34777.307963791602,-18971.750511074388,23348.701457701296,-23348.701457701296,18971.750511074388,68880.300044290561,0.0
405012.02908761695,3872225.878295721,-7500.0,36293.930384213549,-27593.445419199095,19716.395595733047,-6653.1056109251185,4892.7459619808078,729.68950142610151,29409.613173619699,-17566.34069326106,24168.678274163161,-24168.678274163161,17566.34069326106,58641.840617725065,0.0
410012.02908761695,3872225.878295721,-7500.0,33997.92728000012,-22349.17022750348,14539.622556857761,-5828.2933422056876,3780.3416321481086,636.21179813982985,24990.938000285023,-15586.712002255765,23409.433545210675,-23409.433545210675,15586.712002255765,49856.829468467884,0.0
415012.02908761695,3872225.878295721,-7500.0,31093.61798819921,-18018.426832099474,10851.523903391102,-5018.4093790294901,2910.4506508986883,536.53463690135663,21354.76622319709,-13509.320610306355,21852.263885640627,-21852.263885640627,13509.320610306355,42425.168747970827,0.0
420012.02908761695,3872225.878295721,-7500.0,28032.689124388489,-14517.310887933772,8207.8596369324987,-4278.794349427807,2241.7605378455632,444.11214117703918,18277.427805533545,-11557.82958521667,19961.126968366585,-19961.126968366585,11557.82958521667,36186.63109635299,0.0
425012.02908761695,3872225.878295721,-7500.0,25060.481622703068,-11717.00060864654,6295.6206563135347,-3629.8191035966715,1731.7954767912527,363.96947012936153,15686.722415677046,-9821.4436859172511,17999.080644205278,-17999.080644205278,9821.4436859172511,30967.717374327654,0.0
430012.02908761695,3872225.878295721,-7500.0,22298.611147102711,-9487.3783727404771,4897.5356672827647,-3073.3974840086521,1343.8042189794467,296.93185036412325,13510.051778224313,-8321.3850819613235,16107.010354792832,-16107.010354792832,8321.3850819613235,26604.590363115723,0.0
435012.02908761695,3872225.878295721,-7500.0,19797.116396288431,-7713.5945954353283,3863.4201577263329,-2602.6984651058133,1048.3065657557349,241.96863927881282,11680.77294223657,-7046.8755084866934,14353.69427849193,-14353.69427849193,7046.8755084866934,22952.522257417728,0.0
440012.02908761695,3872225.878295721,-7500.0,17566.186055884642,-6300.3292002811158,3089.2561997793782,-2207.4815044942961,822.53898696570332,197.39373068386487,10140.755046573657,-5973.957898450506,12766.524660218482,-12766.524660218482,5973.957898450506,19888.205945896367,0.0
445012.02908761695,3872225.878295721,-7500.0,15595.052710480992,-5170.9758655806836,2502.6135664570515,-1876.8559282572662,649.2735999284431,161.43644621623167,8840.7461251128461,-5074.9952475017162,11349.992417522433,-11349.992417522433,5074.9952475017162,17308.789656607787,0.0
450012.02908761695,3872225.878295721,-7500.0,13862.931954191401,-4265.0097770690163,2052.6728138689132,-1600.5838451085447,515.60012186951235,132.48351493980186,7739.6903647680401,-4323.1606143430618,10096.568898167057,-10096.568898167057,4323.1606143430618,15129.485870718981,0.0
260012.02908761695,3877225.878295721,-7500.0,5818.3058242332454,5600.5176194590495,3276.8904797040323,835.07361317347397,750.66608606063312,84.989475522372203,5805.5315123128385,5679.739786803033,2346.7742299128336,-2346.7742299128336,-5679.739786803033,11074.245144401688,0.0
265012.02908761695,3877225.878295721,-7500.0,5872.5347289086367,6422.4402778700714,3938.8149268316874,911.31209962197693,895.82185875435857,98.843095908650398,6568.1257165410925,6716.6196215467553,2044.2613491038642,-2044.2613491038642,-6716.6196215467553,12431.905023331801,0.0
270012.02908761695,3877225.878295721,-7500.0,5736.6101631992751,7353.6438016285738,4764.9456379000985,979.73144985257409,1070.0551181416929,114.25510339755941,7455.2171199979512,7958.491054933108,1531.2180446403372,-1531.2180446403372,-7958.491054933108,13986.953631892928,0.0
275012.02908761695,3877225.878295721,-7500.0,5307.458802584184,8388.0583111260603,5797.2665385879864,1028.9132864794301,1277.2186803389661,130.75757971823765,8490.9484415882453,9436.5142621802624,718.83159577614333,-718.83159577614333,-9436.5142621802624,15770.927445558365,0.0
280012.02908761695,3877225.878295721,-7500.0,4436.3912800299686,9499.8059730723035,7084.6768597036489,1040.2805804480649,1519.4773453492151,147.29993211986849,9706.0683097702149,11175.040374461245,-514.61159153951212,514.61159153951212,-11175.040374461245,17823.590707658172,0.0
285012.02908761695,3877225.878295721,-7500.0,2911.3648587419843,10626.974947400087,8678.9596684223943,984.3217461794909,1794.7552648824446,161.86666881856681,11141.710113855901,13178.223774054295,-2333.0287092611916,2333.0287092611916,-13178.223774054295,20200.26679415286,0.0
290012.02908761695,3877225.878295721,-7500.0,434.75610397886635,11644.691727536539,10623.373972645506,815.17098307296521,2091.9054265186592,170.92627636189351,12856.854272523111,15404.32079955444,-4951.1132584098887,4951.1132584098887,-15404.32079955444,22988.776695837885,0.0
295012.02908761695,3877225.878295721,-7500.0,-3401.5876829942017,12321.693321520053,12925.92251937539,463.21833608953693,2381.8491479323102,168.71538748106801,14943.25659996739,17718.332793577261,-8637.3813522367454,8637.3813522367454,-17718.332793577261,26347.223806594029,0.0
300012.02908761695,3877225.878295721,-7500.0,-9137.5333789843608,12253.078254511503,15502.190867216648,-174.00412282611205,2601.7750974983014,146.5138172764006,17554.844530026101,19807.926016698999,-13700.826236273744,13700.826236273744,-19807.926016698999,30583.745582880438,0.0
305012.02908761695,3877225.878295721,-7500.0,-17445.764364703511,10762.544591774533,18060.372009689399,-1240.6348198656617,2627.825861476399,92.505754098470675,20962.703883129368,21040.222416428958,-20439.097012641505,20439.097012641505,-21040.222416428958,36309.660659406509,0.0
310012.02908761695,3877225.878295721,-7500.0,-29077.499955771098,6775.3994250445203,19881.919363582154,-2924.1681313693171,2229.9576084806586,-5.9923681641758577,25648.382974822576,20230.971111041486,-29006.952793487661,29006.952793487661,-20230.971111041486,44689.391201628903,0.0
315012.02908761695,3877225.878295721,-7500.0,-44684.80891916628,-1309.0930072673252,19426.612522239509,-5431.3188191492382,1003.2769779967017,-152.97252839441285,32438.536998722666,15302.898120336826,-39135.427207556713,39135.427207556713,-15302.898120336826,57749.614899997447,0.0
320012.02908761695,3877225.878295721,-7500.0,-64404.219115610395,-15646.666102917115,13673.911142957249,-8892.9748106724837,-1717.2632896162793,-313.52379364565968,42658.347846728058,2853.7820402738362,-49601.859544775863,49601.859544775863,-2853.7820402738362,78614.797950462962,0.0
325012.02908761695,3877225.878295721,-7500.0,-87040.820856442093,-38619.964244014103,-2849.5645091954029,-13105.563673079392,-6896.7652459591509,-329.81269101201201,58299.072946928965,-22198.519882628352,-57352.58163592629,57352.58163592629,22198.519882628352,111530.83112116133,0.0
330012.02908761695,3877225.878295721,-7500.0,-108725.87331959937,-71579.083490600024,-39173.452669091479,-16980.752755760088,-15562.090995519933,282.7852831847195,82828.19219535841,-66334.214814265681,-56327.443457285801,56327.443457285801,66334.214814265681,161557.66862644808,0.0
335012.02908761695,3877225.878295721,-7500.0,-121296.1349130631,-111554.2674254951,-108100.995950749,-17774.149618767617,-27696.217366306653,2705.6743272940685,121113.62220299078,-135017.14510316952,-36667.798627651551,36667.798627651551,135017.14510316952,233444.65206627603,0.0
340012.02908761695,3877225.878295721,-7500.0,-112097.25955039806,-144485.48811831503,-222000.4184712047,-11247.96208877746,-39546.281323380157,8985.4407418245282,172567.45829144504,-224785.11259790981,13024.190622505441,-13024.190622505441,224785.11259790981,328247.68055074412,0.0
345012.02908761695,3877225.878295721,-7500.0,-70830.694880396128,-136099.89082882652,-374742.84435712418,3887.2934112512048,-41069.06644240029,20227.797641672583,229948.19960033207,-304920.9916902337,93181.235562528876,-93181.235562528876,304920.9916902337,434744.64287309058,0.0
350012.02908761695,3877225.878295721,-7500.0,-14200.833033591447,-38028.647887045459,-497381.97706121253,16644.791203188572,-23263.987534885207,30967.638524467489,269954.83794836601,-295392.04524635512,161048.12990055361,-161048.12990055361,295392.04524635512,513928.09154506051,0.0
355012.02908761695,3877225.878295721,-7500.0,-14453.566592755917,134824.5757495203,-433021.23576670414,10159.299894165959,-697.15105051571845,29227.05683680583,254854.32836175445,-114966.86984472287,113099.68885856347,-113099.68885856347,114966.86984472287,500234.22327723494,0.0
360012.02908761695,3877225.878295721,-7500.0,-100953.02177330367,206148.75196920722,-140598.33368394984,-2900.1446599696669,1291.3983830467482,15119.200642496604,207123.38565612963,112991.2935765213,-58858.728446260735,58858.728446260735,-112991.2935765213,383625.32567174762,0.0
365012.02908761695,3877225.878295721,-7500.0,-134834.50376403719,100631.79058520678,104183.25010290384,-2358.3262367458419,-2084.5236234832951,1650.2626792695698,156268.18807721167,158665.31137951728,-149009.61395727479,149009.61395727479,-158665.31137951728,271192.34590163204,0.0
370012.02908761695,3877225.878295721,-7500.0,-79765.288459133837,-15184.444412709237,166631.54334342596,-450.46797595344498,4086.60126594333,-4207.2862048957131,124179.96394252573,86481.701385490931,-111534.65747529302,111534.65747529302,-86481.701385490931,220330.59207585306,0.0
375012.02908761695,3877225.878295721,-7500.0,-13847.917131985412,-67666.791555655873,142096.17734153118,-3856.0776539701255,11030.843697011438,-4060.97755110968,103636.84615687019,20227.847456032483,-46998.290650744893,46998.290650744893,-20227.847456032483,192442.61466175283,0.0
380012.02908761695,3877225.878295721,-7500.0,29366.516405918104,-77908.547917925884,102926.69724873698,-8314.462999179319,13592.29967969849,-2072.4181162834466,86969.491140522412,-14972.3610751832,-799.01496662339378,799.01496662339378,14972.3610751832,166382.17678333164,0.0
385012.02908761695,3877225.878295721,-7500.0,50927.225912564165,-70673.134444217125,70745.349885001458,-10962.085372282812,12824.440803288599,-419.18217917602277,72421.906929293866,-28781.16182773155,24522.783517258264,-24522.783517258264,28781.16182773155,141013.39557716437,0.0
390012.02908761695,3877225.878295721,-7500.0,58566.390628541827,-58556.971349849482,48035.952006806154,-11625.604604278366,10701.6306486668,492.54665835524241,59890.636898993602,-31594.811746276086,35772.376718644606,-35772.376718644606,31594.811746276086,117930.97076447391,0.0
395012.02908761695,3877225.878295721,-7500.0,58532.7602018123,-46607.334468418223,32783.570043290827,-11022.349136224719,8401.5019904904711,858.68008479692094,49362.003749084382,-29586.882428151417,38972.744036034295,-38972.744036034295,29586.882428151417,97965.41523566845,0.0
400012.02908761695,3877225.878295721,-7500.0,54753.011604660744,-36442.843008604708,22673.606230835805,-9825.2046123484779,6399.5136406252568,924.47713900822896,40683.096171787067,-25871.627116073996,38009.813059773718,-38009.813059773718,25871.627116073996,81218.961303615433,0.0
405012.02908761695,3877225.878295721,-7500.0,49455.125923840191,-28312.048734025608,15954.913785980427,-8458.8065074072802,4808.7417471168883,853.73369681021654,33804.416005064566,-21879.118824626275,35128.014386647053,-35128.014386647053,21879.118824626275,67416.208100133968,0.0
410012.02908761695,3877225.878295721,-7500.0,43819.024886588413,-21988.265119524505,11444.322230999582,-7142.8452077328611,3598.0044073548206,735.19084293083972,28255.916805672696,-18198.575369030361,31544.937804258894,-31544.937804258894,18198.575369030361,56141.43603919915,0.0
415012.02908761695,3877225.878295721,-7500.0,38424.166713103004,-17129.796128791408,8373.5883136094872,-5970.8365224722684,2695.0068025241931,611.02552115655715,23709.780018882811,-15023.686848311689,27885.033651550006,-27885.033651550006,15023.686848311689,46963.770532183305,0.0
420012.02908761695,3877225.878295721,-7500.0,33521.635370100659,-13411.498027434131,6249.7346888555503,-4969.0035863207158,2027.0159154720311,498.61921081774676,19990.408781835715,-12373.587485027951,24444.757249209157,-24444.757249209157,12373.587485027951,39492.783576747112,0.0
425012.02908761695,3877225.878295721,-7500.0,29190.349357151314,-10563.413761964737,4756.113011235293,-4131.6231304850317,1533.5529170720097,403.33682154586347,16943.465814354011,-10198.292216233322,21345.176697933064,-21345.176697933064,10198.292216233322,33396.987022637448,0.0
430012.02908761695,3877225.878295721,-7500.0,25423.701336706148,-8374.1313206651266,3687.8048457422951,-3440.0556139675632,1168.0852435896525,325.2283735811352,14439.754218708817,-8427.0025750028108,18617.0159795166,-18617.0159795166,8427.0025750028108,28404.544959505176,0.0
435012.02908761695,3877225.878295721,-7500.0,22176.386200629826,-6682.6631918817711,2910.763020290548,-2872.2172639650707,896.10030248516273,262.30575118219053,12373.937769951817,-6988.9536705362871,16247.053123688424,-16247.053123688424,6988.9536705362871,24296.802001250813,0.0
440012.02908761695,3877225.878295721,-7500.0,19388.926056523222,-5368.0050364602257,2336.1932048624831,-2406.8823516930147,692.4400444395169,212.04954979425781,10661.322993262816,-5821.3364201845989,14202.867711697123,-14202.867711697123,5821.3364201845989,20899.622965268918,0.0
445012.02908761695,3877225.878295721,-7500.0,16999.999753189331,-4339.6623045524047,1904.4832218874085,-2025.3591813006285,538.89553251569703,172.04318495875353,9234.2791028815464,-4871.4030461149287,12445.693302735517,-12445.693302735517,4871.4030461149287,18074.941671349879,0.0
450012.02908761695,3877225.878295721,-7500.0,14952.255908059762,-3529.9935043126634,1575.0674134162925,-1711.9088849350846,422.30554451645219,140.19968196804516,8038.9580620379083,-4096.1216821719572,10936.837469748009,-10936.837469748009,4096.1216821719572,15713.433678469302,0.0
255012.02908761695,3882225.878295721,-7500.0,7763.9997386698997,5017.9214763046184,2414.3534582215489,987.27692258186755,633.54218063800647,90.154354788832364,5750.9842643589891,4466.5703249223452,4151.2181880641574,-4151.2181880641574,-4466.5703249223452,11230.366955875515,0.0
260012.02908761695,3882225.878295721,-7500.0,8371.3442370487119,5846.0108007221479,2895.8377920433077,1122.5907494784324,764.06862012442889,107.54527744911991,6532.372724192941,5337.7599107816741,4314.4492812350882,-4314.4492812350882,-5337.7599107816741,12691.832767498912,0.0
265012.02908761695,3882225.878295721,-7500.0,8960.1882125337797,6830.9460265873995,3505.141252355314,1273.6268710512829,925.52744927183539,128.39616802054491,7447.3499595393159,6411.3710896887678,4398.388321026614,-4398.388321026614,-6411.3710896887678,14387.560528541253,0.0
270012.02908761695,3882225.878295721,-7500.0,9483.0427769529269,7999.7427334007371,4282.1361627892193,1438.7133125787409,1125.3925560408754,153.21377069398704,8521.6937182169277,7737.7487903128995,4350.8884531087069,-4350.8884531087069,-7737.7487903128995,16357.51919186886,0.0
275012.02908761695,3882225.878295721,-7500.0,9863.394388330993,9379.0394593684541,5279.6741606970163,1613.0406414330091,1372.4074687600576,182.40191493931053,9786.1223500399483,9377.7514123723631,4094.2092006934386,-4094.2092006934386,-9377.7514123723631,18647.050598581798,0.0
280012.02908761695,3882225.878295721,-7500.0,9980.4393063960724,10989.489726750448,6566.9515230779061,1786.3459092827468,1676.1324405461667,216.08602986006082,11277.081622881851,11401.892309934727,3513.5034009137044,-3513.5034009137044,-11401.892309934727,21306.61872505939,0.0
285012.02908761695,3882225.878295721,-7500.0,9646.4181925173489,12834.414773978475,8232.2950198874005,1939.1553946804829,2045.5984093100947,253.81618510081393,13037.747721315161,13885.349086080001,2440.9042229852357,-2440.9042229852357,-13885.349086080001,24391.379992311573,0.0
290012.02908761695,3882225.878295721,-7500.0,8573.7641314179709,14878.058090179882,10382.901928712352,2036.8191912866284,2486.1301323531084,294.10136042013301,15119.792121521496,16893.987970106184,634.6719065481775,-634.6719065481775,-16893.987970106184,27961.815212932343,0.0
295012.02908761695,3882225.878295721,-7500.0,6329.1463097610376,17005.475651823137,13135.598250936633,2020.2723692836628,2992.5413490410419,333.75324929858641,17587.524373656066,20451.941155611592,-2245.5945852343648,2245.5945852343648,-20451.941155611592,32089.700834709463,0.0
300012.02908761695,3882225.878295721,-7500.0,2273.3102425170441,18951.143401175726,16585.173155053257,1792.273746922526,3535.300984687527,367.13388335950924,20528.955623317277,24472.871894307649,-6662.1138248427415,6662.1138248427415,-24472.871894307649,36882.423543245117,0.0
305012.02908761695,3882225.878295721,-7500.0,-4508.0680776084755,20177.101158172391,20721.479624385331,1198.2289103725582,4033.3147929308329,385.72650922288904,24085.579415132539,28622.770253343511,-13204.20943286693,13204.20943286693,-28622.770253343511,42561.337554123093,0.0
310012.02908761695,3882225.878295721,-7500.0,-15260.7525438066,19676.818934008221,25236.715187266938,3.039952024867798,4301.5901741370826,379.31554876247151,28528.969052163178,32060.158768493773,-22536.767207310095,22536.767207310095,-32060.158768493773,49682.151136668617,0.0
315012.02908761695,3882225.878295721,-7500.0,-31547.120374088401,15688.455276531502,29111.462016758323,-2125.5868949790852,3953.0137890463225,342.4896723110183,34442.271658477555,32972.802324816868,-35209.501493428361,35209.501493428361,-32972.802324816868,59672.845650695592,0.0
320012.02908761695,3882225.878295721,-7500.0,-55032.880547553716,5347.3987134950576,29787.315611504302,-5586.9744145104141,2222.867243900108,298.0825623832834,43095.504696488686,27816.348021326688,-51173.826723517253,51173.826723517253,-27816.348021326688,75875.215289053856,0.0
325012.02908761695,3882225.878295721,-7500.0,-86839.386859724866,-15550.467997973055,21640.685745069975,-10639.496403665524,-2301.2183458925419,377.63319929440263,57089.10194733613,10213.44458529965,-68762.619813705824,68762.619813705824,-10213.44458529965,104853.99708931397,0.0
330012.02908761695,3882225.878295721,-7500.0,-126092.03658304237,-52160.714653073752,-6567.867067688584,-16663.446552783804,-11887.916719544122,1092.632909149851,81812.73371439756,-30285.577473324749,-82821.221065328835,82821.221065328835,30285.577473324749,157097.18253437019,0.0
335012.02908761695,3882225.878295721,-7500.0,-167176.02029601435,-108264.14055892108,-75387.714895658137,-20278.102111625663,-28870.405356555897,4135.6594563789849,129897.22354690472,-108627.1406109883,-81763.611380083879,81763.611380083879,108627.1406109883,246872.13984790695,0.0
340012.02908761695,3882225.878295721,-7500.0,-195240.40699649294,-178515.4343211503,-218073.53624651712,-12672.098115042758,-50848.094120202957,13902.833449694339,210464.96999216484,-240241.25207095846,-44196.820248023811,44196.820248023811,240241.25207095846,390997.7679834583,0.0
345012.02908761695,3882225.878295721,-7500.0,-181403.82988962092,-226065.11568049001,-471895.27328362304,16616.090127264819,-58353.295426578879,36347.391792201917,326769.3487467267,-418197.69609845325,58353.837036937912,-58353.837036937912,418197.69609845325,599512.84733014216,0.0
350012.02908761695,3882225.878295721,-7500.0,-97789.903435198867,-136240.78759319626,-796671.36727049446,49634.182612847173,-13683.346064149107,61558.992421051378,450653.03150887956,-527852.70831846842,215454.10633340347,-215454.10633340347,527852.70831846842,829958.05643492495,0.0
355012.02908761695,3882225.878295721,-7500.0,-51452.46989030351,220360.02649148804,-800471.47427092248,17089.519463881865,51388.034115786009,48243.875890863201,464403.04008564597,-234408.92608117746,196113.05402900299,-196113.05402900299,234408.92608117746,894492.73722384719,0.0
360012.02908761695,3882225.878295721,-7500.0,-245868.56744955297,355778.56940694805,-70740.050227533182,-31519.021005967683,14221.430961971377,14512.281789093307,367614.45468675141,296619.75869192969,-211798.28582436609,211798.28582436609,-296619.75869192969,660447.07346883859,0.0
365012.02908761695,3882225.878295721,-7500.0,-194039.40308137756,21684.9464497689,318050.95309419074,-8883.5640586597092,-15438.909136500322,-7608.6756772668332,257523.89934909224,214043.937988538,-251833.61761436204,251833.61761436204,-214043.937988538,451537.50120529439,0.0
370012.02908761695,3882225.878295721,-7500.0,-20512.115672810145,-127924.33309120519,261817.3051066648,176.72962344589268,827.06600131418918,-14924.621129161491,190507.59898468968,33961.454287742483,-82533.84044542833,82533.84044542833,-33961.454287742483,356734.71745810285,0.0
375012.02908761695,3882225.878295721,-7500.0,69619.272194831487,-138481.91682948888,164636.74224196959,-7199.5968702842683,13412.016972165307,-10403.254782007094,146921.87620671972,-38720.887978096194,17476.713392108039,-17476.713392108039,38720.887978096194,285065.49343512789,0.0
380012.02908761695,3882225.878295721,-7500.0,100516.84277359121,-113823.72241663878,99418.960526847164,-14066.206673362616,16028.613041998509,-4772.2269517352915,114991.3757293696,-56571.249326210273,57905.758962840388,-57905.758962840388,56571.249326210273,226281.3331268148,0.0
385012.02908761695,3882225.878295721,-7500.0,104083.77275011432,-86499.704998037851,60614.77511429711,-16665.349524987305,14027.176249374914,-1302.0348497289033,90644.924731222825,-54503.045900278317,69147.511014677802,-69147.511014677802,54503.045900278317,179679.6881028387,0.0
390012.02908761695,3882225.878295721,-7500.0,96495.910257396696,-64034.84673661679,37858.598513104487,-16265.784463236158,10936.959666336166,329.76093626568905,71883.382939137213,-46575.116007162243,67679.738663138516,-67679.738663138516,46575.116007162243,143182.75527956791,0.0
395012.02908761695,3882225.878295721,-7500.0,85181.562180213004,-47095.313500366057,24341.242265020439,-14477.636516993134,8118.8039242151553,929.74742613161197,57461.85434816889,-37944.731740648655,61293.327189373085,-61293.327189373085,37944.731740648655,114692.90267314951,0.0
400012.02908761695,3882225.878295721,-7500.0,73432.613233182943,-34714.504103182451,16135.578397975074,-12293.452692067254,5907.4823590609267,1045.0988821551632,46429.374212455659,-30303.14370817897,53538.913381175596,-53538.913381175596,30303.14370817897,92459.098360064483,0.0
405012.02908761695,3882225.878295721,-7500.0,62600.586669492986,-25753.796241535147,11029.354565706604,-10189.970834541668,4273.9862943262233,964.07247953019009,37799.860511696606,-24032.442146968431,45955.911630559393,-45955.911630559393,24032.442146968431,75073.712701207405,0.0
410012.02908761695,3882225.878295721,-7500.0,53135.33011114828,-19267.777650354725,7769.2731724419928,-8349.7637831193642,3097.3333609545616,821.38814916366005,31003.323491903062,-19053.683010161483,39139.62777559703,-39139.62777559703,19053.683010161483,61426.608487943704,0.0
415012.02908761695,3882225.878295721,-7500.0,45082.927135876576,-14549.229661323832,5633.8990547837184,-6812.8733084140113,2257.0374060062927,674.21616879292242,25622.834507847434,-15156.128638518145,33252.662737240396,-33252.662737240396,15156.128638518145,50656.170139824746,0.0
420012.02908761695,3882225.878295721,-7500.0,38323.923748248213,-11090.391431199434,4199.6262332037086,-5559.0652435522206,1657.022328686513,543.64070568163652,21337.612017480671,-12119.05270029414,28269.683622018209,-28269.683622018209,12119.05270029414,42101.413080272694,0.0
425012.02908761695,3882225.878295721,-7500.0,32684.980548706968,-8532.5444397017309,3212.4197279867849,-4547.7436497309664,1226.6889523526761,435.02136694989525,17901.78203084736,-9751.238965548564,24093.191045408992,-24093.191045408992,9751.238965548564,35258.700815839795,0.0
430012.02908761695,3882225.878295721,-7500.0,27988.835895669425,-6623.3208514922035,2516.6576538791401,-3735.6459701869931,915.93982474247071,347.43892674340981,15127.483164357058,-7898.8787980692332,20606.740574400756,-20606.740574400756,7898.8787980692332,29745.238734418072,0.0
435012.02908761695,3882225.878295721,-7500.0,24074.619560966363,-5184.8295786542521,2015.002072639312,-3083.7758282407954,689.73246012596098,277.88413541583753,12871.220175317298,-6442.4208450960978,17698.037692677724,-17698.037692677724,6442.4208450960978,25269.9039499883,0.0
440012.02908761695,3882225.878295721,-7500.0,20804.218578049145,-4090.9986369194908,1645.3281502045804,-2559.4252788262497,523.64957536887391,223.00910113362571,11023.141187326875,-5290.4189742688895,15267.688754003448,-15267.688754003448,5290.4189742688895,21610.634839517286,0.0
445012.02908761695,3882225.878295721,-7500.0,18062.42321961085,-3251.8259623823838,1367.2031110375779,-2136.1288074075301,400.64610386728737,179.78670255672239,9498.8081873523497,-4373.3821370742344,13231.345577361109,-13231.345577361109,4373.3821370742344,18597.266399042921,0.0
450012.02908761695,3882225.878295721,-7500.0,15754.628010076167,-2602.5324349992666,1153.8160174360132,-1792.8720361349651,308.7642787541352,145.69722922921915,8232.9955139358935,-3638.5768462597689,11519.029493486792,-11519.029493486792,3638.5768462597689,16098.697742595628,0.0
455012.02908761695,3882225.878295721,-7500.0,13803.756093047828,-2096.083279481581,987.06418040613482,-1513.1226280317601,239.55793232040108,118.72677429733427,7175.0183692308419,-3045.9099382899817,10073.36733541682,-10073.36733541682,3045.9099382899817,14013.289908494244,0.0
255012.02908761695,3887225.878295721,-7500.0,9930.6937980739949,4883.7646821020571,2012.5683262069895,1219.7481101618189,606.01894074164511,107.52238505801222,6363.1867840453569,3845.6224636460101,5898.878905084277,-5898.878905084277,-3845.6224636460101,12590.826400780497,0.0
260012.02908761695,3887225.878295721,-7500.0,11017.497086233043,5757.333454889791,2410.6922723992552,1417.3979858946871,737.70478347504684,130.37786696611118,7280.0892325957657,4645.5797059804127,6435.8546242333368,-6435.8546242333368,-4645.5797059804127,14352.821521189309,0.0
265012.02908761695,3887225.878295721,-7500.0,12212.614816367155,6822.6758544212862,2919.7025666357072,1650.3678427149969,903.5387242574086,158.65083751939753,8366.5916277807501,5651.0972453669319,6987.3006471529325,-6987.3006471529325,-5651.0972453669319,16428.841783239735,0.0
270012.02908761695,3887225.878295721,-7500.0,13505.848889713938,8126.1404904234314,3578.0008903251314,1923.8841612421202,1113.3044828424058,193.61604751758094,9658.9479045516819,6922.9314608399736,7526.1333305958387,-7526.1333305958387,-6922.9314608399736,18882.285194766715,0.0
275012.02908761695,3887225.878295721,-7500.0,14868.879259390567,9724.0300627815159,4439.1291581217829,2242.6081986323338,1379.5121053204359,236.75897607017299,11201.250517567682,8540.7099454668169,8005.4490910177847,-8005.4490910177847,-8540.7099454668169,21788.450855516698,0.0
280012.02908761695,3887225.878295721,-7500.0,16242.19390600563,11682.454239270959,5577.9309145810557,2609.2425964251197,1717.8413865233356,289.72772183992458,13046.488942915659,10607.855133907313,8346.8891124185684,-8346.8891124185684,-10607.855133907313,25234.95545437327,0.0
285012.02908761695,3887225.878295721,-7500.0,17513.685685255361,14074.115710716102,7098.7563313903966,3021.9264070232848,2147.2306964626259,354.20643850273024,15257.070801255173,13256.144875545673,8422.65119491109,-8422.65119491109,-13256.144875545673,29320.19497031796,0.0
290012.02908761695,3887225.878295721,-7500.0,18484.080265918288,16968.236047141076,9145.4320949818848,3469.5644636827928,2688.9741068245908,431.67862114642901,17904.08117861762,16647.225200029021,8028.2481579063542,-8028.2481579063542,-16647.225200029021,34147.957608072284,0.0
295012.02908761695,3887225.878295721,-7500.0,18811.91970572975,20406.067293320411,11910.768332254864,3923.6826571714469,3363.4572305551746,523.07825755722251,21064.039736314829,20964.518850679586,6842.5247730894434,-6842.5247730894434,-20964.518850679586,39815.081138472349,0.0
300012.02908761695,3887225.878295721,-7500.0,17928.217243075898,24347.469282991417,15637.928710491538,4324.5478171931936,4181.6631335256843,628.43987206837028,24811.495342918395,26380.567518807424,4372.3701026819344,-4372.3701026819344,-26380.567518807424,46388.232123404894,0.0
305012.02908761695,3887225.878295721,-7500.0,14909.751323335213,28561.958922520109,20592.111906492977,4557.94251546534,5125.4625017701419,746.9252342670593,29206.602950311688,32967.46779891818,-114.8890166184101,114.8890166184101,-32967.46779891818,53868.778149407204,0.0
310012.02908761695,3887225.878295721,-7500.0,8305.0407453050357,32419.202762755649,26947.915564617215,4416.7649164376526,6103.8618466501784,877.90545142763267,34283.36973123769,40484.321673501399,-7651.0315830068466,7651.0315830068466,-40484.321673501399,62165.032151364183,0.0
315012.02908761695,3887225.878295721,-7500.0,-4069.6145607659778,34513.879412434624,34464.596568183624,3538.6972816875909,6856.1813314230676,1023.388831607708,40072.864200615062,47916.895648838974,-19553.827988204888,19553.827988204888,-47916.895648838974,71181.329447219425,0.0
320012.02908761695,3887225.878295721,-7500.0,-25286.616940711141,32063.868360129993,41677.81309525267,1313.5612464933001,6732.8287050719127,1189.0352265286901,46799.178746741622,52564.128090897699,-37186.036001495646,37186.036001495646,-52564.128090897699,81472.156775920332,0.0
325012.02908761695,3887225.878295721,-7500.0,-59236.501785008186,20120.474887377171,44104.981395414085,-3194.8247743065408,4192.2415197373657,1378.9536749964091,55702.308666563506,48413.691986913233,-61194.722867894881,61194.722867894881,-48413.691986913233,96888.856054942269,0.0
330012.02908761695,3887225.878295721,-7500.0,-110110.73388816012,-9078.8548572861473,30692.383408017446,-10968.525710951417,-4265.3828863843773,1640.2229124912201,71756.121518617671,23641.124378154855,-89859.103184392603,89859.103184392603,-23641.124378154855,131307.6314107324,0.0
335012.02908761695,3887225.878295721,-7500.0,-181540.78222203173,-65948.360739516022,-22683.918592211103,-20932.263010914859,-25571.692270825948,2650.6324585229299,114988.26360341515,-42862.305188464481,-116289.31245388569,116289.31245388569,42862.305188464481,215001.58607410017,0.0
340012.02908761695,3887225.878295721,-7500.0,-275460.9639488965,-161864.2348373532,-166631.99682984289,-22285.248256165236,-67797.670436752509,8743.5535588847906,218425.10357729232,-187588.86658740425,-123156.94261452471,123156.94261452471,187588.86658740425,394418.34204687242,0.0
345012.02908761695,3887225.878295721,-7500.0,-382376.15477915853,-296853.57355699205,-512296.12974961603,19532.492064273029,-114397.21848319877,33979.749275575559,417207.06104505371,-472175.27264330606,-65375.83489775061,65375.83489775061,472175.27264330606,741009.61215130135,0.0
350012.02908761695,3887225.878295721,-7500.0,-426132.57070511807,-353180.32889780967,-1247648.4097322379,136126.95361868435,-41841.548182602375,72471.275614771585,749867.57302335603,-909907.35743698024,160007.62351350382,-160007.62351350382,909907.35743698024,1329720.9664503334,0.0
355012.02908761695,3887225.878295721,-7500.0,-294877.39182082261,334979.05927950307,-1861731.4468570859,85853.529575092922,249317.68469049491,-56745.784955541953,997613.82507880498,-675249.14220256824,358056.7177961471,-358056.7177961471,675249.14220256824,1852047.2687294246,0.0
360012.02908761695,3887225.878295721,-7500.0,-784994.23996947356,498351.24611309718,726384.31518195465,-66881.924803410948,-32676.714114852439,-1210.0538463420748,908269.22258800582,915200.02748265583,-895651.83711468917,895651.83711468917,-915200.02748265583,1573427.1348412319,0.0
365012.02908761695,3887225.878295721,-7500.0,32171.050746695655,-344656.31354369823,623692.56958351517,35647.209374315586,-49044.202974349573,-24552.941921274229,457055.28155441547,36211.253771548822,-130955.00788965818,130955.00788965818,-36211.253771548822,868366.78680725279,0.0
370012.02908761695,3887225.878295721,-7500.0,230338.90526018891,-282844.11902905448,285699.68885173375,13981.154865093908,4085.8838089988908,-35335.448037993032,293482.6085831963,-118126.43991463116,117509.5669289385,-117509.5669289385,118126.43991463116,573580.42780467519,0.0
375012.02908761695,3887225.878295721,-7500.0,233177.65432793624,-189060.1532625526,137737.4540678832,-10345.309279980018,18490.004588035696,-19772.934697487308,203234.45580004362,-117570.97797403601,154040.34492937423,-154040.34492937423,117570.97797403601,396899.38167975872,0.0
380012.02908761695,3887225.878295721,-7500.0,201035.95478306335,-124821.72885071923,71075.6665824706,-21026.551028054393,17785.109355949731,-8051.9254938571348,146106.94599107347,-94178.139828139916,142535.81551125922,-142535.81551125922,94178.139828139916,287142.76392850344,0.0
385012.02908761695,3887225.878295721,-7500.0,166242.69622361887,-83384.133968592709,38986.970059383442,-22877.938843355998,13672.186715524338,-2233.0223158062404,108690.80541901552,-71481.807032129349,121254.59614668426,-121254.59614668426,71481.807032129349,214775.03438290229,0.0
390012.02908761695,3887225.878295721,-7500.0,135613.55221790075,-56593.836674872677,22614.887453547704,-20842.046331187063,9757.8077474780421,174.54420200846585,82911.509922850644,-53461.537121925488,100143.28573692164,-100143.28573692164,53461.537121925488,164333.19883310844,0.0
395012.02908761695,3887225.878295721,-7500.0,110265.29167513305,-39049.029983895663,13828.41912741447,-17620.886330438047,6786.64487413395,991.12547689850203,64446.53838261612,-39968.755217292884,81839.65248050043,-81839.65248050043,39968.755217292884,127855.37816568356,0.0
400012.02908761695,3887225.878295721,-7500.0,89808.262740214443,-27380.436950750234,8893.775618280557,-14395.296475722273,4693.2003645965324,1143.3350925822078,50856.598016415366,-30058.81860794243,66752.808202872882,-66752.808202872882,30058.81860794243,100852.18653234302,0.0
405012.02908761695,3887225.878295721,-7500.0,73470.237164909486,-19494.280790148583,6003.4469469495089,-11584.289939801669,3256.5716759196262,1049.2550695686402,40652.739892094469,-22806.475065713501,54583.272839828525,-54583.272839828525,22806.475065713501,80529.741534465138,0.0
410012.02908761695,3887225.878295721,-7500.0,60460.165253228704,-14078.82339537496,4241.8947731716307,-9275.6210722014312,2276.9541515194173,884.85860774006915,32872.343796238274,-17479.280333009017,44849.663466949001,-44849.663466949001,17479.280333009017,65029.187283776439,0.0
415012.02908761695,3887225.878295721,-7500.0,50086.401260028855,-10302.286704690103,3126.5427505704038,-7430.8722723787787,1607.0187717200872,718.7750683838525,26863.273073690481,-13537.455803037095,37076.971506502618,-37076.971506502618,13537.455803037095,53065.116002313407,0.0
420012.02908761695,3887225.878295721,-7500.0,41782.908269419233,-7629.8240827261761,2393.767385336791,-5974.4756254362746,1145.4678655876905,574.10987804257582,22168.829007819248,-10594.140056031951,30856.541309113083,-30856.541309113083,10594.140056031951,43728.164064315162,0.0
425012.02908761695,3887225.878295721,-7500.0,35101.15840269714,-5712.4449214412643,1894.8048317112853,-4829.0684899587959,824.45630313251741,455.61597771356014,18462.325185912057,-8374.6911980399964,25856.649270250484,-25856.649270250484,8374.6911980399964,36365.070726605605,0.0
430012.02908761695,3887225.878295721,-7500.0,29691.376876791957,-4319.009939670972,1543.1518308437651,-3927.5237705013783,598.879620731464,361.29665962413139,15506.565838084856,-6684.209077278605,21815.367707960468,-21815.367707960468,6684.209077278605,30500.824908437597,0.0
435012.02908761695,3887225.878295721,-7500.0,25282.756003202325,-3294.1866255066257,1287.0838115151951,-3215.4639606779147,438.70420011323642,287.19777388458931,13127.26260517835,-5383.7943100600378,18528.585232287918,-18528.585232287918,5383.7943100600378,25786.333584886215,0.0
440012.02908761695,3887225.878295721,-7500.0,21665.98539622709,-2532.0859062917325,1094.8413270553265,-2650.2510125139233,323.80470566550315,229.26903264395503,11194.954395178194,-4373.7619160386785,15838.040843655439,-15838.040843655439,4373.7619160386785,21962.409087867487,0.0
445012.02908761695,3887225.878295721,-7500.0,18679.101790394703,-1959.5470467879127,946.42768526187672,-2198.9783122427871,240.57928788862702,183.99387590340567,9612.5268707106952,-3581.989485613396,13621.122078959297,-13621.122078959297,3581.989485613396,18834.772428164397,0.0
450012.02908761695,3887225.878295721,-7500.0,16196.342538620966,-1525.358515670993,828.93929606781376,-1836.4171796745798,179.74391112934387,148.52150689967542,8306.4211592914417,-2955.8235958575315,11782.617598683661,-11782.617598683661,2955.8235958575315,16256.4039358269,0.0
455012.02908761695,3887225.878295721,-7500.0,14119.595012838205,-1193.2301137742309,733.84941038788463,-1543.2534008294572,134.89603719641684,120.61650827861084,7220.3999411165005,-2456.4684491019416,10248.301266011171,-10248.301266011171,2456.4684491019416,14115.016750317973,0.0
250012.02908761695,3892225.878295721,-7500.0,10669.920272341857,3776.6718329070236,1351.1801903311223,1229.0191371697922,449.02313158744823,101.67881425173472,6096.8191826254224,2460.3117496889081,6828.4314510261247,-6828.4314510261247,-2460.3117496889081,12164.293189405078,0.0
255012.02908761695,3892225.878295721,-7500.0,12032.716964484998,4457.3993106941371,1584.9355170461076,1443.7489832909566,545.71473922106031,124.1240073874759,6958.3454573405634,2972.9313371628377,7651.8627752352768,-7651.8627752352768,-2972.9313371628377,13903.388787774582,0.0
260012.02908761695,3892225.878295721,-7500.0,13610.428744496661,5295.6887143751792,1879.8892456210326,1703.9153454751886,668.01384068055199,152.35062296036131,8009.572311933136,3621.394677570288,8589.801183998683,-8589.801183998683,-3621.394677570288,15969.86454365725,0.0
265012.02908761695,3892225.878295721,-7500.0,15437.918697742602,6335.1672804315667,2257.4079171139583,2020.2583809813134,823.80169142777015,187.99251424441948,9273.3866421443381,4448.9801618842848,9654.3852818462365,-9654.3852818462365,-4448.9801618842848,18438.21058146231,0.0
270012.02908761695,3892225.878295721,-7500.0,17552.731517923341,7632.9549211863532,2747.9658683235075,2406.0173120612344,1023.6101149431591,233.1467956456089,10796.602809919461,5514.7767731174554,10854.721605452312,-10854.721605452312,-5514.7767731174554,21401.70089821512,0.0
275012.02908761695,3892225.878295721,-7500.0,19992.198901461175,9263.8387201803453,3395.5957748771589,2877.2887973548522,1281.5005518373616,290.47945986071545,12641.633088560608,6899.9500930055492,12192.664137437065,-12192.664137437065,-6899.9500930055492,24976.841128875687,0.0
280012.02908761695,3892225.878295721,-7500.0,22787.291768709059,11325.319093120832,4264.6865433058374,3453.1986374342036,1616.1488372861709,363.33325095956639,14886.869860971554,8716.4304610331492,13655.29314133952,-13655.29314133952,-8716.4304610331492,29308.169511099284,0.0
285012.02908761695,3892225.878295721,-7500.0,25950.41384889093,13943.035145305274,5450.3342084759806,4155.5910117792955,2052.0568057091605,455.81870736222129,17629.448615467671,11118.630355497458,15201.702908887193,-15201.702908887193,-11118.630355497458,34572.39830348931,0.0
290012.02908761695,3892225.878295721,-7500.0,29452.31483376745,17274.918183390102,7093.8762879847964,5007.7026306900598,2620.6098347122547,572.88405183771056,20987.057620719068,14318.320920584731,16740.257633363544,-16740.257633363544,-14318.320920584731,40979.565120642139,0.0
295012.02908761695,3892225.878295721,-7500.0,33179.556092854524,21509.634919181561,9405.311189729804,6030.8424241520206,3360.2460452352589,720.4078876672794,25096.259392748496,18600.992419900391,18090.11568667035,-18090.11568667035,-18600.992419900391,48765.760618501146,0.0
300012.02908761695,3892225.878295721,-7500.0,36858.000269355805,26848.583172417086,12692.737919352036,7237.3126737262883,4314.0487827252109,905.56012103662158,30101.932003510326,24336.685015227857,18917.906796602118,-18917.906796602118,-24336.685015227857,58165.678013461409,0.0
305012.02908761695,3892225.878295721,-7500.0,39918.946343389624,33446.97028153194,17391.51862677481,8616.1868679997533,5521.121557975257,1138.1211243235985,36126.339878845603,31963.941548733994,18638.470737398609,-18638.470737398609,-31963.941548733994,69340.240903342783,0.0
310012.02908761695,3892225.878295721,-7500.0,41274.500230182806,41261.684985137617,24060.56305623466,10104.231180626415,6993.9229135023361,1433.8948972972271,43194.25705756298,41890.016706662595,16273.729962758138,-16273.729962758138,-41890.016706662595,82209.434184890764,0.0
315012.02908761695,3892225.878295721,-7500.0,38969.232316779533,49704.383062438363,33237.475795919199,11520.648708103796,8662.8600986978472,1818.974620926283,51068.981025342822,54168.904744988671,10296.336533466601,-10296.336533466601,-54168.904744988671,96098.631675852361,0.0
320012.02908761695,3892225.878295721,-7500.0,29724.363203944271,56941.935912908542,44844.303018269085,12400.869395687459,10232.527846570863,2314.2847620574717,58928.956661116419,67659.694348244666,-1405.6853892288418,1405.6853892288418,-67659.694348244666,109073.25280175258,0.0
325012.02908761695,3892225.878295721,-7500.0,8566.269907067659,58749.917073648103,56398.065327550852,11549.935827279793,10749.256334875459,2795.2054125479626,64866.458442336414,78170.149413016363,-21047.637878458827,21047.637878458827,-78170.149413016363,117041.56129935273,0.0
330012.02908761695,3892225.878295721,-7500.0,-31046.430471963758,47456.355781493105,58687.81224043663,5984.0390321082014,7152.7976899445184,2379.7502077260724,65888.56560142478,75291.320619774793,-49302.888712621192,49302.888712621192,-75291.320619774793,114835.97731508881,0.0
335012.02908761695,3892225.878295721,-7500.0,-97457.378307142586,13119.226312550576,27929.151641915068,-10499.725133252436,-10293.361993136663,-2227.9602313046717,66361.549280475345,39349.276719810259,-83148.606763979886,83148.606763979886,-39349.276719810259,118384.427025846,0.0
340012.02908761695,3892225.878295721,-7500.0,-210899.4776914971,-53649.245967936666,-85973.233833539794,-44400.146471706059,-68581.783733329372,-18262.300273269582,137565.10271047044,-61037.443113820162,-119866.17818947649,119866.17818947649,61037.443113820162,239393.89404265996,0.0
345012.02908761695,3892225.878295721,-7500.0,-441137.12374453346,-187360.96448651393,-423789.91922105721,-73047.928710777793,-216726.42737251401,-48538.801362407721,368870.49868981569,-320667.41880519863,-158580.32322403317,158580.32322403317,320667.41880519863,640199.43027139478,0.0
350012.02908761695,3892225.878295721,-7500.0,-872637.35750812409,-417881.61112976819,-1711929.4373359098,97941.080781484605,-367584.79370143201,-62910.914602337696,994664.15113251423,-1146922.1167123895,-8563.0580698671984,8563.0580698671984,1146922.1167123895,1731379.0250309738,0.0
355012.02908761695,3892225.878295721,-7500.0,-1693896.0272700076,1651224.0488130294,-5228577.9088806324,618108.89848630421,591705.1444983593,-758182.27655038936,2907949.7315627905,-1188304.130692227,270252.51144359843,-270252.51144359843,1188304.130692227,5201262.3479201207,0.0
360012.02908761695,3892225.878295721,-7500.0,1572800.3974569791,-1428158.0246635468,2233895.8892026879,593956.1207566635,-203107.93174829942,547686.03356285219,1677669.8914202875,-239364.53409310826,640367.04642604524,-640367.04642604524,239364.53409310826,3076787.5030566412,0.0
365012.02908761695,3892225.878295721,-7500.0,1051209.212213452,-550022.97108161636,514829.92225727969,137879.83617825326,26983.506105926295,-54157.201644089459,748970.62736323639,-334674.95937495911,687299.37865714682,-687299.37865714682,334674.95937495911,1372382.8481889213,0.0
370012.02908761695,3892225.878295721,-7500.0,625502.12703341898,-271223.45839774271,178134.5971777685,15923.191879187794,37381.189944850717,-56538.023729818546,411804.18994770991,-218636.11738866728,441655.18898449838,-441655.18898449838,218636.11738866728,765397.31765443366,0.0
375012.02908761695,3892225.878295721,-7500.0,411624.22269535426,-149764.14810080477,72416.458399116382,-20440.427745167806,27126.837323244101,-26737.124017581558,252410.08538746214,-142694.12032917197,300392.30016106204,-300392.30016106204,142694.12032917197,478827.66692853981,0.0
380012.02908761695,3892225.878295721,-7500.0,291205.93482605834,-88310.079213807956,32453.36000502183,-29531.034522360256,17563.342765808091,-9936.5901165548948,169067.77059199245,-95616.14365434699,215647.35894348711,-215647.35894348711,95616.14365434699,326582.27277024218,0.0
385012.02908761695,3892225.878295721,-7500.0,215240.43826970184,-54344.453031453879,15808.530472673794,-28525.305478852708,11050.368888652161,-2620.4802532070485,120440.59942890932,-65582.859575353767,160237.88712770204,-160237.88712770204,65582.859575353767,235489.73840349485,0.0
390012.02908761695,3892225.878295721,-7500.0,163564.66561579896,-34508.992485635245,8381.0131480002565,-24347.901667320682,6942.2497719854118,174.30375940448477,89305.903364771701,-45938.482063316224,121844.95274114242,-121844.95274114242,45938.482063316224,175836.6296865214,0.0
395012.02908761695,3892225.878295721,-7500.0,126770.078876828,-22464.90661598407,4869.3949624724974,-19752.149242322554,4398.8509823838858,1064.0303599275187,68051.917282444163,-32811.0988786245,94282.881338745879,-94282.881338745879,32811.0988786245,134464.27794363411,0.0
400012.02908761695,3892225.878295721,-7500.0,99805.491734052863,-14924.803478590253,3116.9139586263354,-15685.573571531757,2820.7217229982671,1210.466573538238,52924.809074761215,-23864.001265889878,74030.471930887186,-74030.471930887186,23864.001265889878,104722.86113680163,0.0
405012.02908761695,3892225.878295721,-7500.0,79640.609824381841,-10082.787983646949,2192.2839722976287,-12366.888174743815,1831.1927092654439,1097.09981099826,41845.376936818182,-17651.579597193337,58888.841858433327,-58888.841858433327,17651.579597193337,82813.82852878439,0.0
410012.02908761695,3892225.878295721,-7500.0,64318.785202896324,-6904.7872719219631,1673.4494727029075,-9751.637971714712,1202.2386589211901,915.93992827820898,33554.585148254264,-13261.566797938372,47403.750866047216,-47403.750866047216,13261.566797938372,66371.033393887439,0.0
415012.02908761695,3892225.878295721,-7500.0,52517.653170713311,-4778.9539064037599,1361.2275220903784,-7720.6531297769425,796.71091476226923,738.03472562528088,27242.635397412949,-10107.739424088175,38579.620441765772,-38579.620441765772,10107.739424088175,53837.658481554339,0.0
420012.02908761695,3892225.878295721,-7500.0,43316.934707477485,-3333.1175734088947,1158.3035233208689,-6150.2561004111622,531.59438585890268,585.65545069805296,22366.320715902948,-7806.7328429279878,31719.302778180667,-31719.302778180667,7806.7328429279878,44152.847183149046,0.0
425012.02908761695,3892225.878295721,-7500.0,36063.016451979056,-2335.3846684427572,1015.6654697165537,-4934.5518758339012,356.04051974782317,462.30915424008742,18550.098175627572,-6103.5859545691856,26326.526959315808,-26326.526959315808,6103.5859545691856,36576.063934523016,0.0
430012.02908761695,3892225.878295721,-7500.0,30284.262350691173,-1638.1270864808603,907.93520668139024,-3989.4082486746311,238.45686447833873,365.00125427316203,15528.400808220335,-4825.9470538148435,22043.163768349958,-22043.163768349958,4825.9470538148435,30580.710909966019,0.0
435012.02908761695,3892225.878295721,-7500.0,25635.807303989142,-1145.532257931874,821.61165564923215,-3250.2210178094006,158.92036060382992,289.09085719036625,13110.065481534435,-3855.4915376755625,18607.65022222004,-18607.65022222004,3855.4915376755625,25786.552093163056,0.0
440012.02908761695,3892225.878295721,-7500.0,21862.470131611411,-794.31552062104356,749.30561701587874,-2668.1393153116296,104.67998535794635,230.08253296086934,11155.411839726992,-3109.7769804531226,15826.802247240666,-15826.802247240666,3109.7769804531226,21915.299180696966,0.0
445012.02908761695,3892225.878295721,-7500.0,18773.34412417806,-542.00515204751014,686.83754379319316,-2206.4361435656133,67.458044555206655,184.17836651629679,9561.019933956919,-2530.5546427353629,13556.416441476675,-13556.416441476675,2530.5546427353629,18760.750969326276,0.0
450012.02908761695,3892225.878295721,-7500.0,16224.132036585075,-359.67835256020311,631.74695476867191,-1837.5094786188238,41.808034202637089,148.35273031354416,8249.3959654822647,-2076.1232870605108,11687.759427558505,-11687.759427558505,2076.1232870605108,16168.366768138121,0.0
455012.02908761695,3892225.878295721,-7500.0,14104.703545958726,-227.3757198735232,582.51242699113129,-1540.5577664542893,24.101130223756677,120.26180230027626,7161.8304008219311,-1716.2565594839989,10138.050652766058,-10138.050652766058,1716.2565594839989,14021.082912264332,0.0
250012.02908761695,3897225.878295721,-7500.0,12228.336876174686,3162.8337436305619,1031.6063792722202,1388.7417053406848,372.90499437028279,113.07405599331598,6631.3498275265383,1560.6469206372258,8173.9519768665905,-8173.9519768665905,-1560.6469206372258,13141.863306704365,0.0
255012.02908761695,3897225.878295721,-7500.0,13948.496548356155,3740.4738571788721,1184.7673398581487,1646.9973552151353,453.26715205846926,139.11176295372979,7606.7517213048959,1894.7513129661602,9302.7763900259342,-9302.7763900259342,-1894.7513129661602,15102.325375541286,0.0
260012.02908761695,3897225.878295721,-7500.0,15987.177410311931,4456.8630860234571,1374.654909780282,1965.0962202354588,555.23319402969923,172.24781479884436,8774.4483315724992,2321.6694002819459,10633.373350809607,-10633.373350809607,-2321.6694002819459,17454.00653853163,0.0
265012.02908761695,3897225.878295721,-7500.0,18415.59568640916,5353.1163476775846,1614.0809870190255,2359.3801115301217,685.66307438307501,214.6572989492189,10181.683770559606,2873.0383889929235,12207.883017458422,-12207.883017458422,-2873.0383889929235,20293.834273010652,0.0
270012.02908761695,3897225.878295721,-7500.0,21322.570468540096,6484.6570516865995,1921.7044477047011,2851.1779271634623,853.85274432714539,269.215861047609,11890.065217008372,3593.2164073916792,14077.368956545713,-14077.368956545713,-3593.2164073916792,23746.81456608685,0.0
275012.02908761695,3897225.878295721,-7500.0,24818.57745509527,7926.7804932159725,2325.2641950669195,3468.3952908467495,1072.4293744920881,339.71150443785746,14004.843528074744,4545.1203321212688,16302.913601827653,-16302.913601827653,-4545.1203321212688,27974.888355435047,0.0
280012.02908761695,3897225.878295721,-7500.0,29040.075365036359,9782.4391788315497,2866.8525489540343,4247.5815693638087,1358.5273578497197,431.09312126542903,16650.824642329859,5818.9782974344089,18955.910103253649,-18955.910103253649,-5818.9782974344089,33188.44945114226,0.0
285012.02908761695,3897225.878295721,-7500.0,34153.169875633503,12192.986766158723,3611.6691675478314,5236.5651676339439,1735.2509694612124,549.74939958391712,19944.507556100565,7545.5094150509167,22116.275373839489,-22116.275373839489,-7545.5094150509167,39660.801225059258,0.0
290012.02908761695,3897225.878295721,-7500.0,40354.492587827976,15352.486523526595,4662.6953277870061,6497.7646096477756,2233.2978274063216,703.7998628420944,24067.625912752948,9915.6244313069583,25866.124859453044,-25866.124859453044,-9915.6244313069583,47745.152203682403,0.0
295012.02908761695,3897225.878295721,-7500.0,47864.45405505447,19525.277301858772,6185.4261275256049,8112.3024322271285,2892.3063259790806,903.43724262059754,29254.12580680367,13209.238322928668,30274.028263085431,-30274.028263085431,-13209.238322928668,57891.475701176743,0.0
300012.02908761695,3897225.878295721,-7500.0,56902.516680095257,25063.218037305855,8449.1823417676605,10185.218512837795,3760.862592209588,1161.5976286318696,35795.270904952966,17835.024687932419,35360.628605194455,-35360.628605194455,-17835.024687932419,70654.690318542576,0.0
305012.02908761695,3897225.878295721,-7500.0,67623.215461527274,32409.088226182921,11893.469294155375,12852.58066922788,4893.1100952432771,1496.0216425624453,44032.456085257472,24377.016276876762,41029.281832763118,-41029.281832763118,-24377.016276876762,86670.639271359905,0.0
310012.02908761695,3897225.878295721,-7500.0,79971.737353161778,42045.012731475581,17222.493823862042,16291.871931981954,6339.2210802652435,1935.4637467196289,54310.705744491599,33620.38018234614,46936.800296641741,-46936.800296641741,-33620.38018234614,106539.15785689652,0.0
315012.02908761695,3897225.878295721,-7500.0,93391.929066819255,54272.53369362402,25488.695395830771,20733.312053750629,8129.7589651331755,2533.3762234888691,66822.330680693645,46448.548280362324,52285.462564035632,-52285.462564035632,-46448.548280362324,130464.36138753501,0.0
320012.02908761695,3897225.878295721,-7500.0,106339.47336574766,68546.273343121007,37936.736503060944,26434.89373072638,10268.137013724185,3372.2806933901561,81153.689090432963,63261.657405420643,55619.625154556037,-55619.625154556037,-63261.657405420643,157309.97708927232,0.0
325012.02908761695,3897225.878295721,-7500.0,115903.1190360844,81839.038199920309,54692.120919709479,33398.867346785599,12764.408642703474,4400.483829148513,95121.345983116669,81951.469246680921,55228.575240844526,-55228.575240844526,-81951.469246680921,182435.09607384659,0.0
330012.02908761695,3897225.878295721,-7500.0,119547.39841364033,85935.438351744553,69454.759220869921,39876.629802867057,15549.396228491069,4325.359714563162,102565.81791461277,92592.05264555008,52565.156405178015,-52565.156405178015,-92592.05264555008,194072.41269252167,0.0
335012.02908761695,3897225.878295721,-7500.0,125564.69112136368,68768.841941578401,55060.154725338783,36690.49935824344,16214.55519340522,-3866.3839799571424,95006.361375006949,69668.778737406843,64326.518168674098,-64326.518168674098,-69668.778737406843,177799.29528778681,0.0
340012.02908761695,3897225.878295721,-7500.0,175743.70764979743,41857.806582215613,-51013.647627681697,-9252.1303051818031,-5226.8609730587859,-44018.652241989454,121494.95575971495,-14789.25301656298,139032.68715842039,-139032.68715842039,14789.25301656298,235534.82835265528,0.0
345012.02908761695,3897225.878295721,-7500.0,312035.70079131442,53985.162378860587,-292250.87912366883,-216124.71926687247,-159223.27918814553,-180035.36074992505,413024.23198931059,-143573.16946159481,309746.43174966634,-309746.43174966634,143573.16946159481,731350.32332653424,0.0
350012.02908761695,3897225.878295721,-7500.0,703894.5132963137,-651077.35955719184,-1228498.6600793418,-872491.04846156796,-926796.98648663866,-957468.59616409987,1752310.5419908469,-1262864.9808399982,988422.33023757779,-988422.33023757779,1262864.9808399982,3068574.4349075337,0.0
355012.02908761695,3897225.878295721,-7500.0,6923984.022413847,-6597834.5881657535,-3272396.7657603179,-5878195.2618291741,-3217232.3019397338,-557440.81214209902,10778098.428030012,-8047702.713080843,6976499.8827217305,-6976499.8827217305,8047702.713080843,18680470.971102893,1.0
360012.02908761695,3897225.878295721,-7500.0,2587113.352812585,-513469.45398033719,1200372.7831198524,-122141.86666084637,390932.15744549176,86112.598932271125,1408068.6690178674,-141192.69839659776,1577793.1937366808,-1577793.1937366808,141192.69839659776,2450307.6073761503,0.0
365012.02908761695,3897225.878295721,-7500.0,1311044.2496744071,-84609.834865766636,334267.01133767603,-26229.837471923973,155047.49902979375,-62946.267172792031,717884.04305379209,-69251.823951921484,864112.36290109227,-864112.36290109227,69251.823951921484,1263139.2312914389,0.0
370012.02908761695,3897225.878295721,-7500.0,742747.52652640699,-50322.747032236271,100950.14920504016,-35630.604746864527,63806.505344567515,-50927.447554915969,411619.35879281035,-87478.656728084636,518452.58063042886,-518452.58063042886,87478.656728084636,745697.58493100165,0.0
375012.02908761695,3897225.878295721,-7500.0,465951.26278523431,-29551.011936098948,33584.462579307103,-39630.859773470343,27824.971517825048,-23756.876566805029,253921.69324810829,-68395.015419375995,334209.12397101871,-334209.12397101871,68395.015419375995,473999.85189861397,0.0
380012.02908761695,3897225.878295721,-7500.0,316613.73311374639,-15824.054842973283,11758.18986796651,-37160.883298536442,12619.470577918075,-8653.1712473539283,169377.37306769489,-48411.590742121029,229768.24179604754,-229768.24179604754,48411.590742121029,323956.46541172778,0.0
385012.02908761695,3897225.878295721,-7500.0,227040.50268423752,-7829.4444790044981,4286.3081138677317,-31636.652454257775,5891.4297653676313,-2093.8663449680907,119952.09358635082,-33772.577997854372,165429.74297810014,-165429.74297810014,33772.577997854372,233178.06333302584,0.0
390012.02908761695,3897225.878295721,-7500.0,168806.99524303019,-3401.3275850923183,1717.9292841798274,-25594.194977429466,2782.878103597694,381.64781033384293,88486.588820463498,-23768.369716814013,123039.64384324182,-123039.64384324182,23768.369716814013,173686.35065476876,0.0
395012.02908761695,3897225.878295721,-7500.0,128804.5088812756,-1005.291561982564,885.75706600427384,-20202.181395047795,1291.4063901886332,1138.4488123045164,67153.211875799287,-16987.356893225122,93750.727210481651,-93750.727210481651,16987.356893225122,132526.85135638653,0.0
400012.02908761695,3897225.878295721,-7500.0,100270.98591163906,260.90441510714777,664.55559921433883,-15792.302007902201,555.62031355656211,1230.3737347962171,52061.874473685813,-12346.187709812326,72822.450257792429,-72822.450257792429,12346.187709812326,103027.77658632398,0.0
405012.02908761695,3897225.878295721,-7500.0,79357.445787702309,901.61526351781617,643.32583458828753,-12329.432523776142,187.38357990531614,1095.5761679115603,41066.508061404413,-9120.9893842355305,57488.779401891523,-57488.779401891523,9120.9893842355305,81357.897652990563,0.0
410012.02908761695,3897225.878295721,-7500.0,63703.170586528104,1196.279608902455,672.76555967953118,-9659.3510639259948,3.8374082268462057,906.92538057615661,32874.663973532013,-6842.5478319753383,46027.810120899143,-46027.810120899143,6842.5478319753383,65133.171948952462,0.0
415012.02908761695,3897225.878295721,-7500.0,51781.276445780532,1300.4369142359396,701.78312375525354,-7613.6556238280409,-84.647702407769685,727.30192399866939,26659.464471817613,-5206.6601547056671,37316.751769922907,-37316.751769922907,5206.6601547056671,52790.244950524801,0.0
420012.02908761695,3897225.878295721,-7500.0,42565.892317240068,1301.3779625616974,716.07379267861734,-6046.0143220527816,-123.50918533203098,575.46532612707733,21870.214049691102,-4013.9080888541466,30598.279338136821,-30598.279338136821,4013.9080888541466,43267.781373628321,0.0
425012.02908761695,3897225.878295721,-7500.0,35348.260689418814,1248.4193382441752,714.51289981889715,-4839.9898223503669,-136.41632616740944,453.41964167652833,18129.225983121785,-3131.6591163357207,25348.448399146946,-25348.448399146946,3131.6591163357207,35827.577072849053,0.0
430012.02908761695,3897225.878295721,-7500.0,29627.838653699047,1169.4948174914282,700.07768124997619,-3906.5692099894195,-135.95560614678291,357.54362840215174,15171.253201590765,-2470.3048577400405,21197.273363442906,-21197.273363442906,2470.3048577400405,29946.35007483339,0.0
435012.02908761695,3897225.878295721,-7500.0,25044.744868342565,1080.356581365111,676.45858471677332,-3178.9618360484305,-128.90943808856221,282.95386255393373,12806.388914190358,-1968.3634165636986,17878.995050198901,-17878.995050198901,1968.3634165636986,25247.297223945996,0.0
440012.02908761695,3897225.878295721,-7500.0,21336.188692033109,989.74907498220841,646.91473536174021,-2607.4182627192913,-118.94991691140187,225.0785501208,10896.429149765958,-1583.0170362362187,15199.831472373815,-15199.831472373815,1583.0170362362187,21455.270540252728,0.0
445012.02908761695,3897225.878295721,-7500.0,18307.651689172206,902.36426234940802,613.99336561112386,-2154.9260220487849,-108.05249947356221,180.11313881267844,9339.37306475484,-1284.0226884027643,13016.588674757739,-13016.588674757739,1284.0226884027643,18366.808478986841,0.0
450012.02908761695,3897225.878295721,-7500.0,15813.356575542897,820.54748230160703,579.55956359610627,-1793.8783851364044,-97.255712942781145,145.05133995616404,8058.9796988659955,-1049.732840146834,11222.15066993943,-11222.15066993943,1049.732840146834,15829.682510769906,0.0
455012.02908761695,3897225.878295721,-7500.0,13742.805483878066,745.29326325996567,544.91930321163261,-1503.5868740856652,-87.0772817304196,117.57642293368922,6997.5993521039691,-864.45692246883482,9735.4783928400229,-9735.4783928400229,864.45692246883482,13728.739863392704,0.0
250012.02908761695,3902225.878295721,-7500.0,13539.638681896384,2348.099315100791,778.83990048494707,1522.9890058295764,275.39203995809305,122.64723739212344,7088.7091708378721,560.37546005995955,9345.986655163757,-9345.986655163757,-560.37546005995955,13977.440285321014,0.0
255012.02908761695,3902225.878295721,-7500.0,15559.730869576611,2763.2760589786781,866.08561105001399,1817.6616115208774,332.27047288727209,151.68012216029712,8167.0417010613683,681.45919910208795,10742.050256649782,-10742.050256649782,-681.45919910208795,16126.400185667266,0.0
260012.02908761695,3902225.878295721,-7500.0,17986.453287659133,3276.9568500264359,968.91443258507559,2184.2821152867427,403.90192976062662,188.90252721434629,9467.6584513312719,838.12384840956474,12417.873314085586,-12417.873314085586,-838.12384840956474,18721.563613609469,0.0
265012.02908761695,3902225.878295721,-7500.0,20922.914215978013,3918.5828300490443,1092.0822925095792,2643.959250651717,494.80847568933359,236.93260020607465,11048.621630093056,1043.512271553991,14443.52653865952,-14443.52653865952,-1043.512271553991,21879.749715629885,0.0
270012.02908761695,3902225.878295721,-7500.0,24503.63466498112,4728.203315992826,1242.6652077081615,3224.9503463421397,611.04043056198316,299.27811749652665,12986.41278841599,1316.6015810083454,16909.907608248039,-16909.907608248039,-1316.6015810083454,25754.524317302377,0.0
275012.02908761695,3902225.878295721,-7500.0,28905.592043656754,5760.9226619931469,1431.5820314917207,3965.3506981403671,760.67818533694242,380.61872070782613,15382.890390424034,1685.2340586502505,19935.721873460967,-19935.721873460967,-1685.2340586502505,30549.509467209482,0.0
280012.02908761695,3902225.878295721,-7500.0,34363.598645939186,7093.421077731251,1676.3128870920136,4916.8709283859807,954.42211374979286,487.14025750740154,18375.504166973751,2190.9351294828248,23676.952917943287,-23676.952917943287,-2190.9351294828248,36537.009990339786,0.0
285012.02908761695,3902225.878295721,-7500.0,41191.707683662251,8833.5763393128454,2005.879315240385,6150.1585461131635,1206.1630567999082,626.8747413870625,22152.652928918866,2896.7204251722123,28339.56126096446,-28339.56126096446,-2896.7204251722123,44084.036637966434,0.0
290012.02908761695,3902225.878295721,-7500.0,49813.047164561409,11134.638003699087,2470.2153464933695,7762.3730475006414,1533.1950163616887,809.95008928941263,26975.692694896115,3899.922759568879,34196.25210698427,-34196.25210698427,-3899.922759568879,53688.525044034177,0.0
295012.02908761695,3902225.878295721,-7500.0,60800.94227538503,14215.805767761736,3158.2535106852033,9888.1841733899091,1955.1991111377174,1048.5661642613281,33204.527567216683,5353.5127107897497,41607.702500695901,-41607.702500695901,-5353.5127107897497,66028.802579918512,0.0
300012.02908761695,3902225.878295721,-7500.0,74933.991259470291,18390.846939208757,4233.6988840187487,12716.481721342061,2489.9754568926187,1356.5307336801952,41329.960348886212,7501.6946441192085,51046.992405539553,-51046.992405539553,-7501.6946441192085,82028.180991910369,0.0
305012.02908761695,3902225.878295721,-7500.0,93264.48236887611,24102.929401573761,6007.1727153170632,16518.060991896578,3141.6560517022881,1748.7248244255068,52029.241797596682,10738.198439160991,63120.924859136663,-63120.924859136663,-10738.198439160991,102929.858714199,0.0
310012.02908761695,3902225.878295721,-7500.0,117186.44842250939,31948.159785669879,9082.7656394515143,21697.849425872271,3873.9068908533509,2243.0938162107436,66235.67719783778,15694.301368004137,78568.455196235402,-78568.455196235402,-15694.301368004137,130353.54720536785,0.0
315012.02908761695,3902225.878295721,-7500.0,148450.1243591769,42608.156016613197,14648.469677372626,28907.850549428938,4560.9581120372686,2872.7788547490409,85179.807923250948,23332.426360101585,98187.138605917295,-98187.138605917295,-23332.426360101585,166231.52520294974,0.0
320012.02908761695,3902225.878295721,-7500.0,188986.18465665955,56382.734780807368,24985.939009317055,39315.18221056278,4941.3890580518801,3711.889143059524,110277.36741953324,34839.467740208042,122612.53537966676,-122612.53537966676,-34839.467740208042,212332.18350591039,0.0
325012.02908761695,3902225.878295721,-7500.0,240430.68944347923,71219.059493833876,43943.986388057812,55256.52166003688,4795.5195337299483,4801.9752369506805,142580.95156688886,50255.032395068891,152134.19035286654,-152134.19035286654,-50255.032395068891,268840.67795412737,0.0
330012.02908761695,3902225.878295721,-7500.0,304984.4440737082,75834.754282104332,74685.191693479705,81780.227384027414,5445.8596476324292,5182.714912232992,182263.12254139016,61275.656820683755,189191.9069206795,-189191.9069206795,-61275.656820683755,333587.2107453334,0.0
335012.02908761695,3902225.878295721,-7500.0,401735.3339187915,31632.404734965578,100212.23775175525,129541.9456246539,16155.553722597044,-1360.5846832520679,241522.24360204619,23237.883427402237,259761.33734084072,-259761.33734084072,-23237.883427402237,431263.19985765161,0.0
340012.02908761695,3902225.878295721,-7500.0,664189.03204199183,-139759.82483261792,3317.2577350838646,218138.67188843602,60424.616041490088,-26576.56443416643,450749.72141177335,-211210.70717640966,513559.1309618128,-513559.1309618128,211210.70717640966,818355.90978499304,0.0
345012.02908761695,3902225.878295721,-7500.0,1662713.6215683101,-306364.87365783943,-390350.37125958013,495912.44410766073,83616.519861526729,18315.656897908986,1163943.7490776696,-702046.37654493796,1409348.6645020875,-1409348.6645020875,702046.37654493796,2140888.3915310004,0.0
350012.02908761695,3902225.878295721,-7500.0,3720196.7498956365,426119.2371476916,4368939.48647545,1578342.1510714716,-1126489.3712293231,1252098.5454272935,2305122.8047478818,2170498.913040048,1230631.1017213429,-1230631.1017213429,-2170498.913040048,4465276.7248297269,1.0
355012.02908761695,3902225.878295721,-7500.0,98055.485430061308,-827365.15921249182,-2254188.1266423431,-1086358.3124762597,-303956.6224384869,1276393.0988562994,2275919.010426742,-1881820.5093743601,916600.77843658673,-916600.77843658673,1881820.5093743601,3945194.2943364074,0.0
360012.02908761695,3902225.878295721,-7500.0,747899.69781786401,-98083.07267472567,315260.68495506787,-512059.50303145172,-13333.126790677685,215959.22250816645,585649.28013094154,-1013.7374564765487,444851.74704417004,-444851.74704417004,1013.7374564765487,1027622.4845556339,0.0
365012.02908761695,3902225.878295721,-7500.0,674372.03256051603,123244.19891896253,254230.70881744378,-170227.68062025114,66687.307838177003,8501.5091783047174,399955.67766236968,153557.79769477871,387297.64931132685,-387297.64931132685,-153557.79769477871,697125.48455803702,0.0
370012.02908761695,3902225.878295721,-7500.0,504387.85705320135,107079.45856368751,107834.03781397521,-77234.62721361297,35869.317254349924,-20619.314209276155,294750.22764084028,82523.104022998115,315863.24284342682,-315863.24284342682,-82523.104022998115,529950.26234578039,0.0
375012.02908761695,3902225.878295721,-7500.0,360653.29623760516,73519.149526395093,44040.359771584117,-49759.763518913293,13268.828992822886,-13088.743650944287,205231.08032628353,38854.807970289112,237280.80265017864,-237280.80265017864,-38854.807970289112,381794.16299090633,0.0
380012.02908761695,3902225.878295721,-7500.0,261640.53825495037,50547.129209942905,19079.263160191018,-37968.921071607983,3154.7433192381077,-5137.1117447407405,145532.0256021205,19114.600780630193,176705.65319172616,-176705.65319172616,-19114.600780630193,278057.85494497651,0.0
385012.02908761695,3902225.878295721,-7500.0,194634.63035744365,35750.965107989192,9063.4203795011072,-30069.955926637758,-617.29246350369408,-1007.7577268507993,106580.12361818123,10010.576112970659,133351.88137205949,-133351.88137205949,-10010.576112970659,207256.28512769137,0.0
390012.02908761695,3902225.878295721,-7500.0,148100.29877240642,25968.964456041384,4851.3622698371892,-23749.310447515345,-1746.0726986063084,661.57966824905645,80231.551347716537,5524.1319744446446,102298.14608609217,-102298.14608609217,-5524.1319744446446,157678.12430321917,0.0
395012.02908761695,3902225.878295721,-7500.0,114830.2412320654,19299.476564962766,2985.2795459597369,-18628.814335665826,-1878.9962008762677,1161.6183466164887,61704.144341732281,3175.7115334390837,79690.558702992217,-79690.558702992217,-3175.7115334390837,122006.91763001356,0.0
400012.02908761695,3902225.878295721,-7500.0,90461.233605115485,14631.817895443088,2106.1850426554856,-14568.771759722378,-1681.7732771050094,1181.8475773028867,48281.59265859791,1887.1807971108065,62948.017175290734,-62948.017175290734,-1887.1807971108065,95794.788942131316,0.0
405012.02908761695,3902225.878295721,-7500.0,72259.462260798202,11291.874659665855,1657.1931356683235,-11407.559941505318,-1408.3220797837107,1035.985771127846,38341.641569233521,1154.1160360108588,50356.240196898012,-50356.240196898012,-1154.1160360108588,76208.868502477926,0.0
410012.02908761695,3902225.878295721,-7500.0,58440.11982775449,8854.8665047016475,1401.7951533760067,-8970.534722002958,-1148.0908184800387,854.23575335759392,30854.750383040522,724.95981611965544,40754.302583361459,-40754.302583361459,-724.95981611965544,61363.620928199794,0.0
415012.02908761695,3902225.878295721,-7500.0,47797.949988626715,7045.1169072599887,1236.6615067309724,-7097.9438740543983,-926.95566782770447,685.14164321131818,25131.656404511272,467.74843128973589,33339.354034687196,-33339.354034687196,-467.74843128973589,49965.572283142399,0.0
420012.02908761695,3902225.878295721,-7500.0,39497.547319918114,5679.4097122358189,1115.6823269061319,-5657.251160556767,-747.44617428502943,543.01374771692554,20695.418560992799,310.47336456473931,27546.001964204366,-27546.001964204366,-310.47336456473931,41108.784720605734,0.0
425012.02908761695,3902225.878295721,-7500.0,32948.039712881997,4633.4840305167872,1017.9572262364636,-4544.2519842034353,-604.50095639576125,428.80468527524431,17212.231876120997,212.58096719122841,22970.006208550891,-22970.006208550891,-212.58096719122841,34148.842188871342,0.0
430012.02908761695,3902225.878295721,-7500.0,27724.495106023744,3821.5246639260376,933.89191256789763,-3679.3427756756032,-491.43695036082147,338.93613486137008,14445.553249847742,150.64106663467282,19318.464331612136,-19318.464331612136,-150.64106663467282,28621.303060606748,0.0
435012.02908761695,3902225.878295721,-7500.0,23516.917297150558,3183.2726822335644,859.00799172977372,-3002.590866703888,-402.03509688619886,268.85458057762673,12224.818469672449,110.82063147872213,16376.567353147397,-16376.567353147397,-110.82063147872213,24187.434855968644,0.0
440012.02908761695,3902225.878295721,-7500.0,20096.269623940403,2675.7586043237111,791.14535181888846,-2469.1471985564676,-331.12003637540982,214.33805797929665,10425.030066490779,84.801480771164279,13985.00930454815,-13985.00930454815,-84.801480771164279,20597.424686854542,0.0
445012.02908761695,3902225.878295721,-7500.0,17291.344688562131,2267.8963569864745,729.18545984968603,-2045.4776285034104,-274.58528712987402,171.87475494923066,8953.3146961096536,67.501330534398221,12024.387261213187,-12024.387261213187,-67.501330534398221,17665.05508786752,0.0
450012.02908761695,3902225.878295721,-7500.0,14972.771205804029,1936.8919821737522,672.46877409466515,-1706.4487501848591,-229.24311577497599,138.6838063138774,7739.8372525654559,55.771672064601262,10404.302934995834,-10404.302934995834,-55.771672064601262,15250.084373018637,0.0
250012.02908761695,3907225.878295721,-7500.0,14529.277928889114,1377.0095072982267,626.96695213054045,1624.5684067187874,161.2406564511156,129.92612559068453,7448.3343000949881,-474.63484381764465,10271.615163235583,-10271.615163235583,474.63484381764465,14632.684133070907,0.0
255012.02908761695,3907225.878295721,-7500.0,16765.377649511855,1583.6386834057876,675.4704427543428,1945.6982713777709,189.11758269381502,161.15212952169497,8604.3179145850336,-579.60478193290055,11871.102524386995,-11871.102524386995,579.60478193290055,16923.747436450336,0.0
260012.02908761695,3907225.878295721,-7500.0,19469.379768493665,1831.6656394116796,727.20879458600598,2347.2509909242726,222.70035129397846,201.33240206753464,10004.506977174227,-712.117801596145,13808.202601585201,-13808.202601585201,712.117801596145,19701.37378665524,0.0
265012.02908761695,3907225.878295721,-7500.0,22766.102986887759,2131.4143287409383,782.17305296117547,2853.5534193833728,263.14996820753646,253.37611964278162,11714.723646160386,-880.66308619867141,16173.4466526674,-16173.4466526674,880.66308619867141,23096.810655569738,0.0
270012.02908761695,3907225.878295721,-7500.0,26821.135179578923,2496.2370918818078,840.50690075963053,3497.4793901514063,311.70243710430685,321.18848213892596,13822.530957292312,-1096.7214861039447,19086.947762354117,-19086.947762354117,1096.7214861039447,27284.374951843449,0.0
275012.02908761695,3907225.878295721,-7500.0,31856.694909791844,2943.5017885427005,902.89715364142307,4323.8051524115072,369.45090256769379,409.97515471027924,16445.808994711741,-1375.9118279258983,22709.826064499608,-22709.826064499608,1375.9118279258983,32498.097463142563,0.0
280012.02908761695,3907225.878295721,-7500.0,38174.751138175525,3495.8947392273717,971.50731142331949,5393.9765554902733,436.81010226045674,526.56826768707231,19745.343024491107,-1739.576220726738,27260.755288418528,-27260.755288418528,1739.576220726738,39055.776733291321,0.0
285012.02908761695,3907225.878295721,-7500.0,46191.193816786224,4183.1162476326563,1052.1251271984897,6792.8801991138498,512.28896064586581,679.65809584513806,23943.607582944896,-2216.8953043316978,33040.184569789766,-33040.184569789766,2216.8953043316978,47394.086524854443,0.0
290012.02908761695,3907225.878295721,-7500.0,56487.2584989143,5044.0205072100216,1159.0630973021298,8638.4606899157443,589.75273914068032,879.648143076172,29353.320299196672,-2847.5030435144618,40466.270679486275,-40466.270679486275,2847.5030435144618,58120.44104345965,0.0
295012.02908761695,3907225.878295721,-7500.0,69888.293992269231,6129.1146901709235,1326.3891699103567,11095.388920592655,652.36921835796454,1137.4802472846625,36421.404492950918,-3684.1113210377298,50128.740769898439,-50128.740769898439,3684.1113210377298,72090.362035219587,0.0
300012.02908761695,3907225.878295721,-7500.0,87586.583649657056,7503.0304689085933,1634.0728465346685,14394.684457995249,659.22573331122385,1461.1362234712162,45797.271348035225,-4793.1061357132676,62870.122887969206,-62870.122887969206,4793.1061357132676,90523.694763795589,0.0
305012.02908761695,3907225.878295721,-7500.0,111335.42627805291,9245.4250184702578,2270.372786667032,18863.049364339644,515.6177313788528,1847.598415094521,58440.672883131243,-6246.634643290985,79907.383315279643,-79907.383315279643,6246.634643290985,115178.77265761355,0.0
310012.02908761695,3907225.878295721,-7500.0,143755.57649312902,11444.812718103782,3685.5733254850061,24971.809696496777,6.9489658918950985,2267.577651742653,75796.009405014818,-8086.889306381192,103006.54871170202,-103006.54871170202,8086.889306381192,148606.73051885399,0.0
315012.02908761695,3907225.878295721,-7500.0,188798.3403256837,14161.865474018783,6985.6714379386067,33437.574476216629,-1347.3482594078064,2641.7044297899515,100069.87367141886,-10209.326005928793,134697.09270130907,-134697.09270130907,10209.326005928793,194488.66382499292,0.0
320012.02908761695,3907225.878295721,-7500.0,252332.74099478466,17249.649498536797,14982.303060617542,45494.807458427887,-4605.7150436660186,2802.0095884165321,134633.36561476169,-12035.716972875336,178382.72991955787,-178382.72991955787,12035.716972875336,257953.89025967222,0.0
325012.02908761695,3907225.878295721,-7500.0,342391.98329392052,19439.72749309217,35083.242919615885,63868.255605448619,-11984.458300411972,2314.3799115707425,184497.27052107186,-11796.462839665808,237716.53968127281,-237716.53968127281,11796.462839665808,345520.86951052747,0.0
330012.02908761695,3907225.878295721,-7500.0,466976.22083477041,13396.312636691371,87065.59931074192,97246.226765342726,-27223.044863053088,-780.76889162282271,257116.08614943363,-6391.5688808180275,313271.65889215906,-313271.65889215906,6391.5688808180275,465354.68735946459,0.0
335012.02908761695,3907225.878295721,-7500.0,622665.29225722095,-41924.862651590265,217663.15793399804,183759.48588563708,-49143.253160938038,-15331.110797545116,373598.40856948018,-6193.5673736440658,394278.97742961557,-394278.97742961557,6193.5673736440658,653067.48538501759,0.0
340012.02908761695,3907225.878295721,-7500.0,747075.70005747222,-353466.1024316515,451973.98249337124,474833.3189338916,-26869.32811139862,-47758.560819503866,713199.99221011193,-169297.73803799439,463049.45530516538,-463049.45530516538,169297.73803799439,1240028.3673380264,0.0
345012.02908761695,3907225.878295721,-7500.0,47322.341441871999,-1558053.3538703339,139458.0142697799,1102948.641089781,-477405.11287054449,-89543.328124566644,1923845.523908623,-1271627.7064544731,248461.6862509473,-248461.6862509473,1271627.7064544731,3414038.108284066,0.0
350012.02908761695,3907225.878295721,-7500.0,-1212546.8147657197,982043.5408535694,1299966.8979364748,-533760.24145767477,3313421.6350277662,-410821.2646344867,3679222.6047461531,1649293.0576089392,-1436448.0436797841,1436448.0436797841,-1649293.0576089392,6451771.8422624907,0.0
355012.02908761695,3907225.878295721,-7500.0,2932.0538542593345,-885707.10485229979,-1304840.3065386517,255449.82184527189,324322.45169016678,17865.331177757758,1153977.0432043187,-1456479.3168340141,583634.60534727061,-583634.60534727061,1456479.3168340141,2143541.7177941399,0.0
360012.02908761695,3907225.878295721,-7500.0,43898.112293836799,-235467.64130080896,-95609.583381099161,-102612.12427022686,-51844.145357638234,105766.74560783956,270173.91322958184,-252621.39618417644,96701.579575696451,-96701.579575696451,252621.39618417644,487757.6202105956,0.0
365012.02908761695,3907225.878295721,-7500.0,164811.44573499938,56004.100148339756,135619.28822177183,-90207.950509215327,-8160.7246460253646,26111.133076454036,129180.08911094192,100197.23109917063,64614.272741823457,-64614.272741823457,-100197.23109917063,223746.71037432682,0.0
370012.02908761695,3907225.878295721,-7500.0,202566.428642855,114761.62213366447,109882.63813988349,-55268.411613211516,598.88246660671666,-2212.9299276363408,156557.8609091652,130162.7201538185,92862.848777682389,-92862.848777682389,-130162.7201538185,283232.59212364425,0.0
375012.02908761695,3907225.878295721,-7500.0,188891.24858485057,102936.08730079971,66490.185007199441,-37745.837201735907,-3020.5564864195512,-4682.0586699358764,135395.8305908023,98455.774649620595,99493.224757661912,-99493.224757661912,-98455.774649620595,254653.09172932335,0.0
380012.02908761695,3907225.878295721,-7500.0,160906.95695660694,79793.71350387705,38655.953604332542,-29115.563115762885,-5569.2158107160067,-2117.9934696184682,107963.71736181629,67575.378799805098,91982.692460349528,-91982.692460349528,-67575.378799805098,208158.07744632341,0.0
385012.02908761695,3907225.878295721,-7500.0,132827.57337154736,59561.114380576888,23000.108276245381,-23472.894793555428,-5976.2773368457283,-130.08375630580611,84863.899605258528,45703.709071226112,79858.007111983548,-79858.007111983548,-45703.709071226112,165951.99701113065,0.0
390012.02908761695,3907225.878295721,-7500.0,108528.29972605803,44213.979642434955,14301.16979524367,-18980.917783397534,-5318.859011755977,795.78910044953,66899.754505382516,31184.548126443755,67425.009326445113,-67425.009326445113,-31184.548126443755,131772.70231322353,0.0
395012.02908761695,3907225.878295721,-7500.0,88544.779868216239,33029.768895616464,9355.9457364552945,-15246.088083474298,-4364.2066446157569,1073.9922376434863,53103.866294614891,21629.879820344253,56251.872403662885,-56251.872403662885,-21629.879820344253,104988.8844171599,0.0
400012.02908761695,3907225.878295721,-7500.0,72442.025786640748,24949.157083142087,6442.5376872392208,-12181.604868931268,-3451.7826971798768,1051.5730611282422,42484.945143352634,15286.426566047732,46752.579512992153,-46752.579512992153,-15286.426566047732,84196.76986120177,0.0
405012.02908761695,3907225.878295721,-7500.0,59565.272292915492,19089.126810695467,4654.7445195979426,-9716.8626786917175,-2689.3501017134504,917.88205260415293,34273.475507519783,11010.895365461591,38884.551917507197,-38884.551917507197,-11010.895365461591,68062.160204942717,0.0
410012.02908761695,3907225.878295721,-7500.0,49281.180511745799,14800.592338495449,3510.1339960316,-7762.6451001432106,-2087.5714449532352,760.36669731383006,27888.88374339811,8078.9746555752135,32445.911615634082,-32445.911615634082,-8078.9746555752135,55492.630929290484,0.0
415012.02908761695,3907225.878295721,-7500.0,41048.761941317658,11625.943822207561,2745.7872320694419,-6225.1100631458075,-1624.3809366056073,614.18156206694039,22893.31244384015,6032.4695426944127,27200.635222912071,-27200.635222912071,-6032.4695426944127,45639.544123772008,0.0
420012.02908761695,3907225.878295721,-7500.0,34429.742798367028,9246.64839810577,2214.3333629902991,-5018.5356554690625,-1271.2426280511161,490.40561101582108,18961.392790323913,4578.9070622692198,22928.071219446876,-22928.071219446876,-4578.9070622692198,37858.266785184394,0.0
425012.02908761695,3907225.878295721,-7500.0,29078.164046322745,7441.0509682507936,1830.6653281470246,-4070.7681155633759,-1002.3434766414201,390.0110069209216,15863.466462976759,3529.0940478902457,19439.248781020786,-19439.248781020786,-3529.0940478902457,31663.71982356266,0.0
430012.02908761695,3907225.878295721,-7500.0,24724.273558237695,6053.9925053180623,1544.111902962884,-3323.8253880601774,-796.90438226680453,310.27846167375213,13394.267315682546,2758.7702958905174,16578.945262785503,-16578.945262785503,-2758.7702958905174,26691.642683206912,0.0
435012.02908761695,3907225.878295721,-7500.0,21158.856533686205,4975.9014690283921,1323.5729025823396,-2732.3282728691534,-639.02391443161366,247.56673570533457,11395.778493010956,2185.0343057099726,14222.399858143728,-14222.399858143728,-2185.0343057099726,22668.035818230041,0.0
440012.02908761695,3907225.878295721,-7500.0,18219.772862077181,4128.5889390459015,1149.3765280324612,-2261.2605483681286,-516.81059645102982,198.40527983559809,9763.2769830320231,1751.7024460669363,12270.406899183616,-12270.406899183616,-1751.7024460669363,19385.900822214411,0.0
445012.02908761695,3907225.878295721,-7500.0,15781.100503512844,3455.6365601238554,1008.7062086630796,-1883.7807107949332,-421.45510648548355,159.84809310833768,8419.1172774104925,1420.1107195450741,10644.426062146067,-10644.426062146067,-1420.1107195450741,16687.926615150292,0.0
450012.02908761695,3907225.878295721,-7500.0,13744.690523623236,2915.8779341431905,892.96802115327534,-1579.3553581944959,-346.44549302206019,129.52436054367206,7304.1458887388999,1163.2582102319461,9282.3292004146388,-9282.3292004146388,-1163.2582102319461,14453.766963583936,0.0
250012.02908761695,3912225.878295721,-7500.0,15144.508487388241,309.41223238456263,599.18170347577711,1688.386650276168,36.708220189671614,134.57710148416351,7695.8365053666948,-1474.3390103260326,10895.247526243475,-10895.247526243475,1474.3390103260326,15079.237817598705,0.0
255012.02908761695,3912225.878295721,-7500.0,17494.314271850675,281.22280784586013,644.52794779491478,2024.0439332383905,32.396642402262835,167.05431692912873,8899.26779386831,-1794.6910261768035,12615.022055420668,-12615.022055420668,1794.6910261768035,17456.210294656754,0.0
260012.02908761695,3912225.878295721,-7500.0,20338.634168679142,228.33315817663185,693.2637989528838,2444.0692763738798,23.571992889650119,208.85907317438205,10358.715421187067,-2201.9196228222409,14701.946736226129,-14701.946736226129,2201.9196228222409,20341.338059279682,0.0
265012.02908761695,3912225.878295721,-7500.0,23809.823434591464,138.17284218455524,745.85171464963321,2973.983400511238,7.5348772411227483,263.00605020668939,12143.677805937812,-2724.6102770998568,17255.403633940587,-17255.403633940587,2724.6102770998568,23872.734395317664,0.0
270012.02908761695,3912225.878295721,-7500.0,28083.502728114585,-8.2954228262391894,803.29759231740456,3648.2038115855266,-20.028952081524587,333.51631766867177,14346.786125596311,-3402.4821650662998,20407.496082876394,-20407.496082876394,3402.4821650662998,28234.298279044269,0.0
275012.02908761695,3912225.878295721,-7500.0,33395.369288617818,-240.20649946447662,867.8343208947523,4513.4433101079067,-66.102244815859706,425.68694084673206,17093.007616659703,-4291.4007767810108,24335.769269578341,-24335.769269578341,4291.4007767810108,33673.694589332903,0.0
280012.02908761695,3912225.878295721,-7500.0,40065.682252470004,-602.7019505373944,944.38138512623345,5633.4204321098814,-142.16157325777107,546.319750610244,20553.187313268627,-5470.9465174720463,29281.667985918626,-29281.667985918626,5470.9465174720463,40528.557580337925,0.0
285012.02908761695,3912225.878295721,-7500.0,48535.460284413202,-1166.682663599991,1043.6420471650231,7095.2740452267326,-267.4083061559889,703.69838072511334,24964.331308479588,-7055.9416799598894,35577.644800174799,-35577.644800174799,7055.9416799598894,49265.196764485619,0.0
290012.02908761695,3912225.878295721,-7500.0,59421.071872147717,-2045.1691069372016,1188.7509178859668,9018.0131105148193,-474.63245989521971,906.79797686357756,30660.699928179485,-9214.1331851114664,43687.591770663057,-43687.591770663057,9214.1331851114664,60536.758541111427,0.0
295012.02908761695,3912225.878295721,-7500.0,73598.387930905708,-3421.1931807173801,1429.7759117815158,11562.899442693992,-821.14362340484104,1162.5065354358562,38122.704224710244,-12193.34931481555,54268.06509111097,-54268.06509111097,12193.34931481555,75272.218667103138,0.0
300012.02908761695,3912225.878295721,-7500.0,92336.092772731616,-5595.9252107770344,1876.1135914820452,14944.301766045166,-1409.7249943501361,1468.1612204095486,48056.056841060556,-16362.638102894292,68262.545772661077,-68262.545772661077,16362.638102894292,94815.500831879268,0.0
305012.02908761695,3912225.878295721,-7500.0,117513.76812818281,-9072.3756828100632,2771.1318189045528,19435.915301870245,-2429.993614492033,1793.7928555034086,61523.935868163877,-22271.83675250076,87048.797741999515,-87048.797741999515,22271.83675250076,121148.14586792108,0.0
310012.02908761695,3912225.878295721,-7500.0,151992.60343591351,-14700.137287383728,4670.9114632666824,25358.18528701445,-4242.3796468426608,2043.5075727409685,80175.969423953444,-30726.484447180701,112671.67493738752,-112671.67493738752,30726.484447180701,157254.71665643115,0.0
315012.02908761695,3912225.878295721,-7500.0,200272.49598411735,-23917.064947678329,8893.4295934390284,33011.025262582007,-7553.0076032644893,1978.4554697137319,106662.02633685376,-42835.953167377265,148207.90801361395,-148207.90801361395,42835.953167377265,207734.32633287553,0.0
320012.02908761695,3912225.878295721,-7500.0,269716.59846360784,-39106.882490151482,18718.509092165543,42470.926509567864,-13783.960650437681,1071.839902042077,145413.44753302852,-59828.641866278311,198308.25980344872,-198308.25980344872,59828.641866278311,279839.42241183284,0.0
325012.02908761695,3912225.878295721,-7500.0,373026.46659720765,-63902.685447718315,42868.403004578562,53179.630056270536,-25847.988451897869,-1798.1530305629572,204216.93623296195,-81760.977420994968,269877.45880601893,-269877.45880601893,81760.977420994968,385338.43064671446,0.0
330012.02908761695,3912225.878295721,-7500.0,533972.36195547285,-102310.08329803216,106892.58390482496,64611.216036057536,-49569.41368362934,-9066.2365356819537,297737.04281375342,-101466.53294671307,372345.96194144327,-372345.96194144327,101466.53294671307,544669.18365153729,0.0
335012.02908761695,3912225.878295721,-7500.0,799085.77609988977,-154647.52086967477,297082.31773161719,93547.204939417978,-95229.558397093366,-21397.812704215801,454568.74356089468,-79695.703816554742,511420.68765847373,-511420.68765847373,79695.703816554742,799075.71904254262,0.0
340012.02908761695,3912225.878295721,-7500.0,1227417.517919804,-282989.61376244412,932777.79269004345,323648.83371052321,-190077.93814170777,17945.619855963563,786002.02426732494,89021.871298456215,637923.24237109628,-637923.24237109628,-89021.871298456215,1362409.7427185306,1.0
345012.02908761695,3912225.878295721,-7500.0,1399843.8417088087,-1834866.5241707268,675248.62923564669,-2240283.0998450886,-947495.70132602321,1671287.9981466744,3026407.8549371166,-1307234.032587799,1010957.2454718093,-1010957.2454718093,1307234.032587799,5352145.5685759829,1.0
350012.02908761695,3912225.878295721,-7500.0,240130.53879471743,610058.47826362192,-1244591.20323909,259386.25705277576,895810.49564698513,133605.60894709604,1372698.5444647796,-198751.42421469008,516572.41882000084,-516572.41882000084,198751.42421469008,2404864.5277052457,1.0
355012.02908761695,3912225.878295721,-7500.0,145150.21061254322,-151441.40478968926,-1005440.1386660801,272469.01052936137,338830.55943810038,24109.723871512644,759043.56649574509,-695165.29197419295,476245.70762236346,-476245.70762236346,695165.29197419295,1354688.510966772,0.0
360012.02908761695,3912225.878295721,-7500.0,-88929.578212494191,-173927.25434443899,-279300.84666366497,81101.224522058357,62135.487660655053,22990.748598863971,236427.95232113899,-287184.45028745243,57466.19748901343,-57466.19748901343,287184.45028745243,438338.39181004494,0.0
365012.02908761695,3912225.878295721,-7500.0,-66736.465448000381,-23631.586111020235,15890.507363256133,8000.2139464849879,6253.0913462974149,7181.8508569354653,48657.710443495074,-2963.9661047614754,-50272.254814477928,50272.254814477928,2963.9661047614754,90377.855251264831,0.0
370012.02908761695,3912225.878295721,-7500.0,-1780.7122146521517,55473.713857959687,77976.474825946803,-10275.652955212838,-4304.1413103766045,-1013.732555087134,69505.340131062796,89053.046530906387,-36092.862539898677,36092.862539898677,-89053.046530906387,126114.89927076167,0.0
375012.02908761695,3912225.878295721,-7500.0,41115.70497551922,76141.169243831871,70282.047912468057,-14284.185978552025,-7838.4343636584526,-2063.6401808216106,79263.678336721074,96899.571036329187,-5421.5889973169396,5421.5889973169396,-96899.571036329187,148873.7217427982,0.0
380012.02908761695,3912225.878295721,-7500.0,60346.725174921994,71839.267695912189,51213.186335220322,-14828.042534402126,-8791.3219566892112,-930.28678500167757,73555.376611624291,80572.800925230826,15649.576097911082,-15649.576097911082,-80572.800925230826,140188.20730880153,0.0
385012.02908761695,3912225.878295721,-7500.0,65096.877686244377,60192.054124418755,35224.786031739401,-14018.63712190779,-8220.1885773684135,122.19674751234984,63378.323838689976,61537.891509723457,26267.470690542716,-26267.470690542716,-61537.891509723457,121797.58864132613,0.0
390012.02908761695,3912225.878295721,-7500.0,62517.219172484853,48111.265563731751,24032.507187062321,-12524.942658791839,-6991.632723395689,676.21197620548867,52976.55778904655,45637.828273470499,30011.46721656181,-30011.46721656181,-45637.828273470499,102405.09191187882,0.0
395012.02908761695,3912225.878295721,-7500.0,56798.889419704588,37764.156797497402,16598.731184441836,-10781.594457968418,-5653.5270986481883,860.05086762661438,43744.926171383238,33616.255959676972,29946.599240339387,-29946.599240339387,-33616.255959676972,84967.442461315179,0.0
400012.02908761695,3912225.878295721,-7500.0,50143.568676936586,29511.814741682956,11710.083850013187,-9066.9574705797568,-4455.2885008886115,847.43080261406931,36001.311528584658,24850.620316032695,28023.922682593929,-28023.922682593929,-24850.620316032695,70225.630410039565,0.0
405012.02908761695,3912225.878295721,-7500.0,43614.180096313583,23121.929960007226,8468.8130632221018,-7523.1217348104219,-3471.3973701266477,752.26053500993009,29669.468128008637,18529.572480506176,25352.04117383901,-25352.04117383901,-18529.572480506176,58101.272738953456,0.0
410012.02908761695,3912225.878295721,-7500.0,37666.087926341032,18227.825259938807,6283.7776579764568,-6200.5073368792027,-2697.0857222822387,634.39880274799464,24549.075563433929,13968.601586395867,22516.414485684596,-22516.414485684596,-13968.601586395867,48249.124015807887,0.0
415012.02908761695,3912225.878295721,-7500.0,32446.977125533267,14484.99801665664,4780.1855669658917,-5099.288601214269,-2100.0503329569492,520.98218978474677,20422.590108835742,10656.405012319949,19803.319381346682,-19803.319381346682,-10656.405012319949,40275.489198038784,0.0
420012.02908761695,3912225.878295721,-7500.0,27957.820159700197,11612.552732501952,3722.3324970716494,-4196.9237087335932,-1643.5540766423353,422.15451326061589,17094.157405894446,8228.450787987269,17336.120342553651,-17336.120342553651,-8228.450787987269,33819.105821061137,0.0
425012.02908761695,3912225.878295721,-7500.0,24136.378750806489,9394.3316681826855,2961.1957526663109,-3463.535198683604,-1295.020937809895,340.09014756707779,14400.339545899598,6429.4424714150664,15153.207830580362,-15153.207830580362,-6429.4424714150664,28575.178544050341,0.0
430012.02908761695,3912225.878295721,-7500.0,20898.919012274917,7668.1874827544907,2401.4114965792705,-2869.4205734072361,-1028.211951905552,273.62777254625621,12209.594559596771,5081.3308608464813,13250.978974672109,-13250.978974672109,-5081.3308608464813,24296.494064864004,0.0
435012.02908761695,3912225.878295721,-7500.0,18160.025855952583,6313.7415010186169,1981.0044519041085,-2388.1728817572407,-822.92659880393433,220.48311398549748,10417.958824982901,4059.5985763998369,11606.906253800702,-11606.906253800702,-4059.5985763998369,20786.423701733514,0.0
440012.02908761695,3912225.878295721,-7500.0,15841.246443616536,5241.8376206010253,1659.0033258481176,-1997.5882087262369,-663.95477922415841,178.23080234050806,8948.0056105262029,3276.5969968160189,10191.603168086294,-10191.603168086294,-3276.5969968160189,17890.040574914761,0.0
445012.02908761695,3912225.878295721,-7500.0,13874.08398852567,4386.2907815099588,1407.8342870852837,-1679.5498567957447,-539.95659370187809,144.68811864685202,7762.5507657012258,2670.0937469029632,8974.8348997679914,-8974.8348997679914,-2670.0937469029632,15485.657183348269,0.0
450012.02908761695,3912225.878295721,-7500.0,12200.373669221704,3697.7375516015204,1208.6066267335045,-1419.5236950615447,-442.50410678744328,118.02938185324777,6770.8478884271981,2195.4801286300499,7928.3331232213422,-7928.3331232213422,-2195.4801286300499,13477.68651062227,0.0
250012.02908761695,3917225.878295721,-7500.0,15360.29649179353,-786.13558919833986,704.3131842623045,1711.986716347528,-91.09247695965837,136.43710645647167,7823.1178924425049,-2372.7378129220979,11185.127631998821,-11185.127631998821,2372.7378129220979,15300.808110364176,0.0
255012.02908761695,3917225.878295721,-7500.0,17714.140915683092,-1052.0560367988066,784.68325675080462,2049.4331222293981,-128.07505405884237,169.16679982607189,9041.3227829600328,-2875.6921803427267,12932.227577844702,-12932.227577844702,2875.6921803427267,17702.428100963811,0.0
260012.02908761695,3917225.878295721,-7500.0,20551.813567209043,-1408.1513100196819,882.02836507132201,2470.3604208656902,-179.74685210076612,211.1854047691896,10516.320989715914,-3512.0955609305247,15043.993528790699,-15043.993528790699,3512.0955609305247,20613.089435218626,0.0
265012.02908761695,3917225.878295721,-7500.0,23997.894691857848,-1888.9704053357773,1002.923280037938,2999.3378587686252,-252.53286795024488,265.4245700312033,12316.778906172054,-4324.7623560823395,17615.366740790407,-17615.366740790407,4324.7623560823395,24169.30709036882,0.0
270012.02908761695,3917225.878295721,-7500.0,28215.27116457884,-2544.2604431140358,1157.649955274906,3669.0891431439577,-356.01970751558059,335.73904060536807,14533.702399287564,-5372.6426625033009,20770.620010241084,-20770.620010241084,5372.6426625033009,28551.98830868629,0.0
275012.02908761695,3917225.878295721,-7500.0,33418.652796267561,-3446.6103628502956,1362.7501589964352,4523.3106699329564,-504.70309725037021,427.1001998942815,17289.03275904783,-6737.7719110067301,24673.631915626491,-24673.631915626491,6737.7719110067301,34003.411617173806,0.0
280012.02908761695,3917225.878295721,-7500.0,39893.341750133121,-4703.4525431457705,1645.5950905073339,5620.3082197624735,-720.80966766180438,545.66967777613934,20748.090393760183,-8535.5362646861449,29542.012822580451,-29542.012822580451,8535.5362646861449,40851.67462474903,0.0
285012.02908761695,3917225.878295721,-7500.0,48021.406113042678,-6476.2052062962821,2052.7698493241728,7037.3929743456574,-1038.9127054905282,698.46520713012796,25137.880794018369,-10929.924183058249,35666.47523772977,-35666.47523772977,10929.924183058249,49546.358277620966,0.0
290012.02908761695,3917225.878295721,-7500.0,58318.266360336704,-9011.2723661251639,2665.8515699954769,8875.4289118178694,-1513.5632676592622,891.92452585110186,30774.545831261865,-14156.214474325574,43437.151972938576,-43437.151972938576,14156.214474325574,60711.307333922203,0.0
295012.02908761695,3917225.878295721,-7500.0,71483.873129511863,-12691.065174500378,3631.9977882155758,11261.470264570249,-2231.9950566325319,1127.7634031324476,38105.560577681455,-18554.528860478949,53378.624422068082,-53378.624422068082,18554.528860478949,75224.079427111821,0.0
300012.02908761695,3917225.878295721,-7500.0,88474.306256168755,-18119.192277338167,5225.0803805417527,14343.773818622552,-3335.2217293911481,1392.588280007189,47776.713760247912,-24618.414925540768,66194.670108766586,-66194.670108766586,24618.414925540768,94338.177030920255,0.0
305012.02908761695,3917225.878295721,-7500.0,110601.90378032613,-26264.551718475766,7972.2058646039441,18264.559303125658,-5052.271885324657,1633.912038317714,60742.543481168927,-33061.455123276042,82820.423358624234,-82820.423358624234,33061.455123276042,119876.45643633664,0.0
310012.02908761695,3917225.878295721,-7500.0,139676.19557745234,-38707.252467801874,12925.627488651233,23074.431724110495,-7751.6071439718871,1708.9660989989809,78455.898076092199,-44896.24248005062,104469.9141660007,-104469.9141660007,44896.24248005062,154549.48342099326,0.0
315012.02908761695,3917225.878295721,-7500.0,178206.90581747386,-58059.950303409176,22272.597807518454,28500.952542756742,-11999.539813567471,1287.5429539725678,103207.65078624972,-61486.124106707852,132639.67363452422,-132639.67363452422,61486.124106707852,202509.07187416864,0.0
320012.02908761695,3917225.878295721,-7500.0,229725.30296306996,-88692.657985391052,40773.527324276831,33369.310237229067,-18536.845086159174,-289.87755050502381,138779.66235362121,-84420.402180189791,168962.21346727622,-168962.21346727622,84420.402180189791,270404.36242364615,0.0
325012.02908761695,3917225.878295721,-7500.0,299467.26880173164,-138039.01920965375,79395.603386181188,34343.326807834717,-27723.913121601596,-4026.4266387701687,191866.26661885204,-114750.24688408189,214673.4909631183,-214673.4909631183,114750.24688408189,369808.25968371239,0.0
330012.02908761695,3917225.878295721,-7500.0,396479.58475427289,-219610.69100861441,165765.44142569101,25023.248530384262,-36507.591913011704,-9617.0557242758423,275600.87036964356,-150271.58810617978,269161.6773589896,-269161.6773589896,150271.58810617978,524418.46586664603,0.0
335012.02908761695,3917225.878295721,-7500.0,533874.56442861562,-363759.61033508176,385583.54404343315,14135.298525998107,-25887.005506548168,4501.5400981785069,414849.78399507236,-173252.04663892934,318673.44336805766,-318673.44336805766,173252.04663892934,789492.08556021575,0.0
340012.02908761695,3917225.878295721,-7500.0,471558.87949984422,-634679.7584050101,1249653.0913794222,186892.66590771329,80854.83589904898,266269.41929758247,815127.28807859484,60153.377661357532,32993.533077226399,-32993.533077226399,-60153.377661357532,1462929.6675288549,1.0
345012.02908761695,3917225.878295721,-7500.0,-1483853.4078111721,395978.06574148184,-3901737.8015177939,12609.476540100235,-37726.351533433663,-411350.97721328732,1777246.5072256364,-1546536.0476684575,150218.09409703256,-150218.09409703256,1546536.0476684575,3172499.9620590145,0.0
350012.02908761695,3917225.878295721,-7500.0,-658763.23446716729,-20854.176055697819,-1229178.7360762053,37855.203195459049,402613.7500658448,32377.753233087093,749573.04849555693,-592021.25825197913,-63520.626634944696,63520.626634944696,592021.25825197913,1299686.2994456871,0.0
355012.02908761695,3917225.878295721,-7500.0,-286464.36049337941,-115662.36357742055,-658743.07304957602,96085.936743367623,250176.62119528805,28928.185116725028,449180.07157553593,-416991.29088991333,33230.823888131534,-33230.823888131534,416991.29088991333,781712.04584619333,0.0
360012.02908761695,3917225.878295721,-7500.0,-207086.59592630024,-144795.94975904716,-283481.55852159054,75842.107762476095,106123.53439628659,-599.59134410897934,236481.61466286014,-249584.45898370061,-31681.386961541881,31681.386961541881,249584.45898370061,422123.12321223295,0.0
365012.02908761695,3917225.878295721,-7500.0,-163239.71865509523,-76137.064471291829,-58464.551898409409,41313.961860219832,35985.060488203482,-4529.1029222719153,115139.41134317245,-75489.74615523353,-86896.301018875383,86896.301018875383,75489.74615523353,214321.78077232241,0.0
370012.02908761695,3917225.878295721,-7500.0,-104003.32949473477,-7973.9705347017998,31886.055558402804,17910.816888804806,7989.6706698985399,-3729.3356970526756,70720.630893788446,23477.857863030134,-85027.173289854632,85027.173289854632,-23477.857863030134,127433.42051301303,0.0
375012.02908761695,3917225.878295721,-7500.0,-50713.004106793283,29763.559154764189,53352.2112633617,5064.3158148241391,-2803.1547573175412,-2292.3190929821649,60236.620900927621,60260.253580558063,-59396.815123908258,59396.815123908258,-60260.253580558063,104371.19357076188,0.0
380012.02908761695,3917225.878295721,-7500.0,-13357.126217710947,43656.826261909948,49418.39849599811,-1600.2048875524983,-6563.6436497407385,-992.53398999632395,54099.154694509962,65185.708610852671,-33069.968169145432,33069.968169145432,-65185.708610852671,95771.277206633808,0.0
385012.02908761695,3917225.878295721,-7500.0,9170.9290304405968,44745.806305593302,39235.632261822902,-4790.8012485710706,-7259.9122551423052,-111.35404744122513,47726.649637872208,57781.584574669134,-13431.096725270763,13431.096725270763,-57781.584574669134,86617.850926095314,0.0
390012.02908761695,3917225.878295721,-7500.0,21114.665265624833,40382.344626883794,29441.117623268507,-6012.4407352283088,-6676.4148424270034,364.69496022054147,41201.333993865672,47306.845591944002,-772.1138589078364,772.1138589078364,-47306.845591944002,76203.922895290612,0.0
395012.02908761695,3917225.878295721,-7500.0,26385.180343085471,34390.331352102963,21687.100524378915,-6159.7220373346963,-5668.4007517195923,561.40344404515042,35063.155782238522,37393.745252032968,6601.1035350826169,-6601.1035350826169,-37393.745252032968,65771.732086987482,0.0
400012.02908761695,3917225.878295721,-7500.0,27769.565229777832,28479.323386479969,15965.878169115762,-5771.4366611063906,-4625.1010031598998,599.19263626327688,29616.562109336955,29134.202663173477,10451.766136743536,-10451.766136743536,-29134.202663173477,56161.94710481388,0.0
405012.02908761695,3917225.878295721,-7500.0,27046.92479012725,23286.258857106568,11854.35634533405,-5159.0575479549098,-3699.7165774844934,559.80750133773427,24949.015041069051,22615.716452808439,12116.50307381848,-12116.50307381848,-22615.716452808439,47724.575044683384,0.0
410012.02908761695,3917225.878295721,-7500.0,25284.691990357715,18958.148560790178,8918.1277394095323,-4491.359226182245,-2933.7180385563684,490.30130559735181,21027.44846393184,17594.392183073793,12494.639168913704,-12494.639168913704,-17594.392183073793,40514.176097358402,0.0
415012.02908761695,3917225.878295721,-7500.0,23095.378833258583,15442.214853496851,6812.8888498206079,-3852.2040222780024,-2321.1780187553054,414.83025603125691,17766.938519338579,13762.827016378247,12155.658336601562,-12155.658336601562,-13762.827016378247,34442.691346842301,0.0
420012.02908761695,3917225.878295721,-7500.0,20815.669031080877,12619.865797866958,5289.1255099344608,-3277.738436972475,-1839.7108514372626,344.40125683612985,15068.568268956024,10843.599861118599,11446.926158159355,-11446.926158159355,-10843.599861118599,29367.766038155776,0.0
425012.02908761695,3917225.878295721,-7500.0,18620.446079163856,10364.00145352278,4172.5072726440067,-2778.8263547369247,-1464.1114462088749,283.10987955013098,12837.495691422851,8612.9496621712842,10574.210274743489,-10574.210274743489,-8612.9496621712842,25137.585334792482,0.0
430012.02908761695,3917225.878295721,-7500.0,16592.163232871815,8560.6933537754176,3342.86835469279,-2353.8817163078743,-1171.6341247017285,231.69499069330971,10990.18070502877,6899.1147336976574,9655.7792116664859,-9655.7792116664859,-6899.1147336976574,21611.129929929462,0.0
435012.02908761695,3917225.878295721,-7500.0,14761.854063537738,7115.161576957812,2717.5325255363141,-1995.870436376546,-943.50449035369354,189.42647812304767,9456.1704000040136,5573.2606659875673,8756.886819383466,-8756.886819383466,-5573.2606659875673,18665.583167422148,0.0
440012.02908761695,3917225.878295721,-7500.0,13132.987047285042,5951.3897179778778,2239.3618834807958,-1695.9625814262772,-764.88801766875054,155.05256674951121,8177.4672620712754,4539.7115065349626,7911.1968454045,-7911.1968454045,-4539.7115065349626,16197.600006064165,0.0
445012.02908761695,3917225.878295721,-7500.0,11695.10253208934,5009.5269826536232,1868.5488261291796,-1445.3199698053936,-624.32340911685833,127.24557746021667,7106.9753560182053,3727.6042125000777,7133.8691743166792,-7133.8691743166792,-3727.6042125000777,14121.847435942151,0.0
450012.02908761695,3917225.878295721,-7500.0,10431.488648697779,4242.8707070424489,1577.0782794134348,-1235.8880982864064,-513.05466623369455,104.78986136501857,6206.8683966168182,3084.3755363439514,6429.4803625746854,-6429.4803625746854,-3084.3755363439514,12368.599393831213,0.0
250012.02908761695,3922225.878295721,-7500.0,15181.515577509037,-1840.305763715234,935.67704070092555,1695.7464078669475,-214.95958672325779,135.5258190014701,7828.8236484403642,-3115.4917407502421,11136.535261709188,-11136.535261709188,3115.4917407502421,15294.06581412537,0.0
255012.02908761695,3922225.878295721,-7500.0,17434.306872491074,-2323.6899106109095,1085.5335862842467,2022.6838109861094,-282.40819374394982,167.53916448836537,9029.3144356697667,-3751.2943989034993,12819.085645169673,-12819.085645169673,3751.2943989034993,17659.127989953624,0.0
260012.02908761695,3922225.878295721,-7500.0,20125.972282953891,-2952.7849997475837,1277.2669231660079,2427.7191308029624,-373.5045801289603,208.41833991720043,10476.663800184077,-4548.0301028702843,14833.317399919779,-14833.317399919779,4548.0301028702843,20513.881601647885,0.0
265012.02908761695,3922225.878295721,-7500.0,23360.021432787998,-3778.7847830256474,1527.8940134199011,2932.5794897705182,-497.67526865738438,260.84613374876068,12234.46575260244,-5554.117952671375,17257.690721000719,-17257.690721000719,5554.117952671375,23985.210056619675,0.0
270012.02908761695,3922225.878295721,-7500.0,27267.306077011232,-4873.6077302981012,1863.1758598685235,3565.5182572858257,-668.57948301172291,328.27508207209848,14385.883833918055,-6834.5915382799467,20191.075874445676,-20191.075874445676,6834.5915382799467,28239.236631815143,0.0
275012.02908761695,3922225.878295721,-7500.0,32013.13057775165,-6339.3888445949106,2322.9215967993041,4363.1127008574422,-906.2046161940309,415.02233579968873,17040.568725247598,-8477.2642057145549,23757.669444615887,-23757.669444615887,8477.2642057145549,33495.25260698497,0.0
280012.02908761695,3922225.878295721,-7500.0,37805.396618949635,-8322.7595186774106,2969.9750280784838,5372.1826610061553,-1240.0579517174806,526.18048073933664,20344.271357342062,-10601.108056135152,28112.164094909898,-28112.164094909898,10601.108056135152,40045.081987168873,0.0
285012.02908761695,3922225.878295721,-7500.0,44902.827985056429,-11036.503409369741,3905.7832351404286,6651.2665963753398,-1714.0120885655849,667.0208278422574,24492.280566652436,-13367.342146904137,33443.881727791842,-33443.881727791842,13367.342146904137,48280.137990134186,0.0
290012.02908761695,3922225.878295721,-7500.0,53620.578172501584,-14792.493456668404,5297.9705440340031,8270.1718547329565,-2393.5318458753682,841.15103361759304,29748.283503365699,-16993.237611158234,39976.638528434014,-39976.638528434014,16993.237611158234,58729.299231685545,0.0
295012.02908761695,3922225.878295721,-7500.0,64326.693704378755,-20051.710213708466,7430.3914878620835,10304.064975874038,-3376.0016221105861,1045.8234470361183,36471.006544592645,-21766.998818222972,47956.860990906251,-47956.860990906251,21766.998818222972,72111.974741897633,0.0
300012.02908761695,3922225.878295721,-7500.0,77414.479706219601,-27499.227965050159,10796.304928004363,12814.120315587916,-4803.9488729447521,1261.0697244785915,45152.370821037875,-28057.20740090475,57613.132208483017,-57613.132208483017,28057.20740090475,89412.433784330817,0.0
305012.02908761695,3922225.878295721,-7500.0,93216.938664624438,-38152.757355973139,16276.547359155406,15797.493429131058,-6876.8001844468499,1426.4367489242547,56473.960516728599,-36296.912292673092,69049.37928752169,-69049.37928752169,36296.912292673092,111983.81642231844,0.0
310012.02908761695,3922225.878295721,-7500.0,111785.76670460675,-53506.371976341354,25489.802562296863,19071.706709842427,-9842.015068046383,1396.1569662879215,71395.571533814364,-46886.427403111171,81985.546021653397,-81985.546021653397,46886.427403111171,141694.25838846518,0.0
315012.02908761695,3922225.878295721,-7500.0,132346.82326116395,-75673.68320695062,41501.146157386262,22031.637989018567,-13898.350767952114,870.01465781666411,91291.465991554942,-59859.825788597242,95139.883332648678,-95139.883332648678,59859.825788597242,181135.80324693548,0.0
320012.02908761695,3922225.878295721,-7500.0,151926.59001762886,-107342.63656528869,70297.402074467609,23216.889244084417,-18798.072569672746,-645.04340806237497,118110.69363468542,-73872.938189718145,104719.21247539655,-104719.21247539655,73872.938189718145,233947.9181797218,0.0
325012.02908761695,3922225.878295721,-7500.0,161571.5016881458,-150710.66450741846,123942.47673654382,19942.836976393333,-22561.331920990084,-3533.6722864487438,154667.90468541859,-83128.482545299572,100444.46763776918,-100444.46763776918,83128.482545299572,305490.13045237958,0.0
330012.02908761695,3922225.878295721,-7500.0,134311.66851087837,-201144.00115127777,227195.75450089708,10625.103481420947,-18465.66044740683,-6269.9839678548306,207266.0579400897,-66989.813856504334,53659.314010528353,-53659.314010528353,66989.813856504334,405199.70466177748,0.0
335012.02908761695,3922225.878295721,-7500.0,-18087.919025512936,-205707.19658866327,422218.30261745135,11751.700588675165,3180.4368916688904,657.63793702378598,302026.01146470162,52953.566985329853,-121880.78426679684,121880.78426679684,-52953.566985329853,559784.05165413162,0.0
340012.02908761695,3922225.878295721,-7500.0,-450466.31615286291,220799.08406510163,498825.7233809575,43402.289741628454,21201.102627886274,6205.4824871227511,525731.81023526052,511027.17054874927,-528567.72281810374,528567.72281810374,-511027.17054874927,910739.28649265901,0.0
345012.02908761695,3922225.878295721,-7500.0,-209262.08974448789,397582.95981197164,-928469.07599285536,54645.344308580941,62727.815328575882,-87893.287115114974,563234.82468026108,-132816.11114091385,97018.59674282989,-97018.59674282989,132816.11114091385,1055584.043690427,0.0
350012.02908761695,3922225.878295721,-7500.0,-254442.18675516144,-108272.54807381642,-910676.41496625415,-43199.419859631125,90482.328123488624,10979.297960789238,482771.14918143582,-543284.46072699036,133470.44394912463,-133470.44394912463,543284.46072699036,860580.70436978794,0.0
355012.02908761695,3922225.878295721,-7500.0,-242885.33530971524,-180907.49544975875,-541177.32035295025,5127.4315122647604,131578.47332405151,12810.248642275421,348200.32304806844,-411254.81669881323,31951.762006786565,-31951.762006786565,411254.81669881323,617114.57981134159,0.0
360012.02908761695,3922225.878295721,-7500.0,-207674.67274411255,-164086.80724634181,-277800.31884646055,39066.17994609414,91374.164907694183,-2819.12747729374,228696.2319693641,-261640.28299453552,-32207.259222194334,32207.259222194334,261640.28299453552,414305.05953788874,0.0
365012.02908761695,3922225.878295721,-7500.0,-175608.57893622268,-111528.35415961777,-105229.25569357914,38102.096705663345,46606.323298712639,-5940.2696822932803,141567.99995989466,-128786.90723670559,-74893.201619341417,74893.201619341417,128786.90723670559,264550.41542813595,0.0
370012.02908761695,3922225.878295721,-7500.0,-134434.32497110585,-54310.28472125595,-12827.901775108459,26131.355833361857,18873.056720866167,-4510.5305615522639,87441.680971594964,-35886.513594558492,-84966.930747425489,84966.930747425489,35886.513594558492,166837.30923462557,0.0
375012.02908761695,3922225.878295721,-7500.0,-91328.087468245838,-12317.325828250945,25716.782483978648,14948.25170005353,4646.7538604351621,-2705.7184587633856,61248.06370953875,14957.47078401488,-73144.660427331022,73144.660427331022,-14957.47078401488,111224.58996586081,0.0
380012.02908761695,3922225.878295721,-7500.0,-54786.873807907825,11907.611197071623,36095.276768585856,7073.7730677339023,-1870.5150819460634,-1356.975269234395,47457.909101929647,36431.531400362379,-53834.765295348188,53834.765295348188,-36431.531400362379,82731.373471625295,0.0
385012.02908761695,3922225.878295721,-7500.0,-27786.232171775297,23075.825690348964,34495.178443011391,2147.8373042258622,-4398.0668974726923,-493.5887025145355,39068.768369293539,41607.029075834362,-35392.331681382173,35392.331681382173,-41607.029075834362,67774.537604251993,0.0
390012.02908761695,3922225.878295721,-7500.0,-9590.3766687976095,26445.465265862691,29025.486299614135,-676.71453171040332,-4983.8148159639422,-0.5727905649787246,33066.493802908168,39208.386921118596,-20835.55987436543,20835.55987436543,-39208.386921118596,58196.285243801845,0.0
395012.02908761695,3922225.878295721,-7500.0,1826.5355463234193,25782.778853936961,23129.443451788444,-2138.588273664207,-4705.0181063353111,246.49208304680698,28238.46134283812,34023.059140916259,-10438.415948631966,10438.415948631966,-34023.059140916259,50639.483259686116,0.0
400012.02908761695,3922225.878295721,-7500.0,8503.4106120630113,23344.35693222296,18008.670973173204,-2771.6656775916263,-4105.3756465730667,346.00503869605029,24158.465763758355,28351.753413517559,-3474.5279409919276,3474.5279409919276,-28351.753413517559,44078.534745241239,0.0
405012.02908761695,3922225.878295721,-7500.0,12057.772261775732,20342.411293817757,13919.275858089957,-2929.4782963034932,-3442.9619287704418,364.71792435113787,20671.524384804641,23154.748773734718,957.40571869085579,-957.40571869085579,-23154.748773734718,38271.50323168702,0.0
410012.02908761695,3922225.878295721,-7500.0,13641.939234913591,17368.291254711788,10773.396354302402,-2832.9358428784149,-2828.4646191027155,343.56916686628682,17698.175498382614,18739.88260907786,3633.0653602568009,-3633.0653602568009,-18739.88260907786,33165.917385802124,0.0
415012.02908761695,3922225.878295721,-7500.0,14029.625887910352,14675.10943028594,8391.2697990220404,-2613.8582375918036,-2300.1834869298787,305.81963548299774,15175.246704398598,15126.739929106792,5136.5036193992028,-5136.5036193992028,-15126.739929106792,28726.294890658744,0.0
420012.02908761695,3922225.878295721,-7500.0,13721.606984280115,12343.736874852948,6595.3201565902991,-2347.5837963265735,-1863.2113646786163,263.7917491735144,13042.92574324519,12224.6319966561,5879.3879942327421,-5879.3879942327421,-12224.6319966561,24900.68557953558,0.0
425012.02908761695,3922225.878295721,-7500.0,13033.707938156258,10373.639322193112,5238.4419954714886,-2075.102721506566,-1509.0542389695186,223.48605008271082,11244.548577556088,9913.7033538544456,6141.2779543067527,-6141.2779543067527,-9913.7033538544456,21623.966701330413,0.0
430012.02908761695,3922225.878295721,-7500.0,12160.776837114581,8730.0915161615158,4207.2417072833232,-1817.1993534896278,-1224.9641833860214,187.44191672762105,9728.408631067532,8078.6155988608161,6107.6836691517046,-6107.6836691517046,-8078.6155988608161,18826.600227631527,0.0
435012.02908761695,3922225.878295721,-7500.0,11220.241224857475,7367.548577224894,3417.1914383789958,-1583.1361350514494,-998.06836165872119,156.40249808809864,8448.9375393532464,6620.2407332884632,5899.7296744959476,-5899.7296744959476,-6620.2407332884632,16441.232510700909,0.0
440012.02908761695,3922225.878295721,-7500.0,10280.746782029752,6240.5078656953556,2806.2389800279966,-1375.8393730380985,-816.97132082090616,130.24371471950809,7367.0094533513811,5457.8005909548647,5595.4459496356176,-5595.4459496356176,-5457.8005909548647,14406.384301918379,0.0
445012.02908761695,3922225.878295721,-7500.0,9380.5745221144643,5307.9920759203469,2329.0740354459904,-1194.919698394199,-672.18468958502331,108.47008851018481,6449.6110287682041,4527.2430209424983,5244.4012840821943,-5244.4012840821943,-4527.2430209424983,12667.938525143594,0.0
250012.02908761695,3927225.878295721,-7500.0,14641.076860638312,-2790.8369704171009,1272.4697396191452,1642.7102285028716,-328.35783684009255,132.03442037618143,7718.1268062779136,-3665.5468035188424,10771.138296464043,-10771.138296464043,3665.5468035188424,15068.229527097792,0.0
255012.02908761695,3927225.878295721,-7500.0,16703.011652964149,-3452.0151344566934,1517.1132167192368,1948.4068009555103,-421.77202739522954,162.47117567980152,8871.1034785667307,-4375.0122936145672,12308.615688186612,-12308.615688186612,4375.0122936145672,17340.409176511737,0.0
260012.02908761695,3927225.878295721,-7500.0,19132.437720383714,-4297.4171745581871,1835.2845590992431,2323.2041065055005,-545.65302143803831,201.03253103864731,10251.748510645964,-5251.3224203404561,14120.504009328972,-14120.504009328972,5251.3224203404561,20065.358744539946,0.0
265012.02908761695,3927225.878295721,-7500.0,22003.012733990461,-5386.605030945856,2256.1908850604082,2784.6456976342947,-711.29610372344371,250.03069021450889,11915.209605154225,-6339.3820700199394,16260.478449864546,-16260.478449864546,6339.3820700199394,23353.887525048416,0.0
270012.02908761695,3927225.878295721,-7500.0,25401.703678782873,-6800.8456298714036,2823.0432171444941,3354.6680777692127,-934.63748114719556,312.35526457007472,13932.036645704693,-7696.8128505964869,18790.679635147077,-18790.679635147077,7696.8128505964869,27348.198702784593,0.0
275012.02908761695,3927225.878295721,-7500.0,29428.535613999065,-8651.6421267351252,3600.8037287392513,4060.2272036889244,-1238.2744220325826,391.47126061622737,16392.781877900405,-9396.9970127788165,21780.245633962688,-21780.245633962688,9396.9970127788165,32231.512029099034,0.0
280012.02908761695,3927225.878295721,-7500.0,34193.136525515249,-11092.566614036481,4688.7468337222281,4933.3850071986226,-1654.3226553858431,491.198562137252,19413.849073802648,-11531.898293087759,25300.373990399945,-25300.373990399945,11531.898293087759,38240.486895763504,0.0
285012.02908761695,3927225.878295721,-7500.0,39804.488385092533,-14335.316178238545,6241.1325692524579,6009.9492352121852,-2228.3193549624548,614.96754685981523,23144.697521230857,-14213.179098599254,29412.30025819593,-29412.30025819593,14213.179098599254,45680.894536642649,0.0
290012.02908761695,3927225.878295721,-7500.0,46346.888872218035,-18670.445060616916,8501.6728885272223,7324.7644312160173,-3024.1454835189988,763.90983788643393,27776.168804183071,-17567.992781784771,34141.196904856246,-34141.196904856246,17567.992781784771,54946.520451086093,0.0
295012.02908761695,3927225.878295721,-7500.0,53828.597973055919,-24491.310841346814,11861.668679664994,8899.8448911311352,-4129.083475507784,932.51309835409859,33548.895018273972,-21721.069471930372,39422.484103226823,-39422.484103226823,21721.069471930372,66540.027983451073,0.0
300012.02908761695,3927225.878295721,-7500.0,62077.196191439325,-32313.682331381424,16958.709554072117,10718.141359710165,-5655.5275189337444,1099.5336090571809,40759.179392771293,-26744.121046631022,44994.604841271655,-44994.604841271655,26744.121046631022,81091.591121822086,0.0
305012.02908761695,3927225.878295721,-7500.0,70531.786860880791,-42766.178930035283,24843.781068331507,12670.575726785548,-7728.8003981165994,1210.7485822254735,49767.3968468643,-32529.933204570676,50188.483633804317,-50188.483633804317,32529.933204570676,99364.641287853869,0.0
310012.02908761695,3927225.878295721,-7500.0,77836.672964146012,-56479.185540752042,37257.335847676492,14459.712770336357,-10432.731758612497,1151.4347342256315,61370.577542852872,-38495.63432278893,53519.177700134955,-53519.177700134955,38495.63432278893,122224.96873915105,0.0
315012.02908761695,3927225.878295721,-7500.0,81055.643317081907,-73668.052692664409,57048.676216567605,15455.849078629481,-13644.591339007013,720.31511463843833,76116.890576175807,-42900.938619903973,51905.335790124169,-51905.335790124169,42900.938619903973,150524.45727798386,0.0
320012.02908761695,3927225.878295721,-7500.0,74186.338674058643,-92830.580635168924,88632.890160373485,14594.548547554159,-16624.144354618307,-327.81405673309894,94506.910231044865,-41308.638876790283,39232.107250807254,-39232.107250807254,41308.638876790283,184819.29964859484,0.0
325012.02908761695,3927225.878295721,-7500.0,45634.904485317034,-106884.602304442,137507.74820294479,10779.715851648663,-17244.921095140311,-1968.172532451626,117319.00027254307,-23259.992999792143,4090.6606363364772,-4090.6606363364772,23259.992999792143,224930.71326799903,0.0
330012.02908761695,3927225.878295721,-7500.0,-23587.570235621781,-92315.498552196732,203115.95092303216,5156.0183473498655,-11687.476207354677,-3087.5683955378126,146534.36710047463,33282.060080864263,-70769.465565013175,70769.465565013175,-33282.060080864263,270598.06480272324,0.0
335012.02908761695,3927225.878295721,-7500.0,-141120.87070218788,11388.317576871485,237059.14883441705,4993.7675362853897,700.95731284509895,-1422.7304261787972,189522.25458142109,154552.53876181156,-183923.17355389218,183923.17355389218,-154552.53876181156,331918.69584621408,0.0
340012.02908761695,3927225.878295721,-7500.0,-192916.51642877958,232961.86573243918,22616.016490065864,10810.579691520463,8636.5694496253291,603.30580864409137,257208.52110211275,234398.52450933013,-184224.51599873495,184224.51599873495,-234398.52450933013,453412.00517892366,0.0
345012.02908761695,3927225.878295721,-7500.0,-62727.078700878585,221727.77014848168,-472939.01918581047,-3390.2130317453402,13302.981968021424,2922.3194322747149,302285.22036298778,-56147.16780823264,77540.622088992954,-77540.622088992954,56147.16780823264,589549.69881894358,0.0
350012.02908761695,3927225.878295721,-7500.0,-53406.089143682904,-21107.386577330148,-601356.1827274292,-22394.318339264748,45241.775638085113,10641.196660499116,313498.04223071603,-331279.04835768614,164340.53193921686,-164340.53193921686,331279.04835768614,590277.57258952432,0.0
355012.02908761695,3927225.878295721,-7500.0,-109351.41324499955,-138338.51043765424,-446960.05608827109,-3160.3099927119956,74016.894661299462,5888.236915552181,264915.17282854853,-341702.65966345085,90856.069010230756,-90856.069010230756,341702.65966345085,489942.61884227028,0.0
360012.02908761695,3927225.878295721,-7500.0,-137983.92596304839,-150996.14080579029,-269137.88374536816,20673.013127778722,66388.088023061224,-1733.1940544416414,198256.90039121584,-254361.52019937953,13130.392823495436,-13130.392823495436,254361.52019937953,369512.11624558724,0.0
365012.02908761695,3927225.878295721,-7500.0,-139900.99986372882,-120194.08189553783,-134104.55544897748,28096.823185662492,43484.620435333301,-4367.0026367986784,138519.0008177463,-155944.81476750353,-38089.598885395819,38089.598885395819,155944.81476750353,262675.3336757294,0.0
370012.02908761695,3927225.878295721,-7500.0,-123224.46580138468,-77706.388472464925,-48721.201035457772,24476.949244686555,23291.177893444601,-3902.864171116687,93189.972222074197,-76320.75965996302,-61194.725190756872,61194.725190756872,76320.75965996302,180106.02616823735,0.0
375012.02908761695,3927225.878295721,-7500.0,-97255.648559409645,-40261.556797263271,-2896.8952780784352,17566.091875907507,10094.099211715436,-2673.2327580974311,64256.582514414382,-23295.309049694955,-63531.48392743853,63531.48392743853,23295.309049694955,122552.36838819245,0.0
380012.02908761695,3927225.878295721,-7500.0,-70167.293037347248,-13632.196694069311,17493.300840602726,11139.494220055189,2644.7809503721155,-1576.8644462052519,46822.291000170619,6780.0066756318847,-54826.385247079867,54826.385247079867,-6780.0066756318847,85598.533060377129,0.0
385012.02908761695,3927225.878295721,-7500.0,-46675.321375973283,2688.0325059688498,23944.620894940417,6282.6992658834042,-1107.8103521772082,-800.61579366130741,35854.23560349425,21087.478165222023,-42441.423262723969,42441.423262723969,-21087.478165222023,63212.111311663699,0.0
390012.02908761695,3927225.878295721,-7500.0,-28391.412262547285,11381.787645749417,23777.96211251838,2976.2460537817647,-2731.6949776660495,-310.43375942757473,28736.34234667851,26035.689329853893,-30429.410471519455,30429.410471519455,-26035.689329853893,49827.841214935084,0.0
395012.02908761695,3927225.878295721,-7500.0,-15137.054562674739,15164.201408355695,21000.899963065112,880.70662480338285,-3221.0474033698174,-27.143907434246103,23817.979296065874,26057.224212092042,-20433.210038891993,20433.210038891993,-26057.224212092042,41370.657208067591,0.0
400012.02908761695,3927225.878295721,-7500.0,-6014.7712955011993,16082.143178580887,17564.200575320821,-363.57096370186343,-3153.8946971405662,121.24811186314834,20154.582388023875,23822.131163519247,-12776.118193796037,12776.118193796037,-23822.131163519247,35427.126811463691,0.0
405012.02908761695,3927225.878295721,-7500.0,-5.1848599035943721,15479.866979475542,14304.961534866388,-1046.0103339407058,-2846.8699455990932,187.78297515911751,17255.0793549152,20790.656277688402,-7208.0084455134947,7208.0084455134947,-20790.656277688402,30798.236830705999,0.0
410012.02908761695,3927225.878295721,-7500.0,3780.6126714847692,14168.27484897057,11513.310069545942,-1374.4268233022894,-2463.8371045595727,207.70390723751802,14871.460185726844,17693.260216466893,-3306.1618420599098,3306.1618420599098,-17693.260216466893,26949.715621720206,0.0
415012.02908761695,3927225.878295721,-7500.0,6033.2412119895607,12605.514601661784,9234.7995043926749,-1488.8547651899403,-2083.7429565543025,202.91783075446932,12872.164721504676,14854.930358770143,-654.66903244603691,654.66903244603691,-14854.930358770143,23649.13912129989,0.0
420012.02908761695,3927225.878295721,-7500.0,7256.7052252258081,11033.839061930743,7419.1412380421834,-1479.8043950573124,-1740.3554687707788,186.36045829570017,11178.840078209354,12389.744800619654,1092.5745252451452,-1092.5745252451452,-12389.744800619654,20785.991127304776,0.0
425012.02908761695,3927225.878295721,-7500.0,7805.253394212411,9570.2063111071075,5988.2678559163805,-1403.9707927766678,-1444.5346299431833,165.31745181775858,9737.9510785704169,10309.64054594874,2201.5984896635232,-2201.5984896635232,-10309.64054594874,18295.583999783081,0.0
430012.02908761695,3927225.878295721,-7500.0,7921.8997882279773,8262.0238186982715,4864.7435878161787,-1295.8953129828201,-1196.2602075228269,143.67513504441598,8508.7054854558501,8582.0825519954669,2868.1040494364174,-2868.1040494364174,-8582.0825519954669,16130.158004296991,0.0
435012.02908761695,3927225.878295721,-7500.0,7770.5298551479882,7119.9114902297761,3981.7919991836829,-1176.0059797658346,-990.90029393828411,123.34929161417213,7457.9862220605,7159.1654115753608,3232.3302799387388,-3232.3302799387388,-7159.1654115753608,14249.027401092513,0.0
440012.02908761695,3927225.878295721,-7500.0,7460.189142032682,6136.3246264708041,3285.3590678470919,-1055.9317254413413,-822.34554615651552,105.153230602062,6558.1367234581721,5991.4279706230864,3393.127738079364,-3393.127738079364,-5991.4279706230864,12615.740409089352,0.0
445012.02908761695,3927225.878295721,-7500.0,7062.5334971358261,5295.8029963757763,2733.0726268137569,-941.91705851987012,-684.48052291159524,89.309336957083133,5785.8417670858389,5033.7632537911077,3419.4113124924797,-3419.4113124924797,-5033.7632537911077,11197.479073330223,0.0
250012.02908761695,3932225.878295721,-7500.0,13794.509487475012,-3588.8791414963393,1683.3339234215175,1558.1017740405807,-426.03687255754619,126.29629628571618,7501.8744935422883,-4005.861877002264,10132.785948053233,-10132.785948053233,4005.861877002264,14643.436137726214,0.0
255012.02908761695,3932225.878295721,-7500.0,15598.766491662358,-4375.2047158622581,2035.4299990804691,1834.2232379517791,-539.29337835979322,154.46374887484481,8582.2440490507033,-4728.6940293873413,11463.809179645485,-11463.809179645485,4728.6940293873413,16775.195815519113,0.0
260012.02908761695,3932225.878295721,-7500.0,17683.454797265927,-5363.6442358518061,2493.6642818102364,2168.0608846136138,-687.16760134149001,189.78799740110307,9864.1187068962972,-5604.2164024752165,12996.980405109098,-12996.980405109098,5604.2164024752165,19309.507512428307,0.0
265012.02908761695,3932225.878295721,-7500.0,20089.276925225091,-6613.042375835963,3098.1953285049917,2572.329518621566,-881.53789839982801,234.14298104540453,11392.075004321141,-6666.3819799772264,14757.937045791712,-14757.937045791712,6666.3819799772264,22337.008525275272,0.0
270012.02908761695,3932225.878295721,-7500.0,22856.496274840487,-8200.5071908249483,3906.9531399938091,3061.928454651797,-1138.662816306552,289.78008010088092,13221.29340962161,-7955.0618535652138,16768.872205531159,-16768.872205531159,7955.0618535652138,25970.632145974578,0.0
275012.02908761695,3932225.878295721,-7500.0,26018.577579782006,-10226.671906042604,5004.4520904962001,3653.5307370860455,-1480.7675910621911,359.24903523353083,15419.736825496495,-9514.9232226257463,19041.714055152959,-19041.714055152959,9514.9232226257463,30350.67700676242,0.0
280012.02908761695,3932225.878295721,-7500.0,29589.942152095835,-12821.546035495769,6515.2933500339423,4364.1922082529036,-1938.0339798049204,445.09721761152451,18070.243346426072,-11391.494583295431,21565.490878534903,-21565.490878534903,11391.494583295431,35650.202223454886,0.0
285012.02908761695,3932225.878295721,-7500.0,33543.329603868384,-16149.655323291892,8624.8917173381778,5207.9977215070776,-2550.8176614443373,549.10276591282923,21271.849332400201,-13621.345542644107,24283.512230566055,-24283.512230566055,13621.345542644107,42079.767032084652,0.0
290012.02908761695,3932225.878295721,-7500.0,37769.102143193842,-20410.889514557868,11611.040680505092,6188.9748906799477,-3371.3848908584578,670.57045098975448,25138.862702512917,-16210.372664273302,27052.96301953496,-27052.96301953496,16210.372664273302,49889.294765399223,0.0
295012.02908761695,3932225.878295721,-7500.0,42003.694554171037,-25828.311530087991,15890.995222858928,7287.2755604109452,-4463.161988214124,802.88989868018734,29794.655289649745,-19088.549865559213,29574.586505101808,-29574.586505101808,19088.549865559213,59362.385194797374,0.0
300012.02908761695,3932225.878295721,-7500.0,45707.045484558214,-32602.667625815091,22088.091950729606,8434.1314627127485,-5892.51418474204,927.19744541024204,35441.690355063227,-22019.137698369061,31273.192663172787,-31273.192663172787,22019.137698369061,70794.119149510138,0.0
305012.02908761695,3932225.878295721,-7500.0,47860.224488755572,-40788.107507179135,31114.154430465831,9470.6305852279293,-7701.8068064389099,1002.2545854316775,42548.003436051986,-24422.072816616135,31102.208577156285,-31102.208577156285,24422.072816616135,84436.097235814625,0.0
310012.02908761695,3932225.878295721,-7500.0,46653.325668214406,-49990.184062829183,44231.072101893551,10091.095208708577,-9841.1461630028189,952.87145882028199,51033.726077266634,-25043.711018830334,27247.705369521609,-27247.705369521609,25043.711018830334,100383.22234287135,0.0
315012.02908761695,3932225.878295721,-7500.0,39075.517506499142,-58680.884569170921,62940.310362951357,9798.6866347658724,-12022.572081042335,671.49235463692787,60952.289748990443,-21382.65553633908,16760.718710073379,-16760.718710073379,21382.65553633908,118376.13665828557,0.0
320012.02908761695,3932225.878295721,-7500.0,20638.266041491694,-62756.299035766679,88180.73378790477,7980.0628173129398,-13474.068187534236,77.979533663618838,72227.689718560985,-8865.4879477325776,-4594.2450397649118,4594.2450397649118,8865.4879477325776,137565.10376233744,0.0
325012.02908761695,3932225.878295721,-7500.0,-13680.589694171222,-52956.758503047036,117234.54505233113,4348.7816448058502,-12732.150586671027,-685.99289124171662,84853.140695534341,19547.849525016572,-40998.812863626088,40998.812863626088,-19547.849525016572,156725.09739939979,0.0
330012.02908761695,3932225.878295721,-7500.0,-63591.883583403876,-12673.927927300139,134405.85508090034,-82.35137366069651,-8158.7348526951628,-973.39465696122443,100051.92773339132,69459.362306787312,-89514.076281269459,89514.076281269459,-69459.362306787312,177221.50270594409,0.0
335012.02908761695,3932225.878295721,-7500.0,-106586.02973637434,71421.24901898735,93196.588362510709,-2951.3546549494195,-171.73507109972255,154.06787798669086,122831.88506832047,124328.53401100718,-120158.74136396351,120158.74136396351,-124328.53401100718,212863.64455124593,0.0
340012.02908761695,3932225.878295721,-7500.0,-91315.053051752911,157260.6340291682,-69701.901186033065,-4931.8056982022199,8200.2842460315751,2695.2776949890072,157853.53651708152,108067.46129305265,-67843.510093705088,67843.510093705088,-108067.46129305265,285903.19029097294,0.0
345012.02908761695,3932225.878295721,-7500.0,-26157.327503454828,133620.71960251074,-293838.77079901146,-9971.3091787371723,19367.969129780799,5378.7901882484994,189858.38762058588,-40052.111751501325,58165.111207811358,-58165.111207811358,40052.111751501325,368885.67487724352,0.0
350012.02908761695,3932225.878295721,-7500.0,-6867.0546972446564,13985.466132095475,-392621.64912498166,-10840.644174768906,37534.67351878959,5717.446976069582,205209.81664981219,-196729.17318613786,123774.02570612378,-123774.02570612378,196729.17318613786,398729.73275038321,0.0
355012.02908761695,3932225.878295721,-7500.0,-39528.38531426683,-80695.96585296058,-343919.50005558226,76.31552257724708,50690.251144531838,2390.8320452049829,191905.58279680894,-247035.18674000941,98626.450411064216,-98626.450411064216,247035.18674000941,366626.57799035113,0.0
360012.02908761695,3932225.878295721,-7500.0,-75778.617472237398,-114112.53140744389,-240889.95202731335,13431.627961186607,48564.301062221668,-1388.5770246135944,158674.37007211411,-215912.01412374451,43207.372363742368,-43207.372363742368,215912.01412374451,302919.09670234512,0.0
365012.02908761695,3932225.878295721,-7500.0,-94764.096413642721,-106554.92819913528,-143530.27843381595,20131.792022189187,36557.397484548113,-3116.8797871850061,121374.90117543747,-155113.77294880769,-4274.1603612436593,4274.1603612436593,155113.77294880769,233524.5017659218,0.0
370012.02908761695,3932225.878295721,-7500.0,-95957.750782286123,-81281.878421458154,-71702.354120637101,20031.242712782656,23231.107664996405,-3108.9441136344271,88358.56958494916,-95097.789701013273,-33131.068856726633,33131.068856726633,95097.789701013273,172047.0196043599,0.0
375012.02908761695,3932225.878295721,-7500.0,-85249.286227825127,-53249.657041494043,-26195.775166649393,16446.267070269885,12765.110916469072,-2395.4749266488789,63349.933938886672,-48305.435379594579,-44975.735983024599,44975.735983024599,48305.435379594579,123556.15707251565,0.0
380012.02908761695,3932225.878295721,-7500.0,-69092.383410567534,-29671.366612058304,-881.56718096947486,12032.002814223088,5816.0627951150573,-1604.894283718794,46377.79059386898,-16795.414852909526,-45393.254430460009,45393.254430460009,16795.414852909526,88209.165879074688,0.0
385012.02908761695,3932225.878295721,-7500.0,-52192.802337639921,-12604.245916372258,11266.722425538541,8090.2022768172174,1676.8003417655023,-967.44707807350176,34763.906216750562,2037.4008890284349,-39832.215533804381,39832.215533804381,-2037.4008890284349,63888.979849417236,0.0
390012.02908761695,3932225.878295721,-7500.0,-37134.222446967149,-1508.0497891886994,15787.148374758146,5029.6092772509992,-563.28344165122201,-519.57076230594794,26855.77744492803,11947.135821729873,-32115.04715704585,32115.04715704585,-11947.135821729873,47825.433233580981,0.0
395012.02908761695,3932225.878295721,-7500.0,-24898.113289150391,5034.9773503843917,16334.320852503211,2837.337302440455,-1634.883365327604,-230.34228587015551,21447.795150264341,16222.26141573337,-24405.93058439322,24405.93058439322,-16222.26141573337,37412.875841302484,0.0
400012.02908761695,3932225.878295721,-7500.0,-15534.001084370979,8457.0565866574198,15061.107963979479,1352.3900473307549,-2035.8605999758602,-55.825726177210775,17649.477273937246,17239.896188096609,-17688.854569693009,17688.854569693009,-17239.896188096609,30570.649766463252,0.0
405012.02908761695,3932225.878295721,-7500.0,-8666.3913991366608,9895.2689262884724,13128.561523679802,392.16528739933807,-2077.4152203057647,42.178537485587739,14863.96919864837,16540.287773668206,-12258.766894458557,12258.766894458557,-16540.287773668206,25849.829315807816,0.0
410012.02908761695,3932225.878295721,-7500.0,-3794.6392990037807,10152.003039600902,11110.633425764652,-200.09174411371768,-1943.089951419654,91.924889991657039,12722.933399855428,15048.471929007563,-8069.6147979839079,8069.6147979839079,-15048.471929007563,22360.202144433348,0.0
415012.02908761695,3932225.878295721,-7500.0,-439.49832627732786,9754.0280098245039,9259.5754111350197,-544.12707681261656,-1735.956770398454,112.63870476477868,11009.750666943663,13285.548111747379,-4939.5431887003651,4939.5431887003651,-13285.548111747379,19605.451198330993,0.0
420012.02908761695,3932225.878295721,-7500.0,1800.9963010233969,9029.678257276646,7662.7574990505336,-725.77245970778779,-1510.9424567525321,116.72575069270746,9598.0760363523714,11525.530098254925,-2656.4362107895104,2656.4362107895104,-11525.530098254925,17323.514366051204,0.0
425012.02908761695,3932225.878295721,-7500.0,3241.2863207278374,8174.6789039231053,6329.1704264881464,-804.15403357363016,-1295.295295611438,111.88303522579119,8411.97072404953,9898.9859080900787,-1024.796351493228,1024.796351493228,-9898.9859080900787,15376.635334952442,0.0
430012.02908761695,3932225.878295721,-7500.0,4117.3731180034847,7300.2974274179051,5234.6243264099285,-818.90211792123614,-1100.927514896425,102.72691225335198,7403.0027445877977,8457.0277797517047,118.11537819325076,-118.11537819325076,-8457.0277797517047,13688.75292151909,0.0
435012.02908761695,3932225.878295721,-7500.0,4601.7936427542563,6465.8695995689386,4344.0995189897458,-796.02788814213443,-931.59983268686494,91.929727229038477,6537.9314505287139,7209.0125250754845,900.5694290023971,-900.5694290023971,-7209.0125250754845,12213.522765555681,0.0
440012.02908761695,3932225.878295721,-7500.0,4818.5084637304562,5699.7840156571774,3622.0661539478183,-752.29500334933084,-786.98916727815288,80.971847664368369,5792.3142160855086,6143.9920242025864,1420.4524877401318,-1420.4524877401318,-6143.9920242025864,10919.068219287507,0.0
445012.02908761695,3932225.878295721,-7500.0,4855.4939163752551,5012.5713119521024,3036.6890375569255,-698.3067671631203,-664.92246883938776,70.619818170331087,5147.171798209768,5242.4694647815159,1750.9759681003147,-1750.9759681003147,-5242.4694647815159,9780.960849152525,0.0
250012.02908761695,3937225.878295721,-7500.0,12712.180379651259,-4202.8700129990257,2131.2529174280066,1448.6197918860801,-504.42371051980757,118.74335577310998,7195.2498012431943,-4139.0238197084,9280.7488709359568,-9280.7488709359568,4139.0238197084,14048.189035157489,0.0
255012.02908761695,3937225.878295721,-7500.0,14218.609896474178,-5056.3319360385894,2589.8604969792764,1689.6679667555154,-630.5864591949105,144.14981260729704,8183.9444181722156,-4821.2645411263766,10367.273053145951,-10367.273053145951,4821.2645411263766,16003.349627610562,0.0
260012.02908761695,3937225.878295721,-7500.0,15914.083611351623,-6109.3379968738491,3182.6019148914802,1975.9909249928212,-792.75405589820241,175.61974806692976,9343.7043585305018,-5626.6260287104396,11578.923054021068,-11578.923054021068,5626.6260287104396,18302.648333613892,0.0
265012.02908761695,3937225.878295721,-7500.0,17808.578327248713,-7412.1827553095991,3956.8749491971653,2315.5071208205027,-1002.2009045207208,214.57313042908359,10707.762541445822,-6573.7737784628334,12914.984913778644,-12914.984913778644,6573.7737784628334,21015.019946554974,0.0
270012.02908761695,3937225.878295721,-7500.0,19900.865153613966,-9026.9171484756425,4979.002315361382,2716.3981343896367,-1273.8003058009158,262.6264577229415,12315.280162350155,-7679.7028358206098,14361.990736311416,-14361.990736311416,7679.7028358206098,24222.781904284173,0.0
275012.02908761695,3937225.878295721,-7500.0,22168.688325088766,-11028.299578165303,6342.2739209056908,3185.981217937318,-1626.9758277925932,321.46239230451187,14211.455831768548,-8954.9099855719869,15883.947688617282,-15883.947688617282,8954.9099855719869,28022.779616056836,0.0
280012.02908761695,3937225.878295721,-7500.0,24552.577151864007,-13502.58699766101,8178.2621775604521,3728.4526580633915,-2086.5992890233697,392.50260826348631,16446.621207313972,-10394.120351904423,17406.452393107786,-17406.452393107786,10394.120351904423,32526.113459615768,0.0
285012.02908761695,3937225.878295721,-7500.0,26929.697377874927,-16541.220120945221,10672.273392271582,4340.6802551305655,-2683.3763793095213,476.20747443011942,19073.300375604715,-11959.124179664415,18791.303817380573,-18791.303817380573,11959.124179664415,37854.818614540869,0.0
290012.02908761695,3937225.878295721,-7500.0,29072.64732960935,-20223.447891644424,14083.11260102601,5004.7779810792699,-3452.6316279329735,570.71417966514377,22139.660264729901,-13547.897271817617,19796.892488768477,-19796.892488768477,13547.897271817617,44132.579407427693,0.0
295012.02908761695,3937225.878295721,-7500.0,30586.919124886084,-24576.289572725454,18764.797514281614,5675.7641939223622,-4429.1554661652044,669.41382458052283,25794.546441788683,-14940.604602092362,20018.762699286031,-20018.762699286031,14940.604602092362,51464.633257183494,0.0
300012.02908761695,3937225.878295721,-7500.0,30821.961875939236,-29490.004060294836,25180.205508333311,6262.7126573383639,-5633.4658024957525,757.12451870491043,30236.149704683365,-15708.706772912232,18806.650861005157,-18806.650861005157,15708.706772912232,59899.573549271634,0.0
305012.02908761695,3937225.878295721,-7500.0,28760.615094301116,-34550.382352856395,33876.271852053396,6604.0710189535785,-7041.2109703420847,805.29694433673092,35345.403864071282,-15071.396605076694,15165.81296963666,-15165.81296963666,15071.396605076694,69364.569840663622,0.0
310012.02908761695,3937225.878295721,-7500.0,22926.622968018721,-38727.209655713348,45339.343040377469,6446.0918688868005,-8523.7957552188436,769.51338717767749,41075.449192920423,-11697.091864779173,7689.9363500388754,-7689.9363500388754,11697.091864779173,79573.114223313227,0.0
315012.02908761695,3937225.878295721,-7500.0,11449.096883668206,-39852.967243048777,59531.752511994986,5454.0919601465239,-9752.0135265477365,599.54265760331327,47295.672584008826,-3519.5200496558973,-5315.6169566796434,5315.6169566796434,3519.5200496558973,89948.060756032908,0.0
320012.02908761695,3937225.878295721,-7500.0,-7339.514924263608,-33939.116001741597,74679.349529425905,3321.0232151368664,-10088.41490543382,282.41736782508286,53875.383819405375,12110.997896222994,-25092.546256492089,25092.546256492089,-12110.997896222994,99769.997810142493,0.0
325012.02908761695,3937225.878295721,-7500.0,-32981.363777049657,-14957.342359932509,84622.795026216103,45.019453196746213,-8597.4436293746421,-67.152325575192478,61106.838000703254,36939.098237603561,-50166.108264032191,50166.108264032191,-36939.098237603561,109252.71527712097,0.0
330012.02908761695,3937225.878295721,-7500.0,-58868.086859925606,22499.945654671345,74770.886484790128,-3732.9498698188986,-4434.8190965671911,-133.85934163195773,70733.787915914378,66859.406735513592,-71637.66193793909,71637.66193793909,-66859.406735513592,122798.42459046321,0.0
335012.02908761695,3937225.878295721,-7500.0,-68975.076192038119,73021.982970316283,22171.145135377745,-6917.2326656338591,2403.9713341180823,437.43536584650548,86324.718220823561,82907.169356656887,-69266.872215197262,69266.872215197262,-82907.169356656887,151514.20339434111,0.0
340012.02908761695,3937225.878295721,-7500.0,-48650.602058735094,106657.28059832918,-83644.518874421832,-8934.1442717063037,11154.386593436831,1554.7787807212978,108661.74221047093,52210.615938409712,-24235.549351160531,24235.549351160531,-52210.615938409712,200604.29142083795,0.0
345012.02908761695,3937225.878295721,-7500.0,-12787.938840801087,86387.658392997531,-203000.62349387223,-9315.5750695004463,21505.059939941228,2390.1121948277651,129648.48675557552,-33443.93902292772,45022.176413102847,-45022.176413102847,33443.93902292772,251663.50880693985,0.0
350012.02908761695,3937225.878295721,-7500.0,2182.4847990270287,20914.274241680123,-267535.09916213935,-6029.7469712849652,32025.556294336024,1931.442385610937,140698.13861980714,-125460.9968602641,87753.302143259905,-87753.302143259905,125460.9968602641,277809.52194190648,0.0
355012.02908761695,3937225.878295721,-7500.0,-12717.622220488387,-43268.897405838499,-257009.47989632402,1458.6761073462492,38131.61298349173,208.46423004483708,138600.63405407805,-172467.57154278649,83457.530753469473,-83457.530753469473,172467.57154278649,270163.59579224297,0.0
360012.02908761695,3937225.878295721,-7500.0,-38774.153416594105,-78108.80802951791,-202028.98022236725,9535.2525148110635,36773.070353007475,-1572.7540534401644,122723.54329838352,-169380.24126541149,51594.583560673855,-51594.583560673855,169380.24126541149,238205.55725344774,0.0
365012.02908761695,3937225.878295721,-7500.0,-59241.44459628364,-84245.844209428295,-137285.00936922291,14473.143242484344,29823.213065243614,-2480.5540176087216,100622.39509278871,-137381.54531440133,16012.44368388156,-16012.44368388156,137381.54531440133,195783.53730698029,0.0
370012.02908761695,3937225.878295721,-7500.0,-68383.234428553827,-73032.043785604386,-81839.118892560087,15526.272620536161,21125.729223927287,-2509.202281578137,78203.260470385998,-97033.611999785513,-10962.236602763543,10962.236602763543,97033.611999785513,153199.10343228001,0.0
375012.02908761695,3937225.878295721,-7500.0,-67421.56614327601,-55053.811728520297,-41637.332234542708,13936.563883979781,13365.929969381987,-2069.7205304048152,58907.361002619524,-60372.098790679345,-26550.706967846254,26550.706967846254,60372.098790679345,116026.02043357873,0.0
380012.02908761695,3937225.878295721,-7500.0,-59990.494114939182,-36992.206587017208,-15724.046724965998,11205.25291641269,7538.1263712605823,-1511.8617777750569,44326.981695997994,-32111.879839932408,-32656.178491143466,32656.178491143466,32111.879839932408,86273.058793710879,0.0
385012.02908761695,3937225.878295721,-7500.0,-49621.382314263152,-21970.311370835345,-667.32926263746458,8346.3884908654982,3611.6382989615799,-1013.1076779319046,33607.428705082159,-12623.600682512902,-32504.172779530498,32504.172779530498,12623.600682512902,63842.726753567986,0.0
390012.02908761695,3937225.878295721,-7500.0,-38813.597168971421,-10810.28708273723,7110.8156161118923,5854.3737431979298,1174.3344218414961,-629.66618168862703,25810.289178012667,-371.14180864772425,-28984.4399581953,28984.4399581953,371.14180864772425,47655.375846706702,0.0
395012.02908761695,3937225.878295721,-7500.0,-28976.768480078666,-3176.9631083906029,10439.571343203375,3884.8212828049818,-225.82720773853706,-359.44603991172607,20228.880402943032,6626.5028541857137,-24125.714280594009,24125.714280594009,-6626.5028541857137,36336.162006083818,0.0
400012.02908761695,3937225.878295721,-7500.0,-20708.501521801667,1676.8633991507345,11262.862912819706,2421.4564783014198,-955.99165522134513,-180.19272121291846,16249.293374658328,10122.610865025305,-19133.374153669658,19133.374153669658,-10122.610865025305,28566.226409439343,0.0
405012.02908761695,3937225.878295721,-7500.0,-14111.832835809088,4524.139815780718,10799.824615733318,1380.8639983538746,-1277.6883235065573,-67.133207274499952,13380.070629302783,11440.528242318076,-14613.247012065847,14613.247012065847,-11440.528242318076,23237.660385740459,0.0
410012.02908761695,3937225.878295721,-7500.0,-9038.9448960976333,6009.2671800573808,9763.3839583777808,666.47720111480021,-1363.6477504040515,0.59158365706134397,11260.211999173378,11490.810437065633,-10798.158154202429,10798.158154202429,-11490.810437065633,19506.960547470957,0.0
415012.02908761695,3937225.878295721,-7500.0,-5245.0897294602773,6614.841366035942,8544.4636749719939,191.7468355047142,-1322.1968126642737,38.577779408466377,9642.4471310190074,10861.437292452261,-7716.7018631409883,7716.7018631409883,-10861.437292452261,16787.876662271883,0.0
420012.02908761695,3937225.878295721,-7500.0,-2472.417007502565,6679.4434464886463,7341.9887358003116,-112.70585037922383,-1218.5034568224617,57.737459839210693,8365.6272943243675,9913.403224097241,-5300.8015151981863,5300.8015151981863,-9913.403224097241,14704.745264729265,0.0
425012.02908761695,3937225.878295721,-7500.0,-488.78146704465343,6430.1197848306083,6246.2280708518711,-299.16599714675232,-1090.2296714717941,65.384259016147126,7327.4902023367522,8857.9963726062888,-3447.1019722305109,3447.1019722305109,-8857.9963726062888,13031.069261957435,0.0
430012.02908761695,3937225.878295721,-7500.0,898.83133703891883,6013.8169545353512,5289.014484375235,-405.55290471311912,-958.13420832955228,66.269461207642337,6463.3186464915525,7812.1672446941411,-2048.5709405259909,2048.5709405259909,-7812.1672446941411,11634.751072011853,0.0
435012.02908761695,3937225.878295721,-7500.0,1843.5966048590192,5522.6124742376251,4472.6469119997,-458.66970946645807,-832.89907801992922,63.40150835327384,5731.3570309973757,6835.5571898864309,-1008.6916862137782,1008.6916862137782,-6835.5571898864309,10438.930238094277,0.0
440012.02908761695,3937225.878295721,-7500.0,2463.541801580242,5012.2075639074492,3785.8863495183991,-477.11478392250751,-719.3767427473955,58.639810906815597,5103.6643703737082,5954.1843366410994,-246.3227222817759,246.3227222817759,-5954.1843366410994,9397.5718119151607,0.0
250012.02908761695,3942225.878295721,-7500.0,11470.688038815,-4619.5808731671577,2578.7260218617266,1321.6515037703743,-561.75418450675875,109.85852758743655,6816.1715200312356,-4084.2096242956122,8281.8281391573837,-8281.8281391573837,4084.2096242956122,13316.303725662208,0.0
255012.02908761695,3942225.878295721,-7500.0,12665.476639148275,-5484.0704731930364,3130.7036244597975,1525.0019400792403,-693.8699997284433,132.22044547775437,7700.6907788645067,-4683.5833190936428,9109.5345507311049,-9109.5345507311049,4683.5833190936428,15071.131366369762,0.0
260012.02908761695,3942225.878295721,-7500.0,13963.471045509921,-6528.3622305057734,3836.0232221639458,1761.3409105966687,-860.89532495329365,159.52177459348505,8724.2479751383344,-5367.437331065852,9989.7425734247117,-9989.7425734247117,5367.437331065852,17108.605051873612,0.0
265012.02908761695,3942225.878295721,-7500.0,15350.00146673754,-7789.013566213147,4744.2787585932701,2034.3541365911199,-1072.5959645836979,192.75647904649244,9909.1667862729046,-6138.2828326098333,10900.752569361232,-10900.752569361232,6138.2828326098333,19476.736533437746,0.0
270012.02908761695,3942225.878295721,-7500.0,16792.795825230554,-9306.6929679068944,5922.310235366358,2346.576317854076,-1341.266369382927,232.96814735316013,11279.72036094489,-6990.5156495031297,11802.789163371232,-11802.789163371232,6990.5156495031297,22229.301185632328,0.0
275012.02908761695,3942225.878295721,-7500.0,18231.588765052016,-11123.17101417336,7459.9303125027927,2697.9248618752313,-1682.0213024411378,281.0963901163538,12860.793163556844,-7903.3967122362792,12627.977098637757,-12627.977098637757,7903.3967122362792,25424.220977275047,0.0
280012.02908761695,3942225.878295721,-7500.0,19562.710399424039,-13274.343752698869,9476.7682026139646,3083.2077744693488,-2112.6801372571149,337.66269443274319,14675.11946539583,-8829.3927033629843,13265.637456816603,-13265.637456816603,8829.3927033629843,29119.741382716649,0.0
285012.02908761695,3942225.878295721,-7500.0,20616.946458558639,-15775.898101882287,12129.303586674747,3488.0649776410323,-2652.66313604264,402.1844915224695,16738.293377995113,-9675.2699262669521,13541.435699741258,-13541.435699741258,9675.2699262669521,33366.862938487997,0.0
290012.02908761695,3942225.878295721,-7500.0,21129.397080090679,-18595.80197778685,15615.146662812471,3882.6905340407448,-3319.7772952412715,472.16847666106736,19149.204186423438,-10272.418256942614,13189.536304352843,-13189.536304352843,10272.418256942614,38195.79943662788,0.0
295012.02908761695,3942225.878295721,-7500.0,20702.274085110515,-21604.166116159093,20167.078964252472,4212.8241478520749,-4122.8704886957212,541.54269236907817,22016.733503149513,-10332.536140864289,11819.51103744287,-11819.51103744287,10332.536140864289,43593.685607653963,0.0
300012.02908761695,3942225.878295721,-7500.0,18768.465131357807,-24486.593858001859,26019.516084491337,4388.4482343758082,-5047.062249899489,598.58388100353409,25224.637464497715,-9387.2666623340792,8887.4390915017266,-8887.4390915017266,9387.2666623340792,49471.677163972221,0.0
305012.02908761695,3942225.878295721,-7500.0,14580.649946267298,-26604.845598428688,33310.184269118778,4273.4660706823161,-6027.0995719150842,624.08828167825982,28724.157101848381,-6721.3663711316985,3699.4154711143456,-3699.4154711143456,6721.3663711316985,55625.531212241956,0.0
310012.02908761695,3942225.878295721,-7500.0,7287.5334826269545,-26799.673633022976,41843.782787335527,3686.0797387829471,-6905.3744827778073,592.22266944603018,32424.981564764999,-1342.5494223003491,-4483.5324741202885,4483.5324741202885,1342.5494223003491,61715.541355487592,0.0
315012.02908761695,3942225.878295721,-7500.0,-3775.5722938406216,-23186.979433513752,50593.716515312743,2430.2446134606089,-7379.7010946834498,479.27939991754272,36238.416460013606,7885.3368452782552,-16096.34749968024,16096.34749968024,-7885.3368452782552,67355.744707529608,0.0
320012.02908761695,3942225.878295721,-7500.0,-18380.148657879719,-13172.539148956552,56801.52599546827,386.47022431036748,-6971.1386711505693,286.81341197878135,40251.28893268219,21653.347266106503,-30447.334090013785,30447.334090013785,-21653.347266106503,72554.200231339928,0.0
325012.02908761695,3942225.878295721,-7500.0,-34153.973542453532,5705.5904990654917,54769.025292906277,-2331.9467117793779,-5084.2421213691377,75.65114378688159,45130.099042420072,38681.815275357832,-44267.445289623152,44267.445289623152,-38681.815275357832,78909.377269117045,0.0
330012.02908761695,3942225.878295721,-7500.0,-45380.945889365801,33094.244446820674,35479.934877993772,-5243.5577706149888,-1238.9751622439487,-26.509652754219729,52516.6441630603,53089.119291328374,-50293.334721349995,50293.334721349995,-53089.119291328374,91109.188247792059,0.0
335012.02908761695,3942225.878295721,-7500.0,-44346.152147112931,61339.05167595153,-9689.0400140429956,-7571.9495978886989,4599.4114328378782,87.593205397307358,64174.633214572277,52758.358694843962,-38806.916389583872,38806.916389583872,-52758.358694843962,114710.21163140312,0.0
340012.02908761695,3942225.878295721,-7500.0,-28346.686516225534,74360.768433328703,-78363.204055095979,-8529.4205027648422,11896.891234994628,331.68380916825669,79254.530403437006,24977.409099061675,-6139.4102132604639,6139.4102132604639,-24977.409099061675,148290.00612009931,0.0
345012.02908761695,3942225.878295721,-7500.0,-7251.2248944044313,58743.248980005417,-148472.95391898623,-7443.2495576507836,19630.755305543695,375.65038501705322,93132.246300774699,-28538.494827858096,35191.685841433355,-35191.685841433355,28538.494827858096,180979.11466505349,0.0
350012.02908761695,3942225.878295721,-7500.0,3001.181814831371,19662.520942201354,-190501.76893807735,-3914.2530999234723,26128.259554032873,-78.210046772219442,100867.50395231147,-85550.776124449883,62873.725536445061,-62873.725536445061,85550.776124449883,200276.98159284875,0.0
355012.02908761695,3942225.878295721,-7500.0,-3440.7421988231949,-22596.761354849772,-192274.23409880948,1424.3891644182343,29358.091848697215,-924.96831790265981,101745.41489505317,-121583.87763047335,65409.089990173903,-65409.089990173903,121583.87763047335,200656.67031966796,0.0
360012.02908761695,3942225.878295721,-7500.0,-19676.056671127659,-51456.018899500072,-163780.94453018715,6757.6623145351123,28368.230941755628,-1719.1552791756533,94244.916240726263,-128788.27173121773,48576.673186840155,-48576.673186840155,128788.27173121773,184853.40001465811,0.0
365012.02908761695,3942225.878295721,-7500.0,-35967.833234234924,-62696.998426716098,-122652.72759192661,10369.996272216145,24071.338163523094,-2111.7077936283504,81364.310863043036,-114251.38048169659,24702.380319914912,-24702.380319914912,114251.38048169659,159527.30820457742,0.0
370012.02908761695,3942225.878295721,-7500.0,-46595.255003798018,-60318.169935788676,-82370.335129125335,11703.186519651363,18333.129671559524,-2071.6794459085831,66635.108052041265,-89312.693158337323,3091.8191508895543,-3091.8191508895543,89312.693158337323,131107.16665954675,0.0
375012.02908761695,3942225.878295721,-7500.0,-50331.794916425977,-50443.067471962735,-49580.605815140589,11202.656148062604,12741.890841300605,-1762.2480307302721,52585.757438050736,-62893.356342203639,-12169.824071105872,12169.824071105872,62893.356342203639,104019.97541033053,0.0
380012.02908761695,3942225.878295721,-7500.0,-48499.1936344551,-38076.585057727345,-25885.571385158786,9655.9204870647773,8133.0413044841544,-1360.0750117803705,40871.856785120923,-39939.104301255749,-20717.75811592977,20717.75811592977,39939.104301255749,80592.274238741156,0.0
385012.02908761695,3942225.878295721,-7500.0,-43195.176428270963,-26279.057890374341,-10261.738487369163,7737.6007782185197,4719.4909715731492,-977.38728364622079,31735.134558848975,-22236.072681170517,-23940.046249734762,23940.046249734762,22236.072681170517,61601.744694360161,0.0
390012.02908761695,3942225.878295721,-7500.0,-36310.597901857116,-16463.710859345578,-785.74903997527031,5870.9154279013019,2379.0854536966444,-662.76825901783297,24685.557876867591,-9713.2169531223117,-23636.685071791006,23636.685071791006,9713.2169531223117,46903.553138771371,0.0
395012.02908761695,3942225.878295721,-7500.0,-29181.645110333808,-8984.8376104895306,4444.9757787167355,4259.8671363211843,873.29533545283368,-425.48489571480468,19364.709279372342,-1480.8265118343825,-21364.043494271988,21364.043494271988,1480.8265118343825,35911.044873265317,0.0
400012.02908761695,3942225.878295721,-7500.0,-22591.197797840665,-3649.2015382855825,6953.3638587746618,2966.3545431632569,-37.060434580422708,-256.60661879221834,15413.62946080212,3542.0036963855018,-18234.290591882611,18234.290591882611,-3542.0036963855018,27896.259503880228,0.0
405012.02908761695,3942225.878295721,-7500.0,-16903.636639676602,-53.666386269316433,7826.0485602271856,1976.856826365181,-547.3074286864703,-141.55114718382418,12499.278761969599,6327.0263863290693,-14941.179821160409,14941.179821160409,-6327.0263863290693,22150.280085455543,0.0
410012.02908761695,3942225.878295721,-7500.0,-12215.414175165635,2230.8358167807728,7781.6217241668501,1246.0978670492852,-801.16557712114957,-66.046140067416047,10341.65385295168,7636.3001473922577,-11863.655916454771,11863.655916454771,-7636.3001473922577,18056.882441672446,0.0
415012.02908761695,3942225.878295721,-7500.0,-8474.815094058562,3577.9082887071077,7268.6914165631115,721.25526936980009,-897.79965821210169,-18.316907365867259,8722.351980882544,8020.9497552475359,-9173.2529520250282,9173.2529520250282,-8020.9497552475359,15120.134520205249,0.0
420012.02908761695,3942225.878295721,-7500.0,-5562.3587083517132,4281.6840766098903,6553.5689334628987,353.41998222843671,-902.62415609447839,10.543358363289268,7480.8095934377079,7858.1198255062818,-6918.3835187659342,6918.3835187659342,-7858.1198255062818,12967.244334103569,0.0
425012.02908761695,3942225.878295721,-7500.0,-3338.523057591337,4559.9897234498485,5786.2514347650585,101.82400901344337,-857.28854122771099,26.928729402603317,6504.2749224601293,7395.1872000216899,-5081.7971944206347,5081.7971944206347,-7395.1872000216899,11335.574127269478,0.0
430012.02908761695,3942225.878295721,-7500.0,-1668.8880157903318,4567.5670914800457,5045.6965129178989,-65.555598380659774,-787.4742559239761,35.271996801176329,5716.0432589258289,6788.5120586542362,-3616.2022577756306,3616.2022577756306,-6788.5120586542362,10050.289916856847,0.0
435012.02908761695,3942225.878295721,-7500.0,-435.32302940786343,4410.9755510204404,4369.1170513039096,-172.95361629801678,-708.48615725791399,38.569105535079252,5064.7740250197794,6133.2503872221077,-2464.6072884814275,2464.6072884814275,-6133.2503872221077,8999.785807340455,0.0
255012.02908761695,3947225.878295721,-7500.0,11036.997441504038,-5669.6286132813948,3615.3978545123532,1350.1378113136604,-729.72041313507691,119.3559636493208,7157.9055847249201,-4361.0259231785139,7778.2700316835371,-7778.2700316835371,4361.0259231785139,14026.718440031198,0.0
260012.02908761695,3947225.878295721,-7500.0,11959.074188087632,-6644.7495906857712,4400.1703215823418,1537.5407221798971,-893.34792499318792,142.44592031961719,8039.9081139479595,-4892.8778082286099,8344.7388275415451,-8344.7388275415451,4892.8778082286099,15792.193372375626,0.0
265012.02908761695,3947225.878295721,-7500.0,12879.76133843971,-7788.7017927111574,5393.2856211441449,1747.0775111714163,-1096.5664139215521,170.02377075583766,9042.4163857787516,-5456.3801744689945,8866.7232097702308,-8866.7232097702308,5456.3801744689945,17809.813195799594,0.0
270012.02908761695,3947225.878295721,-7500.0,13748.085340791116,-9119.3473871838542,6654.7915900208009,1977.0904239687368,-1348.5013676895842,202.65836955194615,10177.155422034979,-6027.7047421548396,9289.4450620444895,-9289.4450620444895,6027.7047421548396,20109.232539689914,0.0
275012.02908761695,3947225.878295721,-7500.0,14484.727209977265,-10645.999878650267,8260.7077272108017,2222.4514308454459,-1659.4285818118321,240.70738308817909,11452.733714548642,-6563.4083284850449,9530.6211250358065,-9530.6211250358065,6563.4083284850449,22717.094519891052,0.0
280012.02908761695,3947225.878295721,-7500.0,14970.480172814543,-12359.297802618674,10304.666001683257,2472.3116606608005,-2039.9182527234436,284.04092529844132,12871.163887372604,-6989.4116318695378,9469.8602398909352,-9469.8602398909352,6989.4116318695378,25651.795728235829,0.0
285012.02908761695,3947225.878295721,-7500.0,15032.062730573034,-14213.876310132522,12896.404262971482,2706.8267298528694,-2498.8268708414453,331.58272385626356,14493.428472320878,-7185.2001906436089,8936.0563049220473,-8936.0563049220473,7185.2001906436089,28915.150427083427,0.0
290012.02908761695,3947225.878295721,-7500.0,14427.028499399894,-16099.937983019743,16152.57718074783,2892.7114269979515,-3039.2200119233589,380.60612037038629,16401.741202783465,-6962.6060164753781,7694.974318145596,-7694.974318145596,6962.6060164753781,32480.074010524011,0.0
295012.02908761695,3947225.878295721,-7500.0,12833.144751483689,-17798.98836826114,20170.965537824919,2977.8983043603916,-3650.8368947143217,425.77691497514013,18491.324432563422,-6040.6570898552118,5443.2361774480969,-5443.2361774480969,6040.6570898552118,36274.382943981967,0.0
300012.02908761695,3947225.878295721,-7500.0,9855.012561199339,-18920.162579057811,24971.636972631848,2886.6599902903058,-4297.3155530734057,458.11427588915404,20726.400077281873,-4023.9918425479364,1823.0536240372919,-1823.0536240372919,4023.9918425479364,40164.415215870853,0.0
305012.02908761695,3947225.878295721,-7500.0,5073.9929404365339,-18821.106424382935,30377.45136431502,2518.8149163663138,-4896.7211579056275,464.48341360638648,23051.426150763589,-406.47845621678789,-3513.2805393351846,3513.2805393351846,406.47845621678789,43952.45363015496,0.0
310012.02908761695,3947225.878295721,-7500.0,-1813.3938499832766,-16540.979498974662,35795.20837686216,1760.3052766154735,-5296.4825330657031,429.00398129763698,25414.510773968559,5349.842221822415,-10738.763616111661,10738.763616111661,-5349.842221822415,47427.503365095872,0.0
315012.02908761695,3947225.878295721,-7500.0,-10709.132056581117,-10829.223229762662,39865.606967666186,516.14814753126132,-5251.1846206541622,338.49692777920836,27845.217610598698,13564.697078039831,-19519.760854636865,19519.760854636865,-13564.697078039831,50561.48390422645,0.0
320012.02908761695,3947225.878295721,-7500.0,-20653.366257256454,-454.27032257893438,40028.856009455638,-1225.2571815942194,-4425.3790523453781,193.14180151053253,30624.908495856886,23784.148105758406,-28485.124369852081,28485.124369852081,-23784.148105758406,53997.882840865823,0.0
325012.02908761695,3947225.878295721,-7500.0,-29346.720618971442,14930.515287453603,32309.326219709856,-3306.4487020459105,-2456.808349989702,17.700303540577107,34498.857650609018,33868.390830032018,-34670.393533051465,34670.393533051465,-33868.390830032018,59773.820416710354,0.0
330012.02908761695,3947225.878295721,-7500.0,-33246.544155714328,33264.415096110351,12113.450464250447,-5343.7589221125008,897.1840715507177,-142.30972306822386,40568.019477997033,39142.120009332531,-33621.09359770127,33621.09359770127,-39142.120009332531,71129.864224660516,0.0
335012.02908761695,3947225.878295721,-7500.0,-29217.083218319043,48767.064333107963,-22921.509441636972,-6772.7821443722269,5572.1227040755066,-256.64453687235283,49381.763102467936,33025.094383858581,-21352.832938808151,21352.832938808151,-33025.094383858581,89785.609975635991,0.0
340012.02908761695,3947225.878295721,-7500.0,-17752.588274312835,53237.199238726578,-68568.683058254988,-7012.3341917108264,11076.945324745311,-361.20967716879517,59820.269350636911,10887.660157811613,1630.8638396063334,-1630.8638396063334,-10887.660157811613,113078.33689879859,0.0
345012.02908761695,3947225.878295721,-7500.0,-4716.9719490502021,41477.077005135769,-112553.69940714529,-5676.7667869446059,16507.873454885797,-554.37328561058871,69212.155598477228,-24346.048772845577,27741.287610923129,-27741.287610923129,24346.048772845577,134796.95280765306,0.0
350012.02908761695,3947225.878295721,-7500.0,2178.4775204110465,16610.476958919415,-140597.57956411864,-2801.4386389007313,20707.105835188671,-899.080440514011,74846.360812490282,-61382.260140003833,46077.906751746887,-46077.906751746887,61382.260140003833,148636.1091877,0.0
355012.02908761695,3947225.878295721,-7500.0,-513.62052437953537,-11548.101827640088,-145712.45075894616,995.06142818971807,22659.06144077018,-1325.6200571097609,76255.180949590285,-87703.921257961221,50252.499152963515,-50252.499152963515,87703.921257961221,151356.54550681385,0.0
360012.02908761695,3947225.878295721,-7500.0,-10251.077975398714,-33603.517614789744,-131096.10057050848,4687.6578871954052,22021.136450943435,-1669.1134664247725,72771.056002216021,-97371.072046608824,41720.005218527178,-41720.005218527178,97371.072046608824,143605.57177658912,0.0
365012.02908761695,3947225.878295721,-7500.0,-21865.808669015038,-45363.856319131148,-105446.1039036046,7372.2525173321774,19300.323523794577,-1803.7275095403322,65250.015351985181,-92141.560042479323,26503.852471553444,-26503.852471553444,92141.560042479323,128526.82087648232,0.0
370012.02908761695,3947225.878295721,-7500.0,-31210.61426316639,-47537.264925314761,-77204.879154613023,8672.9487543710038,15482.525002504046,-1717.718514718247,55684.151099534705,-77668.725788477663,10566.598158252331,-10566.598158252331,77668.725788477663,109845.19968295997,0.0
375012.02908761695,3947225.878295721,-7500.0,-36448.915581852838,-43169.01604215063,-51819.492815215803,8731.9383237351285,11508.929577336607,-1482.3374038658312,45754.504576970125,-59693.3080630404,-2448.3114882188347,2448.3114882188347,59693.3080630404,90626.547894612144,0.0
380012.02908761695,3947225.878295721,-7500.0,-37609.131171086447,-35507.599364709524,-31662.670266006542,7950.0047569820636,7987.5382788246498,-1186.1863924433896,36692.28637679149,-42243.914795467303,-11254.48442217682,11254.48442217682,42243.914795467303,72861.392757611902,0.0
385012.02908761695,3947225.878295721,-7500.0,-35667.302581365555,-27001.4695584484,-17022.58892334289,6744.5068103199301,5176.1806003976317,-895.14311143144857,29241.788751523509,-27430.847889308458,-16081.218305882281,16081.218305882281,27430.847889308458,57554.26303167094,0.0
390012.02908761695,3947225.878295721,-7500.0,-31823.051138610612,-19114.990328712251,-7134.5939086437556,5429.5595521497871,3093.2922234120401,-644.13631514596852,23215.888874349283,-15934.813191967398,-17829.19004713466,17829.19004713466,15934.813191967398,45001.99586461085,0.0
395012.02908761695,3947225.878295721,-7500.0,-27110.10146324892,-12521.013273786333,-895.31356645460619,4194.9728167611756,1637.547051994814,-444.58808110903567,18440.748066181484,-7603.3392878569084,-17516.596764360263,17516.596764360263,7603.3392878569084,35077.048379027714,0.0
400012.02908761695,3947225.878295721,-7500.0,-22263.999224012394,-7381.3491936653281,2753.353885299015,3131.222308831635,670.29956069357775,-294.52947627670022,14736.97225030761,-1912.1393582151477,-16009.538131866844,16009.538131866844,1912.1393582151477,27443.069926501525,0.0
405012.02908761695,3947225.878295721,-7500.0,-17732.047981854495,-3584.4296903716181,4670.3632584567522,2264.3136792082769,59.230646085367788,-186.20121538387446,11906.142824043807,1751.5705908777809,-13940.092464251928,13940.092464251928,-1751.5705908777809,21693.127392057573,0.0
410012.02908761695,3947225.878295721,-7500.0,-13739.141422743769,-905.70949573306871,5489.2979587488326,1584.7989881267974,-304.39035671889917,-110.49181319888748,9758.6100104970101,3947.1110864928305,-11720.23029379222,11720.23029379222,-3947.1110864928305,17426.673847777824,0.0
415012.02908761695,3947225.878295721,-7500.0,-10361.189098837855,900.31819547116447,5648.2656471299197,1067.3474856291894,-502.69841657480271,-59.05621465809854,8129.5135941781755,5127.6113672130105,-9590.9129540758149,9590.9129540758149,-5127.6113672130105,14286.797424506034,0.0
420012.02908761695,3947225.878295721,-7500.0,-7585.7019091699985,2055.6393452936263,5435.8105885958903,682.21082845838066,-594.44337071748862,-25.071392693041027,6884.6685463118538,5634.6323097012228,-7674.7026222495624,7674.7026222495624,-5634.6323097012228,11975.197690851972,0.0
425012.02908761695,3947225.878295721,-7500.0,-5354.7068126920458,2742.5708436188652,5034.3125615361841,401.0898163663731,-620.04217356600179,-3.3102363428474484,5920.2548757300829,5713.2501718724143,-6019.1029293784322,6019.1029293784322,-5713.2501718724143,10255.460334610323,0.0
430012.02908761695,3947225.878295721,-7500.0,-3592.0957946556919,3102.3382971341871,4554.5445787499657,199.60902363262414,-606.46401412668945,10.06846125353387,5159.1573943297908,5532.9076925418785,-4627.8932324240441,4627.8932324240441,-5532.9076925418785,8949.5382986587283,0.0
435012.02908761695,3947225.878295721,-7500.0,-2219.4383606718388,3240.1042341729885,4060.7939201849172,57.938060189667823,-571.23329525122404,17.807550993682909,4545.8694190547367,5207.1975948232684,-3481.8917650267172,3481.8917650267172,-5207.1975948232684,7929.689906314502,0.0
255012.02908761695,3952225.878295721,-7500.0,9417.2597916419327,-5641.2038115020569,4012.5021452400374,1173.8205532872569,-740.57277942260123,106.17191760784399,6579.9383035625815,-3905.5623721961701,6450.0780292802237,-6450.0780292802237,3905.5623721961701,12916.347732945194,0.0
260012.02908761695,3952225.878295721,-7500.0,10005.978523805459,-6503.6282762852325,4838.4332649885391,1315.9947944538656,-894.29324732583791,125.22568852962188,7322.4837876822094,-4274.8296159715483,6740.2575400254773,-6740.2575400254773,4274.8296159715483,14413.879197782893,0.0
265012.02908761695,3952225.878295721,-7500.0,10527.763258387267,-7481.8271360114695,5863.0587780870237,1468.4486500866985,-1081.0551771044989,147.49773989751304,8149.0585821141858,-4627.0790526452065,6932.7868700872014,-6932.7868700872014,4627.0790526452065,16093.377089138419,0.0
270012.02908761695,3952225.878295721,-7500.0,10924.369363049682,-8573.3651780952532,7134.3774848546327,1626.8360858956462,-1306.7679022899886,173.1938051308116,9061.7635267220321,-4926.7398432237842,6968.4353259034033,-6968.4353259034033,4926.7398432237842,17965.952012120782,0.0
275012.02908761695,3952225.878295721,-7500.0,11113.441735268345,-9761.0439079199878,8708.2573544567331,1783.220146976772,-1577.1326408660009,202.25626832853456,10057.521157399253,-5118.2642196346187,6765.3311383157306,-6765.3311383157306,5118.2642196346187,20035.744713732718,0.0
280012.02908761695,3952225.878295721,-7500.0,10981.93316926316,-11002.336782324897,10645.575543416217,1924.3270824564386,-1896.3849295601449,234.13705859537433,11170.153368546742,-5117.8111736420542,6213.4436602949463,-6213.4436602949463,5117.8111736420542,22294.961988870771,0.0
285012.02908761695,3952225.878295721,-7500.0,10380.222924653011,-12213.414655068051,13004.341689009667,2029.2915720088179,-2264.967231755219,267.45633281005684,12475.634629956783,-4803.1212531770389,5170.4214591771006,-5170.4214591771006,4803.1212531770389,24717.158881010273,0.0
290012.02908761695,3952225.878295721,-7500.0,9120.0813951936125,-13246.267599479903,15822.341283309726,2067.0642354644046,-2675.519761244755,299.53332605914284,13881.226951530552,-4003.12779783009,3462.3614944271499,-3462.3614944271499,4003.12779783009,27249.29832037622,0.0
295012.02908761695,3952225.878295721,-7500.0,6982.7637002370093,-13858.613573618106,19082.968831317969,1994.1012763310564,-3106.4439842414063,325.8263109318097,15362.591467287759,-2491.809896907529,896.5327505252269,-896.5327505252269,2491.809896907529,29805.081789953572,0.0
300012.02908761695,3952225.878295721,-7500.0,3748.4235450473775,-13680.282378541382,22653.423237106246,1753.8228529965018,-3512.4303498348331,339.44920686812537,16885.971495590067,3.2889904687754097,-2701.5278726282513,2701.5278726282513,-3.2889904687754097,32266.954314978633,0.0
305012.02908761695,3952225.878295721,-7500.0,-736.05269540365919,-12189.52147451087,26182.236361831365,1280.6928749719186,-3812.2312381574566,331.15714025144774,18421.248943769348,3757.2158992693885,-7407.5484496671934,7407.5484496671934,-3757.2158992693885,34514.908443360175,0.0
310012.02908761695,3952225.878295721,-7500.0,-6431.1049326327511,-8732.2466366901917,28948.621744198186,513.31466170482793,-3876.401080819297,290.48341960991024,19979.258064731919,8933.8025664649431,-13052.619112792887,13052.619112792887,-8933.8025664649431,36520.174928162742,0.0
315012.02908761695,3952225.878295721,-7500.0,-12914.095430851054,-2647.8118536705415,29684.264287986935,-578.77879113846984,-3522.4492921006236,208.75795373603893,21689.006352793785,15358.23619258092,-19004.298457270346,19004.298457270346,-15358.23619258092,38562.651973450535,0.0
320012.02908761695,3952225.878295721,-7500.0,-19172.376747444621,6408.917822064951,26463.722695707256,-1954.0997938465948,-2530.9877686877885,83.866526067594435,23903.876427996322,22157.829368544619,-23928.282362129838,23928.282362129838,-22157.829368544619,41576.105429453411,0.0
325012.02908761695,3952225.878295721,-7500.0,-23547.151861567541,17897.034821411362,16895.53414025953,-3455.4245781762247,-698.69562637360298,-75.86805053985681,27224.124189343274,27373.271113978579,-25723.025956661611,25723.025956661611,-27373.271113978579,47280.717248459725,0.0
330012.02908761695,3952225.878295721,-7500.0,-24133.844870835659,29736.045547715206,-1040.7733617017539,-4792.0284095989355,2068.108162464056,-254.11987951418092,32218.014946610579,27905.692604416312,-21992.417517328009,21992.417517328009,-27905.692604416312,57327.951803126707,0.0
335012.02908761695,3952225.878295721,-7500.0,-19860.141037297843,38173.519033543598,-27380.069170501731,-5582.7622319387847,5646.6251024932726,-438.55625631028551,38865.481017316735,20410.851342089525,-11355.560010650515,11355.560010650515,-20410.851342089525,71698.003389856982,0.0
340012.02908761695,3952225.878295721,-7500.0,-11806.160740646485,39016.001268780703,-58543.873270089003,-5470.2439158093339,9635.4000165776797,-633.71580275028953,46232.053088791246,3387.2207821045677,4851.3867217697234,-4851.3867217697234,-3387.2207821045677,88127.466712051682,0.0
345012.02908761695,3952225.878295721,-7500.0,-3427.6672707424086,30170.036123460766,-87498.961387318821,-4272.7503751538998,13392.216747838049,-855.29911653115039,52746.553099416386,-20725.345770423326,22071.367303323055,-22071.367303323055,20725.345770423326,103026.10701500205,0.0
350012.02908761695,3952225.878295721,-7500.0,1252.701510223342,13572.613610269795,-106742.44602547865,-2109.6145888801161,16194.465436020837,-1101.3648754977517,56895.587218068446,-45742.009091951972,34548.523338785439,-34548.523338785439,45742.009091951972,112991.35740059474,0.0
355012.02908761695,3952225.878295721,-7500.0,214.12751920452766,-5624.9008486092407,-112207.21736026045,581.745860138951,17492.072722716606,-1330.6717679822946,58311.913932410229,-64848.893582176359,38638.880998715511,-38638.880998715511,64848.893582176359,116108.26160841773,0.0
360012.02908761695,3952225.878295721,-7500.0,-5617.739738357679,-22034.44429457204,-104807.41471367411,3195.3277703681256,17133.387647940875,-1480.0558129080007,56781.739514907807,-74078.887930679848,34480.850331032358,-34480.850331032358,74078.887930679848,112400.92106102896,0.0
365012.02908761695,3952225.878295721,-7500.0,-13553.189961108437,-32496.857997116182,-88860.58817066843,5207.9371537972174,15404.613476449571,-1506.4639990666756,52352.43478104542,-73407.294167000917,24988.778901259615,-24988.778901259615,73407.294167000917,103368.01699252542,0.0
370012.02908761695,3952225.878295721,-7500.0,-20914.54784860092,-36550.272580633333,-69407.075750284261,6362.3562681489111,12855.391183805894,-1411.1639642759583,46139.591579231441,-65486.086518979304,13733.17100370241,-13733.17100370241,65486.086518979304,91118.96009554273,0.0
375012.02908761695,3952225.878295721,-7500.0,-26061.503809346992,-35500.023531178296,-50372.421634528051,6681.9750432848487,10053.50498525794,-1230.4207727686933,39214.900076161444,-53738.331119836112,3431.8067369656492,-3431.8067369656492,53738.331119836112,77647.859600444543,0.0
380012.02908761695,3952225.878295721,-7500.0,-28500.621016483921,-31254.053959755998,-34010.103893844032,6364.5979888951415,7419.7947044575412,-1010.9773027587595,32410.004622441396,-41056.0697876005,-4499.7673613773404,4499.7673613773404,41056.0697876005,64456.347121417151,0.0
385012.02908761695,3952225.878295721,-7500.0,-28522.608718514373,-25547.592238488607,-21152.520777252928,5657.9480427322724,5184.0840832117865,-791.3338527423125,26421.889893964151,-29322.309759360091,-9721.6507344449692,9721.6507344449692,29322.309759360091,52475.323596137539,0.0
390012.02908761695,3952225.878295721,-7500.0,-26774.378550693385,-19624.94583148028,-11723.843735353037,4778.0598111795607,3419.8854732042514,-595.06904909656294,21448.09447190131,-19470.280160176015,-12535.677027674988,12535.677027674988,19470.280160176015,42152.747815599781,0.0
395012.02908761695,3952225.878295721,-7500.0,-23951.375170633961,-14220.223690324245,-5203.7815184612173,3877.7660544649743,2103.4846955099461,-432.36017974179765,17337.959397223894,-11755.155495252618,-13508.485881474482,13508.485881474482,11755.155495252618,33596.440815374903,0.0
400012.02908761695,3952225.878295721,-7500.0,-20637.024581830632,-9670.0551833659738,-940.49606069092374,3047.6012692256577,1165.2865786710101,-304.40981935522558,14018.306670307549,-6038.2750066347799,-13231.649710435635,13231.649710435635,6038.2750066347799,26708.682725899089,0.0
405012.02908761695,3952225.878295721,-7500.0,-17250.686545595461,-6052.0679752621936,1679.483830713436,2330.3520184746158,523.57956919661945,-207.6439792960025,11386.590466066231,-2002.6422170090464,-12204.868633811389,12204.868633811389,2002.6422170090464,21288.155380386863,0.0
410012.02908761695,3952225.878295721,-7500.0,-14056.15973082554,-3300.4809330625744,3161.100652426931,1737.5949985390487,102.46040634020429,-136.64264021542959,9327.0768438657615,712.31710741994448,-10800.433081620562,10800.433081620562,-712.31710741994448,17096.777114190572,0.0
415012.02908761695,3952225.878295721,-7500.0,-11194.851748779209,-1285.9957627529122,3887.6460299624241,1263.1908041879462,-160.92945756515178,-85.822877983997429,7727.3161022666454,2440.1116888844081,-9270.4575319219766,9270.4575319219766,-2440.1116888844081,13898.430185812678,0.0
420012.02908761695,3952225.878295721,-7500.0,-8722.9055585284132,136.16644440076726,4134.3159884581009,892.6104156034354,-315.15719090853202,-50.237484158018276,6487.1413916615547,3458.4325376354209,-7770.973795065589,7770.973795065589,-3458.4325376354209,11478.708931306603,0.0
425012.02908761695,3952225.878295721,-7500.0,-6642.8484536508113,1101.2342044276272,4090.5725054209861,608.64932060412093,-396.03490171091619,-25.845059042125385,5522.3732227406981,3983.9664630924535,-6388.6035969581999,6388.6035969581999,-3983.9664630924535,9653.3942073501494,0.0
430012.02908761695,3952225.878295721,-7500.0,-4927.1004387077164,1724.3364605202567,3882.4037223334967,394.5506639961651,-429.08543293772402,-9.5067723224900682,4765.3272194809833,4178.4090076491429,-5163.5331828212384,5163.5331828212384,-4178.4090076491429,8270.9063262522814,0.0
255012.02908761695,3957225.878295721,-7500.0,7872.1323146105979,-5437.4493214010254,4303.2166904778032,1003.126360049692,-730.10405611322085,93.18345705732618,5988.5727951369317,-3368.7936272921311,5185.5409588550483,-5185.5409588550483,3368.7936272921311,11781.438816753611,0.0
260012.02908761695,3957225.878295721,-7500.0,8181.8499792078001,-6161.3449005176917,5132.3839975749725,1105.4925297749321,-869.36945732656977,108.53183221928856,6599.5026653399746,-3581.2494485522379,5248.1312713310863,-5248.1312713310863,3581.2494485522379,13026.076290927253,0.0
265012.02908761695,3957225.878295721,-7500.0,8383.0296677430542,-6949.5545190435623,6138.6727455333348,1209.1797549876944,-1034.59555551331,126.04051495372896,7263.6879881606919,-3738.9857801219487,5181.7455230931055,-5181.7455230931055,3738.9857801219487,14393.394737567452,0.0
270012.02908761695,3957225.878295721,-7500.0,8418.971497104345,-7784.1958114868066,7355.421793002386,1308.4714407475051,-1228.8211654201948,145.660490589745,7976.6153916647436,-3801.3842337695196,4930.8024340086004,-4930.8024340086004,3801.3842337695196,15881.660672262982,0.0
275012.02908761695,3957225.878295721,-7500.0,8215.3347452876678,-8630.0446318233408,8816.3354112127545,1394.4274293162991,-1453.9402271533122,167.06884079301116,8753.5844604088543,-3710.5483879740368,4423.946007827155,-4423.946007827155,3710.5483879740368,17480.87298160818,0.0
280012.02908761695,3957225.878295721,-7500.0,7678.0432769609433,-9425.5013318286019,10549.652289083921,1453.7115243370208,-1709.3425363261103,189.49353690345129,9668.8480217721972,-3386.4782644283264,3573.0558110075685,-3573.0558110075685,3386.4782644283264,19169.097939795218,0.0
285012.02908761695,3957225.878295721,-7500.0,6693.8330720510421,-10070.509440999747,12566.959801070392,1467.2999512101171,-1989.7066386437132,211.47112966996031,10641.375488799371,-2722.87952015056,2275.5177196298146,-2275.5177196298146,2722.87952015056,20908.552156617072,0.0
290012.02908761695,3957225.878295721,-7500.0,5136.5518285257031,-10411.815447868777,14843.321267045665,1409.3741653750319,-2281.6219121140884,230.54768927277544,11654.540107503106,-1586.1374277976197,423.21543642648248,-423.21543642648248,1586.1374277976197,22643.007874753261,0.0
295012.02908761695,3957225.878295721,-7500.0,2884.1688833879448,-10227.935839692393,17284.268103767805,1247.0544829804358,-2558.7850268368311,242.9700014100479,12687.462824574573,177.49289330530939,-2076.2597548797294,2076.2597548797294,-177.49289330530939,24300.450752322173,0.0
300012.02908761695,3957225.878295721,-7500.0,-146.60819018207656,-9220.3560105420038,19674.994343129798,942.17469694062777,-2775.8630479899498,243.4876649262672,13722.210524689011,2717.5292014339911,-5258.5452765700038,5258.5452765700038,-2717.5292014339911,25809.688067091934,0.0
305012.02908761695,3957225.878295721,-7500.0,-3940.9426308028924,-7024.8537041651116,21610.105739688359,456.92930493879749,-2862.0160972197086,225.49980820130116,14762.769029760264,6124.1196649765934,-9033.6255080616083,9033.6255080616083,-6124.1196649765934,27147.814155526241,0.0
310012.02908761695,3957225.878295721,-7500.0,-8299.9370697417617,-3267.2503507751921,22413.070245402858,-234.45980562393052,-2716.8033237224672,181.85813323995367,15872.391576650341,10326.17421920499,-13087.139855405407,13087.139855405407,-10326.17421920499,28443.997253469235,0.0
315012.02908761695,3957225.878295721,-7500.0,-12744.538922721073,2303.5127631100813,21079.900756913816,-1126.8519042780313,-2213.7022940705315,106.55624054986562,17227.385686653121,14935.553358122432,-16770.376103736278,16770.376103736278,-14935.553358122432,30149.487652390959,0.0
320012.02908761695,3957225.878295721,-7500.0,-16463.310873870098,9581.2561853515763,16324.969125689342,-2160.4394045897079,-1218.5501666189557,-2.9501028085254122,19149.945454589149,19066.096616003691,-19041.000309842857,19041.000309842857,-19066.096616003691,33168.755829004316,0.0
325012.02908761695,3957225.878295721,-7500.0,-18406.799517361753,17800.702951817835,6850.6248187352885,-3201.2490684267877,371.1853971324245,-143.95253562088394,22029.539817569272,21234.466701229489,-18575.732678703542,18575.732678703542,-21234.466701229489,38625.755494192199,0.0
330012.02908761695,3957225.878295721,-7500.0,-17639.692452980638,25329.08919413104,-8060.8849663851761,-4042.0680758016583,2569.1808247677704,-308.98825633535193,26082.24860082693,19546.846990742211,-14194.331698336087,14194.331698336087,-19546.846990742211,47112.680599198859,0.0
335012.02908761695,3957225.878295721,-7500.0,-13930.789786903539,29851.972674462624,-27734.540332496774,-4439.7249653461113,5244.0205386249972,-489.10897415543945,31096.266563140554,12369.44095137685,-5592.7695386874966,5592.7695386874966,-12369.44095137685,58067.387286258541,0.0
340012.02908761695,3957225.878295721,-7500.0,-8258.066311091734,29188.305045021454,-49549.908883964919,-4190.0510104977648,8096.8063840043378,-676.90818075782875,36388.946699698849,-618.02280794451281,5975.4521744149406,-5975.4521744149406,618.02280794451281,69862.336542470686,0.0
345012.02908761695,3957225.878295721,-7500.0,-2692.7482577512692,22490.729446036283,-69336.313043519578,-3216.8011936714306,10702.629099869086,-864.5621069058858,41013.34802142407,-17630.893313266133,17730.016189839538,-17730.016189839538,17630.893313266133,80366.191933503185,0.0
350012.02908761695,3957225.878295721,-7500.0,538.93283260900967,10993.215486063027,-82895.011831949523,-1630.8925047883024,12620.404481705606,-1037.2910648134839,44091.641187342269,-35082.735534176136,26443.41597151725,-26443.41597151725,35082.735534176136,87638.7622329757,0.0
355012.02908761695,3957225.878295721,-7500.0,228.8942208695866,-2420.6894515979288,-87790.678944093364,282.16945425408369,13535.364066790038,-1170.7194953834023,45414.741435522374,-49063.46754762849,29965.565443526051,-29965.565443526051,49063.46754762849,90518.766502445287,0.0
360012.02908761695,3957225.878295721,-7500.0,-3307.2846008012993,-14575.315157088357,-84170.796860496645,2155.4162979099488,13365.225229749311,-1238.9875894518179,44841.287387577868,-56995.725306611384,28079.120618668901,-28079.120618668901,56995.725306611384,88868.328771267115,0.0
365012.02908761695,3957225.878295721,-7500.0,-8659.8908585148838,-23276.857416481489,-74218.510633166792,3669.2834942221411,12269.89928465507,-1228.3704376586661,42209.769884053821,-58367.769084523548,22201.452568428245,-22201.452568428245,58367.769084523548,83413.660914461376,0.0
370012.02908761695,3957225.878295721,-7500.0,-14176.022463689606,-27784.793903756912,-60901.601344183611,4644.7297404453593,10564.833924673025,-1144.5068992532736,38151.250276687257,-54353.897820926068,14418.094186220736,-14418.094186220736,54353.897820926068,75349.566923358725,0.0
375012.02908761695,3957225.878295721,-7500.0,-18613.563099792515,-28533.713664590843,-46883.791098376008,5060.4083050514691,8597.7960880241553,-1008.4419168471265,33337.679150812946,-46910.734787063571,6597.101989235347,-6597.101989235347,46910.734787063571,65939.023412365219,0.0
380012.02908761695,3957225.878295721,-7500.0,-21369.468959842485,-26558.56150440644,-33991.993106879519,5008.6521276346048,6654.0625985668048,-846.64932252509539,28340.336828099931,-37974.157026437635,-46.234131473742309,46.234131473742309,37974.157026437635,56247.000198229718,0.0
385012.02908761695,3957225.878295721,-7500.0,-22389.654854211291,-22994.247470476745,-23170.245790119239,4631.8838077551354,4916.6597446879987,-682.31561221356083,23589.526933719622,-29021.07210477359,-4977.6519260481909,4977.6519260481909,29021.07210477359,47030.33461068185,0.0
390012.02908761695,3957225.878295721,-7500.0,-21955.440140274251,-18786.691339477835,-14685.339360872647,4071.7539667686988,3471.3293613952628,-531.20964658938067,19521.000946152926,-20961.601834246274,-8164.5316845287443,8164.5316845287443,20961.601834246274,38740.19799816404,0.0
395012.02908761695,3957225.878295721,-7500.0,-20481.820125148544,-14593.421835140858,-8389.2458901486134,3441.7963219155881,2332.933223268798,-401.50947925796129,16081.042170457456,-14221.282344207531,-9856.2781388109288,9856.2781388109288,14221.282344207531,31581.57818617695,0.0
400012.02908761695,3957225.878295721,-7500.0,-18381.22613068753,-10799.323015346834,-3937.1444597008281,2819.7443298063667,1474.7119098785456,-295.61458260928771,13200.456125537334,-8888.8893456246988,-10409.265684699447,10409.265684699447,8888.8893456246988,25587.968320934935,0.0
405012.02908761695,3957225.878295721,-7500.0,-15994.293557405654,-7580.7635314286654,-932.2320107983245,2251.1837506966722,851.33710043496001,-212.34494300935447,10837.543075692311,-4857.4931552207991,-10177.636420022143,10177.636420022143,4857.4931552207991,20688.370049814235,0.0
410012.02908761695,3957225.878295721,-7500.0,-13568.677796626596,-4976.6143499085383,994.77642461903838,1757.5405223970399,413.71456338546932,-148.74646157644895,8929.8744601617691,-1930.1509059331315,-9460.0000486061926,9460.0000486061926,1930.1509059331315,16757.941302204639,0.0
415012.02908761695,3957225.878295721,-7500.0,-11264.937112098065,-2947.0729771514016,2151.7907814483797,1344.2745192500092,116.89338120669913,-101.29343185841961,7407.118870483042,112.73102177986038,-8483.1271847648186,8483.1271847648186,-112.73102177986038,13651.882271889455,0.0
420012.02908761695,3957225.878295721,-7500.0,-9173.9009574401407,-1415.2663024977846,2778.3760867817391,1007.5108662890262,-76.680514207049768,-66.574171865389815,6200.2313386999795,1476.5678081225992,-7405.7584220968529,7405.7584220968529,-1476.5678081225992,11225.81155682893,0.0
425012.02908761695,3957225.878295721,-7500.0,-7336.1432552118195,-293.31119661204616,3052.1051259882865,738.72017874657797,-196.60558645252971,-41.610861810240422,5246.5378876009681,2336.3868639211041,-6330.863749834888,6330.863749834888,-2336.3868639211041,9346.6395614699468,0.0
430012.02908761695,3957225.878295721,-7500.0,-5759.0907854620027,503.19674670363116,3099.8499006105344,527.70316549188692,-265.28319838501676,-23.96083237420422,4492.0410888921924,2832.7909372951131,-5319.6504958525802,5319.6504958525802,-2832.7909372951131,7897.5646811633924,0.0
260012.02908761695,3962225.878295721,-7500.0,6536.7482340135457,-5676.7111084388425,5279.8328281459962,912.08533241723978,-824.77145447629493,92.856734951738545,5893.2121440119263,-2869.7824532468762,3914.8571354015126,-3914.8571354015126,2869.7824532468762,11671.14978626726,0.0
265012.02908761695,3962225.878295721,-7500.0,6496.0937753297412,-6271.5380569123245,6226.6620670656102,975.99611413382581,-966.00785012614108,106.24535464950912,6413.0305706453255,-2862.7750175126052,3660.7146736539921,-3660.7146736539921,2862.7750175126052,12760.678510603702,0.0
270012.02908761695,3962225.878295721,-7500.0,6276.4391407770718,-6858.0149968534961,7339.8085500431889,1028.9256253114254,-1127.0616738219614,120.74475898293815,6965.43134865099,-2735.7334592294796,3218.1864882565283,-3218.1864882565283,2735.7334592294796,13915.929070287428,0.0
275012.02908761695,3962225.878295721,-7500.0,5817.3860615517851,-7391.4615029219249,8632.3414298622611,1062.1908313239755,-1306.999823938309,135.88918865159459,7620.5143150129634,-2435.6547697490741,2531.5999465525192,-2531.5999465525192,2435.6547697490741,15119.760041682708,0.0
280012.02908761695,3962225.878295721,-7500.0,5048.7755246315473,-7803.7000363439656,10104.746740284187,1063.8425306909837,-1501.9721146689112,150.82775466079843,8310.3152791974298,-1895.0204176165398,1538.6731004623662,-1538.6731004623662,1895.0204176165398,16345.423411259979,0.0
285012.02908761695,3962225.878295721,-7500.0,3895.0620505834072,-7995.57649583483,11733.200045528942,1018.1257050178767,-1703.3743067311759,164.16256042039998,9022.3135745622276,-1032.3102806953607,176.48962951541199,-176.48962951541199,1032.3102806953607,17555.661358236172,0.0
290012.02908761695,3962225.878295721,-7500.0,2285.236616681078,-7829.9330498477348,13451.332311892142,905.36828244443655,-1895.3179436258613,173.76851946943054,9743.2345317044201,242.87549165063001,-1606.203804143159,1606.203804143159,-242.87549165063001,18704.977028298024,0.0
295012.02908761695,3962225.878295721,-7500.0,171.24225760852437,-7128.2645353217704,15123.741602453372,702.8336036885463,-2051.4477213478604,176.63729343780909,10462.028890716365,2016.0171787041772,-3827.1300416358481,3827.1300416358481,-2016.0171787041772,19749.437987815349,0.0
300012.02908761695,3962225.878295721,-7500.0,-2442.2961043345472,-5677.2568607500625,16511.022538794776,387.33692965846416,-2131.5074074138906,168.82821900904293,11179.994879739228,4339.4428109342261,-6435.9348979512306,6435.9348979512306,-4339.4428109342261,20671.975814285532,0.0
305012.02908761695,3962225.878295721,-7500.0,-5456.4850565358674,-3255.3097381526968,17230.541696297307,-59.398385954885377,-2078.733038344019,145.65623452159065,11929.89130645158,7183.2853670604545,-9266.412806064187,9266.412806064187,-7183.2853670604545,21534.956296639481,0.0
310012.02908761695,3962225.878295721,-7500.0,-8630.8640515763745,307.72141177248488,16726.597335016919,-641.89111499191631,-1820.1694555210754,102.25994639609404,12804.030553038845,10362.525363125826,-11982.528679161545,11982.528679161545,-10362.525363125826,22567.180788179008,0.0
315012.02908761695,3962225.878295721,-7500.0,-11549.72792156214,5026.759608185549,14279.096188505053,-1338.9059336261141,-1273.075520461892,34.619642764500917,13978.207437067475,13449.122215559264,-14040.498515270561,14040.498515270561,-13449.122215559264,24252.016315065099,0.0
320012.02908761695,3962225.878295721,-7500.0,-13639.467815407232,10619.798304332211,9097.0162695616436,-2091.0695080719588,-360.81825932213422,-59.139816793729494,15694.248748702174,15704.122284696523,-14710.787628333632,14710.787628333632,-15704.122284696523,27284.661227005799,0.0
325012.02908761695,3962225.878295721,-7500.0,-14284.870520283332,16374.42343285208,544.73527924454322,-2794.2401452543795,960.45219553737047,-177.6506041231697,18162.258870236044,16100.976264263103,-13218.418188445696,13218.418188445696,-16100.976264263103,32253.407868800288,0.0
330012.02908761695,3962225.878295721,-7500.0,-13067.713904661749,21124.737085155433,-11496.320178593052,-3307.1391198799906,2668.7076954809822,-316.02583789452962,21413.66464525132,13531.084278154951,-9035.3294854611231,9035.3294854611231,-13531.084278154951,39217.062162875751,0.0
335012.02908761695,3962225.878295721,-7500.0,-10065.133923476626,23465.176022147563,-26244.433794852313,-3479.5936329816236,4648.8965809523152,-466.54899193976416,25211.173583743061,7229.6835596227638,-2260.499841116577,2260.499841116577,-7229.6835596227638,47562.630835860662,0.0
340012.02908761695,3962225.878295721,-7500.0,-6026.8674511602476,22239.127298257277,-41864.812180046531,-3198.7090605951548,6689.3798824475089,-619.55253344292453,29079.31830605532,-2704.5011785618235,6123.137630485794,-6123.137630485794,2704.5011785618235,56178.816005014531,0.0
345012.02908761695,3962225.878295721,-7500.0,-2224.2326186674804,17119.542407999681,-55801.962996872855,-2437.257690875625,8515.3188220168322,-763.4801156911069,32432.035340362283,-15014.357553086857,14380.192283705974,-14380.192283705974,15014.357553086857,63761.741114584169,0.0
350012.02908761695,3962225.878295721,-7500.0,49.901754708939201,8912.4494043984105,-65585.684379984523,-1280.153246372995,9856.3355939132307,-884.56102744632835,34740.625074187155,-27523.744144885957,20611.274397036392,-20611.274397036392,27523.744144885957,69153.619353495727,0.0
355012.02908761695,3962225.878295721,-7500.0,54.109026733850648,-682.12536966981975,-69712.224510724496,89.900190178534515,10524.761849319038,-968.10954666910868,35950.757295035575,-37886.932293037098,23504.362487972532,-23504.362487972532,37886.932293037098,71629.615043489801,0.0
360012.02908761695,3962225.878295721,-7500.0,-2127.1639684334864,-9733.9083094931775,-68088.125322388893,1446.3469309250727,10469.169510410347,-1002.5231748011715,35841.266648923076,-44425.384482389716,22787.611537548168,-22787.611537548168,44425.384482389716,71032.58991166194,0.0
365012.02908761695,3962225.878295721,-7500.0,-5742.506787192664,-16757.011412417767,-61840.217004858016,2587.6570908411127,9777.9144108954169,-983.93669040533541,34270.21996349455,-46578.096969732731,19154.951436717842,-19154.951436717842,46578.096969732731,67718.867386708749,0.0
370012.02908761695,3962225.878295721,-7500.0,-9785.465394051289,-21050.850224602298,-52720.1637276939,3388.4066644862341,8635.1872093372695,-918.08425944917042,31597.628442772922,-44818.757615660797,13818.988781077649,-13818.988781077649,44818.757615660797,62372.231500399248,0.0
375012.02908761695,3962225.878295721,-7500.0,-13380.804646211591,-22656.045325493575,-42486.728111072283,3813.916285812219,7256.3852621190572,-818.08464455837611,28243.290852664122,-40237.400403749445,8015.0033528727017,-8015.0033528727017,40237.400403749445,55786.366653114834,0.0
380012.02908761695,3962225.878295721,-7500.0,-15986.550136550797,-22089.888291943957,-32512.755846598204,3902.6318994270496,5832.9999638732888,-699.87802569018788,24596.551484599218,-34079.047004989246,2680.2422116719699,-2680.2422116719699,34079.047004989246,48693.749850843233,0.0
385012.02908761695,3962225.878295721,-7500.0,-17411.435892506721,-20052.534174059332,-23655.88986963352,3733.8268724109371,4502.9071572961857,-577.96986863714858,20965.881507644124,-27422.616341051224,-1648.2263723723281,1648.2263723723281,27422.616341051224,41670.611659266047,0.0
390012.02908761695,3962225.878295721,-7500.0,-17726.225088257161,-17213.50168153493,-16310.31271291914,3397.2436342427009,3345.2656182239471,-463.02371714112439,17585.261904505645,-21038.756200821808,-4784.90519015265,4784.90519015265,21038.756200821808,35109.683400683905,0.0
395012.02908761695,3962225.878295721,-7500.0,-17147.553100214234,-14102.201388310539,-10536.654946043111,2972.988786335533,2390.6102943482861,-361.35359390929864,14740.638463009955,-15381.489097496589,-6784.6654730894652,6784.6654730894652,15381.489097496589,29236.721851761711,0.0
400012.02908761695,3962225.878295721,-7500.0,-15940.670418381947,-11079.48284441028,-6197.647127237733,2522.3772644051423,1636.3067363083157,-275.60527735004399,12297.314334743778,-10649.326040813103,-7830.6965189061557,7830.6965189061557,10649.326040813103,24147.052716527534,0.0
405012.02908761695,3962225.878295721,-7500.0,-14356.556256301901,-8355.7068028290687,-3065.129579586287,2086.6486723454254,1061.0343853062273,-205.87004405901726,10229.993328008646,-6866.1107232254062,-8149.8524327325313,8149.8524327325313,6866.1107232254062,19845.654419862196,0.0
410012.02908761695,3962225.878295721,-7500.0,-12600.737464515802,-6027.2484152798061,-890.49828166071404,1689.8859171526713,635.61934449578962,-150.74751682131387,8511.5840462416763,-3953.8203571018521,-7960.5219719812203,7960.5219719812203,3953.8203571018521,16281.951381098877,0.0
415012.02908761695,3962225.878295721,-7500.0,-10824.400812141153,-4114.3135832564831,556.1296796735337,1343.3782834469218,329.91739849627322,-108.15464159761584,7102.5349381318993,-1786.8282538108106,-7447.0663633275672,7447.0663633275672,1786.8282538108106,13376.139235671022,0.0
420012.02908761695,3962225.878295721,-7500.0,-9128.2402315175386,-2592.1837445526298,1468.7105523329928,1049.8505996338574,116.52703650935838,-75.85163984543891,5958.6297705281395,-227.16297244350017,-6751.9566352481397,6751.9566352481397,227.16297244350017,11037.161453004228,0.0
425012.02908761695,3962225.878295721,-7500.0,-7571.8769503503527,-1413.7632427686619,2001.4012341826237,806.87525327745209,-27.656462312471014,-51.738655170059722,5036.1425128987721,855.4894366131507,-5977.8192665262959,5977.8192665262959,-855.4894366131507,9173.8419690858245,0.0
260012.02908761695,3967225.878295721,-7500.0,5096.3315174881527,-5104.4727772947181,5291.1189527013703,739.30919749557916,-766.53655979170401,78.52138082971328,5220.4235539071651,-2184.6543926394738,2764.1946152219693,-2764.1946152219693,2184.6543926394738,10380.903777745016,0.0
265012.02908761695,3967225.878295721,-7500.0,4885.6534095945635,-5517.8130481019853,6148.617333250294,772.17154393631529,-883.45082408311453,88.46049476263228,5621.4227689936179,-2048.6526231763146,2386.9151171914555,-2386.9151171914555,2048.6526231763146,11231.019747901219,0.0
270012.02908761695,3967225.878295721,-7500.0,4500.942280529679,-5882.3468531315402,7126.3747744777365,790.48914086389789,-1012.3326047782583,98.788684784606531,6097.2045261184448,-1783.608313373077,1834.0391896397375,-1834.0391896397375,1783.608313373077,12107.208340886486,0.0
275012.02908761695,3967225.878295721,-7500.0,3897.535665720236,-6151.0434583674769,8220.5541044625697,786.58086718051891,-1150.3931698396229,108.98718750401719,6597.3182972977011,-1345.6810063807895,1066.7453109227838,-1066.7453109227838,1345.6810063807895,12990.454246043861,0.0
280012.02908761695,3967225.878295721,-7500.0,3028.6391655885186,-6258.2876246350797,9411.0639014218468,750.57216555522507,-1291.9662661501272,118.22514019849137,7109.6681652927364,-683.66801481641551,47.195440754895401,-47.195440754895401,683.66801481641551,13855.592805024251,0.0
285012.02908761695,3967225.878295721,-7500.0,1851.2220645819732,-6116.4676514204803,10651.151626535311,670.35715381586749,-1427.1278626520541,125.25715142180935,7625.5378174903399,257.53517654704319,-1254.1847065354989,1254.1847065354989,-257.53517654704319,14673.03078377885,0.0
290012.02908761695,3967225.878295721,-7500.0,336.2060397161078,-5614.7210627250079,11852.966884413025,532.04140165625597,-1539.9895178141674,128.32380939103982,8137.8743402374075,1528.9141302804323,-2846.5899899548936,2846.5899899548936,-1528.9141302804323,15414.67840880664,0.0
295012.02908761695,3967225.878295721,-7500.0,-1515.8634152569628,-4622.7578267914441,12869.182910519212,321.23258025249066,-1606.8415063262446,125.0873966386623,8646.8921967827155,3162.1656294570244,-4700.5876673431421,4700.5876673431421,-3162.1656294570244,16068.048533690655,0.0
300012.02908761695,3967225.878295721,-7500.0,-3653.4910752671644,-3004.2566944408477,13472.709919745615,25.63134436011558,-1594.6034798745331,112.65630907308922,9170.338420001699,5144.6306060891384,-6723.593360800498,6723.593360800498,-5144.6306060891384,16664.265843141719,0.0
305012.02908761695,3967225.878295721,-7500.0,-5949.741806570466,-645.58541418863911,13340.341361312603,-360.67553784201289,-1460.4675361599639,87.771244699358434,9758.6970196618095,7382.9093809275,-8731.9608878072977,8731.9608878072977,-7382.9093809275,17324.382874038783,0.0
310012.02908761695,3967225.878295721,-7500.0,-8182.1284547289888,2495.0901589336713,12052.203841866058,-831.17667575577207,-1154.1144839514775,47.218308013574827,10510.466353900367,9658.2194021733831,-10428.406536742261,10428.406536742261,-9658.2194021733831,18313.381557703455,0.0
315012.02908761695,3967225.878295721,-7500.0,-10031.519799648477,6318.7580805350344,9125.9229807470547,-1359.9785978648488,-624.18344423840892,-11.512524807164738,11571.951044938491,11585.944067847073,-11401.907336997499,11401.907336997499,-11585.944067847073,20048.640726049169,0.0
320012.02908761695,3967225.878295721,-7500.0,-11120.563930622802,10510.601893160851,4107.64082183132,-1896.1561195329164,169.74362046080796,-89.419284320796379,13099.47664225024,12605.835820868189,-11174.687416041903,11174.687416041903,-12605.835820868189,22975.873478738878,0.0
325012.02908761695,3967225.878295721,-7500.0,-11108.636319531992,14494.633248266031,-3268.381263787674,-2363.1252986325626,1240.1531152528753,-185.25586731321647,15183.415187326205,12041.513647283718,-9318.1952025308819,9318.1952025308819,-12041.513647283718,27327.604227426436,0.0
330012.02908761695,3967225.878295721,-7500.0,-9836.893611614958,17472.20006003325,-12874.663389283483,-2667.1565339395183,2553.4076365051947,-295.14979398015436,17776.379941954405,9262.0843300143551,-5634.0578852457857,5634.0578852457857,-9262.0843300143551,32954.403495079816,0.0
335012.02908761695,3967225.878295721,-7500.0,-7472.2346474261803,18590.140196802506,-24019.600904779185,-2716.9694578327385,4017.8462808603222,-412.70346161359464,20672.731405502345,3935.2958313431686,-342.92986447853809,342.92986447853809,-3935.2958313431686,39342.39356826005,0.0
340012.02908761695,3967225.878295721,-7500.0,-4558.2646874511665,17224.456566582467,-35433.552651512335,-2451.1208395057288,5487.0825391694107,-529.46931942965375,23545.940244719874,-3717.5836660698124,5829.367885730323,-5829.367885730323,3717.5836660698124,45741.652054160033,0.0
345012.02908761695,3967225.878295721,-7500.0,-1895.1434583157361,13269.038350234227,-45503.217983675757,-1863.6520498470545,6783.699259194841,-635.62422825125213,26023.66598383239,-12817.985597321636,11773.315361671263,-11773.315361671263,12817.985597321636,51330.821354984066,0.0
350012.02908761695,3967225.878295721,-7500.0,-264.64418253199506,7262.6235172000861,-52714.401252611373,-1015.5882991264176,7739.5581435259282,-720.9477424167253,27776.98125681057,-21995.341957758152,16325.368368930702,-16325.368368930702,21995.341957758152,55392.110082499326,0.0
355012.02908761695,3967225.878295721,-7500.0,-134.2763197468351,251.24048804241377,-56110.834137495804,-24.113295902395521,8239.0087541271369,-776.40529958791194,28868.599278251331,-29788.174136863701,18659.506033599551,-18659.506033599551,29788.174136863701,57460.230509782865,0.0
360012.02908761695,3967225.878295721,-7500.0,-1504.4342418551846,-6555.8859226162222,-55541.754666727902,968.23574391194336,8247.3296474302224,-796.22628034467914,28980.089449628977,-35088.692112984456,18535.629631886979,-18535.629631886979,35088.692112984456,57398.692657231135,0.0
365012.02908761695,3967225.878295721,-7500.0,-3966.6931794611237,-12154.884833857308,-51599.376396458079,1831.5259254781156,7812.9146233952242,-779.61756142790034,28044.397260210761,-37414.604232674537,16293.561808750506,-16293.561808750506,37414.604232674537,55382.767781194576,0.0
370012.02908761695,3967225.878295721,-7500.0,-6907.3835697716868,-15971.996240990775,-45328.096984610471,2477.7348423868661,7044.7110089267817,-731.068043823523,26269.874885048452,-36917.742901346457,12641.969767483257,-12641.969767483257,36917.742901346457,51809.380451568875,0.0
375012.02908761695,3967225.878295721,-7500.0,-9729.7290404752148,-17891.718525142165,-37877.725588707908,2871.9166671481912,6077.3750897799964,-658.98346692221844,23919.984462973738,-34193.379820582166,8384.2510704484139,-8384.2510704484139,34193.379820582166,47178.378579146112,0.0
380012.02908761695,3967225.878295721,-7500.0,-12000.892751600833,-18143.415087687034,-30240.222816442314,3025.8987059246128,5038.9003280124462,-573.36084425835998,21257.683943583561,-30023.830080118409,4205.1231639951438,-4205.1231639951438,30023.830080118409,41986.693661288606,0.0
385012.02908761695,3967225.878295721,-7500.0,-13499.771175179303,-17138.361804763932,-23121.213070669375,2982.0602217572878,4029.9774921783837,-483.56448344416106,18508.015922258845,-25165.031742713847,567.12106173277789,-567.12106173277789,25165.031742713847,36657.864074280304,0.0
390012.02908761695,3967225.878295721,-7500.0,-14191.121849410547,-15327.383186687175,-16926.423653632144,2795.6778064296645,3116.6807454728055,-396.90862580973891,15840.81586865825,-20221.728159216837,-2297.3522517235924,2297.3522517235924,20221.728159216837,31509.80952958918,0.0
395012.02908761695,3967225.878295721,-7500.0,-14165.924512911643,-13109.09363138452,-11815.211208487321,2521.2709206333548,2333.0060507895005,-318.18050913413549,13390.351629379544,-15605.951149511466,-4338.8922842272277,4338.8922842272277,15605.951149511466,26752.158255770417,0.0
400012.02908761695,3967225.878295721,-7500.0,-13579.310735325285,-10788.30452340062,-7777.044526944991,2204.663176887856,1688.3584121143967,-249.8470228656013,11347.219229154494,-11550.72874967321,-5626.6232217329716,5626.6232217329716,11550.72874967321,22501.013847442115,0.0
405012.02908761695,3967225.878295721,-7500.0,-12602.334831820423,-8570.2255810394217,-4703.1506498852004,1880.0002337702604,1176.0677248193888,-192.60024346212671,9572.2287909191309,-8149.8086615894654,-6289.8488229545464,6289.8488229545464,8149.8086615894654,18800.817859284194,0.0
410012.02908761695,3967225.878295721,-7500.0,-11391.773631756434,-6574.284685230371,-2441.2054591821848,1570.0325016124857,780.70935033227022,-145.96462882127133,8056.8310200489077,-5402.6198608017467,-6475.4834493849385,6475.4834493849385,5402.6198608017467,15646.459516794463,0.0
415012.02908761695,3967225.878295721,-7500.0,-10075.494715827152,-4855.1832244962943,-831.20318270779717,1288.0380213127,483.42215981512771,-108.8164815692779,6782.5350980981966,-3253.2731158986703,-6322.0339600926491,6322.0339600926491,3253.2731158986703,13002.051798750461,0.0
420012.02908761695,3967225.878295721,-7500.0,-8748.6626465670415,-3423.7805556592953,274.31023537083024,1040.2415864079612,265.28042664502044,-79.763115754232643,5723.5090233949759,-1619.629990218566,-5946.7703011948124,5946.7703011948124,1619.629990218566,10815.214375556181,0.0
425012.02908761695,3967225.878295721,-7500.0,-7476.1961300220355,-2264.3319172706665,1001.0978055853003,828.07728347099192,109.12972061419359,-57.385464191818521,4851.1207972140619,-412.51796684213286,-5441.7553204190826,5441.7553204190826,412.51796684213286,9026.9754870575289,0.0
265012.02908761695,3972225.878295721,-7500.0,3546.9111327840219,-4744.6447957018945,5934.6268449881009,598.28924717989923,-793.85631355430792,72.831504265014146,4944.7048271492622,-1327.4730608517616,1355.358769510618,-1355.358769510618,1327.4730608517616,9826.7474997471363,0.0
270012.02908761695,3972225.878295721,-7500.0,3069.5538638083399,-4922.6710840052656,6761.2803666148502,592.10076663368477,-893.33008061494604,79.864655617989456,5314.4009737345468,-972.62070519180361,756.08252622086457,-756.08252622086457,972.62070519180361,10476.074583276337,0.0
275012.02908761695,3972225.878295721,-7500.0,2404.906985675083,-4981.01057409849,7648.6423136352632,563.70194988600304,-994.66803440902152,86.285972377558906,5690.8588644736683,-458.66964943875962,-19.603051379700844,19.603051379700844,458.66964943875962,11107.824750659594,0.0
280012.02908761695,3972225.878295721,-7500.0,1525.9594400264589,-4862.1225824340972,8563.4813810177238,505.44328061734603,-1091.4900819927577,91.342711051184409,6068.1391189714113,249.05358565672373,-989.35898359884436,989.35898359884436,-249.05358565672373,11702.229081800702,0.0
285012.02908761695,3972225.878295721,-7500.0,414.40776438610175,-4494.8570952093478,9447.2787078400834,408.61407868182494,-1173.9052297835208,93.98083394840387,6441.5840427706526,1182.0834287718492,-2158.1113732377889,2158.1113732377889,-1182.0834287718492,12240.755033444124,0.0
290012.02908761695,3972225.878295721,-7500.0,-930.70373835405951,-3796.7390090919639,10206.111733876405,264.11452617027311,-1227.4812334842725,92.797336533750922,6810.9808879902757,2360.3121157242085,-3507.9699586917568,3507.9699586917568,-2360.3121157242085,12714.273553770408,0.0
295012.02908761695,3972225.878295721,-7500.0,-2481.4932072396991,-2681.0939471926931,10699.627489287792,63.771300743150768,-1232.336585688842,86.028149083594528,7186.3099853894428,3778.5112789455466,-4984.9980799930545,4984.9980799930545,-3778.5112789455466,13138.654985259693,0.0
300012.02908761695,3972225.878295721,-7500.0,-4167.984371194937,-1071.6756897899174,10731.774835993812,-197.49502832087282,-1162.7473123679879,71.605220190729156,7596.267004787951,5387.1940101353857,-6484.1083632346008,6484.1083632346008,-5387.1940101353857,13580.371991767866,0.0
305012.02908761695,3972225.878295721,-7500.0,-5866.2441486225416,1072.7389813644024,10048.49644284466,-518.56925739216967,-987.89021882768395,47.321565286098668,8097.6762522977606,7068.9289928149556,-7835.7608258264063,7835.7608258264063,-7068.9289928149556,14188.840455896272,0.0
310012.02908761695,3972225.878295721,-7500.0,-7394.0411731060831,3723.2797377248357,8350.6273762067722,-888.34787977085318,-674.52806688131898,11.135141558815745,8779.1121848955536,8614.9025638454514,-8801.6379218552793,8801.6379218552793,-8614.9025638454514,15213.811605805548,0.0
315012.02908761695,3972225.878295721,-7500.0,-8523.028832840595,6739.8746978895078,5332.2852887218178,-1282.0624148409615,-192.40321924633648,-38.390606839355883,9747.2739481660774,9712.1924013999105,-9090.0304780028655,9090.0304780028655,-9712.1924013999105,16962.35034825516,0.0
320012.02908761695,3972225.878295721,-7500.0,-9016.7334514175036,9836.9385148090787,752.89847530700649,-1659.2520434474593,477.41913367659703,-101.56869626604124,11089.950344024928,9958.2285709021162,-8402.458027259021,8402.458027259021,-9958.2285709021162,19674.023724756742,0.0
325012.02908761695,3972225.878295721,-7500.0,-8697.3988047989351,12578.17934169904,-5459.5788020728014,-1965.4495755113312,1332.2339035573366,-177.11504450568242,12829.59225904545,8920.4693148889965,-6516.4060835685113,6516.4060835685113,-8920.4693148889965,23388.819397669911,0.0
330012.02908761695,3972225.878295721,-7500.0,-7529.2950099911004,14426.290143005066,-13097.680876098872,-2139.3857597762126,2338.1448202403171,-261.86991596011148,14894.754571444926,6248.9766942929127,-3391.2628785413963,3391.2628785413963,-6248.9766942929127,27906.548256403283,0.0
335012.02908761695,3972225.878295721,-7500.0,-5685.3335042175213,14860.293093176997,-21603.832403195076,-2125.9018178359111,3425.5633968969255,-350.83117848333535,17123.064997095506,1822.5747996403575,740.97167828908721,-740.97167828908721,-1822.5747996403575,32833.208089979438,0.0
340012.02908761695,3972225.878295721,-7500.0,-3552.2724454995105,13539.209748240015,-30097.910917182828,-1891.9075632525994,4494.0468424026876,-437.52911710326367,19290.054770129831,-4126.3107002238194,5355.604720800955,-5355.604720800955,4126.3107002238194,37660.500710533801,0.0
345012.02908761695,3972225.878295721,-7500.0,-1646.1461641434357,10449.590626315639,-37533.576662349973,-1439.8983188141901,5428.1835912586184,-514.72018366277621,21153.22112392413,-10981.231787071147,9726.5175093447451,-9726.5175093447451,10981.231787071147,41856.768261905068,0.0
350012.02908761695,3972225.878295721,-7500.0,-456.3073247662536,5959.2066723945636,-42949.968317377585,-812.80258839712735,6121.4819191921188,-575.36249764567049,22504.436420680468,-17851.338327591584,13116.219761012631,-13116.219761012631,17851.338327591584,44962.232015664566,0.0
355012.02908761695,3972225.878295721,-7500.0,-285.26930462112517,735.23969445966054,-45722.262022386254,-86.649091331928616,6500.6441363999993,-613.78647806236529,23478.524781811389,-23795.928563286878,14989.703578655142,-14989.703578655142,23795.928563286878,46670.341517226152,0.0
360012.02908761695,3972225.878295721,-7500.0,-1161.1098598858116,-4443.1506371119285,-45704.075523281434,647.15811751983949,6541.3205558296067,-626.82703733281369,23688.33418740936,-28071.252526926732,15155.466446674971,-15155.466446674971,28071.252526926732,46872.247835219248,0.0
365012.02908761695,3972225.878295721,-7500.0,-2857.5929106184949,-8892.7290452176658,-43210.711526839201,1303.3190612019375,6269.7913930804934,-614.51502990361746,23138.420525927882,-30295.412345829656,13777.650884386498,-13777.650884386498,30295.412345829656,45652.923585447723,0.0
370012.02908761695,3972225.878295721,-7500.0,-4997.2383459749444,-12170.05713695811,-38873.325672976061,1819.9487482061486,5751.2558917472088,-580.00326622238754,21951.508711758561,-30478.984042436467,11274.312983365186,-11274.312983365186,30478.984042436467,43246.251226295128,0.0
375012.02908761695,3972225.878295721,-7500.0,-7178.5141036371979,-14113.955137855557,-33443.423524398153,2166.6254215623744,5070.6594755497026,-528.71793708789164,20294.457154380831,-28939.808343860295,8165.580218992869,-8165.580218992869,28939.808343860295,39969.367001762708,0.0
380012.02908761695,3972225.878295721,-7500.0,-9074.835791367419,-14802.060436216729,-27623.694259720593,2342.8038419042441,4313.5099874516782,-467.07887058072856,18344.49210621744,-26162.620901522681,4937.8122818650772,-4937.8122818650772,26162.620901522681,36158.069206923989,0.0
385012.02908761695,3972225.878295721,-7500.0,-10482.493876952478,-14464.014697832694,-21965.048748836991,2369.8278918667761,3552.038318394626,-401.26180271722603,16263.419354929572,-22663.955659661427,1960.4862484948262,-1960.4862484948262,22663.955659661427,32117.922596015407,0.0
390012.02908761695,3972225.878295721,-7500.0,-11322.237925039324,-13392.011152338868,-16831.92841908129,2280.8519201089803,2838.494733790496,-336.33825230450776,14182.596312694612,-18897.39809268016,-540.58783871168635,540.58783871168635,18897.39809268016,28096.11164509541,0.0
395012.02908761695,3972225.878295721,-7500.0,-11612.648344561781,-11872.717150537004,-12416.412190419824,2111.982769508345,2204.541485284436,-275.89808664248187,12197.694249256416,-15206.795641918812,-2469.7355343520258,2469.7355343520258,15206.795641918812,24271.911203369767,0.0
400012.02908761695,3972225.878295721,-7500.0,-11433.864029397153,-10147.460559849669,-8776.9016952349812,1896.215418180283,1664.4248423742704,-222.06608064974017,10389.859090890281,-11817.889290384388,-3828.1763692852887,3828.1763692852887,11817.889290384388,20760.183852411345,0.0
405012.02908761695,3972225.878295721,-7500.0,-10894.23656578521,-8396.7667505310874,-5882.4018697653382,1660.2901578088495,1219.6720892605883,-175.75383487108971,8886.2569982922687,-8853.2406037254586,-4677.2323621886862,4677.2323621886862,8853.2406037254586,17621.993680126994,0.0
410012.02908761695,3972225.878295721,-7500.0,-10105.685485667509,-6741.2487079481889,-3651.3621046527223,1423.8160508152143,863.7464166067607,-136.99775556173805,7570.8239780409522,-6357.0002354943126,-5107.1575842864631,5107.1575842864631,6357.0002354943126,14877.671980391906,0.0
415012.02908761695,3972225.878295721,-7500.0,-9168.642689270413,-5251.0828503977218,-1980.6933115732836,1199.799989740844,585.85042970490292,-105.28123979385023,6438.6798308769239,-4320.4568910767139,-5214.924301457173,5214.924301457173,4320.4568910767139,12519.344601811674,0.0
420012.02908761695,3972225.878295721,-7500.0,-8164.9384781347453,-3958.4040990163053,-764.82838477129962,995.84816894434232,373.64906961221902,-79.795615779039451,5476.8749087794058,-2703.6978546104338,-5090.6937157787315,5090.6937157787315,2703.6978546104338,10521.458446354301,0.0
270012.02908761695,3977225.878295721,-7500.0,1943.921237714801,-4023.2432913062971,6290.701723297163,430.56284907091839,-776.48836299368031,63.854671134011589,4618.8292994649146,-310.34393495700181,-52.54769445594107,52.54769445594107,310.34393495700181,9029.1640214109066,0.0
275012.02908761695,3977225.878295721,-7500.0,1275.7498112702467,-3924.3763447486508,6978.7082212436508,387.47005432039964,-847.01337039062605,67.483013656277578,4900.1166813862965,230.80131448662814,-788.49747032618859,788.49747032618859,-230.80131448662814,9469.9113902170175,0.0
280012.02908761695,3977225.878295721,-7500.0,443.29411406242298,-3649.946458172818,7641.8229125461576,318.16601732566124,-907.93378291421016,69.588435326617443,5177.7402094296831,929.59449863536997,-1664.0105318732401,1664.0105318732401,-929.59449863536997,9868.7208611984661,0.0
285012.02908761695,3977225.878295721,-7500.0,-554.83171912605826,-3146.1088426090196,8218.307781091713,216.77871519430187,-950.19767535746223,69.313363486311843,5451.3392255674662,1798.9038193111583,-2667.829439184663,2667.829439184663,-1798.9038193111583,10218.876178219085,0.0
290012.02908761695,3977225.878295721,-7500.0,-1703.0255493325094,-2356.1317964242735,8618.3536036901914,77.858769513445068,-961.50092638999979,65.573991132883449,5726.7027433642252,2836.7679474459483,-3767.2885486015603,3767.2885486015603,-2836.7679474459483,10528.539058799295,0.0
295012.02908761695,3977225.878295721,-7500.0,-2961.2325832254401,-1228.2250996926109,8718.6597777017432,-102.48272730993304,-925.98612701819991,57.074579073307426,6020.7062005419903,4015.858575805134,-4899.8054805196243,4899.8054805196243,-4015.858575805134,10835.406344848821,0.0
300012.02908761695,3977225.878295721,-7500.0,-4257.8844972333682,271.51963836458776,8360.2717192436539,-324.93524437096261,-824.46627441685939,42.37370751156157,6367.0921713537537,5270.4015357904264,-5964.9635667216317,5964.9635667216317,-5270.4015357904264,11226.126158490461,0.0
305012.02908761695,3977225.878295721,-7500.0,-5485.9642303811534,2140.5773337205169,7353.479364114577,-584.91432002942054,-635.56310378201374,20.021304288943348,6820.13179293352,6482.5295357237183,-6820.3767213157835,6820.3767213157835,-6482.5295357237183,11851.489672046948,0.0
310012.02908761695,3977225.878295721,-7500.0,-6506.3040217973539,4317.2484925824392,5494.7021216595685,-870.35020830822884,-338.17725426830725,-11.220585554444508,7450.3970666791884,7472.4535768178539,-7286.2180703431695,7286.2180703431695,-7472.4535768178539,12914.884619684663,0.0
315012.02908761695,3977225.878295721,-7500.0,-7162.8684655788675,6658.5650440807385,2600.032280808512,-1159.9680606619288,84.43969492169154,-52.082231782532567,8327.4270762416672,7999.6858942043682,-7164.2113326499993,7164.2113326499993,-7999.6858942043682,14612.427753371183,0.0
320012.02908761695,3977225.878295721,-7500.0,-7313.231560563222,8928.0848483683858,-1443.1615270326279,-1423.0146860054672,639.17453664441723,-102.45658368587814,9492.4470667104197,7784.3299659711593,-6275.3425790516394,6275.3425790516394,-7784.3299659711593,17045.758583561343,0.0
325012.02908761695,3977225.878295721,-7500.0,-6872.2732372125274,10806.133372057446,-6612.8083412611977,-1621.4996851382116,1317.0116460703482,-161.10913332589868,10934.591023128007,6555.4926543904885,-4514.7094514625996,4514.7094514625996,-6555.4926543904885,20168.654695939593,0.0
330012.02908761695,3977225.878295721,-7500.0,-5858.352856282123,11933.476546849084,-12694.346593359982,-1715.6324316560649,2088.2535203122093,-225.52000371323106,12582.649104271475,4125.3739428852123,-1911.4998992967921,1911.4998992967921,-4125.3739428852123,23792.89402573897,0.0
335012.02908761695,3977225.878295721,-7500.0,-4422.4004573064203,11989.252355567436,-19255.779204256189,-1672.0925713541753,2901.3518398503452,-291.93656991832762,14313.378622824363,472.59671559847783,1329.2048590094885,-1329.2048590094885,-472.59671559847783,27626.550934770778,0.0
340012.02908761695,3977225.878295721,-7500.0,-2838.6702767652714,10785.897503375738,-25682.172709725,-1473.2805082087777,3687.3345130016205,-355.67900270871962,15971.215889079202,-4196.9053881986792,4829.9576726253445,-4829.9576726253445,4196.9053881986792,31321.219563444694,0.0
345012.02908761695,3977225.878295721,-7500.0,-1447.6783294512247,8346.4456125683118,-31278.17857473261,-1124.4686882375013,4370.1966371010512,-411.68519338344328,17394.529392641503,-9446.654227722318,8104.9986605365129,-8104.9986605365129,9446.654227722318,34524.11952078202,0.0
350012.02908761695,3977225.878295721,-7500.0,-565.07814079971001,4926.880258260172,-35415.649188860036,-655.73615721074361,4881.1604662061418,-455.22847439555233,18491.909894767323,-14681.63038353073,10672.896433324753,-10672.896433324753,14681.63038353073,36932.266277343704,0.0
355012.02908761695,3977225.878295721,-7500.0,-391.37903795115449,966.03923878194985,-37676.155464604897,-117.17434664423983,5172.6148648703293,-482.68580455507214,19315.337912963594,-19278.921370608903,12178.154472387407,-12178.154472387407,19278.921370608903,38338.847873509207,0.0
360012.02908761695,3977225.878295721,-7500.0,-960.30570495054337,-3020.9014656227018,-37935.32823511718,431.47824931297509,5227.1453457030584,-492.17352780534702,19560.495227718511,-22730.052424954818,12473.861425713911,-12473.861425713911,22730.052424954818,38659.87376425149,0.0
365012.02908761695,3977225.878295721,-7500.0,-2144.4440339673288,-6563.3987899165095,-36361.993528110172,933.29541949872942,5058.8532321787052,-483.86087391980021,19247.139213260198,-24742.479853457215,11636.158657666161,-11636.158657666161,24742.479853457215,37934.720723954117,0.0
370012.02908761695,3977225.878295721,-7500.0,-3708.717269950153,-9327.166233888538,-33343.164648070851,1344.6166843395474,4707.2047383111576,-459.84581018010419,18448.722608981523,-25270.230551698085,9914.3169370194737,-9914.3169370194737,25270.230551698085,36303.161691151188,0.0
375012.02908761695,3977225.878295721,-7500.0,-5383.6871012055253,-11152.5946032262,-29372.545162433722,1640.6704065088481,4226.296133565299,-423.63542271817875,17272.111142014146,-24477.254379824713,7645.7888910121383,-7645.7888910121383,24477.254379824713,33968.435844950029,0.0
380012.02908761695,3977225.878295721,-7500.0,-6929.9641493527715,-12042.125261825429,-24943.624194938893,1815.8057397785819,3673.3853069141805,-379.40953727735922,15837.098168337559,-22661.059123075251,5171.3266806396641,-5171.3266806396641,22661.059123075251,31157.860173849891,0.0
385012.02908761695,3977225.878295721,-7500.0,-8177.1395930873114,-12115.637904374515,-20474.147855353815,1879.6861343268176,3099.7808101299397,-331.29622551818949,14259.154042888867,-20169.312986020974,2774.2394925042117,-2774.2394925042117,20169.312986020974,28089.957274071527,0.0
390012.02908761695,3977225.878295721,-7500.0,-9035.0824337111098,-11556.332648051724,-16269.580854175612,1851.624739087116,2545.5148462054672,-282.83535388751199,12637.810426315144,-17332.857160410989,651.42941111215441,-651.42941111215441,17332.857160410989,24952.532273372915,0.0
395012.02908761695,3977225.878295721,-7500.0,-9484.8352511978374,-10563.535638055086,-12519.216568384587,1755.0021297931276,2037.6801713613168,-236.69680757065788,11050.922989801824,-14424.739026850351,-1088.6376106156522,1088.6376106156522,14424.739026850351,21891.991402361684,0.0
400012.02908761695,3977225.878295721,-7500.0,-9559.1631229650102,-9320.10770896139,-9312.7755640673586,1612.9382142234331,1591.4154974470728,-194.62691048676294,9553.7212538696585,-11643.964775516779,-2411.2482446499071,2411.2482446499071,11643.964775516779,19011.672259734809,0.0
405012.02908761695,3977225.878295721,-7500.0,-9321.1854565053418,-7975.0788610211803,-6665.725360410207,1445.592967911866,1212.3037922280425,-157.55413793359719,8196.5394489344217,-9117.1002270963581,-3334.0528315517804,3334.0528315517804,9117.1002270963581,16376.0146867902,0.0
410012.02908761695,3977225.878295721,-7500.0,-8846.1813742378981,-6638.3107814536552,-4545.0239230080697,1268.9321588113326,899.17761327565165,-125.7685991809532,7066.8531794534756,-6909.8975657289266,-3905.9726633794271,3905.9726633794271,6909.8975657289266,14017.678970055889,0.0
415012.02908761695,3977225.878295721,-7500.0,-8208.615201241184,-5382.8698437964294,-2890.7441016141693,1094.5523844157124,646.6882735838891,-99.117263121020869,6074.3968183500565,-5042.5822270019089,-4190.0973380599407,4190.0973380599407,5042.5822270019089,11945.420056449724,0.0
275012.02908761695,3982225.878295721,-7500.0,444.39404552567481,-3001.4345008149958,6262.5649402700301,250.945300810654,-711.78241440863405,52.151346314338632,4218.7535936554368,742.13185437891184,-1302.437259410181,1302.437259410181,-742.13185437891184,8063.6066613018111,0.0
280012.02908761695,3982225.878295721,-7500.0,-310.39644825499704,-2629.7232823610207,6707.3726036047819,178.28596827413656,-744.98237000107611,52.260146939098171,4425.0898888992488,1396.2842886962878,-2062.9733708867616,2062.9733708867616,-1396.2842886962878,8327.1993803880578,0.0
285012.02908761695,3982225.878295721,-7500.0,-1176.1813505991149,-2057.0403894142105,7031.3598332330912,79.891663853423054,-757.94642328122575,50.171629793413523,4631.1738304239161,2171.2244754886733,-2895.8207062761931,2895.8207062761931,-2171.2244754886733,8557.9888519984943,0.0
290012.02908761695,3982225.878295721,-7500.0,-2129.2681179447873,-1247.6722175076407,7154.5015449296397,-47.091497067841736,-740.65035475760101,45.070378991429777,4847.2313326699223,3051.3115552695399,-3762.3847858166246,3762.3847858166246,-3051.3115552695399,8777.953567672108,0.0
295012.02908761695,3982225.878295721,-7500.0,-3126.9714617916679,-175.40150461495031,6974.3136614088025,-203.80709089168704,-680.91463560880379,36.027869385751927,5093.8530470130117,3998.3037855684647,-4601.1456574485474,4601.1456574485474,-3998.3037855684647,9038.6952099194132,0.0
300012.02908761695,3982225.878295721,-7500.0,-4104.6900237650279,1166.2972488145717,6367.6482717159051,-388.53485645042804,-564.89506716749429,22.064385722144007,5404.8571926440554,4943.2771510309267,-5324.5270742769007,5324.5270742769007,-4943.2771510309267,9432.610891224107,0.0
305012.02908761695,3982225.878295721,-7500.0,-4976.2878532998357,2751.4188800729926,5198.3842026712691,-595.38978441947722,-378.24056173481853,2.2573489431854403,5826.5332477989214,5779.8933503369635,-5819.7503045063304,5819.7503045063304,-5779.8933503369635,10092.491334816652,0.0
310012.02908761695,3982225.878295721,-7500.0,-5640.1982364748574,4507.8369519248981,3333.5703769252523,-813.13437391901073,-108.10210607215947,-24.101642296520172,6409.8401514040197,6362.3111029362535,-5956.5949162479701,5956.5949162479701,-6362.3111029362535,11164.762219451961,0.0
315012.02908761695,3982225.878295721,-7500.0,-5993.3702704372472,6306.8769654743255,669.57794798154953,-1024.5381022285997,253.97340122814668,-57.311228965697985,7195.2437991888364,6512.1764106061437,-5604.7504467572307,5604.7504467572307,-6512.1764106061437,12757.454898905404,0.0
320012.02908761695,3982225.878295721,-7500.0,-5953.4646612634369,7961.9574550332054,-2832.9923653789992,-1206.8377279141623,708.53507997627582,-97.055220266845083,8195.949169582067,6039.0839864939589,-4661.5553204000917,4661.5553204000917,-6039.0839864939589,14893.416424933836,0.0
325012.02908761695,3982225.878295721,-7500.0,-5486.2132141394022,9242.8072006570856,-7111.6717302592187,-1333.811333607322,1244.7983040575382,-142.23467268564841,9387.6496260812,4776.4004192025404,-3086.8580232974036,3086.8580232974036,-4776.4004192025404,17497.45177987924,0.0
330012.02908761695,3982225.878295721,-7500.0,-4630.2956019111643,9909.247325559365,-11973.315197670341,-1379.6492001925396,1838.3988483906824,-190.89359749174821,10708.255501607413,2628.6366613372375,-936.14912896406747,936.14912896406747,-2628.6366613372375,20412.148766208724,0.0
335012.02908761695,3982225.878295721,-7500.0,-3508.7177918946072,9761.8763822815363,-17088.964450434676,-1324.1774727062736,2451.5826404019463,-240.28677152176945,12065.716286252637,-381.28289390931866,1621.4856772129324,-1621.4856772129324,381.28289390931866,23423.612912176421,0.0
340012.02908761695,3982225.878295721,-7500.0,-2316.7469702068897,8697.7040503966364,-22024.361970327431,-1158.232854284521,3036.7127620379947,-287.11506495221454,13350.986469050587,-4082.718855986489,4313.7444095906985,-4313.7444095906985,4082.718855986489,26289.698539941233,0.0
345012.02908761695,3982225.878295721,-7500.0,-1283.9118908737328,6751.5616995141527,-26307.117235647329,-887.47622691096831,3543.010506943217,-327.91144344117282,14454.001157400771,-8163.1124862451343,6808.9610621892552,-6808.9610621892552,8163.1124862451343,28770.980288338535,0.0
350012.02908761695,3982225.878295721,-7500.0,-619.27433491480542,4104.8378019812662,-29515.792132500679,-533.07213410853444,3925.1840569880665,-359.52339235909017,15383.231996694691,-12215.440203104305,8784.6322275996336,-8784.6322275996336,12215.440203104305,30662.760746527205,0.0
355012.02908761695,3982225.878295721,-7500.0,-458.69970133955565,1053.9881839451123,-31363.857806351421,-128.58155086843067,4151.6177514906003,-379.59468116651101,16056.755255758428,-15816.798792048996,9999.0318440430328,-9999.0318440430328,15816.798792048996,31822.474307322169,0.0
360012.02908761695,3982225.878295721,-7500.0,-833.58628127786289,-2052.2627920164909,-31751.057132265501,286.2209146178717,4209.7080567239645,-386.93409592279619,16305.315618761271,-18613.303503749405,10341.090938027273,-10341.090938027273,18613.303503749405,32186.097909260734,0.0
365012.02908761695,3982225.878295721,-7500.0,-1671.2207455016469,-4885.3820148636514,-30767.364463292182,672.74675140186628,4106.8660981180419,-381.67293835850177,16137.857173789513,-20383.670282867461,9842.7729972571906,-9842.7729972571906,20383.670282867461,31769.908174756631,0.0
370012.02908761695,3982225.878295721,-7500.0,-2823.1762963433503,-7195.7200916552702,-28653.527194841121,1000.0271419798223,3867.2511322465366,-365.1686124317435,15598.933995837751,-21064.201268629768,8654.2489335390655,-8654.2489335390655,21064.201268629768,30658.477620820693,0.0
375012.02908761695,3982225.878295721,-7500.0,-4108.0605617632145,-8842.7279405837362,-25736.517858311865,1248.5782213156824,3525.6600493264027,-339.69024286787902,14757.809257479501,-20734.291997955523,6995.7304609952234,-6995.7304609952234,20734.291997955523,28983.512688713068,0.0
380012.02908761695,3982225.878295721,-7500.0,-5352.8555365956081,-9794.9705277354733,-22362.233853341892,1411.2091233531671,3120.6063906659224,-307.98293051276278,13695.935960477025,-19575.011231598568,5104.6964939017735,-5104.6964939017735,19575.011231598568,26899.688962402077,0.0
385012.02908761695,3982225.878295721,-7500.0,-6421.9183724440118,-10108.173321126165,-18842.405378627616,1491.3096693955235,2688.3748740859423,-272.83104221155526,12495.561353040321,-17818.251394767027,3193.4713900139759,-3193.4713900139759,17818.251394767027,24562.858697663243,0.0
390012.02908761695,3982225.878295721,-7500.0,-7230.0231177145906,-9893.3481618477708,-15423.183416225609,1499.7138697092078,2259.0597886960063,-236.71532947341944,11231.205403992253,-15701.14849599666,1424.18527280737,-1424.18527280737,15701.14849599666,22113.887338918292,0.0
395012.02908761695,3982225.878295721,-7500.0,-7741.6898207748036,-9285.4181111109101,-12274.562887868575,1451.2521617277091,1854.7668606396348,-201.60793664722468,9964.583118027509,-13433.87114218942,-99.181703034919337,99.181703034919337,13433.87114218942,19669.109143150199,0.0
400012.02908761695,3982225.878295721,-7500.0,-7961.8494405516485,-8418.6270160264703,-9495.0697511657781,1361.7866719014846,1489.5796751136393,-168.90195082721999,8742.6559698064757,-11182.473039601147,-1326.2464636549303,1326.2464636549303,11182.473039601147,17316.722398278183,0.0
405012.02908761695,3982225.878295721,-7500.0,-7923.0145188247079,-7410.8451661736135,-7124.9419971621719,1246.1059515981362,1170.6476595438123,-139.44367892792732,7598.0908857434342,-9064.3018234917054,-2248.8794291711274,2248.8794291711274,9064.3018234917054,15117.556249242019,0.0
410012.02908761695,3982225.878295721,-7500.0,-7672.7554576663952,-6356.036243264597,-5162.1718485391475,1116.717775680173,899.78582776224084,-113.62418631628501,6562.2230387077652,-7151.8284565293825,-2887.8502710116873,2887.8502710116873,7151.8284565293825,13108.519143022748,0.0
275012.02908761695,3987225.878295721,-7500.0,-150.1979296283109,-2216.4116802034396,5540.2098701021769,147.22211449757486,-591.13784826782125,39.815315445654257,3637.2996408033755,1101.3734370008035,-1619.0252769979368,1619.0252769979368,-1101.3734370008035,6869.2350547275864,0.0
280012.02908761695,3987225.878295721,-7500.0,-813.83995740272394,-1792.5632749637041,5803.3927490141996,76.161075798774036,-603.6923758279645,38.642395559437716,3794.257825338796,1690.4165156634549,-2259.966207509925,2259.966207509925,-1690.4165156634549,7044.4307798335267,0.0
285012.02908761695,3987225.878295721,-7500.0,-1546.2686547622511,-1199.4421537996686,5928.3051682565601,-14.947802830309357,-596.19106553820086,35.525087533141942,3956.4005362956627,2358.3767627256398,-2931.4748223800229,2931.4748223800229,-2358.3767627256398,7206.3220362812408,0.0
290012.02908761695,3987225.878295721,-7500.0,-2321.2790237982531,-417.24435297684641,5847.0686891286578,-127.22341734784946,-560.74250073238636,29.864118053502043,4136.6140514722319,3082.2760989520862,-3594.7051428161417,3594.7051428161417,-3082.2760989520862,7386.4034636396182,0.0
295012.02908761695,3987225.878295721,-7500.0,-3098.8463122725916,562.81288363466115,5477.8967440843671,-260.18459363381692,-488.26703937338203,21.008461350766137,4356.368472873648,3820.5055807443587,-4194.305815447201,4194.305815447201,-3820.5055807443587,7642.2771276770418,0.0
300012.02908761695,3987225.878295721,-7500.0,-3824.6574836978693,1731.0633192546666,4728.69442900181,-410.98380590704767,-369.05231386890779,8.3087701107341552,4646.1121403259058,4508.3844595850851,-4658.124215976276,4658.124215976276,-4508.3844595850851,8060.5094473034424,0.0
305012.02908761695,3987225.878295721,-7500.0,-4432.4605992742054,3051.1022804239324,3505.0754326451865,-573.64142103081451,-193.76313872120789,-8.8010754413503687,5041.9450003910806,5055.7246944305216,-4900.3202999525938,4900.3202999525938,-5055.7246944305216,8745.7296011151466,0.0
310012.02908761695,3987225.878295721,-7500.0,-4850.4860867246771,4452.3428833517564,1723.9011072127992,-738.47728759384779,45.03519448480634,-30.694653407534247,5577.504944184855,5348.6068958550622,-4829.4446917741207,4829.4446917741207,-5348.6068958550622,9791.7303594277237,0.0
315012.02908761695,3987225.878295721,-7500.0,-5012.6415780728958,5826.1915294984137,-667.60369658975821,-892.01621644471334,350.90209517732802,-57.426058179543887,6273.1126993006046,5257.8431812571125,-4362.4449699313245,4362.4449699313245,-5257.8431812571125,11246.906896692246,0.0
320012.02908761695,3987225.878295721,-7500.0,-4873.8218676868264,7029.3290736420213,-3669.0990191593883,-1017.6715089665902,721.34863623295098,-88.60559135362432,7126.8635997325136,4655.9594966649929,-3444.0103816413393,3444.0103816413393,-4655.9594966649929,13095.311821866775,0.0
325012.02908761695,3987225.878295721,-7500.0,-4426.560850021373,7897.209653109634,-7205.4252226585304,-1097.4276647257154,1145.9486077553954,-123.30788536074628,8111.2129663250598,3442.4658237395734,-2068.140035400389,2068.140035400389,-3442.4658237395734,15259.378349643954,0.0
330012.02908761695,3987225.878295721,-7500.0,-3714.0348975422758,8268.7206737831129,-11113.157203024328,-1114.5107209440798,1605.3898572295768,-160.04554671128483,9175.1480061561451,1573.6971942702983,-296.0118451655228,296.0118451655228,-1573.6971942702983,17613.849949457686,0.0
335012.02908761695,3987225.878295721,-7500.0,-2833.364193253854,8018.915021276086,-15143.349819542369,-1056.6712514330102,2072.1194692213189,-196.83730364400412,10250.220801409638,-910.43824347825557,1737.4170589884461,-1737.4170589884461,910.43824347825557,20002.057951966373,0.0
340012.02908761695,3987225.878295721,-7500.0,-1924.6514754602631,7092.0325575910538,-18985.680285018912,-919.32783300778078,2512.9508947374152,-231.37977773340913,11259.01158485304,-3872.7942005691589,3834.3715457613548,-3834.3715457613548,3872.7942005691589,22253.221458605687,0.0
345012.02908761695,3987225.878295721,-7500.0,-1145.6821051836794,5524.1134535399087,-22312.751518034023,-707.61890980538567,2893.4432522431493,-261.31083091622537,12125.051930395135,-7086.8295121579113,5764.088012763249,-5764.088012763249,7086.8295121579113,24201.491518033828,0.0
350012.02908761695,3987225.878295721,-7500.0,-638.20546677490972,3445.8196428750925,-24835.251807608187,-436.55891741089295,3183.2055706428605,-284.52070116591329,12921.871853966433,-10268.164150681276,7305.5243871660805,-7305.5243871660805,10268.164150681276,25705.474794507187,0.0
355012.02908761695,3987225.878295721,-7500.0,-496.16152020935584,1062.1710071470739,-26352.981262339243,-129.01769340086494,3360.8213503487441,-299.451550678405,13475.087278151022,-13123.259396082505,8290.8598917711624,-8290.8598917711624,13123.259396082505,26664.958936786974,0.0
360012.02908761695,3987225.878295721,-7500.0,-746.26509038693655,-1385.6919163862533,-26786.921357414423,188.04513370080127,3417.0843913910926,-305.31630878464392,13711.539792566,-15401.584711625916,8636.4058647834627,-8636.4058647834627,15401.584711625916,27031.254441674559,0.0
365012.02908761695,3987225.878295721,-7500.0,-1346.6483587237749,-3665.0927462716313,-26184.048425237928,488.07528257599142,3355.7436306124177,-302.18538119713992,13634.147173434993,-16936.216466016089,8352.1670253363773,-8352.1670253363773,16936.216466016089,26809.056356143625,0.0
370012.02908761695,3987225.878295721,-7500.0,-2202.2650831398955,-5589.8297286522238,-24696.157799669636,748.95337010373783,3191.7482716291606,-290.92474002762083,13270.222147747139,-17662.750470589439,7529.4122224977127,-7529.4122224977127,17662.750470589439,26050.049324306208,0.0
375012.02908761695,3987225.878295721,-7500.0,-3190.1837092486799,-7042.6309547272067,-22541.885759397963,955.63380326740366,2947.7146522028984,-273.00613741031168,12665.193130060567,-17614.723696116489,6312.9584656697389,-6312.9584656697389,17614.723696116489,24840.55904412589,0.0
380012.02908761695,3987225.878295721,-7500.0,-4186.0486243939486,-7979.6586697795447,-19964.205797440904,1101.0264328593335,2649.7063397563738,-250.24509692304241,11874.868854059687,-16901.224276090234,4868.2842447194025,-4868.2842447194025,16901.224276090234,23286.583819441152,0.0
385012.02908761695,3987225.878295721,-7500.0,-5084.7966624427227,-8420.4146034670957,-17193.871896436245,1185.3102138666891,2323.3638713645878,-224.53254332633509,10957.9307004898,-15676.044652387638,3352.5579100347604,-3352.5579100347604,15676.044652387638,21499.401397107948,0.0
390012.02908761695,3987225.878295721,-7500.0,-5812.3492026777585,-8429.3810121251208,-14424.678029107847,1214.2266932714592,1991.0619095462644,-197.61198138783263,9969.8510907179807,-14107.325190748932,1894.9335875778661,-1894.9335875778661,14107.325190748932,19583.99499121838,0.0
395012.02908761695,3987225.878295721,-7500.0,-6328.4691783881681,-8095.7313489288126,-11801.611080152847,1196.9818579602565,1670.3257731673973,-170.93259115433261,8958.7864555291108,-12353.616347587109,587.32541621449673,-587.32541621449673,12353.616347587109,17631.292354778758,0.0
400012.02908761695,3987225.878295721,-7500.0,-6623.1053090453397,-7515.6620511522951,-9419.7108093228217,1144.2690179168537,1373.389649989706,-145.58301806265348,7963.4661381182868,-10548.748823942857,-516.05993339415818,516.05993339415818,10548.748823942857,15714.2149715178,0.0
405012.02908761695,3987225.878295721,-7500.0,-6709.1983238622688,-6779.5875221041706,-7329.9639120867769,1066.7149368187265,1107.5777717273334,-122.28949001222639,7012.7291856941802,-8795.0598230726791,-1393.4879707198088,1393.4879707198088,8795.0598230726791,13886.8244382214,0.0
410012.02908761695,3987225.878295721,-7500.0,-6614.5260953215484,-5964.5475040261117,-5548.6703269986274,973.85199997990242,876.15610209219449,-101.45853945398372,6126.3418074709598,-7163.0282066438049,-2047.7812444013998,2047.7812444013998,7163.0282066438049,12185.634959447563,0.0
285012.02908761695,3992225.878295721,-7500.0,-1739.8069771365547,-539.24117570849228,4931.5344506516212,-78.327075403142615,-462.33387909168988,24.457857562137939,3403.3937034859073,2411.2800432321965,-2842.4545849279157,2842.4545849279157,-2411.2800432321965,6114.0346865218089,0.0
290012.02908761695,3992225.878295721,-7500.0,-2360.2293266661595,188.56999399866683,4706.3111250817146,-175.34708077207722,-416.38881954986169,18.748286595080035,3562.7277744573898,2991.3585464561597,-3335.5887932840483,3335.5887932840483,-2991.3585464561597,6285.1763359454162,0.0
295012.02908761695,3992225.878295721,-7500.0,-2958.0107921519057,1060.8151791188848,4218.8070171912532,-286.2875726448309,-338.97645424838595,10.489584103667184,3766.9128268026634,3550.7904035219553,-3746.8811603051681,3746.8811603051681,-3550.7904035219553,6555.9824092263898,0.0
300012.02908761695,3992225.878295721,-7500.0,-3489.5311080252668,2059.3539661141376,3402.1597465635946,-407.9465586322334,-223.45629394632769,-0.73760629602877625,4041.1753238696274,4032.6252227633304,-4019.1496582345007,4019.1496582345007,-4032.6252227633304,6999.6622966238756,0.0
305012.02908761695,3992225.878295721,-7500.0,-3905.4279327597274,3145.178895387266,2193.0526491334363,-534.84580480669354,-63.961691052179908,-15.265360329974627,4411.558140452662,4363.3347129219364,-4088.9370844694381,4088.9370844694381,-4363.3347129219364,7690.7511720107095,0.0
310012.02908761695,3992225.878295721,-7500.0,-4156.2598916132065,4254.8151397176434,542.27837511712187,-659.01377276992014,143.4963041233249,-33.264074463662531,4898.2575910779624,4456.1576147375708,-3893.6354751603722,3893.6354751603722,-4456.1576147375708,8682.0694178991489,0.0
315012.02908761695,3992225.878295721,-7500.0,-4200.8974682578355,5299.9352971973867,-1571.8479520208596,-770.13665926552244,399.71869587965676,-54.661776225165092,5508.8946498087498,4219.0583700225943,-3382.0635567520499,3382.0635567520499,-4219.0583700225943,9986.4464062621428,0.0
320012.02908761695,3992225.878295721,-7500.0,-4016.7298191880609,6172.1241227216115,-4129.0540921655038,-856.23393492734851,701.00323532213952,-79.070548650306222,6234.4377324334982,3567.8426243480676,-2527.518305823874,2527.518305823874,-3567.8426243480676,11572.339729223022,0.0
325012.02908761695,3992225.878295721,-7500.0,-3609.5837871758972,6754.1246109554577,-7054.9569593624356,-904.9386911308809,1038.140307242568,-105.73936237018313,7048.7717796390289,2443.5145528135863,-1340.8614222611166,1340.8614222611166,-2443.5145528135863,13370.269982585645,0.0
330012.02908761695,3992225.878295721,-7500.0,-3020.2366466898743,6937.3262480476715,-10215.545292518284,-905.30893563470045,1396.1015587724519,-133.55238061285593,7911.1770125469993,830.93116081940616,120.13840478290876,-120.13840478290876,-830.93116081940616,15282.72013510111,0.0
335012.02908761695,3992225.878295721,-7500.0,-2324.2506094943678,6642.9096154705967,-13422.468651944746,-849.8919957658112,1754.7554496812015,-161.08745733156579,8770.6713106238294,-1226.103040397049,1749.40172994464,-1749.40172994464,1226.103040397049,17194.364443637809,0.0
340012.02908761695,3992225.878295721,-7500.0,-1623.1032538262,5841.7108241898268,-16451.255057866485,-736.57972013331209,2090.7474951532809,-186.73882325875857,9571.5720758675398,-3618.8920253591918,3402.0350417389059,-3402.0350417389059,3618.8920253591918,18982.990778631643,0.0
345012.02908761695,3992225.878295721,-7500.0,-1027.2403086807922,4566.7641563574289,-19070.82806998269,-569.72125888296489,2380.3623851134294,-208.89250963111039,10271.878422282911,-6181.2269766823001,4914.6641954754732,-4914.6641954754732,6181.2269766823001,20531.556432055146,0.0
350012.02908761695,3992225.878295721,-7500.0,-634.80800765007643,2913.6276216765677,-21078.483442192934,-360.07558198948607,2602.8418417072598,-226.12523952261762,10949.723333705304,-8710.6223629012748,6132.6612999045865,-6132.6612999045865,8710.6223629012748,21740.443020592633,0.0
355012.02908761695,3992225.878295721,-7500.0,-511.96793289191191,1027.062792067117,-22331.755687348035,-123.48657081513414,2743.4114159938222,-237.39061841927466,11406.831816109025,-10999.260059496926,6937.2981376616772,-6937.2981376616772,10999.260059496926,22537.945523125974,0.0
360012.02908761695,3992225.878295721,-7500.0,-680.55948245368404,-922.92189716181917,-22768.920349453754,121.45928796695806,2795.2908157174411,-242.15179367988199,11624.39376489608,-12866.91397670175,7265.3751704179213,-7265.3751704179213,12866.91397670175,22886.942961498484,0.0
365012.02908761695,3992225.878295721,-7500.0,-1116.392494314892,-2769.1886392890983,-22413.331725870223,356.222256932346,2760.2373307911653,-240.43359363352954,11602.294852067364,-14187.360487775353,7116.30847841586,-7116.30847841586,14187.360487775353,22786.50474559842,0.0
370012.02908761695,3992225.878295721,-7500.0,-1757.7612172053985,-4372.4212026464975,-21361.876069506114,564.87622148254832,2647.5946134129808,-232.78473648691303,11357.407254240898,-14902.260240038602,6545.9260257840679,-6545.9260257840679,14902.260240038602,22268.439890386842,0.0
375012.02908761695,3992225.878295721,-7500.0,-2520.642582275148,-5637.4002176267322,-19762.251609832569,735.90862346609379,2472.2179458128185,-220.16352668047261,10919.869560269461,-15020.821218588204,5650.2799074448476,-5650.2799074448476,15020.821218588204,21389.959304757791,0.0
380012.02908761695,3992225.878295721,-7500.0,-3315.6935561302871,-6518.51345183387,-17785.932216646135,862.99635439102906,2251.8723184316887,-203.77917400379897,10328.246440354833,-14607.779647009849,4545.0184746434552,-4545.0184746434552,14607.779647009849,20224.29453944651,0.0
385012.02908761695,3992225.878295721,-7500.0,-4062.7430610561087,-7015.704750022559,-15603.224857611294,944.80516894367406,2004.710108283509,-184.92321735095354,9624.57261613632,-13764.714687408088,3345.8010480755966,-3345.8010480755966,13764.714687408088,18851.18070170865,0.0
390012.02908761695,3992225.878295721,-7500.0,-4700.2679718242371,-7164.1371792169366,-13364.629200236299,984.08274236880129,1747.2695639153339,-164.82431751483495,8850.0683806445813,-12610.057897600713,2153.511439740133,-2153.511439740133,12610.057897600713,17348.683543030733,0.0
395012.02908761695,3992225.878295721,-7500.0,-5189.3216173645333,-7021.329853035294,-11190.024045131013,986.39725467024471,1493.1997214708542,-144.5442641620499,8041.9724511934091,-11261.873749545499,1045.7559532376681,-1045.7559532376681,11261.873749545499,15787.194476946488,0.0
400012.02908761695,3992225.878295721,-7500.0,-5512.8440266815542,-6654.8569138019375,-9165.0855026238041,958.8428286721014,1252.7091322897327,-124.9214678835515,7231.6234678681558,-9825.592360244671,74.248726988580529,-74.248726988580529,9825.592360244671,14225.818513772432,0.0
290012.02908761695,3997225.878295721,-7500.0,-2303.3250669894751,617.6865375284242,3728.4098239741029,-201.11710326066358,-301.98662562894884,10.739264835486088,3098.0638701149724,2824.8329071763769,-3033.2001961150249,3033.2001961150249,-2824.8329071763769,5414.6504011125844,0.0
295012.02908761695,3997225.878295721,-7500.0,-2757.6691649198106,1379.661630503487,3174.9835800209212,-292.60197638203442,-224.69560091168259,3.2752248862229907,3292.0676635328168,3236.2811165682911,-3300.0282830018446,3300.0282830018446,-3236.2811165682911,5705.9765979057884,0.0
300012.02908761695,3997225.878295721,-7500.0,-3141.8220827766172,2222.1882623556598,2342.0277888585392,-389.95832723949729,-116.72782498880439,-6.4625829037171343,3552.233859654069,3557.3247506653915,-3434.4352528063682,3434.4352528063682,-3557.3247506653915,6166.0918322347488,0.0
305012.02908761695,3997225.878295721,-7500.0,-3419.8793032932817,3107.9124022849815,1188.6059656628654,-488.44628446810884,25.446809179843058,-18.656764037318371,3895.999762640834,3729.6003819749162,-3390.5818963258948,3390.5818963258948,-3729.6003819749162,6843.0262097028917,0.0
310012.02908761695,3997225.878295721,-7500.0,-3558.5426987181677,3982.4176645402908,-312.03710076413165,-581.68200286677359,203.68932222945293,-33.360066428039808,4334.0645350974391,3688.1914036348035,-3126.6245502410966,3126.6245502410966,-3688.1914036348035,7761.4861515615903,0.0
315012.02908761695,3997225.878295721,-7500.0,-3533.1530433392104,4775.4401914104874,-2163.3260371855185,-661.87472744547983,417.34120857688862,-50.444783090269944,4866.7057784691788,3368.3509532365424,-2612.3859706654057,2612.3859706654057,-3368.3509532365424,8915.504338296796,0.0
320012.02908761695,3997225.878295721,-7500.0,-3334.3397813037582,5405.6511984836816,-4336.3984362263018,-720.40772869662362,662.44485785069583,-69.560659315959271,5482.2851170657123,2715.2307604566067,-1837.9693069763864,1837.9693069763864,-2715.2307604566067,10269.910444285822,0.0
325012.02908761695,3997225.878295721,-7500.0,-2973.8086216753059,5789.459176290442,-6763.5530565495037,-748.77841448459344,931.23665424128933,-90.11267065872633,6157.894785491414,1695.6208014311485,-821.56160907386788,821.56160907386788,-1695.6208014311485,11766.199939836406,0.0
330012.02908761695,3997225.878295721,-7500.0,-2487.3734252693002,5853.2381579431885,-9336.6790279188826,-739.81700010535178,1212.1300759032017,-111.26959312268698,6861.4756840967166,309.56793504842813,385.91455554960191,-385.91455554960191,-309.56793504842813,13329.083775492461,0.0
335012.02908761695,3997225.878295721,-7500.0,-1933.4812709097725,5547.0453879446541,-11912.82499314393,-688.99013063168036,1490.3564721248874,-132.01134196200169,7554.87019259311,-1401.1556358720161,1701.6076522216665,-1701.6076522216665,1401.1556358720161,14873.023556349499,0.0
340012.02908761695,3997225.878295721,-7500.0,-1386.3884616807993,4856.7311402345549,-14327.652310260582,-595.50676413647238,1749.3017960875761,-151.21469602516476,8197.5596153023125,-3350.8711218707731,3018.3496202454426,-3018.3496202454426,3350.8711218707731,16309.329881251102,0.0
345012.02908761695,3997225.878295721,-7500.0,-924.70078120827566,3810.9760894086194,-16415.334476128948,-462.92464054355844,1972.3943696340398,-167.76916384451428,8803.5485563591483,-5416.1755708924584,4218.6098922560495,-4218.6098922560495,5416.1755708924584,17553.989880906134,0.0
350012.02908761695,3997225.878295721,-7500.0,-617.66868783712152,2480.6490862784949,-18031.218831605809,-299.03751535252951,2145.2162986297526,-180.70428325564478,9352.7589891346943,-7450.4144717144482,5192.2135939644704,-5192.2135939644704,7450.4144717144482,18535.553861400735,0.0
355012.02908761695,3997225.878295721,-7500.0,-512.68329496695458,969.87784143712474,-19072.224048091823,-114.99599807992097,2257.4034839896308,-189.30681430968434,9732.8422702431599,-9303.8174389834494,5853.7137317866336,-5853.7137317866336,9303.8174389834494,19201.877957005854,0.0
360012.02908761695,3997225.878295721,-7500.0,-627.26667202962074,-599.34703224171574,-19490.227996793696,76.178890709157713,2303.9218101974943,-193.20195515041422,9929.3218569217461,-10844.780424309789,6155.1350172499551,-6155.1350172499551,10844.780424309789,19524.515242965001,0.0
365012.02908761695,3997225.878295721,-7500.0,-947.49651782553042,-2105.3100311393114,-19295.607314641042,261.36198764700282,2285.4601597106534,-192.38686053101037,9940.6714939685971,-11977.360295213279,6091.1393457426575,-6091.1393457426575,11977.360295213279,19500.002608585051,0.0
370012.02908761695,3997225.878295721,-7500.0,-1432.7863421699983,-3443.1869260400827,-18550.86230035976,428.98579973882215,2207.9113340994581,-187.20822714951572,9777.3568591654875,-12651.338529737612,5695.9843860203182,-5695.9843860203182,12651.338529737612,19147.981684385923,0.0
375012.02908761695,3997225.878295721,-7500.0,-2025.1633731037264,-4536.7257268109888,-17356.805550045185,570.27199829265692,2081.1354614857219,-178.29364484800456,9459.5886514100439,-12863.52750485885,5033.9325874509723,-5033.9325874509723,12863.52750485885,18506.765554795238,0.0
380012.02908761695,3997225.878295721,-7500.0,-2660.2615637584577,-5343.3963814129347,-15835.201058340481,679.85771412671556,1917.3369292811144,-166.45400402427396,9014.2534400506538,-12651.409750508472,4186.1989935505308,-4186.1989935505308,12651.409750508472,17627.384588864355,0.0
385012.02908761695,3997225.878295721,-7500.0,-3277.3651656545098,-5853.307669702639,-14111.782846821501,755.81106692743265,1729.4138083496318,-152.57682807619801,8471.6237993672366,-12081.815302939971,3237.7491236799287,-3237.7491236799287,12081.815302939971,16567.261999377333,0.0
390012.02908761695,3997225.878295721,-7500.0,-3826.710790299885,-6083.5524337515617,-12302.544971636185,799.16586623613466,1529.5627231247065,-137.53072657281268,7862.3572392770002,-11237.829200967124,2266.4849701531448,-2266.4849701531448,11237.829200967124,15384.479463314803,0.0
395012.02908761695,3997225.878295721,-7500.0,-4273.3626664795875,-6070.1787544882218,-10504.712500604363,813.17219385628562,1328.2989255209866,-122.09218059895252,7215.1160851749109,-10206.638222699152,1336.1349171710117,-1336.1349171710117,10206.638222699152,14133.254315525281,0.0
295012.02908761695,4002225.878295721,-7500.0,-2531.6731274613776,1567.5577755952254,2319.6896520591699,-286.45788547648664,-138.19511572679468,-1.5469741535944543,2905.5286262923701,2908.1001183851636,-2877.1301799979187,2877.1301799979187,-2908.1001183851636,5033.6745517062272,0.0
300012.02908761695,4002225.878295721,-7500.0,-2805.408645371067,2272.0256826975806,1503.7155222240874,-363.93644682351663,-39.640864364290302,-9.8843554109836038,3151.0824518948648,3106.331310011662,-2914.7278253760514,2914.7278253760514,-3106.331310011662,5497.7824059722143,0.0
305012.02908761695,4002225.878295721,-7500.0,-2985.4863057736516,2990.433715604835,428.35448981767871,-440.11606239950123,85.384856736118323,-20.043688102495945,3467.217422683214,3165.2857891298254,-2799.0734217926547,2799.0734217926547,-3165.2857891298254,6144.5642237555903,0.0
310012.02908761695,4002225.878295721,-7500.0,-3049.9942126612482,3677.4759622141701,-918.70108051944806,-509.97422408551574,237.47372043319365,-32.013465498317871,3858.4142927628163,3037.0202452182407,-2502.9269048516003,2502.9269048516003,-3037.0202452182407,6981.3542637062574,0.0
315012.02908761695,4002225.878295721,-7500.0,-2984.9325796166559,4278.0113599038841,-2530.7251624847872,-567.67167529839401,415.27381670542957,-45.649770057804034,4321.1079626886558,2676.4692641008332,-2009.6806320836395,2009.6806320836395,-2676.4692641008332,7993.6786129370703,0.0
320012.02908761695,4002225.878295721,-7500.0,-2788.4696425433312,4731.2747914986812,-4376.5211527120118,-607.0187277939707,615.03871373694915,-60.65280121897456,4843.4102564516243,2048.4895628620834,-1318.9522495522572,1318.9522495522572,-2048.4895628620834,9148.21963536986,0.0
325012.02908761695,4002225.878295721,-7500.0,-2474.2397948871558,4977.5407946671303,-6397.0923208996801,-622.15189678215302,830.39304867405122,-76.558091376827164,5406.0069208963951,1135.731726810674,-451.15264667880831,451.15264667880831,-1135.731726810674,10397.163800814838,0.0
330012.02908761695,4002225.878295721,-7500.0,-2072.5494858179854,4966.6218018721356,-8505.9249973333717,-608.35183407877628,1052.4375925606109,-92.748324072994222,5983.7991503062367,-54.139938954484364,550.40176912574827,-550.40176912574827,54.139938954484364,11682.460541903522,0.0
335012.02908761695,4002225.878295721,-7500.0,-1628.569036459269,4666.8264819927654,-10593.975149465454,-562.87155266466959,1270.2750545699382,-108.48990945194768,6548.0515561232987,-1483.7506049152462,1621.0863839143481,-1621.0863839143481,1483.7506049152462,12940.106319396633,0.0
340012.02908761695,4002225.878295721,-7500.0,-1197.2042007824557,4072.4350579447514,-12539.514970329401,-485.60236540254618,1471.9554248761369,-122.99199955365103,7069.2578456630308,-3085.6139451806553,2680.8542029993037,-2680.8542029993037,3085.6139451806553,14104.87728620419,0.0
345012.02908761695,4002225.878295721,-7500.0,-835.2642659274228,3207.6773614897934,-14221.717584354486,-379.40487706858767,1645.734431187067,-135.48373787122281,7597.7605426962273,-4767.0545882772167,3643.896577605381,-3643.896577605381,4767.0545882772167,15115.52699737255,0.0
350012.02908761695,4002225.878295721,-7500.0,-592.45285123305109,2125.7941716420059,-15535.632077363887,-249.98732579826094,1781.4402010897054,-145.29573705312538,8047.0801182662708,-6420.2014383373225,4430.396716811807,-4430.396716811807,6420.2014383373225,15919.974086297258,0.0
355012.02908761695,4002225.878295721,-7500.0,-503.24532222369351,902.94436003070007,-16405.532125090671,-105.31492728446611,1871.6895844982164,-151.93468549685312,8365.1153403975241,-7935.367891354168,4977.8924761941835,-4977.8924761941835,7935.367891354168,16479.734590765118,0.0
360012.02908761695,4002225.878295721,-7500.0,-581.58530731904875,-371.91785581823672,-16793.831039482633,45.351818034208137,1912.7146938998271,-155.13431150045349,8540.6721355033678,-9215.1091035580939,5249.7194622624238,-5249.7194622624238,9215.1091035580939,16772.867137321369,0.0
365012.02908761695,4002225.878295721,-7500.0,-819.57505460822927,-1608.9893858800854,-16703.846999844103,192.59702367636723,1904.6461336248271,-154.87740761752082,8571.6646187740498,-10186.011771166552,5238.7567923594397,-5238.7567923594397,10186.011771166552,16794.969736009913,0.0
370012.02908761695,4002225.878295721,-7500.0,-1190.1940006541527,-2728.8458978882845,-16176.256342127579,327.94214037203415,1851.2288966812916,-151.38298437716878,8464.5831762456291,-10805.967831171547,4966.0002658861586,-4966.0002658861586,10805.967831171547,16558.153964445639,0.0
375012.02908761695,4002225.878295721,-7500.0,-1653.0499181960427,-3670.8104134350169,-15280.566943653976,444.69339194446889,1759.0746350769527,-145.06465039615406,8233.1150033399026,-11065.959506912281,4474.8041108549005,-4474.8041108549005,11065.959506912281,16088.324007991307,0.0
380012.02908761695,4002225.878295721,-7500.0,-2161.5515805198102,-4397.3066446101857,-14103.852840950141,538.42621273819782,1636.6372988673218,-136.47019431184418,7896.1724350521881,-10986.785174916278,3822.5402484443275,-3822.5402484443275,10986.785174916278,15421.349373211404,0.0
385012.02908761695,4002225.878295721,-7500.0,-2669.8520481986407,-4894.1464184524984,-12739.169924852426,607.08531066395358,1493.1263848549381,-126.2133491664911,7475.6931268689323,-10612.194440750976,3071.6851242849048,-3071.6851242849048,10612.194440750976,14598.832534785177,0.0
390012.02908761695,4002225.878295721,-7500.0,-3138.3218495941833,-5167.566365610739,-11275.599091226662,650.76013327225314,1337.5385881338593,-114.91032998730091,6994.5390906086268,-10000.328303167258,2282.0203764766666,-2282.0203764766666,10000.328303167258,13664.090053166852,0.0
305012.02908761695,4007225.878295721,-7500.0,-2603.7005167048933,2827.2959420700108,-140.18970437201278,-393.10669339045609,124.05028693817003,-20.161609048940957,3105.2155854508542,2671.8174694046284,-2303.267632422534,2303.267632422534,-2671.8174694046284,5556.0376031062005,0.0
310012.02908761695,4007225.878295721,-7500.0,-2620.0811102436205,3365.9181387570729,-1339.4598967017791,-445.36082624413382,253.30416591859387,-29.892913509105277,3452.4926040461282,2490.1977992665234,-1998.1619525750796,1998.1619525750796,-2490.1977992665234,6309.3389656752142,0.0
315012.02908761695,4007225.878295721,-7500.0,-2534.5190394865604,3819.7750391301356,-2738.8759846033513,-486.71447359447706,401.24080584266954,-40.790170147825293,3853.5014099594127,2116.1113134526809,-1538.180157562568,1538.180157562568,-2116.1113134526809,7192.7571755483532,0.0
320012.02908761695,4007225.878295721,-7500.0,-2349.2665522613665,4143.522297497022,-4308.1757211372851,-512.71807696733413,564.52195427403899,-52.604885655838203,4297.2128665992468,1527.5468629831437,-928.02548194367205,928.02548194367205,-1527.5468629831437,8176.9161190980303,0.0
325012.02908761695,4007225.878295721,-7500.0,-2077.8742591561786,4294.34610325843,-5997.1944871196038,-519.31264494060929,737.99030114596974,-64.977635980123537,4767.6849761642716,716.77670715035811,-187.72990561637499,187.72990561637499,-716.77670715035811,9223.2955934408201,0.0
330012.02908761695,4007225.878295721,-7500.0,-1745.4739290925381,4237.8625126088145,-7736.9239139835463,-503.37913593351726,914.81280814018226,-77.45007957887799,5245.29078958845,-305.1660455633982,646.5741802431528,-646.5741802431528,305.1660455633982,10287.026444244222,0.0
335012.02908761695,4007225.878295721,-7500.0,-1387.0469230545593,3954.0123124198649,-9443.6727057011994,-463.26870586929005,1086.8936291420725,-89.491783723111269,5708.2736318894558,-1505.9387377823032,1524.39613035497,-1524.39613035497,1505.9387377823032,11319.774361540134,0.0
340012.02908761695,4007225.878295721,-7500.0,-1043.6120234274135,3441.7298743526444,-11026.26142082351,-399.20751869890233,1245.5430524632111,-100.54181258378753,6142.7164125933305,-2832.2778289633347,2385.3587340647523,-2385.3587340647523,2832.2778289633347,12272.968495254247,0.0
345012.02908761695,4007225.878295721,-7500.0,-756.81056057542958,2721.195798468138,-12395.410961583475,-313.47653236534831,1382.3257223454457,-110.05958927426731,6599.1923700150428,-4213.8223004577694,3165.9535239117208,-3165.9535239117208,4213.8223004577694,13101.319695548547,0.0
350012.02908761695,4007225.878295721,-7500.0,-562.8750772019315,1832.8877698675292,-13473.821156735143,-210.30223288709502,1489.9598403199889,-117.57784211096497,6970.0745754863683,-5570.1041355653715,3807.4767546900466,-3807.4767546900466,5570.1041355653715,13766.302396917616,0.0
355012.02908761695,4007225.878295721,-7500.0,-487.2439434936137,833.35410792741266,-14205.081816643533,-95.454317700139953,1563.1105232382711,-122.75057219621581,7237.8342885569755,-6819.6100984375153,4263.6120312632393,-4263.6120312632393,6819.6100984375153,14239.125942856097,0.0
360012.02908761695,4007225.878295721,-7500.0,-540.98669133071087,-211.57946716128478,-14559.719280566211,24.387574077033435,1598.9348269802915,-125.3860121947729,7393.762651201112,-7889.250970174221,4506.128544477865,-4506.128544477865,7889.250970174221,14502.746006690424,0.0
365012.02908761695,4007225.878295721,-7500.0,-719.76251810540009,-1234.8312112370068,-14537.311290348161,142.38293184650456,1597.285938002954,-125.46096868435586,7435.6505769551395,-8722.4366037270811,4527.6006761404751,-4527.6006761404751,8722.4366037270811,14552.62344772588,0.0
370012.02908761695,4007225.878295721,-7500.0,-1005.3822055468439,-2175.7587698653269,-14164.511298941212,252.25972477563377,1560.5582078506295,-123.11363819031418,7367.4990262104166,-9284.3439857384255,4340.8025088539443,-4340.8025088539443,9284.3439857384255,14396.168644291827,0.0
375012.02908761695,4007225.878295721,-7500.0,-1369.4258512212079,-2986.1694053672577,-13489.70782747786,348.90167011248451,1493.2286156485022,-118.61877469848687,7198.6594857463888,-9563.685183051799,3975.2092547819589,-3975.2092547819589,9563.685183051799,14051.046344192828,0.0
380012.02908761695,4007225.878295721,-7500.0,-1777.9692605986165,-3633.8316257656525,-12575.632930179467,428.71503491411522,1401.2027986759256,-112.34914941080109,6942.5516289688994,-9571.1124267616779,3471.6118835759139,-3471.6118835759139,9571.1124267616779,13542.685527023641,0.0
320012.02908761695,4012225.878295721,-7500.0,-1993.6159075114433,3633.993501981628,-4171.628743228147,-434.38480799659447,514.30271132817074,-45.492806396985138,3827.6185026739449,1120.6387596815071,-633.42950091106866,633.42950091106866,-1120.6387596815071,7332.0719641622081,0.0
325012.02908761695,4012225.878295721,-7500.0,-1760.3837117376879,3718.7140042530841,-5589.7541761749226,-435.55235505401953,654.81648144609562,-55.17271899763147,4222.8367237654084,403.68829464909686,-1.4687192529948163,1.4687192529948163,-403.68829464909686,8212.4101374859456,0.0
330012.02908761695,4012225.878295721,-7500.0,-1484.478496433079,3635.6630852231769,-7034.2267843302952,-419.08480841323671,796.65155370604293,-64.848562717628724,4620.1735748940046,-475.40734907076518,696.73616746852167,-696.73616746852167,475.40734907076518,9098.2767342811912,0.0
335012.02908761695,4012225.878295721,-7500.0,-1193.0945582197701,3372.2456737505631,-8440.3827634712979,-384.01029929258237,933.74892702127931,-74.134675637910235,5003.1839461585078,-1489.1748094602081,1421.6018588502106,-1421.6018588502106,1489.1748094602081,9952.8316506614028,0.0
340012.02908761695,4012225.878295721,-7500.0,-917.18464840014508,2929.8744370569257,-9739.1928242271788,-330.70129359652032,1059.7217851432795,-82.629579610874046,5386.8955680641739,-2595.422904744556,2127.1501047709735,-2127.1501047709735,2595.422904744556,10739.477432839913,0.0
345012.02908761695,4012225.878295721,-7500.0,-687.67340460548405,2325.2390337199636,-10863.833065717066,-260.9708155728967,1168.4342635458815,-89.950100284896848,5765.7725649986296,-3740.1787615549879,2765.7809641064146,-2765.7809641064146,3740.1787615549879,11424.284189879349,0.0
350012.02908761695,4012225.878295721,-7500.0,-531.35067398302579,1589.4556404941272,-11756.581485206809,-177.9811664956234,1254.6021466700745,-95.766195468485805,6074.4266326884253,-4862.6387974773079,3293.7192663312289,-3293.7192663312289,4862.6387974773079,11978.367841143763,0.0
355012.02908761695,4012225.878295721,-7500.0,-467.23433587677152,765.09090011771218,-12374.877353339154,-85.966749721378562,1314.3194676980695,-99.832137751866682,6301.200662082013,-5901.4136181659505,3676.1680705370436,-3676.1680705370436,5901.4136181659505,12379.919665232977,0.0
360012.02908761695,4012225.878295721,-7500.0,-504.11908839732098,-98.48351236985917,-12695.489141659042,10.190489847737735,1345.423906436233,-102.00795408398582,6439.2721361713238,-6801.0215951727014,3891.2209349495197,-3891.2209349495197,6801.0215951727014,12615.600968236226,0.0
365012.02908761695,4012225.878295721,-7500.0,-639.76840405870939,-950.57147434931665,-12716.119790767627,105.46133677321134,1347.6446346371213,-102.26926504871426,6486.5222182459738,-7517.5041677138333,3931.8439312056043,-3931.8439312056043,7517.5041677138333,12681.118225946871,0.0
335012.02908761695,3797225.878295721,-12500.0,-467.34057167468416,-1308.1138227969145,-13077.904492086491,-246.94559642914672,-2317.2426933434053,-298.42192132787528,6864.6163804510452,-7972.3558910086131,4170.0828083195329,-4170.0828083195329,7972.3558910086131,13513.337416837481,0.0
340012.02908761695,3797225.878295721,-12500.0,-285.12657430021841,-391.07519806938205,-13168.268633623396,-82.315740130251086,-2330.1764800153642,-299.42154059757922,6849.5891136905848,-7272.7513661523362,4197.0768497930248,-4197.0768497930248,7272.7513661523362,13511.465647520467,0.0
345012.02908761695,3797225.878295721,-12500.0,-215.45721030180107,557.27663345868552,-12937.373858339395,86.86126650449026,-2292.3877567290883,-294.73229393032295,6736.4352636121757,-6361.3960279955772,4030.739507355162,-4030.739507355162,6361.3960279955772,13325.327312729311,0.0
350012.02908761695,3797225.878295721,-12500.0,-264.85108811054903,1480.5003293200059,-12380.018222945771,251.62554609587275,-2203.2592029355083,-284.31813174634158,6525.8224787087292,-5282.1916048838675,3672.9980238302592,-3672.9980238302592,5282.1916048838675,12956.482950676267,0.0
355012.02908761695,3797225.878295721,-12500.0,-426.93551440837723,2321.6312738790489,-11514.496835623828,402.98932233120956,-2065.6184246020498,-268.49764424817516,6224.0341833817174,-4093.6628477273075,3143.0755010772568,-3143.0755010772568,4093.6628477273075,12416.652654273732,0.0
360012.02908761695,3797225.878295721,-12500.0,-682.78120156752107,3029.6368624489342,-10381.743906852633,532.87644963810385,-1885.5981034064935,-247.92649074359412,5887.6061567655315,-2863.0197313676167,2475.9962187546203,-2475.9962187546203,2863.0197313676167,11727.36231681752,0.0
365012.02908761695,3797225.878295721,-12500.0,-1003.2848282003804,3565.2118880900298,-9041.3787603490327,634.96294504163177,-1672.0721966763451,-223.54056819148815,5525.1473920370763,-1658.8601566773834,1718.6647596555451,-1718.6647596555451,1658.8601566773834,10918.600199495562,0.0
370012.02908761695,3797225.878295721,-12500.0,-1353.1708694513991,3904.8568704534623,-7565.2803092576996,705.27661947664114,-1435.7544113872275,-196.46691606922684,5124.0471610125205,-543.79246755221857,924.19808239375743,-924.19808239375743,543.79246755221857,10026.663369802778,0.0
375012.02908761695,3797225.878295721,-12500.0,-1695.805001948291,4042.5424602791991,-6029.8408090016592,742.46080091646684,-1188.111202863,-167.91781093199174,4702.5197933146019,431.71677302913008,145.58763718478892,-145.58763718478892,-431.71677302913008,9091.4927753133015,0.0
380012.02908761695,3797225.878295721,-12500.0,-1997.8643974373588,3988.8337355167173,-4508.2554016186068,747.68289345702397,-940.2695421321099,-139.08281503056955,4279.0949796774385,1233.3165528015402,-570.14119444379071,570.14119444379071,-1233.3165528015402,8153.8453382473563,0.0
385012.02908761695,3797225.878295721,-12500.0,-2233.0221418027882,3767.8789823293478,-3064.091161398695,724.23706957299703,-702.08533854923371,-111.03542850790518,3871.0375288717387,1844.1356676568357,-1186.3040513521069,1186.3040513521069,-1844.1356676568357,7252.5916945069912,0.0
320012.02908761695,3802225.878295721,-12500.0,-1797.6792179966474,-4110.0865501531325,-12483.895514616946,-796.73869295158261,-2344.6757340503018,-320.55989357751582,7218.6767998818123,-9835.6375478945029,3412.6994228248291,-3412.6994228248291,9835.6375478945029,14185.811281372211,0.0
325012.02908761695,3802225.878295721,-12500.0,-1323.1957503320084,-3477.6284111043192,-13542.899808293774,-669.64280301972553,-2519.301203557276,-340.63976155421221,7527.1279452544422,-9928.4153287072095,4016.5462776981567,-4016.5462776981567,9928.4153287072095,14797.321553216878,0.0
330012.02908761695,3802225.878295721,-12500.0,-888.18047980153403,-2654.905328394042,-14372.852924688499,-510.86992533646668,-2654.4568165914816,-355.85038231193704,7747.3723287572693,-9734.3050848135008,4487.453844769343,-4487.453844769343,9734.3050848135008,15243.523785505817,0.0
335012.02908761695,3802225.878295721,-12500.0,-533.14285718966005,-1671.1068144395879,-14900.290230176244,-325.80391697616301,-2738.880588667977,-364.99164487980278,7863.3010633724343,-9233.5112437386379,4775.7907203960049,-4775.7907203960049,9233.5112437386379,15493.859780094042,0.0
340012.02908761695,3802225.878295721,-12500.0,-294.07897808029043,-574.5102238954571,-15064.497576399252,-122.75016152274743,-2763.4446065647053,-367.11874417403106,7862.774416612895,-8429.6767703184778,4842.2975092885627,-4842.2975092885627,8429.6767703184778,15525.367613575749,0.0
345012.02908761695,3802225.878295721,-12500.0,-196.65833568787968,570.49610895813635,-14826.45781488335,87.586642744377571,-2722.4393329311679,-361.6683003863223,7739.220473533258,-7352.8975776790121,4664.8623117839415,-4664.8623117839415,7352.8975776790121,15325.750808679944,0.0
350012.02908761695,3802225.878295721,-12500.0,-251.33652592597127,1689.5204588485537,-14175.999926673332,293.06741719139256,-2614.5689588047494,-348.55190986053663,7492.9027992963593,-6059.0227218165373,4243.5549309873923,-4243.5549309873923,6059.0227218165373,14895.671396517204,0.0
355012.02908761695,3802225.878295721,-12500.0,-450.62795610646663,2706.6615216714777,-13135.465615251986,481.40771665344056,-2443.4339174664988,-328.19595858699097,7134.7550434926943,-4624.8088469547838,3602.569060011177,-3602.569060011177,4624.8088469547838,14249.82610141055,0.0
360012.02908761695,3802225.878295721,-12500.0,-769.39137238882017,3553.9378355716508,-11758.772874305054,641.58104789101526,-2217.360183584025,-301.51813137403735,6750.5209696189331,-3139.4427788735429,2788.2937398398226,-2788.2937398398226,3139.4427788735429,13416.53488781508,0.0
365012.02908761695,3802225.878295721,-12500.0,-1168.2729294914225,4179.7895761214832,-10125.728579154453,765.0766093772254,-1948.5648117070193,-269.84002607886845,6310.7092885212578,-1693.9043480983257,1863.6380388882556,-1863.6380388882556,1693.9043480983257,12435.81642342025,0.0
370012.02908761695,3802225.878295721,-12500.0,-1599.6367385506032,4554.9433310720924,-8332.5723819695977,846.77888462014243,-1651.797382520245,-234.75151367073633,5824.8365366538901,-370.22025608949525,899.68104657076901,-899.68104657076901,370.22025608949525,11356.229651611458,0.0
375012.02908761695,3802225.878295721,-12500.0,-2014.6682601722291,4674.5430650584394,-6480.6036391058933,885.31747882296486,-1342.7072643260117,-197.94816158609507,5317.1502914162866,767.30926374172532,-33.612511326255003,33.612511326255003,-767.30926374172532,10230.953689491595,0.0
380012.02908761695,3802225.878295721,-12500.0,-2370.1139788976539,4556.4126518182075,-4665.082419590819,882.86512282887759,-1036.2320785798684,-161.07049476739991,4811.9360961048351,1677.4304887120218,-875.74007468926561,875.74007468926561,-1677.4304887120218,9113.6606441680524,0.0
385012.02908761695,3802225.878295721,-12500.0,-2633.3436868699396,4236.1958967413302,-2966.3246893318974,844.47779510818623,-745.26987116439614,-125.56744080714085,4331.3113160140556,2343.2380702733667,-1581.5866106733931,1581.5866106733931,-2343.2380702733667,8054.6034480459984,0.0
390012.02908761695,3802225.878295721,-12500.0,-2785.0063668914786,3760.7231657196589,-1444.1641785418908,777.15490997783797,-479.80354562891881,-92.601414921483823,3893.4176879565725,2769.8766900904311,-2124.2079074426047,2124.2079074426047,-2769.8766900904311,7097.0748783404888,0.0
395012.02908761695,3802225.878295721,-12500.0,-2819.2170079907387,3181.0780154753543,-136.05280086487267,688.82120851805257,-246.5299303660251,-63.000841060961044,3510.9858030140877,2979.731700372573,-2494.5569670825116,2494.5569670825116,-2979.731700372573,6274.093095282562,0.0
310012.02908761695,3807225.878295721,-12500.0,-3300.8033677044878,-5581.1827634286346,-10808.0461544726,-1154.3841053499257,-2185.4012282689896,-321.71382632114501,7168.9561158776787,-9981.0657252840374,1972.2176287323896,-1972.2176287323896,9981.0657252840374,14119.949147066331,0.0
315012.02908761695,3807225.878295721,-12500.0,-2787.100402108299,-5382.4196302649325,-12383.548988169916,-1096.1184639339006,-2461.7729136706971,-355.71611812850688,7706.6617160981541,-10717.968257648861,2839.9485118399061,-2839.9485118399061,10717.968257648861,15166.833459909856,0.0
320012.02908761695,3807225.878295721,-12500.0,-2215.8110490684126,-4943.3653738834219,-13893.034138387124,-994.35238531607501,-2722.8692402534484,-387.25645281657876,8188.9358660890703,-11225.354941611273,3692.3974893156656,-3692.3974893156656,11225.354941611273,16111.251822774631,0.0
325012.02908761695,3807225.878295721,-12500.0,-1629.3862226430101,-4248.7529282179403,-15242.229831698107,-847.55527217428073,-2953.039478493798,-414.5139857920924,8590.6366888046396,-11434.709647789634,4465.0095716719889,-4465.0095716719889,11434.709647789634,16905.483491447962,0.0
330012.02908761695,3807225.878295721,-12500.0,-1079.3976951003392,-3304.7688165540221,-16328.429247952421,-657.85061808553871,-3135.655754906069,-435.61370346827118,8886.8000573371555,-11289.884908340038,5086.9494426730043,-5086.9494426730043,11289.884908340038,17502.122947487125,0.0
335012.02908761695,3807225.878295721,-12500.0,-620.84964525580597,-2143.6411226837172,-17050.79573037531,-431.6125878168188,-3254.7608010474578,-448.81133535128578,9054.9238418982532,-10757.190877428817,5489.3638091273833,-5489.3638091273833,10757.190877428817,17858.448123476126,0.0
340012.02908761695,3807225.878295721,-12500.0,-304.34410323993689,-824.88892876993418,-17323.241113292501,-179.51974910741069,-3297.0386282932277,-452.70110200215305,9077.5031525561153,-9834.3244717752223,5615.5699730805118,-5615.5699730805118,9834.3244717752223,17941.276185376446,0.0
345012.02908761695,3807225.878295721,-12500.0,-167.3779553507764,568.03125341683801,-17087.866702093579,84.092325282669464,-3253.7980285418325,-446.41506906448888,8944.4813509010964,-8555.8364421846163,5431.3799250374241,-5431.3799250374241,8555.8364421846163,17731.614554255382,0.0
350012.02908761695,3807225.878295721,-12500.0,-226.68668063701244,1936.0279062339464,-16326.194274088364,342.59658480797259,-3122.5722587655687,-429.77332207361877,8655.4934820175258,-6993.1183399614883,4933.1869561489557,-4933.1869561489557,6993.1183399614883,17228.287667790541,0.0
355012.02908761695,3807225.878295721,-12500.0,-473.69970553629088,3176.6528824166676,-15065.356304724546,578.98953167771435,-2907.9489084738311,-403.35249270814779,8240.7297206920321,-5247.9514566984626,4151.5100485740886,-4151.5100485740886,5247.9514566984626,16449.78514186867,0.0
360012.02908761695,3807225.878295721,-12500.0,-874.62433219376737,4198.1090118733391,-13377.215807350818,778.02128427324533,-2621.3717284403351,-368.45192873287408,7783.5251467334811,-3440.2312245185958,3148.5487054431269,-3148.5487054431269,3440.2312245185958,15433.811884049495,0.0
365012.02908761695,3807225.878295721,-12500.0,-1375.4976524158317,4931.9535041190265,-11370.068067507969,928.10958869738329,-2279.8869805974905,-326.9594421768939,7245.3891852575662,-1692.1929263569766,2009.8383412864866,-2009.8383412864866,1692.1929263569766,14234.495825103155,0.0
370012.02908761695,3807225.878295721,-12500.0,-1911.1370588008394,5341.6710169932858,-9174.4627469190964,1022.6485177596052,-1904.0598536554935,-281.13947716720816,6652.303306248823,-112.47859675369472,831.72205158956626,-831.72205158956626,112.47859675369472,12917.666390914192,0.0
375012.02908761695,3807225.878295721,-12500.0,-2415.8083363794817,5425.3552894334507,-6926.2220976463377,1060.4664042483294,-1515.4829902752913,-233.38404526659926,6036.9188545479165,1216.5487042620739,-292.48172145451463,292.48172145451463,-1216.5487042620739,11554.9867050825,0.0
380012.02908761695,3807225.878295721,-12500.0,-2833.0728284115326,5212.3923638168726,-4750.2436377700951,1045.4126464151275,-1134.3689912308707,-185.96890498899518,5431.344488836301,2245.9114118238003,-1284.5524751787909,1284.5524751787909,-2245.9114118238003,10217.817661162358,0.0
385012.02908761695,3807225.878295721,-12500.0,-3122.7527249090176,4755.5461218446262,-2748.1166570339883,985.2539001404574,-777.64739901843836,-140.85511166293813,4863.9960426757571,2960.8437930983314,-2089.3797591417247,2089.3797591417247,-2960.8437930983314,8971.4535103518137,0.0
390012.02908761695,3807225.878295721,-12500.0,-3264.0024029078309,4120.7556484991401,-991.21319158569827,890.19003448767592,-457.81410660938337,-99.558769991146804,4357.0216841109777,3376.2688450540286,-2677.9696656050833,2677.9696656050833,-3376.2688450540286,7869.8880844219848,0.0
395012.02908761695,3807225.878295721,-12500.0,-3254.6281758879386,3377.0269563271499,480.6374098378223,771.32274155923881,-182.57654170976153,-63.097200979703167,3924.3790030336845,3528.8946911602302,-3045.8712079701013,3045.8712079701013,-3528.8946911602302,6950.8715446569458,0.0
400012.02908761695,3807225.878295721,-12500.0,-3107.6450113342357,2588.2156833132999,1655.998809144852,639.34354446689747,44.830397193021128,-32.002421429012955,3570.8424761816314,3468.1639793658719,-3208.3827985593448,3208.3827985593448,-3468.1639793658719,6231.3325251475699,0.0
405012.02908761695,3807225.878295721,-12500.0,-2846.4151267312805,1807.6073952191441,2545.9173946203764,503.5954512015893,224.87791944390813,-6.3849454841119408,3292.3585900580956,3247.9083991002499,-3194.2268567522215,3194.2268567522215,-3247.9083991002499,5704.6913326128424,0.0
305012.02908761695,3812225.878295721,-12500.0,-4510.8745531611221,-6394.7104454057398,-9772.6163835619282,-1410.7096733722169,-2130.2296202015837,-336.89001558150244,7320.4124537037906,-9951.2777024467505,859.84433738402277,-859.84433738402277,9951.2777024467505,14468.289744966625,0.0
310012.02908761695,3812225.878295721,-12500.0,-4042.8348245412526,-6515.744894600688,-11642.654537439896,-1407.2597997458727,-2477.5344541400245,-382.09347532963352,8024.8255229715669,-11107.20124494343,1838.7289600883232,-1838.7289600883232,11107.20124494343,15833.500153307607,0.0
315012.02908761695,3812225.878295721,-12500.0,-3448.9641613539561,-6388.0359005716437,-13568.833790667593,-1354.9384618155652,-2829.1984141272478,-426.91258209538057,8700.8904043088805,-12100.456878359579,2891.5505272680366,-2891.5505272680366,12100.456878359579,17148.440126249403,0.0
320012.02908761695,3812225.878295721,-12500.0,-2763.0371352022771,-5964.1147033638199,-15454.82868148436,-1246.6172366157186,-3167.9028040966891,-469.15881381660188,9318.408998287603,-12835.506297747947,3954.6584049718103,-3954.6584049718103,12835.506297747947,18355.86708963371,0.0
325012.02908761695,3812225.878295721,-12500.0,-2037.0572139010205,-5214.1864291305646,-17180.08792566794,-1078.6029417006534,-3472.7521334452231,-506.30264949308474,9844.0237843870036,-13216.402229502073,4945.6559898717496,-4945.6559898717496,13216.402229502073,19392.479146997888,0.0
330012.02908761695,3812225.878295721,-12500.0,-1338.1540236145322,-4136.048316912982,-18607.851328451343,-852.14381103422033,-3720.7566767297003,-535.66773490845731,10243.613076399739,-13159.804203269601,5769.8031924293882,-5769.8031924293882,13159.804203269601,20193.472944180245,0.0
335012.02908761695,3812225.878295721,-12500.0,-741.30040447516262,-2763.1779925096548,-19598.88527985883,-574.54395253669031,-3889.1437613407811,-554.70266183414878,10485.493050435342,-12610.045822761376,6331.1026547513411,-6331.1026547513411,12610.045822761376,20698.651804488429,0.0
340012.02908761695,3812225.878295721,-12500.0,-318.2347509275005,-1168.327267718025,-20030.03262894064,-259.50083459401355,-3958.308816174193,-561.30392351010801,10544.196909818471,-11553.478551282986,6547.0902999160444,-6547.0902999160444,11553.478551282986,20859.634266245663,0.0
345012.02908761695,3812225.878295721,-12500.0,-124.33327134813256,539.78968909229798,-19814.572804498752,73.651995061382763,-3914.9069741456628,-554.12996304796786,10404.293865829122,-10028.234878330855,6364.6976213860798,-6364.6976213860798,10028.234878330855,20646.969285637104,0.0
350012.02908761695,3812225.878295721,-12500.0,-186.45228249374171,2227.7183248456363,-18920.135870736005,401.87964531938405,-3754.4620849931243,-532.84671178957683,10064.82183264706,-8125.9032188100591,5773.4132046005507,-5773.4132046005507,8125.9032188100591,20055.979443680728,0.0
355012.02908761695,3812225.878295721,-12500.0,-495.24575694398004,3755.2279037880417,-17379.271614078105,701.32896550557314,-3482.8077252573285,-498.2435832662224,9588.5981741808737,-5983.0312811733484,4811.7277135358354,-4811.7277135358354,5983.0312811733484,19109.954696159515,0.0
360012.02908761695,3812225.878295721,-12500.0,-1004.7064701285362,4996.4982601798129,-15288.991705451877,950.61688539718921,-3115.8826745320516,-452.18365666427349,9028.9157820896216,-3763.1024886984806,3564.1558041553526,-3564.1558041553526,3763.1024886984806,17859.749609519029,0.0
365012.02908761695,3812225.878295721,-12500.0,-1639.6996779547273,5859.4926998888495,-12798.460444833861,1133.7964032084524,-2677.8154059358471,-397.39278758291192,8364.5283413936577,-1632.6880602718231,2148.7517896467807,-2148.7517896467807,1632.6880602718231,16379.664424149558,0.0
370012.02908761695,3812225.878295721,-12500.0,-2309.7487938007389,6298.7174886998464,-10087.308631868449,1242.3323442332749,-2197.6685606580445,-337.12704463999262,7634.6677203274021,262.63687574827532,697.93160677790308,-697.93160677790308,-262.63687574827532,14760.243682521503,0.0
375012.02908761695,3812225.878295721,-12500.0,-2925.3564282064135,6318.4746081185904,-7339.7940364956694,1275.684346813309,-1705.5728652419684,-274.78514122956932,6883.8335738031683,1816.9091446838174,-662.51418986869737,662.51418986869737,-1816.9091446838174,13099.312244995454,0.0
380012.02908761695,3812225.878295721,-12500.0,-3412.5841295493024,5966.646016848963,-4720.8327820882996,1240.4928965768445,-1229.0848719513465,-213.53902833476397,6154.8384914901544,2973.1922713997806,-1831.0956847626699,1831.0956847626699,-2973.1922713997806,11492.674247425644,0.0
385012.02908761695,3812225.878295721,-12500.0,-3722.5991263965634,5321.6600289506605,-2358.7468150089608,1148.7166253830442,-790.45138826100515,-156.04469162135146,5484.207538211801,3723.0153837054536,-2741.370002244777,2741.370002244777,-3723.0153837054536,10025.439461341983,0.0
390012.02908761695,3812225.878295721,-12500.0,-3834.8545446427452,4476.6700110345473,-337.0156838514169,1015.2711458953844,-405.13812831684373,-104.26665619442393,4898.4963640294036,4097.8414258512348,-3364.6293262744548,3364.6293262744548,-4097.8414258512348,8764.1102098779465,0.0
395012.02908761695,3812225.878295721,-12500.0,-3754.5627134908523,3524.8132686067725,1305.3692390808944,855.72155276310252,-81.617749222242878,-59.424493763227133,4411.8094110409274,4156.1251264310358,-3705.7266393414207,3705.7266393414207,-4156.1251264310358,7749.1611232812065,0.0
400012.02908761695,3812225.878295721,-12500.0,-3506.4085019419531,2548.1577286424276,2567.2502073846549,684.43323764464139,177.85566525322068,-22.040709687053148,4025.0883715123946,3969.6380345223429,-3794.6176335273817,3794.6176335273817,-3969.6380345223429,6989.0525934952575,0.0
405012.02908761695,3812225.878295721,-12500.0,-3126.8030342227289,1611.3283680858951,3475.3531904095635,513.37406837255219,375.88639218666816,7.941104530949465,3727.7929041331045,3611.795759899388,-3676.445901870381,3676.445901870381,-3611.795759899388,6459.3099455529928,0.0
410012.02908761695,3812225.878295721,-12500.0,-2656.5729725050296,759.46025072457655,4073.7524101022746,351.56904116404172,518.38086874062992,31.004911681684426,3501.9047453125104,3149.3783599017229,-3402.4021651506951,3402.4021651506951,-3149.3783599017229,6110.5956462768509,0.0
415012.02908761695,3812225.878295721,-12500.0,-2135.2349082094424,19.361298846533309,4414.6078262652509,205.08176951846735,613.08931650785257,47.907983173004673,3326.9711954993136,2637.8405917899481,-3022.6460701414708,3022.6460701414708,-2637.8405917899481,5884.0671164932382,0.0
300012.02908761695,3817225.878295721,-12500.0,-5790.6115012157015,-6824.0898112455061,-8189.7114370023746,-1627.0091769208257,-1964.0945543294224,-338.99235381013739,7253.8596606978172,-9298.1390303369608,-542.03826518907408,542.03826518907408,9298.1390303369608,14414.36419246273,0.0
305012.02908761695,3817225.878295721,-12500.0,-5479.9040845178461,-7316.666022446354,-10222.428661520591,-1696.0441008476685,-2367.4444521693158,-394.96730105254022,8115.0217692956167,-10831.547961922295,429.98486175147082,-429.98486175147082,10831.547961922295,16078.197680519046,0.0
310012.02908761695,3817225.878295721,-12500.0,-4980.7768415704841,-7597.0617684657509,-12453.622644450366,-1718.0915223535085,-2800.971809587898,-453.65972578797368,8987.63236097148,-12316.950029155789,1574.3606068347153,-1574.3606068347153,12316.950029155789,17768.132966774258,0.0
315012.02908761695,3817225.878295721,-12500.0,-4304.1589854643653,-7587.1107135833799,-14806.756991971162,-1679.7663472965908,-3249.1080143606555,-512.84098858198104,9840.3007157307766,-13646.544047554838,2846.1927624513437,-2846.1927624513437,13646.544047554838,19424.856406878502,0.0
320012.02908761695,3817225.878295721,-12500.0,-3485.3418726644459,-7214.6000894140961,-17166.621261854751,-1569.5415516262524,-3689.8969910627197,-569.57653570498792,10634.382259175019,-14693.771418535725,4170.8204781036193,-4170.8204781036193,14693.771418535725,20975.181959756243,0.0
325012.02908761695,3817225.878295721,-12500.0,-2586.5300983257935,-6426.7458991142694,-19380.255088247955,-1380.0583623268276,-4095.5231296255952,-620.34884661457716,11325.592046201633,-15324.805138821146,5444.2558923357255,-5444.2558923357255,15324.805138821146,22335.115309637917,0.0
330012.02908761695,3817225.878295721,-12500.0,-1694.4726736682503,-5205.5143454015079,-21265.601579840291,-1110.569012854794,-4434.1137717413203,-661.3215098455471,11867.059070502644,-15416.350577792102,6540.0605273174524,-6540.0605273174524,15416.350577792102,23415.651748686552,0.0
335012.02908761695,3817225.878295721,-12500.0,-911.57039077060551,-3581.5615726248529,-22629.458184626837,-768.96184277957332,-4672.9600468712433,-688.74460768756524,12213.831910916933,-14878.087192236833,7323.874675160072,-7323.874675160072,14878.087192236833,24131.347466565927,0.0
340012.02908761695,3817225.878295721,-12500.0,-340.34596262085114,-1642.3411534856546,-23293.979295864046,-372.68774233821205,-4782.9153921519655,-699.45217850714982,12328.467466675487,-13675.623923245848,7674.7731580211421,-7674.7731580211421,13675.623923245848,24410.916182370882,0.0
345012.02908761695,3817225.878295721,-12500.0,-63.535548934760016,470.04144996073455,-23127.917735326602,52.013343406485205,-4743.295321591625,-691.36818013409652,12187.181245144035,-11847.921350157034,7509.870742928978,-7509.870742928978,11847.921350157034,24208.403753219616,0.0
350012.02908761695,3817225.878295721,-12500.0,-124.51091325312267,2573.7954927793458,-22075.544965978672,472.8515143236304,-4546.1775047466599,-663.9071416843916,11789.771504182307,-9512.6433885839433,6806.0056721505644,-6806.0056721505644,9512.6433885839433,23512.672421285886,0.0
355012.02908761695,3817225.878295721,-12500.0,-514.07470221678409,4474.0269234361222,-20174.987808152451,855.88485205141637,-4198.935591366846,-618.16796103827971,11235.994770731213,-6855.2633201194767,5611.5177154878802,-5611.5177154878802,6855.2633201194767,22353.015875385358,0.0
360012.02908761695,3817225.878295721,-12500.0,-1168.7230239119801,5995.413477783427,-17559.009574330139,1170.6877046223765,-3724.0848572770851,-556.85672770838789,10541.767768267368,-4102.1963819640068,4042.9049551124308,-4042.9049551124308,4102.1963819640068,20798.976873423195,0.0
365012.02908761695,3817225.878295721,-12500.0,-1982.0715448110907,7012.4253585249171,-14436.488714358507,1395.0362760651301,-3156.3110096730275,-483.95066272119431,9713.4975555921101,-1484.0054078033697,2265.8155401448339,-2265.8155401448339,1484.0054078033697,18954.226443646858,0.0
370012.02908761695,3817225.878295721,-12500.0,-2826.5676880607948,7468.6956500791939,-11058.469444765467,1517.9372674448268,-2537.2740293908196,-404.16886751444571,8807.5613992790022,801.80831792156437,465.02131317119728,-465.02131317119728,-801.80831792156437,16945.297134279142,0.0
375012.02908761695,3817225.878295721,-12500.0,-3578.9746112057487,7380.6691059545956,-7678.0351971122318,1540.3276451072904,-1909.5049969847535,-322.36694925448512,7885.3844412472163,2618.5493751619028,-1188.0636271608673,1188.0636271608673,-2618.5493751619028,14907.585598608182,0.0
380012.02908761695,3817225.878295721,-12500.0,-4142.240258689897,6826.0098409065731,-4514.3259589064673,1473.498595063114,-1310.8270242689432,-242.97710629964121,7004.4968329419344,3902.5537448439159,-2561.5647488730096,2561.5647488730096,-3902.5537448439159,12970.936311475754,0.0
385012.02908761695,3817225.878295721,-12500.0,-4458.4315383472585,5921.8708733281474,-1728.5654548716664,1335.9232040790919,-770.42571360801787,-169.5887071658658,6211.6771736858027,4659.3151040973689,-3577.2946266933991,3577.2946266933991,-4659.3151040973689,11246.278440682501,0.0
390012.02908761695,3817225.878295721,-12500.0,-4511.1474877402152,4800.1753688642011,584.91832971214251,1149.4741529199914,-307.06261030253586,-104.71896020247331,5537.7058999364654,4947.7436591342248,-4211.7894361905292,4211.7894361905292,-4947.7436591342248,9813.4007830137652,0.0
395012.02908761695,3817225.878295721,-12500.0,-4319.2899649207502,3586.2019041059234,2394.4280358540636,935.95160185960879,70.714218915882796,-49.774998667033486,4994.4378156898174,4859.0375170254611,-4487.1323271624078,4487.1323271624078,-4859.0375170254611,8709.994142010506,0.0
400012.02908761695,3817225.878295721,-12500.0,-3925.956604196233,2384.1190588368481,3717.9976615892647,714.51887414965961,362.93448753396177,-5.1686326288272078,4575.2656611966177,4496.1839861905191,-4456.3922799109132,4456.3922799109132,-4496.1839861905191,7925.3478312503785,0.0
405012.02908761695,3817225.878295721,-12500.0,-3386.3244581805325,1270.2130400353647,4607.0578758579459,500.25563993198529,575.86097565809575,29.474155743012112,4259.5938624730561,3957.9879406969089,-4188.3416317225247,4188.3416317225247,-3957.9879406969089,7405.6731779607662,0.0
410012.02908761695,3817225.878295721,-12500.0,-2757.3016722369712,292.47608830876447,5130.7898538050158,303.72238922810755,719.5598201418328,55.068625909315905,4020.1287524757504,3329.0596099485911,-3754.6492645498529,3754.6492645498529,-3329.0596099485911,7073.4608191712678,0.0
415012.02908761695,3817225.878295721,-12500.0,-2090.2846729360426,-525.67570084703254,5363.5674662923002,131.26088540041815,805.80123585583999,72.838173929834554,3830.0915400374015,2675.3308744315841,-3220.9869938033212,3220.9869938033212,-2675.3308744315841,6851.5731249982919,0.0
420012.02908761695,3817225.878295721,-12500.0,-1427.1541591616622,-1179.7533734975975,5376.3015071006857,-14.284412148731484,846.48492664979005,84.12181758468698,3667.8437401536507,2043.6964043632561,-2642.0857117595615,2642.0857117595615,-2043.6964043632561,6679.4267244031353,0.0
290012.02908761695,3822225.878295721,-12500.0,-6820.0450163327851,-5834.7225968535458,-4491.6809415130965,-1597.6256815921104,-1316.629220993723,-268.31111846637589,6132.893458876657,-6364.1714004179421,-2668.6061920125785,2668.6061920125785,6364.1714004179421,12168.870071484205,0.0
295012.02908761695,3822225.878295721,-12500.0,-6970.7799905568081,-6740.9164267830902,-6174.3173999138799,-1769.0446604525789,-1688.0127381970065,-325.54727967732697,6976.6767006191885,-7997.6042461292182,-2089.971124493235,2089.971124493235,7997.6042461292182,13919.675716168815,0.0
300012.02908761695,3822225.878295721,-12500.0,-6934.1701601284321,-7597.6246653440712,-8190.9120661298693,-1920.6894897908576,-2120.8160906626831,-390.2576310287763,7934.9489006329868,-9791.5841607992006,-1270.8891233896102,1270.8891233896102,9791.5841607992006,15822.725087591236,0.0
305012.02908761695,3822225.878295721,-12500.0,-6673.9101178882383,-8326.9199757031874,-10540.552841069164,-2036.7110049126543,-2612.0660550675238,-461.56913504832875,8982.0168433047293,-11684.956906845415,-196.55911949261827,196.55911949261827,11684.956906845415,17846.317287244907,0.0
310012.02908761695,3822225.878295721,-12500.0,-6167.0645225642002,-8832.838772006955,-13189.053297972003,-2098.6728410602491,-3152.2543272141766,-537.72187900286178,10063.871204352197,-13581.964271939993,1124.3446875349255,-1124.3446875349255,13581.964271939993,19940.098626765222,0.0
315012.02908761695,3822225.878295721,-12500.0,-5413.6405504158383,-9007.5955493318615,-16057.177335179344,-2087.0274422866751,-3723.543942515601,-615.90703123552737,11141.993237407929,-15349.945662498332,2649.6806070233142,-2649.6806070233142,15349.945662498332,22032.696095932188,0.0
320012.02908761695,3822225.878295721,-12500.0,-4446.0793090248008,-8743.7847502549994,-19011.148636278627,-1983.5863494516507,-4298.5805135690607,-692.21195802345255,12167.263492922884,-16823.299964299655,4295.5508764739907,-4295.5508764739907,16823.299964299655,24031.367955190311,0.0
325012.02908761695,3822225.878295721,-12500.0,-3335.860019390936,-7952.9511889323458,-21859.466051403127,-1774.9239905914594,-4840.5720525298584,-761.74474787811494,13080.964222075088,-17816.537073578285,5933.161639924625,-5933.161639924625,17816.537073578285,25824.885745646097,0.0
330012.02908761695,3822225.878295721,-12500.0,-2193.556581301505,-6588.8627174114708,-24360.611221232331,-1456.2970804516237,-5305.3004758115294,-818.99017604150686,13818.481271115097,-18147.93985450672,7394.785665218129,-7394.785665218129,18147.93985450672,27290.624974997882,0.0
335012.02908761695,3822225.878295721,-12500.0,-1158.9150324922971,-4671.0508702072248,-26245.456900681169,-1035.2442797518481,-5645.4994644426288,-858.40993467069245,14315.51717910755,-17672.584303619249,8491.9449312125289,-8491.9449312125289,17672.584303619249,28306.357119874174,0.0
340012.02908761695,3822225.878295721,-12500.0,-379.50852928824514,-2301.4416503394559,-27254.920797645471,-533.70000817028199,-5817.4377178728901,-875.22309121478054,14516.456997896212,-16319.158428125069,9045.9836034057662,-9045.9836034057662,16319.158428125069,28766.006626081657,0.0
345012.02908761695,3822225.878295721,-12500.0,19.5442976376507,334.08804798001643,-27188.012559100185,12.542494314961528,-5788.7127374848851,-866.22025461112776,14384.345905439213,-14120.800135608948,8926.3871916926437,-8926.3871916926437,14120.800135608948,28597.187648839001,0.0
350012.02908761695,3822225.878295721,-12500.0,-32.463673078774704,2985.0290357422195,-25949.377945119533,557.67084870878466,-5545.4763089501994,-830.42319464236505,13924.512366804454,-11228.318705835671,8087.0536937540273,-8087.0536937540273,11228.318705835671,27777.034472887812,0.0
355012.02908761695,3822225.878295721,-12500.0,-528.71698784391538,5375.9725599708836,-23581.477467657194,1052.6520633404714,-5096.9096180505749,-769.3981157914917,13265.710164477574,-7896.8967033285544,6587.9540626770331,-6587.9540626770331,7896.8967033285544,26342.024669910596,0.0
360012.02908761695,3822225.878295721,-12500.0,-1380.2595024177094,7258.1013900636135,-20268.822298056999,1453.516474653569,-4475.3309129434228,-687.13271083459222,12394.539736482557,-4445.6001563129885,4592.2401448815453,-4592.2401448815453,4445.6001563129885,24388.8170335262,0.0
365012.02908761695,3822225.878295721,-12500.0,-2433.6402873960692,8457.5049609020061,-16309.282721650272,1728.9074947599274,-3731.4284025963116,-589.48011227508107,11351.029787500407,-1199.1279464179336,2336.6185486694767,-2336.6185486694767,1199.1279464179336,22064.666200391817,0.0
370012.02908761695,3822225.878295721,-12500.0,-3505.9628211281633,8905.2577443270056,-12059.773949442115,1864.7974486102048,-2925.8220658331797,-483.31538464105319,10216.282735789211,1570.9892250019598,83.221839500956662,-83.221839500956662,-1570.9892250019598,19549.521655473553,0.0
375012.02908761695,3822225.878295721,-12500.0,-4425.5823568979013,8640.7684710035574,-7872.4794632561216,1865.2213606657124,-2119.2424957878611,-375.59235258402538,9076.2372065660675,3688.4456668288094,-1931.7909703318082,1931.7909703318082,-3688.4456668288094,17033.577876438354,0.0
380012.02908761695,3822225.878295721,-12500.0,-5065.3139581115583,7790.0662887624658,-4040.0342571945612,1749.2425778703516,-1363.8859995036128,-272.49881382612762,8008.695742479109,5087.3547883896508,-3537.433772109046,3537.433772109046,-5087.3547883896508,14694.345905561446,0.0
385012.02908761695,3822225.878295721,-12500.0,-5359.4929526446713,6529.0802579959027,-762.58468828450327,1545.4979064226243,-697.80815726850176,-178.85698716350885,7072.9295278178952,5801.0507598643026,-4645.7839756904714,4645.7839756904714,-5801.0507598643026,12675.520240557971,0.0
390012.02908761695,3822225.878295721,-12500.0,-5303.4898989883586,5044.7953246951192,1859.9150550020358,1286.1097799157792,-142.9803088146794,-97.835368198777971,6302.3494416057465,5933.3867386810471,-5248.3609406104952,5248.3609406104952,-5933.3867386810471,11067.81111975046,0.0
395012.02908761695,3822225.878295721,-12500.0,-4940.3158329512744,3504.4741527964279,3815.1368644382655,1001.4920406055845,293.49850897770841,-30.958905270113458,5701.8329413988895,5624.3673693716264,-5397.558581672607,5397.558581672607,-5624.3673693716264,9893.8109611030468,0.0
400012.02908761695,3822225.878295721,-12500.0,-4341.4857602076318,2037.6595171410211,5154.5993120000667,716.89698494429126,616.1941387588156,21.655993403158153,5251.4222494387395,5019.8436090641708,-5182.0832779029233,5182.0832779029233,-5019.8436090641708,9105.8745225647162,0.0
405012.02908761695,3822225.878295721,-12500.0,-3588.4995635384116,730.55062109416167,5967.4852053148679,450.84190712576151,837.39320285108101,60.942122773969373,4916.0531058680244,4250.4425288350758,-4703.9049086007071,4703.9049086007071,-4250.4425288350758,8606.7316903270694,0.0
410012.02908761695,3822225.878295721,-12500.0,-2758.7480020193752,-370.64904117253178,6358.0496488908857,215.06168491244878,973.39183661243908,88.493900287072648,4657.3915227474845,3420.5469764506834,-4060.9790363191314,4060.9790363191314,-3420.5469764506834,8286.0382146259381,0.0
415012.02908761695,3822225.878295721,-12500.0,-1917.0246920741431,-1251.5593474050902,6429.3255793093285,15.432320612412301,1041.5624601092352,106.22169205418837,4442.7665421484007,2605.4212410415698,-3336.8766917815315,3336.8766917815315,-2605.4212410415698,8051.2632375908752,0.0
420012.02908761695,3822225.878295721,-12500.0,-1112.0249177599374,-1920.0617536029151,6273.3069805914183,-146.66497014796607,1058.3646116164612,116.08489635696324,4248.9724446913251,1853.6009761614548,-2596.412335063148,2596.412335063148,-1853.6009761614548,7840.0403434024593,0.0
425012.02908761695,3822225.878295721,-12500.0,-376.40517801996691,-2397.5371847453353,5966.4176013876167,-272.93130758192848,1038.2172516336466,119.91333423617964,4062.0097463806992,1191.881607135695,-1885.5036804759779,1885.5036804759779,-1191.881607135695,7617.8334090904082,0.0
290012.02908761695,3827225.878295721,-12500.0,-7849.7942555757381,-6086.9470614127795,-3925.2657789488144,-1807.1941206190468,-1320.0511202805474,-295.81307187630239,6597.5284783147035,-6133.598144141215,-3578.4921943335971,3578.4921943335971,6133.598144141215,12999.883516970276,0.0
295012.02908761695,3827225.878295721,-12500.0,-8177.0190898276442,-7229.1128897771359,-5733.0179176169977,-2039.3844128202606,-1747.1405055145551,-365.58598500054126,7582.3355044812179,-8007.5451075924584,-3053.7462573255607,3053.7462573255607,8007.5451075924584,15043.784860311283,0.0
300012.02908761695,3827225.878295721,-12500.0,-8291.9299646499876,-8364.2531214131086,-7968.439001329888,-2256.7009588248175,-2257.7744559223443,-446.07138792625301,8677.4769786274246,-10130.76229920279,-2233.0080293148194,2233.0080293148194,10130.76229920279,17308.292920781565,0.0
305012.02908761695,3827225.878295721,-12500.0,-8136.5672452607387,-9401.1168754730043,-10653.814341790585,-2439.0182463598535,-2852.3259121714905,-536.56044760909413,9916.858692489719,-12446.117678944622,-1079.8703670549157,1079.8703670549157,12446.117678944622,19764.221365366473,0.0
310012.02908761695,3827225.878295721,-12500.0,-7664.8037444519787,-10218.967547154916,-13773.179994179396,-2561.464075183937,-3522.9333353297106,-635.12215653371857,11255.871789157411,-14849.82089823469,416.39425569968262,-416.39425569968262,14849.82089823469,22357.705368862393,0.0
315012.02908761695,3827225.878295721,-12500.0,-6856.2832478591808,-10672.465247258146,-17253.579410031714,-2595.9724035280256,-4250.3904340009904,-738.29204351623389,12621.069747917909,-17183.72278454655,2225.136133718981,-2225.136133718981,17183.72278454655,25005.266812718539,0.0
320012.02908761695,3827225.878295721,-12500.0,-5732.1779951892067,-10605.353370167211,-20947.019366722914,-2514.4340147720304,-5001.5473117636129,-840.89546293985381,13949.518900501307,-19235.14718841809,4258.8321702193907,-4258.8321702193907,19235.14718841809,27591.126339829912,0.0
325012.02908761695,3827225.878295721,-12500.0,-4368.9475427325679,-9874.9563166956159,-24619.037353703821,-2293.5846031511887,-5728.3001559314353,-936.13669618214408,15163.583684783862,-20749.591172548277,6362.8447509519419,-6362.8447509519419,20749.591172548277,29968.83717133561,0.0
330012.02908761695,3827225.878295721,-12500.0,-2904.1333011528704,-8386.6778382725879,-27951.821930986818,-1921.2000564814325,-6369.4253912814174,-1016.0667535466521,16173.998906270706,-21460.623903923719,8317.318687994597,-8317.318687994597,21460.623903923719,31969.267553189904,0.0
335012.02908761695,3827225.878295721,-12500.0,-1527.4288298648637,-6133.000200123709,-30569.969149314304,-1402.393405643282,-6856.3090434542974,-1072.4779431984384,16888.126525248648,-21137.550463134652,9858.032155575107,-9858.032155575107,21137.550463134652,33416.420742507566,0.0
340012.02908761695,3827225.878295721,-12500.0,-452.42488372371406,-3225.8119191948776,-32092.862079325241,-764.04155257683954,-7122.7292354315814,-1098.1370723557952,17222.394915689187,-19644.170510552471,10719.23510857045,-10719.23510857045,19644.170510552471,34150.728770973088,0.0
345012.02908761695,3827225.878295721,-12500.0,129.32267352429398,92.729698835441042,-32208.819624283457,-55.120414058435387,-7117.3684975205288,-1088.1128670618345,17118.724136746361,-16993.384964528464,10693.459663687747,-10693.459663687747,16993.384964528464,34056.918635992799,0.0
350012.02908761695,3827225.878295721,-12500.0,101.12561182124229,3473.4813704965104,-30754.249964531504,658.57433713387002,-6816.0951136130152,-1040.8540218148592,16594.56800927093,-13376.639909571899,9692.9637688958974,-9692.9637688958974,13376.639909571899,33090.722955303499,0.0
355012.02908761695,3827225.878295721,-12500.0,-537.56630100336531,6520.1373405242548,-27771.644402538721,1305.07227705949,-6230.0727194469619,-958.68541927918136,15790.23752556066,-9149.8396465575497,7790.2546438937861,-7790.2546438937861,9149.8396465575497,31296.823999039727,0.0
360012.02908761695,3827225.878295721,-12500.0,-1660.1694037851464,8872.217561541036,-23521.500834398379,1819.775830356979,-5406.4536915937706,-847.5645866395929,14683.71123586001,-4771.2739972264671,5217.7248250332677,-5217.7248250332677,4771.2739972264671,28811.724556019682,0.0
365012.02908761695,3827225.878295721,-12500.0,-3040.7240511773371,10284.556237455623,-18437.447862845736,2157.8936632745863,-4420.6502522987739,-716.15619856232865,13353.875818012808,-707.19185067642866,2320.6174220298958,-2320.6174220298958,707.19185067642866,25848.90135367489,0.0
370012.02908761695,3827225.878295721,-12500.0,-4412.0714100036466,10675.194742728663,-13036.676424255926,2301.8941689517233,-3362.2695820804252,-574.48139341963235,11918.893302578927,2663.7767769134607,-522.36303772754582,522.36303772754582,-2663.7767769134607,22669.333377834086,0.0
375012.02908761695,3827225.878295721,-12500.0,-5532.4559958657319,10126.380760059472,-7815.9761546890231,2261.9831018965856,-2319.0042292313847,-432.46750914757712,10500.694414096733,5115.4556347963717,-2982.3620739692292,2982.3620739692292,-5115.4556347963717,19544.41300725305,0.0
380012.02908761695,3827225.878295721,-12500.0,-6236.5037145285869,8843.4773007065069,-3167.0797576845075,2070.2618249598863,-1363.115208722021,-298.70100492004889,9204.892232316326,6591.1785141957635,-4839.5558942875114,4839.5558942875114,-6591.1785141957635,16718.453999994646,0.0
385012.02908761695,3827225.878295721,-12500.0,-6456.4379767485934,7092.0198567116231,667.3891312714826,1771.2598023661617,-543.5689439921349,-179.59030261614078,8104.8317449722008,7176.944057944379,-6003.8335296944779,6003.8335296944779,-7176.944057944379,14374.326911975899,0.0
390012.02908761695,3827225.878295721,-12500.0,-6213.8467823722385,5136.50963550499,3595.0888402870373,1412.1164320772614,115.52478728346182,-79.022312443610659,7231.916301271649,7049.3835082474707,-6499.9955447087013,6499.9955447087013,-7049.3835082474707,12603.517014469795,0.0
395012.02908761695,3827225.878295721,-12500.0,-5592.7655156368592,3197.1873515904745,5644.6490920913657,1034.916778661079,611.54467177279798,1.5243682850013875,6575.474205020073,6420.2372440380941,-6431.8903612934146,6431.8903612934146,-6420.2372440380941,11389.089132427513,0.0
400012.02908761695,3827225.878295721,-12500.0,-4707.4896100085707,1429.7945023978218,6923.3625051422068,672.27810321596246,957.35501798113455,62.539696435871164,6093.9217294401478,5492.6131238631015,-5941.8436998255193,5941.8436998255193,-5492.6131238631015,10620.206751917256,0.0
405012.02908761695,3827225.878295721,-12500.0,-3675.1686696774004,-75.380852979660986,7576.3503607533785,346.02409600273722,1174.8304706889094,105.88494497865152,5733.186665910036,4434.9115327033542,-5176.9680492705738,5176.9680492705738,-4434.9115327033542,10142.355494522788,0.0
410012.02908761695,3827225.878295721,-12500.0,-2597.7608332084919,-1282.6614499114796,7755.2239638122328,68.065673319203768,1289.344460289808,134.19094415084015,5443.4927203701991,3370.9646076534764,-4267.230234878778,4267.230234878778,-3370.9646076534764,9813.296434365182,0.0
415012.02908761695,3827225.878295721,-12500.0,-1553.4383219731699,-2195.5486586085535,7598.3540924154768,-157.55207839474767,1325.8428152041868,150.35498911013227,5188.1990717765757,2381.4460152344436,-3314.958920815131,3314.958920815131,-2381.4460152344436,9532.8275219870775,0.0
420012.02908761695,3827225.878295721,-12500.0,-595.15450773970554,-2841.6675367338726,7221.2146354541719,-332.28454837359732,1306.5128566364874,157.18158956692929,4944.909391696855,1511.248676900454,-2392.8634751903073,2392.8634751903073,-1511.248676900454,9244.3760900668549,0.0
425012.02908761695,3827225.878295721,-12500.0,246.49064625368621,-3260.6051205603717,6713.8601976109903,-460.93564063525878,1249.7353642081871,157.16646616960307,4702.503222239493,778.77278578602136,-1547.1198514035336,1547.1198514035336,-778.77278578602136,8923.5686750426157,0.0
430012.02908761695,3827225.878295721,-12500.0,958.4941027799149,-3495.3354656415595,6142.6303963175578,-549.96402853320842,1169.9113897982274,152.39747992203121,4457.2698066445446,184.68079576449372,-802.69770122847308,802.69770122847308,-184.68079576449372,8565.602428557384,0.0
285012.02908761695,3832225.878295721,-12500.0,-8237.6715549812197,-4901.5430616856711,-1690.2037056534377,-1724.1189443455369,-894.13039846776144,-251.23885867561765,6066.8102160214494,-3896.5561805776397,-4779.9761408722989,4779.9761408722989,3896.5561805776397,11736.825388857998,0.0
290012.02908761695,3832225.878295721,-12500.0,-8959.2565098719224,-6188.0711789179059,-3125.3914667057315,-2020.4696915144486,-1278.0680116241244,-321.16893922996849,7060.9153041516856,-5640.7630846705724,-4647.090587689112,4647.090587689112,5640.7630846705724,13794.239475151884,0.0
295012.02908761695,3832225.878295721,-12500.0,-9533.3905759391546,-7596.3370094869097,-5018.4745116681006,-2328.9211192075009,-1761.5796316514873,-405.37424776318488,8202.7639343042938,-7749.7584352475296,-4236.8674733884473,4236.8674733884473,7749.7584352475296,16161.282084642027,0.0
300012.02908761695,3832225.878295721,-12500.0,-9879.3643164811783,-9064.2974123114363,-7446.3947032144424,-2632.4561455253515,-2356.597528828288,-504.66065949493276,9494.9753639336213,-10223.018294156314,-3473.8086975906926,3473.8086975906926,10223.018294156314,18839.602841197349,0.0
305012.02908761695,3832225.878295721,-12500.0,-9910.4352804659138,-10490.845279066976,-10467.404696507716,-2906.3936262708412,-3069.5101208955466,-618.74599326322914,10937.936405750506,-13018.085377849742,-2289.9275448066001,2289.9275448066001,13018.085377849742,21808.288433161109,0.0
310012.02908761695,3832225.878295721,-12500.0,-9546.1923695727019,-11729.834385176084,-14099.422566490393,-3118.027274389699,-3896.8533361288883,-745.69875670171825,12561.468366086969,-16032.410669276163,-641.85691356291773,641.85691356291773,16032.410669276163,25014.815419159113,0.0
315012.02908761695,3832225.878295721,-12500.0,-8731.6218804139462,-12590.878089423128,-18291.897876088799,-3227.8718212122917,-4820.2058861926007,-881.37402850033163,14287.852064863187,-19086.550151881005,1465.9812233002176,-1465.9812233002176,19086.550151881005,28365.948980692148,0.0
320012.02908761695,3832225.878295721,-12500.0,-7461.71845189332,-12852.20728551255,-22894.532898392361,-3193.3570662679626,-5801.1673448773818,-1019.0008910011392,16013.350534545692,-21915.089766116063,3954.8817121357315,-3954.8817121357315,21915.089766116063,31720.664369384809,0.0
325012.02908761695,3832225.878295721,-12500.0,-5807.0953035691746,-12290.751795951195,-27630.764753014806,-2975.5756273354841,-6778.0647248340747,-1149.1557035960532,17634.341387940603,-24174.444658510954,6648.7518962441009,-6648.7518962441009,24174.444658510954,34888.374252952708,0.0
330012.02908761695,3832225.878295721,-12500.0,-3931.5853469667741,-10731.418585453548,-32088.853206143176,-2548.8758452631,-7666.6438758752392,-1260.3532523300557,19027.379373697648,-25477.214977801948,9265.548237475432,-9265.548237475432,25477.214977801948,37636.344609305204,0.0
335012.02908761695,3832225.878295721,-12500.0,-2089.412443833206,-8110.21432043405,-35746.342885889135,-1911.7047114798838,-8367.0332656803657,-1340.3925451082468,20058.114011304868,-25458.627745893129,11436.79039710956,-11436.79039710956,25458.627745893129,39709.847883239068,0.0
340012.02908761695,3832225.878295721,-12500.0,-590.51370366528317,-4534.9240114052309,-38040.090510788803,-1095.4641545738725,-8778.0864903977581,-1378.3400894598622,20599.401499393902,-23869.360661429426,12765.146818585299,-12765.146818585299,23869.360661429426,40866.23115127629,0.0
345012.02908761695,3832225.878295721,-12500.0,268.29615923735247,-317.11860558415765,-38480.288018495085,-167.16356176023538,-8817.586144601355,-1366.7231700542636,20558.287781897008,-20672.156063933784,12917.369941018291,-12917.369941018291,20672.156063933784,40919.510990776282,0.0
350012.02908761695,3832225.878295721,-12500.0,291.59535432242876,4051.4664939958866,-36783.986619994168,777.54518445780081,-8443.4222115571647,-1303.2795443367047,19965.738306332343,-16104.566480790027,11729.66469449016,-11729.66469449016,16104.566480790027,39786.209889332407,0.0
355012.02908761695,3832225.878295721,-12500.0,-539.33671786156071,7989.1245954920623,-32981.866548738071,1631.2390694424985,-7668.5104077549458,-1191.6727817549984,18963.581808464358,-10669.73797721116,9284.7905197027576,-9284.7905197027576,10669.73797721116,37518.784171244122,0.0
360012.02908761695,3832225.878295721,-12500.0,-2041.3576330060018,10961.262083765223,-27448.204081738768,2297.3660096269268,-6562.9336419760002,-1040.9435687898374,17539.536222442646,-5040.2693558056226,5919.9990973181275,-5919.9990973181275,5040.2693558056226,34313.609638225695,0.0
365012.02908761695,3832225.878295721,-12500.0,-3873.9371454767424,12615.423513304135,-20829.11878597808,2711.1871731889478,-5241.0544940261907,-863.91545594394142,15823.462875554624,99.454923310473532,2150.5808258245956,-2150.5808258245956,-99.454923310473532,30487.344506763115,0.0
370012.02908761695,3832225.878295721,-12500.0,-5638.8013274419327,12859.784711466616,-13890.165508923805,2851.7145928052209,-3837.496000162042,-675.0686910514396,13990.615610259505,4213.4637700183439,-1465.2574704051985,1465.2574704051985,-4213.4637700183439,26426.868178227629,0.0
375012.02908761695,3832225.878295721,-12500.0,-6991.9311805011121,11856.431532329902,-7341.9739449440249,2741.1306925484455,-2480.2026233736688,-488.39652728310853,12216.498907917354,7015.9067041828184,-4465.0834772894395,4465.0834772894395,-7015.9067041828184,22525.885593990566,0.0
380012.02908761695,3832225.878295721,-12500.0,-7722.4085051531165,9942.3142288149629,-1707.8566686997535,2433.4860176910097,-1269.1671571023032,-315.64786341989344,10644.307702831698,8485.1549548459479,-6571.9340360287606,6571.9340360287606,-8485.1549548459479,19121.541419660436,0.0
385012.02908761695,3832225.878295721,-12500.0,-7775.2361541239152,7519.7772416363277,2731.5307137670275,1998.1390052199401,-265.80818657407622,-165.19906717322314,9360.4285325097262,8803.9538553325619,-7712.9349074077873,7712.9349074077873,-8803.9538553325619,16437.114061555007,0.0
390012.02908761695,3832225.878295721,-12500.0,-7224.7406903479496,4960.4474333239323,5920.2603954120323,1503.9679585757526,506.79386759018303,-41.661049730466495,8383.5771266217434,8265.4170053310372,-7979.5105473407175,7979.5105473407175,-8265.4170053310372,14537.554544810007,0.0
395012.02908761695,3832225.878295721,-12500.0,-6222.6997148709243,2547.2811688333259,7965.16616081952,1008.3573155659498,1056.1386481072641,53.832359130263946,7673.2570491383722,7184.4779573471042,-7560.2563918726428,7560.2563918726428,-7184.4779573471042,13323.001229868249,0.0
400012.02908761695,3832225.878295721,-12500.0,-4945.7368071105693,456.9189100035988,9062.8902620057215,552.09655026625444,1409.464126326927,122.86105012917008,7155.960273835979,5837.3922992643811,-6675.6936243034806,6675.6936243034806,-5837.3922992643811,12586.84802872472,0.0
405012.02908761695,3832225.878295721,-12500.0,-3556.7599079685197,-1229.4159996497685,9438.5040688534573,159.18483800085744,1603.41143730204,168.75460492546412,6755.5986013243855,4433.2921602244078,-5531.4116812474131,5531.4116812474131,-4433.2921602244078,12110.553039348688,0.0
410012.02908761695,3832225.878295721,-12500.0,-2184.2802789721718,-2501.4717300724146,9304.6585488869114,-160.38350689900011,1676.1534596811443,195.67487112397146,6413.1544729185889,3110.4045619893841,-4293.1114716683569,4293.1114716683569,-3110.4045619893841,11730.066713039938,0.0
415012.02908761695,3832225.878295721,-12500.0,-916.52638469667772,-3393.5523644189193,8840.4675875241192,-406.68457783845264,1662.4728142563517,207.89843125680599,6091.830032158734,1946.3427461531417,-3079.2871047939461,3079.2871047939461,-1946.3427461531417,11350.263166612054,0.0
420012.02908761695,3832225.878295721,-12500.0,195.13739085521985,-3962.4649167053321,8184.8794503733825,-586.03597123392842,1591.3767935828569,209.34748286467732,5773.2892687850526,973.62650128481062,-1964.8444002741262,1964.8444002741262,-973.62650128481062,10929.491505057085,0.0
425012.02908761695,3832225.878295721,-12500.0,1128.5015928674929,-4271.9159332046165,7438.7079148328839,-707.90784584436415,1485.4958328163477,203.348082513169,5451.3767896277495,194.92140705627105,-989.74904515856144,989.74904515856144,-194.92140705627105,10458.671701367717,0.0
430012.02908761695,3832225.878295721,-12500.0,1881.9363746948318,-4382.9594605824595,6670.7198825778614,-782.74394276455359,1361.5311668026277,192.55601048547013,5126.6706265056455,-404.55828992030354,-168.73929804462514,168.73929804462514,404.55828992030354,9945.1946597677197,0.0
435012.02908761695,3832225.878295721,-12500.0,2466.7958095768126,-4349.0877764740935,5924.8215585970866,-820.60493749249451,1231.1904018350651,178.98826834734936,4802.7585092210147,-848.10635866473694,500.01175795828652,-500.01175795828652,848.10635866473694,9402.9071612145799,0.0
280012.02908761695,3837225.878295721,-12500.0,-8006.1410606603395,-3323.0261535185878,287.75548800636386,-1520.2958733612465,-454.21884284250814,-195.42699276550726,5451.8956017590335,-1549.4344294332232,-5498.9591624714549,5498.9591624714549,1549.4344294332232,10280.810819688459,0.0
285012.02908761695,3837225.878295721,-12500.0,-9074.8615638675492,-4580.7293496442626,-677.90783633054116,-1851.8960244607749,-763.08946817150922,-260.17799472158333,6393.782108099077,-2973.1771365894169,-5780.9437567195419,5780.9437567195419,2973.1771365894169,12213.750679590237,0.0
290012.02908761695,3837225.878295721,-12500.0,-10103.289651531613,-6064.3930402780925,-2061.1483280882444,-2223.1180871826523,-1174.487639036329,-341.43906394931707,7510.8876157928789,-4813.4348721632923,-5862.3033295048244,5862.3033295048244,4813.4348721632923,14517.547882792889,0.0
295012.02908761695,3837225.878295721,-12500.0,-11010.595459018865,-7757.3703771586961,-3975.0180246429254,-2624.6181156835405,-1710.4109462956044,-441.67347518914164,8821.2190963173907,-7127.0077451042725,-5648.8169857830762,5648.8169857830762,7127.0077451042725,17228.341643950247,0.0
300012.02908761695,3837225.878295721,-12500.0,-11692.823919855155,-9607.435387398742,-6539.1925494603111,-3038.5734989144767,-2391.9989288480183,-562.73376449530315,10336.662068139824,-9947.4202699157722,-5032.3390804533083,5032.3390804533083,9947.4202699157722,20367.882779249325,0.0
305012.02908761695,3837225.878295721,-12500.0,-12027.510332747417,-11511.918136915569,-9864.0503622946344,-3436.1942047935413,-3235.5436875560176,-705.18668472338595,12059.752928947202,-13263.369921089226,-3901.6371933027249,3901.6371933027249,13263.369921089226,23932.85348895744,0.0
310012.02908761695,3837225.878295721,-12500.0,-11886.523137846905,-13303.60597403377,-14023.784976257286,-3775.9562734133092,-4246.4929040090556,-867.43527841128719,13993.133178769756,-16990.898912819575,-2162.780553501374,2162.780553501374,16990.898912819575,27881.325298855056,0.0
315012.02908761695,3837225.878295721,-12500.0,-11159.949239427833,-14742.828415379996,-19016.82542821451,-4003.7418003868938,-5411.4960562901388,-1044.7316384394603,16145.990998912695,-20942.549432925694,229.08365854274962,-229.08365854274962,20942.549432925694,32117.251218700265,0.0
320012.02908761695,3837225.878295721,-12500.0,-9791.9999570896543,-15524.395181932761,-24715.544243126074,-4056.504920878328,-6689.4440330861735,-1228.3305992136225,18386.687025037059,-24801.707398863127,3227.7820912300849,-3227.7820912300849,24801.707398863127,36475.760774392496,0.0
325012.02908761695,3837225.878295721,-12500.0,-7824.8697197106658,-15309.945894853263,-30814.153867442423,-3871.0129025969759,-8003.7863808442562,-1405.1772017319163,20559.556536682296,-28116.278566650202,6651.4843009287233,-6651.4843009287233,28116.278566650202,40713.917951533535,0.0
330012.02908761695,3837225.878295721,-12500.0,-5438.4905293639858,-13794.28183967135,-36793.835090170498,-3398.2568165030771,-9239.9761467374792,-1558.612907383294,22492.597481027195,-30330.625116409654,10151.804980662944,-10151.804980662944,30330.625116409654,44513.914035342146,0.0
335012.02908761695,3837225.878295721,-12500.0,-2964.9990820376515,-10804.236456252589,-41933.59172477707,-2621.7896978858134,-10252.689430981049,-1670.4329352298237,23989.866422142935,-30872.513196129985,13221.400810264988,-13221.400810264988,30872.513196129985,47506.24565739106,0.0
340012.02908761695,3837225.878295721,-12500.0,-853.00473259419323,-6409.2154743882302,-45396.466395262949,-1574.9214003328073,-10886.270262925318,-1724.1745445435724,24855.461706906841,-29296.59019614834,15265.059342220367,-15265.059342220367,29296.59019614834,49318.170044823237,0.0
345012.02908761695,3837225.878295721,-12500.0,432.57594530357221,-998.78872396015527,-46402.096025296392,-348.86940205097699,-11007.394635713747,-1708.8191372072872,24936.62983219347,-25454.594464119626,15741.739699872109,-15741.739699872109,25454.594464119626,49645.005907620369,0.0
350012.02908761695,3837225.878295721,-12500.0,558.89552673256071,4728.6791859842169,-44454.573314352398,915.64693582680491,-10542.168306382655,-1621.6048738700017,24268.386979790961,-19626.518043633077,14347.065737929353,-14347.065737929353,19626.518043633077,48330.357525361898,0.0
355012.02908761695,3837225.878295721,-12500.0,-534.25559623025538,9900.6351277660397,-39543.806774890865,2055.4488282349294,-9504.0742761750953,-1468.8333183077164,23000.52023153186,-12532.94395593144,11162.990470611881,-11162.990470611881,12532.94395593144,45430.008608808646,0.0
360012.02908761695,3837225.878295721,-12500.0,-2577.3157546345415,13702.694443040318,-32217.598878031393,2923.6206253772762,-7999.425582275202,-1264.4580764734073,21141.031494534855,-5185.3346532421519,6688.9306152301606,-6688.9306152301606,5185.3346532421519,41232.148365324254,0.0
365012.02908761695,3837225.878295721,-12500.0,-5043.4255407978208,15616.665108615876,-23464.829377604543,3425.6297374850737,-6205.2663201296973,-1027.2367995806112,18895.794552440428,1385.9956004832875,1714.5261646814461,-1714.5261646814461,-1385.9956004832875,36219.100222959911,0.0
370012.02908761695,3837225.878295721,-12500.0,-7325.3100307707173,15553.539838010403,-14446.296531082398,3538.6178563128019,-4327.215508491644,-777.53292060042679,16530.417230463609,6410.2050643369603,-2918.8418942236135,2918.8418942236135,-6410.2050643369603,30978.800846356713,0.0
375012.02908761695,3837225.878295721,-12500.0,-8929.4595353415043,13825.427215089401,-6192.8222204362819,3307.714506948932,-2553.5922139315394,-534.47587314292548,14301.167328502315,9538.2355253046953,-6555.9387414447092,6555.9387414447092,-9538.2355253046953,26092.214304974579,0.0
380012.02908761695,3837225.878295721,-12500.0,-9598.0693290607705,10990.038270328554,603.78467244303829,2823.9881860614028,-1021.8664711024326,-313.72654808650009,12400.118898108714,10838.862836341867,-8862.8256347555343,8862.8256347555343,-10838.862836341867,22021.796498478612,0.0
385012.02908761695,3837225.878295721,-12500.0,-9323.277021313761,7657.7544156752056,5649.7698106782445,2195.3531115185069,194.55302220730269,-126.01630685563774,10918.479095253828,10669.340397093796,-9827.9047598126399,9827.9047598126399,-10669.340397093796,19014.904870643197,0.0
390012.02908761695,3837225.878295721,-12500.0,-8279.4670166219166,4342.91996125486,8983.6811153247891,1521.4596488524774,1080.9394833598615,23.357687534630273,9840.5499106842526,9506.2628667046065,-9668.3436431733953,9668.3436431733953,-9506.2628667046065,17048.54712199729,0.0
395012.02908761695,3837225.878295721,-12500.0,-6726.6450722865347,1393.520138401826,10852.567743836604,878.62756778524533,1664.9228525401675,134.03775469102501,9074.7361771330252,7807.8911526257734,-8707.9055747974126,8707.9055747974126,-7807.8911526257734,15872.928124933831,0.0
400012.02908761695,3837225.878295721,-12500.0,-4927.9391273241781,-1011.1145204940769,11590.565812919247,315.19960555944317,1997.5492413807476,209.37459043867551,8505.6705309192257,5936.9599039706409,-7276.1309064878442,7276.1309064878442,-5936.9599039706409,15156.779825511536,0.0
405012.02908761695,3837225.878295721,-12500.0,-3099.8842854910135,-2824.1207650888155,11531.673655821982,-145.68977522907463,2137.3823929436599,254.90998630927487,8036.5076820686054,4138.3849543871293,-5648.5890552549827,5648.5890552549827,-4138.3849543871293,14626.931562269163,0.0
410012.02908761695,3837225.878295721,-12500.0,-1393.9591911709097,-4084.0137764760266,10961.974089463307,-499.79307630235525,2139.8954991431278,276.99307358214355,7604.9887198916676,2551.1949780686373,-4024.6634187456066,4024.6634187456066,-2551.1949780686373,14118.758344366199,0.0
415012.02908761695,3837225.878295721,-12500.0,100.92086157714131,-4873.2340113098362,10102.615023904971,-754.86141619997352,2051.9547257898935,281.76929721748775,7179.8949170883907,1234.7765085795154,-2529.976548756762,2529.976548756762,-1234.7765085795154,13558.909712083909,0.0
420012.02908761695,3837225.878295721,-12500.0,1345.7878339306487,-5288.5506727000184,9111.4313412388601,-924.85481348388623,1910.0569185038041,274.59019594569548,6750.7151696675746,196.33559986678063,-1230.5920166682167,1230.5920166682167,-196.33559986678063,12930.141092489208,0.0
425012.02908761695,3837225.878295721,-12500.0,2336.5326716266536,-5423.2040787402311,8093.2576728257236,-1025.8157468540132,1740.8216004303754,259.77289415911326,6318.1587857777231,-586.60550280762129,-150.12936132838095,150.12936132838095,586.60550280762129,12242.951019146461,0.0
430012.02908761695,3837225.878295721,-12500.0,3090.4556444852874,-5358.0455835277417,7112.5705495411239,-1073.3189087624839,1562.5462384853458,240.59384167232631,5887.7162070343338,-1150.2771324349592,714.90175705832257,-714.90175705832257,1150.2771324349592,11518.170095395653,0.0
435012.02908761695,3837225.878295721,-12500.0,3635.9831330506186,-5158.5457861965569,6205.1684193693163,-1081.1375132978046,1387.0554270570167,219.40996673165682,5465.9811279735877,-1534.6030051880136,1383.2812109471358,-1383.2812109471358,1534.6030051880136,10777.830109572535,0.0
275012.02908761695,3842225.878295721,-12500.0,-7126.3159129158084,-1560.0202786799266,1823.762414302661,-1215.0966305706052,-45.395866687164784,-133.53900920804227,4842.7261040644589,630.0682633827596,-5621.9190816762657,5621.9190816762657,-630.0682633827596,8840.44577519214,0.0
280012.02908761695,3842225.878295721,-12500.0,-8422.1015801105568,-2625.7164976286008,1339.6465220322611,-1546.1391534631068,-259.46915954605379,-188.33442145659717,5679.6301903336107,-345.88073501319514,-6258.6006607125,6258.6006607125,345.88073501319514,10524.612090513347,0.0
285012.02908761695,3842225.878295721,-12500.0,-9800.0204746136951,-3971.4168117468553,533.81410433436258,-1938.5112152078245,-565.45533376401147,-260.03057847570625,6699.8315350483135,-1716.338424944287,-6808.3893173485585,6808.3893173485585,1716.338424944287,12600.159432631568,0.0
290012.02908761695,3842225.878295721,-12500.0,-11203.020484153783,-5626.7384846684245,-714.85012321731006,-2393.0371524043708,-991.06381320645858,-352.46652206263889,7935.4986706908012,-3578.0455279456528,-7185.0555617296104,7185.0555617296104,3578.0455279456528,15134.095319766666,0.0
295012.02908761695,3842225.878295721,-12500.0,-12542.480008228176,-7600.7089327429221,-2555.1625943318991,-2903.8779654782088,-1568.2031181443158,-469.57598169236655,9418.1145800700688,-6029.3815848591139,-7273.0645569655162,7273.0645569655162,6029.3815848591139,18191.020580347264,0.0
300012.02908761695,3842225.878295721,-12500.0,-13692.967112469863,-9864.7203564073152,-5159.1841511426392,-3454.7801318733855,-2330.8374211204396,-614.81990842188247,11174.553052563404,-9154.3908473075862,-6927.7049943054371,6927.7049943054371,9154.3908473075862,21824.306765768084,0.0
305012.02908761695,3842225.878295721,-12500.0,-14491.993614096085,-12329.942899826861,-8707.8879948440663,-4014.6666056092326,-3310.4832846805698,-790.2550575901447,13221.609482845399,-12996.245667897612,-5982.9631222981625,5982.9631222981625,12996.245667897612,26062.506261741197,0.0
310012.02908761695,3842225.878295721,-12500.0,-14749.832434687114,-14821.287683306604,-13361.275912695097,-4533.3978973422963,-4528.4230075267715,-995.19438237797817,15561.985575242781,-17518.211790344089,-4272.4321734399555,4272.4321734399555,17518.211790344089,30890.220213779758,0.0
315012.02908761695,3842225.878295721,-12500.0,-14275.634531400161,-17054.051055655582,-19207.21867311516,-4939.3899464349406,-5984.0492367568504,-1224.5472143842394,18200.619040242058,-22553.390946605225,-1668.8266681655696,1668.8266681655696,22553.390946605225,36223.682373652489,0.0
320012.02908761695,3842225.878295721,-12500.0,-12925.196030871804,-18625.419208239051,-26186.48645809076,-5141.7918562739924,-7639.8676857489863,-1467.1756443616907,21087.71658310901,-27751.408508461034,1854.9246459440419,-1854.9246459440419,27751.408508461034,41883.549495406311,0.0
325012.02908761695,3842225.878295721,-12500.0,-10670.235278497579,-19039.6903986219,-34000.786428190564,-5040.6005151332856,-9405.9641442641532,-1704.9610358949026,24005.818856974045,-32541.525664326047,6148.1427592715736,-6148.1427592715736,32541.525664326047,47571.256290082791,0.0
330012.02908761695,3842225.878295721,-12500.0,-7676.1925615491991,-17788.597885829349,-42027.933131640413,-4547.2907761899587,-11129.953446219377,-1913.538594713189,26704.954895278461,-36144.694623451476,10809.090326726335,-10809.090326726335,36144.694623451476,52859.921023268602,0.0
335012.02908761695,3842225.878295721,-12500.0,-4356.2969740521294,-14498.469924827486,-49291.379148809116,-3615.1126799044187,-12601.3754645194,-2065.5490730651059,28897.468692438604,-37673.825008801163,15156.936377883809,-15156.936377883809,37673.825008801163,57214.963790187969,0.0
340012.02908761695,3842225.878295721,-12500.0,-1352.4495710321917,-9124.9585266027207,-54547.321394890758,-2271.7114964303464,-13579.259355736562,-2136.3423050577999,30277.765141676198,-36346.266845074992,18303.376109463585,-18303.376109463585,36346.266845074992,60058.931728110409,0.0
345012.02908761695,3842225.878295721,-12500.0,601.27232784473426,-2125.2765083391241,-56536.200832757124,-639.61040888026332,-13844.736537918167,-2110.5036706031001,30587.148369656716,-31780.384637249706,19361.473110374704,-19361.473110374704,31780.384637249706,60884.385801817974,0.0
350012.02908761695,3842225.878295721,-12500.0,927.32739455956425,5505.0935519232098,-54373.383618493455,1071.8085833234059,-13266.965252965745,-1986.3312488311462,29833.783393946178,-24267.047124519486,17762.807530496822,-17762.807530496822,24267.047124519486,59396.399197635852,0.0
355012.02908761695,3842225.878295721,-12500.0,-526.89670392337746,12426.131867986373,-47938.869885255197,2610.0697927016668,-11856.581972570766,-1775.9487343227422,28208.175743953423,-14849.31812054313,13554.48281589931,-13554.48281589931,14849.31812054313,55638.427110599929,0.0
360012.02908761695,3842225.878295721,-12500.0,-3357.8572958564964,17357.670245037814,-38050.052709464842,3747.5103484818146,-9778.6410562743113,-1501.3243996435388,25740.082441183356,-5091.2976790785779,7492.31946584451,-7492.31946584451,5091.2976790785779,50042.636343448423,0.0
365012.02908761695,3842225.878295721,-12500.0,-6725.3540511289957,19517.484538197907,-26268.606521591584,4345.107773118124,-7313.3873625410743,-1188.9072414582322,22756.906245699287,3409.1336800052904,824.04252743850179,-824.04252743850179,-3409.1336800052904,43366.859871466142,0.0
370012.02908761695,3842225.878295721,-12500.0,-9679.9181249242993,18855.974716380468,-14404.189107778195,4383.7230576838774,-4780.1089314655619,-865.44724751252954,19671.676706466078,9524.8916153487116,-5149.8778178568709,5149.8778178568709,-9524.8916153487116,36530.786159174291,0.0
375012.02908761695,3842225.878295721,-12500.0,-11511.148509832408,15971.445185409128,-3971.6574461265045,3952.1279895223706,-2457.5726442266241,-555.36386801835499,16863.41048497627,12862.60151312633,-9498.2802956790874,9498.2802956790874,-12862.60151312633,30405.759700884075,0.0
380012.02908761695,3842225.878295721,-12500.0,-11933.393564945673,11795.936261468823,4138.9952068767188,3203.7132985254639,-531.64953047885001,-278.64162109158411,14582.139425075304,13697.614773377823,-11857.387499886634,11857.387499886634,-13697.614773377823,25610.6783714474,0.0
385012.02908761695,3842225.878295721,-12500.0,-11060.022664466662,7251.6124056709359,9693.6393052285875,2305.4053871850233,918.06619313170995,-48.885410078693489,12898.578399110564,12697.461080181785,-12370.682368448515,12370.682368448515,-12697.461080181785,22353.278827876718,0.0
390012.02908761695,3842225.878295721,-12500.0,-9247.1070394654271,3029.3672281878153,12936.636282161402,1398.7157856365029,1900.3286889971077,127.74933933618068,11723.046237292614,10620.500878961393,-11482.630664606193,11482.630664606193,-10620.500878961393,20402.724196386789,0.0
395012.02908761695,3842225.878295721,-12500.0,-6919.9101891804867,-476.68767757023568,14353.874929141415,580.9805358774388,2479.8293767556434,252.07963267551844,10886.218875574457,8112.1469686057153,-9723.5770070431772,9723.5770070431772,-8112.1469686057153,19276.383756111838,0.0
400012.02908761695,3842225.878295721,-12500.0,-4452.3308107752991,-3127.071320765137,14480.744584029278,-95.738193535177146,2745.3502396534755,330.05880148775896,10226.842175804813,5622.7039721558303,-7564.4521043978384,7564.4521043978384,-5622.7039721558303,18513.814236082875,0.0
405012.02908761695,3842225.878295721,-12500.0,-2113.2181267685037,-4952.8020649442788,13789.482225381671,-615.50369195633914,2786.5517073522929,370.40347580785647,9636.1669998896796,3411.5140584709961,-5352.9504159819744,5352.9504159819744,-3411.5140584709961,17821.050898933838,0.0
410012.02908761695,3842225.878295721,-12500.0,-61.945608864296901,-6074.3874426117454,12644.923337384529,-986.15530852858512,2680.9626392919554,382.48607172122718,9059.031088003645,1591.2179448818413,-3307.8597129082782,3307.8597129082782,-1591.2179448818413,17064.273794141434,0.0
415012.02908761695,3842225.878295721,-12500.0,1630.9770301250778,-6642.9464937382054,11302.832211870948,-1228.1956713584473,2489.096993179051,374.90790027148995,8476.8426897894897,179.21178689405895,-1542.4274620912615,1542.4274620912615,-179.21178689405895,16210.164426668734,0.0
420012.02908761695,3842225.878295721,-12500.0,2956.3493961283725,-6805.2066562484633,9927.9350620624737,-1366.6979721288269,2254.6146608721779,354.78083455428578,7890.4369943669326,-859.67536943520486,-95.713454326577846,95.713454326577846,859.67536943520486,15273.970948044611,0.0
425012.02908761695,3842225.878295721,-12500.0,3941.4676473267705,-6686.8224607805578,8617.1434019982735,-1426.3165082309167,2006.9102447488087,327.54194507697582,7308.491459605918,-1583.5628562583095,1039.1056277481555,-1039.1056277481555,1583.5628562583095,14287.999647668859,0.0
430012.02908761695,3842225.878295721,-12500.0,4631.5446731403263,-6387.2843471540209,7420.763098079884,-1428.7299313183009,1764.4139457603703,297.08575779129052,6741.1614871157572,-2055.5563594075079,1893.3953782436092,-1893.3953782436092,2055.5563594075079,13285.800974717989,0.0
435012.02908761695,3842225.878295721,-12500.0,5077.4414327453824,-5981.0359466857935,6359.1532069012537,-1391.6992918795304,1537.6938102292197,266.03586614909489,6197.1831846589948,-2334.2577586490647,2508.770003054296,-2508.770003054296,2334.2577586490647,12295.5928799297,0.0
440012.02908761695,3842225.878295721,-12500.0,5328.45931541344,-5521.2755524101021,5434.6740941689932,-1329.0602626192115,1331.9913856354281,236.04502865336173,5683.0552726135902,-2469.6961159552852,2928.4546122922579,-2928.4546122922579,2469.6961159552852,11338.435182166457,0.0
275012.02908761695,3847225.878295721,-12500.0,-7036.6800130883194,-600.67032368719481,2758.2424859855259,-1138.2161722456324,180.34138599220842,-112.79627809741589,5034.0064927661224,1922.5478360552852,-6009.0639544011929,6009.0639544011929,-1922.5478360552852,9007.1282818535037,0.0
280012.02908761695,3847225.878295721,-12500.0,-8581.9636879865448,-1634.6429358654666,2490.5390526729198,-1506.1528110390482,-5.5313132458680485,-169.66844159456093,5905.6776464314908,1122.4205451400235,-6906.0047942583788,6906.0047942583788,-1122.4205451400235,10725.838863402443,0.0
285012.02908761695,3847225.878295721,-12500.0,-10296.417069645946,-3005.9213464009476,1920.2412058102523,-1956.999066578305,-290.12847167957642,-246.49706522846591,6988.0558495999312,-98.299547653088212,-7778.0658511813417,7778.0658511813417,98.299547653088212,12896.508914317568,0.0
290012.02908761695,3847225.878295721,-12500.0,-12133.769646200924,-4775.1559259265632,907.08166176281281,-2498.2502691310774,-709.07791777728528,-348.65865269125715,8327.5350525959657,-1871.0970384350176,-8536.0734880403361,8536.0734880403361,1871.0970384350176,15617.401957571787,0.0
295012.02908761695,3847225.878295721,-12500.0,-14007.899332161331,-6989.6530298820462,-733.26046628959068,-3130.9442194811663,-1306.1956596367766,-482.06165840364326,9973.8262035373064,-4344.9752888058392,-9048.9900737622556,9048.9900737622556,4344.9752888058392,18992.270432291814,0.0
300012.02908761695,3847225.878295721,-12500.0,-15780.416759565749,-9663.1177197148554,-3231.5190819073428,-3844.4425075156219,-2132.2317843135379,-652.49688313909235,11975.898272310209,-7672.3737038438258,-9136.9845083031942,9136.9845083031942,7672.3737038438258,23121.333396431175,0.0
305012.02908761695,3847225.878295721,-12500.0,-17251.369169859809,-12745.043816467782,-6856.9963810093932,-4609.4557331153037,-3240.6197807967264,-864.41467892460491,14375.252528578008,-11980.562831809624,-8571.6833202336456,8571.6833202336456,11980.562831809624,28085.542029977678,0.0
310012.02908761695,3847225.878295721,-12500.0,-18159.939848875139,-16079.452123478275,-11890.374422758112,-5369.9434419905238,-4678.3772447557594,-1118.9548973066653,17197.012313614348,-17322.492347360159,-7091.7176608108184,7091.7176608108184,17322.492347360159,33921.673146965783,0.0
315012.02908761695,3847225.878295721,-12500.0,-18205.819122747649,-19357.662148880194,-18565.184206500373,-6035.8894082714378,-6470.2555143743311,-1411.2244678963013,20447.295469387976,-23603.22219963478,-4444.6878583592679,4444.6878583592679,23603.22219963478,40586.558089101469,0.0
320012.02908761695,3847225.878295721,-12500.0,-17104.435944480902,-22079.376715771352,-26966.166837107863,-6481.0460426749278,-8595.299624390047,-1727.2331262908197,24118.755896005143,-30485.906664637754,-467.02917794008135,467.02917794008135,30485.906664637754,47911.417924921145,0.0
325012.02908761695,3847225.878295721,-12500.0,-14685.87819347766,-23550.601221113589,-36881.64144011087,-6551.9567797737845,-10958.179575525344,-2041.6261056754884,28028.987621900706,-37298.426421918179,4794.2360723044294,-4794.2360723044294,37298.426421918179,55552.675976232633,0.0
330012.02908761695,3847225.878295721,-12500.0,-11031.414500263314,-22961.340264184342,-47632.097677717735,-6095.2145514386075,-13363.719330916229,-2318.1579350897709,31817.821158862815,-42989.349538914357,10935.998124235071,-10935.998124235071,42989.349538914357,62955.010416537974,0.0
335012.02908761695,3847225.878295721,-12500.0,-6606.8837163572143,-19586.031195757656,-57942.764130915675,-5005.7684295299186,-15510.675346162923,-2515.010428458254,35058.942757046265,-46210.772983920251,17088.489468050226,-17088.489468050226,46210.772983920251,69353.659734127796,0.0
340012.02908761695,3847225.878295721,-12500.0,-2305.4230639970351,-13110.681441822866,-65980.870288790233,-3287.4647139979638,-17024.717268460627,-2595.3614537707613,37270.864255724795,-45607.27884136347,21944.504393572119,-21944.504393572119,45607.27884136347,73849.846699015514,0.0
345012.02908761695,3847225.878295721,-12500.0,711.41371511829163,-3994.0544374609472,-69691.561747659143,-1100.3246844945354,-17541.978780182264,-2539.7969931340035,38004.639684659473,-40319.20054751727,24040.574341505053,-24040.574341505053,40319.20054751727,75583.774923720877,0.0
350012.02908761695,3847225.878295721,-12500.0,1421.9503073550227,6353.7248908212168,-67462.528871429982,1240.8002221485658,-16827.862256548953,-2353.542836661115,37154.100854914446,-30540.390420081076,22303.044561495004,-22303.044561495004,30540.390420081076,73989.945271361619,0.0
355012.02908761695,3847225.878295721,-12500.0,-532.64247153058727,15822.242543966937,-58898.066398459079,3337.585052892287,-14881.788149698081,-2062.9232153762664,35041.218431851776,-17787.942280111416,16650.714707832656,-16650.714707832656,17787.942280111416,69053.604829125266,0.0
360012.02908761695,3847225.878295721,-12500.0,-4539.2553097031296,22322.371759736787,-45240.898170260974,4830.7388276883075,-11967.036238997009,-1703.4116566241869,31703.052235457442,-4560.1151033447604,8253.7750967926004,-8253.7750967926004,4560.1151033447604,61437.708788570584,0.0
365012.02908761695,3847225.878295721,-12500.0,-9209.4826039544969,24634.877636372992,-29051.801496529457,5515.6454325886689,-8538.1218575568273,-1308.7858928388657,27669.030679954874,6574.5247933294413,-843.03077323189746,843.03077323189746,-6574.5247933294413,52378.46855174307,0.0
370012.02908761695,3847225.878295721,-12500.0,-13016.360615783115,22845.926983766916,-13245.453237680314,5392.2389859685409,-5098.7692898373789,-908.12184027830392,23601.168099026429,13940.538480191442,-8571.3229844401194,8571.3229844401194,-13940.538480191442,43364.340716109997,0.0
375012.02908761695,3847225.878295721,-12500.0,-14944.078107729549,18112.078339204272,-70.727903702350204,4631.8878532617828,-2061.8540688997996,-527.80620457548707,20065.150828029589,17185.14163884622,-13617.318118556586,13617.318118556586,-17185.14163884622,35719.549386596867,0.0
380012.02908761695,3847225.878295721,-12500.0,-14755.49083911993,12004.673920198285,9400.0462704235488,3491.9855477470774,329.99504551295308,-191.76963686300124,17363.201301349254,17032.118832450506,-15688.322018605537,15688.322018605537,-17032.118832450506,30216.594902991896,0.0
385012.02908761695,3847225.878295721,-12500.0,-12838.184780208509,5896.6789460949358,15171.220827738247,2227.2490066324908,2009.0619710704366,81.967962489108089,15483.888055070007,14691.523418881196,-15274.85110923538,15274.85110923538,-14691.523418881196,26849.110281751819,0.0
390012.02908761695,3847225.878295721,-12500.0,-9863.1801862969696,662.58834660128127,17896.658726423946,1032.1320244669723,3036.5365956370401,284.97930475070859,14200.656614689986,11334.965097525865,-13214.486791692651,13214.486791692651,-11334.965097525865,24981.135838323051,0.0
395012.02908761695,3847225.878295721,-12500.0,-6490.53754539699,-3324.9457103350155,18447.451013535388,22.105674495588794,3541.3010609277776,419.02898877295462,13243.750498516885,7824.7116347155634,-10333.133920330041,10333.133920330041,-7824.7116347155634,23835.360064496548,0.0
400012.02908761695,3847225.878295721,-12500.0,-3215.3678034110881,-6049.9960281877247,17632.775837558438,-757.10581182498561,3668.9806049081499,493.48058277741427,12416.629082833902,4667.8183295620483,-7262.0440466614245,7262.0440466614245,-4667.8183295620483,22868.958988553266,0.0
405012.02908761695,3847225.878295721,-12500.0,-334.94489449095164,-7688.4100608176395,16080.585338946397,-1308.1890037708081,3550.6995884718413,521.42050627722324,11617.523607587418,2087.6818575835332,-4399.2184683927699,4399.2184683927699,-2087.6818575835332,21827.43063941969,0.0
410012.02908761695,3847225.878295721,-12500.0,2018.5988697021144,-8483.9437240378247,14222.471631680568,-1660.5811533759584,3289.7525985416373,516.3014410274061,10812.105139033243,124.77509232344664,-1946.9700756015122,1946.9700756015122,-124.77509232344664,20644.543195298738,0.0
415012.02908761695,3847225.878295721,-12500.0,3825.6944316135286,-8675.7443007129368,12326.43845915969,-1854.0550310853755,2960.0137299402727,489.87169430289572,10001.212423432115,-1277.9423939922358,27.914775867919502,-27.914775867919502,1277.9423939922358,19342.971827023106,0.0
420012.02908761695,3847225.878295721,-12500.0,5131.3327045196302,-8465.4271084614702,10541.87945318227,-1928.5408722681698,2610.1638185527431,451.32939583553156,9199.0326912636683,-2217.147528687201,1539.3030981849679,-1539.3030981849679,2217.147528687201,17974.561672746971,0.0
425012.02908761695,3847225.878295721,-12500.0,6010.0306971248101,-8008.26316810757,8939.9642962963935,-1918.992197083114,2269.7326714062738,407.2943436683741,8421.6530381999673,-2795.746250980756,2641.470053496992,-2641.470053496992,2795.746250980756,16591.874526301675,0.0
430012.02908761695,3847225.878295721,-12500.0,6543.7607923896439,-7416.4124893162461,7544.1665800455776,-1853.5721645025287,1954.8402907936454,362.18852581156034,7682.2710291900439,-3106.5437276669322,3403.3922225561851,-3403.3922225561851,3106.5437276669322,15237.376471323592,0.0
435012.02908761695,3847225.878295721,-12500.0,6809.8177587518849,-6766.7607614881872,6351.1662571844618,-1753.6950048405447,1672.8207651764158,318.74418307889528,6990.3501675250773,-3226.1943280425203,3894.1688581061371,-3894.1688581061371,3226.1943280425203,13941.152634531181,0.0
440012.02908761695,3847225.878295721,-12500.0,6875.2819628135476,-6109.4332296151506,5344.1623249084623,-1634.9208785497613,1425.6010828427009,278.48644791259056,6376.0412349870394,-3214.604385629973,4175.8665246425662,-4175.8665246425662,3214.604385629973,12722.145754228128,0.0
445012.02908761695,3847225.878295721,-12500.0,6795.3894373205922,-5475.282001661204,4500.8587636159018,-1508.1127753814221,1212.0129042328538,242.12724840206405,5830.8008397710128,-3116.8008719293612,4300.819641987041,-4300.819641987041,3116.8008719293612,11590.501822052856,0.0
270012.02908761695,3852225.878295721,-12500.0,-5082.9329417494137,1227.2649301833103,3535.769322628375,-677.35429585609324,519.36295381451441,-40.694667596645516,4556.4533210623631,3607.255489358633,-5099.5873045126154,5099.5873045126154,-3607.255489358633,7934.2814980722405,0.0
275012.02908761695,3852225.878295721,-12500.0,-6583.6182640616516,600.00975243293703,3685.8260280619015,-981.55310657719485,448.46334234455173,-79.783052061882998,5265.8339039395787,3364.6165529853774,-6161.9233553097147,6161.9233553097147,-3364.6165529853774,9249.0171293771709,0.0
280012.02908761695,3852225.878295721,-12500.0,-8356.2108136941006,-322.26112437091695,3683.8447037777937,-1374.0956466784937,309.47145439148505,-135.7441206558926,6155.2381671208186,2830.7214378384406,-7330.9480415852167,7330.9480415852167,-2830.7214378384406,10946.571386977832,0.0
285012.02908761695,3852225.878295721,-12500.0,-10406.656676699948,-1626.459781229227,3425.9262877411438,-1872.9456168753843,70.361600617383544,-214.38570728973761,7276.6613780355137,1878.3918300203113,-8564.0449695145981,8564.0449695145981,-1878.3918300203113,13141.995570586232,0.0
290012.02908761695,3852225.878295721,-12500.0,-12713.248971529347,-3410.0412259135251,2760.7811162355879,-2495.1957531344597,-312.27346487399041,-322.88751991341167,8692.8959796054605,342.75071719430343,-9781.0897405394644,9781.0897405394644,-342.75071719430343,15971.647733888323,0.0
295012.02908761695,3852225.878295721,-12500.0,-15209.581191309473,-5771.0158513382648,1475.3068464661299,-3253.1827042764198,-895.30807402854282,-469.64358357999578,10476.610407401411,-1980.3436606164951,-10848.62075119725,10848.62075119725,1980.3436606164951,19590.437347792027,0.0
300012.02908761695,3852225.878295721,-12500.0,-17763.098838868569,-8787.4150378516588,-718.65316150386695,-4147.9577362524979,-1749.8289601356914,-663.61241975523888,12707.115238292887,-5326.9826265052416,-11562.707034218218,11562.707034218218,5326.9826265052416,24164.284601896405,0.0
305012.02908761695,3852225.878295721,-12500.0,-20152.049519019467,-12480.953174419848,-4189.944503106206,-5159.358449189107,-2958.6250217851702,-912.81621678040972,15463.543299202742,-9940.8141157937716,-11635.462506232452,11635.462506232452,9940.8141157937716,29854.281661220266,0.0
310012.02908761695,3852225.878295721,-12500.0,-22048.323818553996,-16759.971360575171,-9373.9670247014419,-6232.5685298800354,-4607.3507839642034,-1221.5681164523546,18813.470978513877,-16019.986017821258,-10695.450450217624,10695.450450217624,16019.986017821258,36787.702235752658,0.0
315012.02908761695,3852225.878295721,-12500.0,-23021.026045812087,-21340.890772209827,-16718.952878862321,-7262.8312093377235,-6765.2374151456233,-1586.1361719882173,22800.189811919987,-23622.260561992647,-8319.548479765177,8319.548479765177,23622.260561992647,45010.428858479223,0.0
320012.02908761695,3852225.878295721,-12500.0,-22584.556626632537,-25659.199205515768,-26565.765038504258,-8083.5039819842605,-9451.3323391902941,-1989.1625972420786,27444.470669304086,-32520.06655778701,-4121.0351080871042,4121.0351080871042,32520.06655778701,54417.005632825771,0.0
325012.02908761695,3852225.878295721,-12500.0,-20320.236389312664,-28804.939046989482,-38935.759014482552,-8467.8970699743695,-12585.758878191389,-2394.569496230738,32650.421954621648,-42017.398684353022,2081.4578725447063,-2081.4578725447063,42017.398684353022,64661.087496845248,0.0
330012.02908761695,3852225.878295721,-12500.0,-16088.995364983495,-29553.473925165959,-53226.98026224866,-8160.0131977688497,-15935.169674012803,-2746.7849232631916,37987.641012685519,-50785.748590500298,10011.707967640636,-10011.707967640636,50785.748590500298,75063.420642146317,0.0
335012.02908761695,3852225.878295721,-12500.0,-10304.232347968551,-26594.082030126057,-67891.544780035401,-6947.2112628130499,-19078.331177572665,-2979.5660594009178,42829.909226201366,-56848.042349177369,18662.273481655979,-18662.273481655979,56848.042349177369,84559.045211241828,0.0
340012.02908761695,3852225.878295721,-12500.0,-4135.275435139486,-19037.613826095465,-80293.388169338388,-4769.6234601172728,-21434.115587083339,-3037.0465445512045,46416.25945500721,-57902.173129663744,26172.684474043082,-26172.684474043082,57902.173129663744,91753.51415078518,0.0
345012.02908761695,3852225.878295721,-12500.0,597.83500226066133,-7133.2824646768668,-87063.630247665773,-1824.4698115662734,-22389.532599167389,-2900.1032525455289,47956.760200411998,-52126.288218702961,30130.180109101944,-30130.180109101944,52126.288218702961,95166.40376466111,0.0
350012.02908761695,3852225.878295721,-12500.0,2054.9355132208093,7178.0906479441228,-85192.042772336077,1410.2691189780587,-21516.579113991411,-2599.3914347030582,47010.654070313314,-39308.433184477675,28476.113019372584,-28476.113019372584,39308.433184477675,93685.927867846302,0.0
355012.02908761695,3852225.878295721,-12500.0,-592.12798342703752,20486.331226166814,-73598.859801928222,4292.5665572150165,-18783.912688262622,-2198.5908291340079,44206.724835887682,-21632.926535683015,20751.224403003413,-20751.224403003413,21632.926535683015,87109.900834808126,0.0
360012.02908761695,3852225.878295721,-12500.0,-6404.6893840514495,29222.517927991332,-54201.454387434103,6245.0356871739214,-14625.581700900835,-1757.0948444151065,39589.125243009046,-3244.794743551498,8807.6445461831518,-8807.6445461831518,3244.794743551498,76477.852077985139,0.0
365012.02908761695,3852225.878295721,-12500.0,-12987.785375669422,31407.263407762501,-31398.549026559136,6970.0746518193855,-9799.1738944726494,-1305.8674732703566,34019.093492119267,11538.049473572408,-3850.8401247084798,3850.8401247084798,-11538.049473572408,63902.756488819476,0.0
370012.02908761695,3852225.878295721,-12500.0,-17805.676685854876,27513.180624895907,-10072.28129425957,6525.347369396397,-5110.9597172358217,-856.33509944518789,28596.821336466317,20187.881254993808,-13824.052837302886,13824.052837302886,-20187.881254993808,51894.519472123029,0.0
375012.02908761695,3852225.878295721,-12500.0,-19449.160873691955,19817.388344784231,6430.6424172092875,5237.4126571093811,-1167.1606838086959,-423.63102375000983,24166.251169712035,22661.804710763998,-19315.283356941454,19315.283356941454,-22661.804710763998,42472.614036071653,0.0
380012.02908761695,3852225.878295721,-12500.0,-17956.243444609481,10981.257213823499,17029.50194507925,3533.6165212238816,1737.761331021359,-34.999463281986422,21025.443572912496,20634.455943320776,-20394.263450940765,20394.263450940765,-20634.455943320776,36420.709737587611,0.0
385012.02908761695,3852225.878295721,-12500.0,-14290.793826843477,2975.8828289844687,22372.491492173558,1792.4603983945287,3591.6855969560315,280.83993124528723,18951.605467145444,16237.615887994083,-18275.841782796269,18275.841782796269,-16237.615887994083,33123.889108672141,0.0
390012.02908761695,3852225.878295721,-12500.0,-9634.9597293937513,-3225.2001240818781,23873.678848053958,266.29953625812504,4560.0472666990518,507.40332607421283,17502.530396448466,11196.612573158576,-14437.336832978921,14437.336832978921,-11196.612573158576,31299.204411450446,0.0
395012.02908761695,3852225.878295721,-12500.0,-4939.3224353936748,-7435.6339873953639,22980.100147275094,-925.62911182629671,4876.3278896797738,645.15347160919168,16310.409545839873,6559.890246887805,-10079.022019730874,10079.022019730874,-6559.890246887805,29908.815305185519,0.0
400012.02908761695,3852225.878295721,-12500.0,-784.84739697182249,-9906.2416459868873,20829.922909446352,-1764.4996192860606,4766.2768001803433,707.41460788184531,15177.688393993376,2794.9821129831021,-5963.151506438533,5963.151506438533,-2794.9821129831021,28444.044575124815,0.0
405012.02908761695,3852225.878295721,-12500.0,2570.7388883134108,-11046.056902111555,18188.010430254773,-2289.8592616879523,4411.4843351090676,713.23757852917413,14037.525823934197,-4.1403710965789742,-2468.7469209660549,2468.7469209660549,4.1403710965789742,26767.866025531523,0.0
410012.02908761695,3852225.878295721,-12500.0,5087.0051006295107,-11261.716901056556,15508.500569860324,-2565.3763801694572,3941.2062695946061,681.59087405345042,12890.180185472602,-1934.5059512840805,286.06278439901666,-286.06278439901666,1934.5059512840805,24914.811616750445,0.0
415012.02908761695,3852225.878295721,-12500.0,6842.4310785532853,-10888.943880679821,13027.962925184296,-2657.1906646083585,3438.812461151213,628.22473514967407,11759.648198462621,-3164.1116233613402,2331.0812386887001,-2331.0812386887001,3164.1116233613402,22971.306287751224,0.0
420012.02908761695,3852225.878295721,-12500.0,7965.0833885118727,-10177.304437168888,10846.815762624146,-2623.0841880429844,2953.0927102534379,564.73681049260006,10672.103847134447,-3866.8830350707799,3764.2528729936507,-3764.2528729936507,3866.8830350707799,21022.176093914004,0.0
425012.02908761695,3852225.878295721,-12500.0,8591.5215167482747,-9299.3015450164057,8987.8812202935642,-2508.7835589014949,2509.2430916263456,498.89003849931692,9647.8098630454897,-4193.9681292604055,4703.7121830192082,-4703.7121830192082,4193.9681292604055,19132.623799710826,0.0
430012.02908761695,3852225.878295721,-12500.0,8846.1104124151043,-8367.1756260816583,7434.0748440483039,-2348.1118843558575,2117.5696689988481,435.42287556791467,8700.4686447428085,-4265.249562350522,5262.7814585190936,-5262.7814585190936,4265.249562350522,17345.875457266451,0.0
435012.02908761695,3852225.878295721,-12500.0,8832.9441161453069,-7449.6298837094673,6150.8344766314121,-2164.8039399256304,1779.6605413618261,376.91342141127319,7862.5240864452908,-4170.5190651680668,5539.1974477142367,-5539.1974477142367,4170.5190651680668,15686.612930312604,0.0
440012.02908761695,3852225.878295721,-12500.0,8634.6401793265049,-6585.5867186403993,5098.5309221412708,-1974.7438734514649,1492.4388049469123,324.50901961834478,7125.1277395280567,-3974.3478077489663,5612.2097820387271,-5612.2097820387271,3974.3478077489663,14165.72041905992,0.0
445012.02908761695,3852225.878295721,-12500.0,8314.3628280465946,-5794.4755592657129,4238.7821730394107,-1788.0403659086314,1250.6687497892949,278.47046049286899,6450.8317268652436,-3721.6800955159665,5543.5237982060789,-5543.5237982060789,3721.6800955159665,12784.624334554876,0.0
270012.02908761695,3857225.878295721,-12500.0,-4075.132853887741,2445.9661427807609,4154.1307063660479,-430.51748153076596,764.72798394243966,1.268550144485999,4866.5278545560395,4824.1537124191727,-4743.7922303227824,4743.7922303227824,-4824.1537124191727,8429.1612458548298,0.0
275012.02908761695,3857225.878295721,-12500.0,-5653.5750712727777,2024.7573189471038,4537.8679184353023,-724.55061522615767,752.45357531076093,-31.937351038530807,5579.5421196948591,4889.5774074460051,-5971.3558467572739,5971.3558467572739,-4889.5774074460051,9682.3616472649755,0.0
280012.02908761695,3857225.878295721,-12500.0,-7592.4123418126792,1312.0240444738888,4837.2277880271095,-1120.49419223878,681.17240656359945,-82.642567034510478,6473.2424388065592,4714.7171014585147,-7393.7220266283803,7393.7220266283803,-4714.7171014585147,11308.032127465898,0.0
285012.02908761695,3857225.878295721,-12500.0,-9932.6265472813193,198.20602921666406,4957.9199917462829,-1645.2282302301387,516.39174664583743,-157.84575220457668,7608.428663980827,4163.2685361956865,-8993.9393010273161,8993.9393010273161,-4163.2685361956865,13444.740736495012,0.0
290012.02908761695,3857225.878295721,-12500.0,-12693.968706040212,-1452.1859275972904,4751.2156378855661,-2328.2730964455768,208.50109548292681,-266.63881565907622,9063.8815898558896,3045.4524858391646,-10717.694505340189,10717.694505340189,-3045.4524858391646,16269.463452053966,0.0
295012.02908761695,3857225.878295721,-12500.0,-15854.071010980086,-3796.2706922383159,3990.7074802476764,-3198.2942375708021,-311.81332987588672,-420.2878159755877,10938.032893893773,1106.4739035895709,-12450.908501424654,12450.908501424654,-1106.4739035895709,19998.771025849208,0.0
300012.02908761695,3857225.878295721,-12500.0,-19317.969175499475,-6997.2174841285896,2344.5932798628182,-4276.0263429297192,-1137.7635963786597,-631.73810499863123,13348.289412589429,-1979.2306475312853,-13990.446679443827,13990.446679443827,1979.2306475312853,24885.137643846203,0.0
305012.02908761695,3857225.878295721,-12500.0,-22878.057492867738,-11188.638317367631,-651.51949540322903,-5561.7754803925636,-2388.0716130305314,-913.95788031495294,16426.256568781177,-6597.9683071358313,-15010.886100942535,15010.886100942535,6597.9683071358313,31204.492437544181,0.0
310012.02908761695,3857225.878295721,-12500.0,-26169.583615815507,-16407.261959350413,-5608.4829956609283,-7015.7628047361859,-4201.7014325506525,-1276.2611298518245,20306.714950329042,-13153.703131168215,-15037.028168128076,15037.028168128076,13153.703131168215,39227.830142496379,0.0
315012.02908761695,3857225.878295721,-12500.0,-28637.340630597511,-22482.194027184447,-13257.903270461687,-8531.1968575305727,-6718.5348364843285,-1717.6650664047638,25110.431679220852,-21966.054202403466,-13444.051758329399,13444.051758329399,21966.054202403466,49165.982114079023,0.0
320012.02908761695,3857225.878295721,-12500.0,-29546.984795895354,-28878.198932114643,-24341.302129784246,-9904.7583780360637,-10036.220585740015,-2216.983398216355,30934.747386070288,-33078.519288880547,-9525.3351272150812,9525.3351272150812,33078.519288880547,61074.526613669128,0.0
325012.02908761695,3857225.878295721,-12500.0,-28096.814388172461,-34519.995583887096,-39349.84971931755,-10818.899348336463,-14134.642975288065,-2721.7559366715659,37806.749850458727,-45957.846410565558,-2686.3666575397619,2686.3666575397619,45957.846410565558,74709.244780317094,0.0
330012.02908761695,3857225.878295721,-12500.0,-23697.620776693158,-37688.19585935236,-58054.904618052831,-10864.044942075836,-18771.585924542163,-3143.0902239226725,45331.002054350778,-59119.645178154999,7178.9437589263725,-7178.9437589263725,59119.645178154999,89339.294674316843,0.0
335012.02908761695,3857225.878295721,-12500.0,-16448.862151938796,-36174.781043330549,-78848.907845843132,-9636.8050372058788,-23384.220848514396,-3369.3856167638078,52645.17198473087,-69844.455326251831,19142.732978028645,-19142.732978028645,69844.455326251831,103565.97936162807,0.0
340012.02908761695,3857225.878295721,-12500.0,-7683.4009416301633,-27957.676424035351,-98144.73637683077,-6929.6502953059025,-27077.566539632215,-3310.2942372789303,58562.508901527792,-74351.475754259154,30742.841502714902,-30742.841502714902,74351.475754259154,115267.13905232186,0.0
345012.02908761695,3857225.878295721,-12500.0,-155.19020469620003,-12515.549244105008,-110462.79790387825,-2954.5041616772742,-28804.139290464514,-2959.7748959012092,61683.280324930187,-68924.208344504572,38067.507770743061,-38067.507770743061,68924.208344504572,121866.34690386275,0.0
350012.02908761695,3857225.878295721,-12500.0,2781.9358167947876,7702.8575038702475,-110046.34965791865,1557.3191589839912,-27762.747101562913,-2427.1423752081364,60848.047039688812,-52115.070889046081,37111.658671605735,-37111.658671605735,52115.070889046081,121108.27092897505,0.0
355012.02908761695,3857225.878295721,-12500.0,-803.16695749829159,27060.629264581366,-94082.764503676706,5544.0537638053338,-23844.418429304751,-1879.481296949979,56883.716286833194,-26913.194271510522,26362.895104692234,-26362.895104692234,26913.194271510522,112234.37547474328,0.0
360012.02908761695,3857225.878295721,-12500.0,-9492.4869583561504,39101.53521686203,-65532.804732127523,8060.2099685244893,-17796.043360526059,-1421.9436338808196,50312.55418153591,-512.34093318663599,8800.626071566945,-8800.626071566945,512.34093318663599,96900.543338383213,0.0
365012.02908761695,3857225.878295721,-12500.0,-18926.6339173169,40431.861378916365,-32414.280047563003,8689.8342470659409,-10922.568138502353,-1037.3008070725655,42418.39849039106,19394.687078180585,-9221.5081769373046,9221.5081769373046,-19394.687078180585,78942.277756585798,0.0
370012.02908761695,3857225.878295721,-12500.0,-24737.097863891548,32582.951126464548,-3308.8910911382841,7642.3204723878434,-4529.982337459126,-650.15728766860946,35110.459156820682,28964.920778787811,-21894.826990722286,21894.826990722286,-28964.920778787811,62808.696272871908,0.0
375012.02908761695,3857225.878295721,-12500.0,-25148.310440355435,20159.759003278898,16894.442824099089,5531.5721405935974,514.45706051882348,-227.67628714628907,29617.35572034894,29251.361746718263,-26994.368701302403,26994.368701302403,-29251.361746718263,51504.713902795054,0.0
380012.02908761695,3857225.878295721,-12500.0,-21079.748710655993,7637.0549449645696,27756.759774757091,3050.878079132855,3909.4586188629619,193.38209614368265,26036.101419797422,23915.423561122327,-25720.813958614963,25720.813958614963,-23915.423561122327,45248.140493811319,0.0
385012.02908761695,3857225.878295721,-12500.0,-14626.804642802868,-2391.0296047640295,31433.222697280475,736.04919314339702,5791.8718775032303,550.11196850411659,23705.943873880391,16563.086001020802,-20709.078150387457,20709.078150387457,-16563.086001020802,42097.855465971421,0.0
390012.02908761695,3857225.878295721,-12500.0,-7705.3661208249678,-9173.933045142945,30640.014785875948,-1117.8703750285001,6517.2762637152737,800.19430370899238,21916.984023846835,9518.3386669363681,-14369.442638025201,14369.442638025201,-9518.3386669363681,40002.756848507634,0.0
395012.02908761695,3857225.878295721,-12500.0,-1517.9323397960816,-13040.961129438321,27580.97684810956,-2424.1544432651012,6477.5796630288005,936.35621230617278,20261.710841790155,3828.4656725364116,-8258.0726090793341,8258.0726090793341,-3828.4656725364116,37882.180761276672,0.0
400012.02908761695,3857225.878295721,-12500.0,3408.861795573428,-14715.07320751531,23697.893821425067,-3226.5243087550389,6001.1450792867645,976.56717056720981,18601.036410357538,-283.87448867107196,-3126.1314427046736,3126.1314427046736,283.87448867107196,35437.021938538113,0.0
405012.02908761695,3857225.878295721,-12500.0,6994.0811330633278,-14925.539320294716,19798.546974201956,-3626.6368119627286,5322.2505604537646,948.64017760945524,16932.241334947306,-2995.4918489727297,810.93295040411635,-810.93295040411635,2995.4918489727297,32720.972675317687,0.0
410012.02908761695,3857225.878295721,-12500.0,9385.4686836768469,-14256.522221890031,16267.743645921984,-3736.2822086673441,4588.9853163557327,879.37600513898769,15297.101080861023,-4614.6140158565386,3622.2356242277287,-3622.2356242277287,4614.6140158565386,29884.136937498952,0.0
415012.02908761695,3857225.878295721,-12500.0,10814.457097184286,-13122.32794308809,13243.579462293799,-3653.3950203736053,3884.7605670233766,789.73515752964181,13739.139691168073,-5447.7039216455141,5493.6785880110892,-5493.6785880110892,5447.7039216455141,27067.497356636253,0.0
420012.02908761695,3857225.878295721,-12500.0,11517.109614971574,-11793.42538844437,10735.643644677908,-3454.0190170862397,3250.0447430550439,694.04299489830817,12289.617065780429,-5748.5225304142359,6635.1922411094065,-6635.1922411094065,5748.5225304142359,24372.635549989955,0.0
425012.02908761695,3857225.878295721,-12500.0,11698.983297134388,-10434.310879479053,8695.2141703055513,-3192.6719438758905,2699.3428119573241,601.04520336690484,10967.861818678701,-5708.3432446151983,7237.6734228663663,-7237.6734228663663,5708.3432446151983,21861.257121783907,0.0
430012.02908761695,3857225.878295721,-12500.0,11524.552592460512,-9137.4635571009858,7053.3336647040232,-2906.0699217776109,2232.8050043771855,515.44253388603249,9808.5435522569369,-5463.0686140367734,7457.8464491706973,-7457.8464491706973,5463.0686140367734,19563.738503047516,0.0
435012.02908761695,3857225.878295721,-12500.0,11118.621256416738,-7949.2306638602176,5739.7535562795683,-2617.5594799563587,1843.5234904029467,439.28119277530902,8796.1344826992117,-5105.2222485514549,7416.9571573012536,-7416.9571573012536,5105.2222485514549,17488.829535376892,0.0
440012.02908761695,3857225.878295721,-12500.0,10572.339047063137,-6887.8024161139138,4691.1661038802386,-2341.0358677336635,1521.780168617629,373.00195198167199,7885.6077551912476,-4695.5342952671235,7205.1614493990583,-7205.1614493990583,4695.5342952671235,15631.534307989441,0.0
445012.02908761695,3857225.878295721,-12500.0,9950.2748682485053,-5955.0894501954735,3853.9380211729335,-2084.0231266489632,1257.3628688399865,316.15651021319786,7070.3753180003778,-4272.4302143453315,6887.5757429866244,-6887.5757429866244,4272.4302143453315,13978.924892959061,0.0
265012.02908761695,3862225.878295721,-12500.0,-1385.4561622168858,3733.3904456869645,4045.6637225254849,86.135929594725525,938.7326100360898,67.655974642631264,4698.9291663695167,5482.6744085103055,-2918.2465867665192,2918.2465867665192,-5482.6744085103055,8258.1535138220424,0.0
270012.02908761695,3862225.878295721,-12500.0,-2579.5682265282408,3761.3528610987537,4620.6532035872006,-90.172970169779347,1019.443350324689,55.870848222959275,5299.0766705146198,5974.6379642722723,-3992.3065552247272,3992.3065552247272,-5974.6379642722723,9241.1307002947688,0.0
275012.02908761695,3862225.878295721,-12500.0,-4133.0777157460179,3622.351404280615,5232.9128204545596,-347.79717830743749,1079.1347051504936,32.978048599210986,6026.1504794513512,6395.3117358415611,-5318.937131165253,5318.937131165253,-6395.3117358415611,10453.675590397361,0.0
280012.02908761695,3862225.878295721,-12500.0,-6126.5366129168851,3226.8469302240419,5844.6747202401011,-715.28583819287712,1096.3094050716043,-6.6422584831447864,6924.6968364784889,6660.5556374386788,-6931.9175285824995,6931.9175285824995,-6660.5556374386788,11994.943384535331,0.0
285012.02908761695,3862225.878295721,-12500.0,-8644.8916360318108,2450.6550688411403,6383.7555543789913,-1228.7441454104587,1036.9875863961774,-70.894447317879056,8058.2140942356218,6639.5384867831381,-8851.8587211027934,8851.8587211027934,-6639.5384867831381,14010.377671288237,0.0
290012.02908761695,3862225.878295721,-12500.0,-11766.327019099353,1126.794125420764,6722.342187616352,-1931.9297751709364,848.87366992377679,-170.58369473151194,9515.6077858587851,6135.1433297822859,-11069.805233759058,11069.805233759058,-6135.1433297822859,16705.391412476813,0.0
295012.02908761695,3862225.878295721,-12500.0,-15541.218847944194,-959.85746586219796,6645.7189588278998,-2874.3292691569018,453.67597342231608,-319.88954166551497,11417.81478133253,4860.0529297921566,-13520.649206352136,13520.649206352136,-4860.0529297921566,20356.845025947441,0.0
300012.02908761695,3862225.878295721,-12500.0,-19956.286793048868,-4069.0364210815196,5808.7522846157526,-4105.1770552256958,-262.04482719045751,-536.27139309959955,13923.007739030771,2411.7670190741674,-16042.899765644896,16042.899765644896,-2411.7670190741674,25318.992708364225,0.0
305012.02908761695,3862225.878295721,-12500.0,-24879.016870339747,-8481.423349979972,3680.7178730466198,-5660.2133805113217,-1455.7108724879026,-838.95298216970696,17227.980123433161,-1744.3555063150561,-18323.013506345997,18323.013506345997,1744.3555063150561,32019.997307870653,0.0
310012.02908761695,3862225.878295721,-12500.0,-29980.649096074063,-14436.027912837793,-513.13516563830194,-7536.8525988854617,-3332.473233294314,-1244.4877048735195,21562.642536156778,-8264.0593732166853,-19828.530639362431,19828.530639362431,8264.0593732166853,40941.951506781479,0.0
315012.02908761695,3862225.878295721,-12500.0,-34646.538557117186,-22001.518032413696,-7827.4184897840923,-9653.5352067075946,-6133.7168768472338,-1757.1902010543604,27175.677431167031,-17847.526130620528,-19748.979531919947,19748.979531919947,17847.526130620528,52569.488444383314,0.0
320012.02908761695,3862225.878295721,-12500.0,-37907.294037521897,-30851.804218369154,-19550.884389759569,-11793.455169124776,-10092.399236526977,-2352.2928572767946,34323.267100545017,-31036.367947143714,-16992.942317874637,16992.942317874637,31036.367947143714,67281.360788148493,0.0
325012.02908761695,3862225.878295721,-12500.0,-38468.636723214637,-39935.924058229473,-36968.135537302973,-13546.806919943809,-15330.567575882085,-2952.7600318990412,43261.727898513738,-47806.35631561761,-10336.872632198083,10336.872632198083,47806.35631561761,85150.445194352549,0.0
330012.02908761695,3862225.878295721,-12500.0,-34978.515962036698,-47108.996246936127,-60760.981582785571,-14294.383669706674,-21681.049565308909,-3410.7300812824533,53823.701649667579,-66903.753197380225,1126.3773062950713,-1126.3773062950713,66903.753197380225,105622.5379335488,0.0
335012.02908761695,3862225.878295721,-12500.0,-26702.146213136479,-48973.658702019529,-89889.164783840926,-13311.49748336616,-28460.000943463485,-3523.0099643818203,64974.575120196394,-85025.806363982265,17096.73963755789,-17096.73963755789,85025.806363982265,127087.57918276811,0.0
340012.02908761695,3862225.878295721,-12500.0,-14642.237467433797,-41479.123753431282,-120052.24354883935,-10071.935129905669,-34322.031553506,-3121.5187522304395,74948.141317865273,-96353.673717609199,34820.302609628918,-34820.302609628918,96353.673717609199,146486.46925688599,0.0
345012.02908761695,3862225.878295721,-12500.0,-2594.5533050804238,-21998.422167061435,-142656.19684322504,-4712.5392207555233,-37451.154563036966,-2236.1739937060261,81273.134342810212,-93604.592405995369,48275.667102422056,-48275.667102422056,93604.592405995369,159354.22921044176,0.0
350012.02908761695,3862225.878295721,-12500.0,3364.5271176810347,7176.2979668036332,-146501.34226406398,1646.1616709285836,-36285.228438761478,-1196.8604378409514,81380.38723834182,-71938.022583287559,49628.355476586134,-49628.355476586134,71938.022583287559,160964.18689015092,0.0
355012.02908761695,3862225.878295721,-12500.0,-1391.1304241687619,36639.951735549672,-124208.00188374988,7184.5930556192925,-30511.102750416303,-464.77576495784683,75239.541747074836,-34723.874690550721,34432.499256436837,-34432.499256436837,34723.874690550721,148908.39306095007,0.0
360012.02908761695,3862225.878295721,-12500.0,-14889.207546975789,53831.198418304717,-80143.448293928464,10315.598571401375,-21492.684067801161,-242.2120281425656,65511.674661833502,4880.5765782739563,7452.5575118849374,-7452.5575118849374,-4880.5765782739563,125804.86429952519,0.0
365012.02908761695,3862225.878295721,-12500.0,-28616.206914261424,52465.578345337468,-30115.332713226497,10520.988179472941,-11580.652089480176,-302.34971401532732,53927.976774679868,32052.171226366871,-18895.742980525003,18895.742980525003,-32052.171226366871,99190.154451522845,0.0
370012.02908761695,3862225.878295721,-12500.0,-34728.889819099641,37060.125155082758,9860.1206983282809,8389.7363635116235,-2906.2661939744949,-273.11001954757876,43963.798906843302,41054.087525262898,-34243.389395671074,34243.389395671074,-41054.087525262898,77433.147298167547,0.0
375012.02908761695,3862225.878295721,-12500.0,-31702.359042086264,17233.107048969287,33220.775941113345,5051.6705511614864,3366.8124950566071,6.0780444879487625,37249.579528618502,36314.460999580799,-36752.274444174574,36752.274444174574,-36314.460999580799,64523.884247066009,0.0
380012.02908761695,3862225.878295721,-12500.0,-22860.863524779212,214.65883090215976,42169.534503000978,1580.842340360163,7077.6217866317184,441.4346734113102,33154.6759436805,25541.465483586107,-30675.356697287047,30675.356697287047,-25541.465483586107,58433.771531526603,0.0
385012.02908761695,3862225.878295721,-12500.0,-12295.437378757428,-11312.052004640454,42052.015520388064,-1329.2379140788014,8693.6700440123823,860.61627277769753,30294.520501548337,14372.485452817722,-21176.564299953996,21176.564299953996,-14372.485452817722,55024.151575537173,0.0
390012.02908761695,3862225.878295721,-12500.0,-2696.8147941992211,-17645.594556562424,37535.462900998922,-3402.5135142114964,8889.0516510260877,1151.8616338870852,27764.533456123947,5381.9985111925653,-11718.221328203077,11718.221328203077,-5381.9985111925653,51812.020749519885,0.0
395012.02908761695,3862225.878295721,-12500.0,4795.0739137352466,-20163.406535755043,31571.877479801096,-4655.6878898623863,8272.4445474738659,1289.305709851335,25249.869475353305,-879.86224125529861,-3898.3357439809724,3898.3357439809724,879.86224125529861,48095.489200064381,0.0
400012.02908761695,3862225.878295721,-12500.0,10029.750765526038,-20269.982750616011,25686.713680266424,-5247.0851180592954,7284.1838294973413,1299.6565553966009,22735.351328624609,-4771.2457369515741,1882.9829352758072,-1882.9829352758072,4771.2457369515741,43959.437040827725,0.0
405012.02908761695,3862225.878295721,-12500.0,13316.131129878759,-19037.726224269372,20519.880582490794,-5368.5271985670652,6197.765478205517,1225.9590448544807,20294.544519879208,-6898.8113773456698,5802.7425393626909,-5802.7425393626909,6898.8113773456698,39675.761375750029,0.0
410012.02908761695,3862225.878295721,-12500.0,15098.918420523605,-17178.478334077936,16244.251857111793,-5189.8886436168086,5161.1551521152132,1107.1920188489303,18000.052246027102,-7829.7002465185415,8236.3027617173921,-8236.3027617173921,7829.7002465185415,35484.125211126717,0.0
415012.02908761695,3862225.878295721,-12500.0,15803.215602005837,-15122.335654100079,12818.86781708423,-4840.5720655239438,4241.3253398514025,971.46354908345097,15898.966821356687,-8003.81403434616,9572.4554861618271,-9572.4554861618271,8003.81403434616,31542.655830809093,0.0
420012.02908761695,3862225.878295721,-12500.0,15777.744068265874,-13107.807838177763,10123.156865334993,-4410.1092083667691,3458.582967390058,836.24462503088796,14016.47481313911,-7731.5411348010439,10141.463288198172,-10141.463288198172,7731.5411348010439,27935.840914268811,0.0
425012.02908761695,3862225.878295721,-12500.0,15286.058768287085,-11253.359428120481,8021.021739863595,-3955.9543663638383,2809.1456476567364,710.9778579349362,12386.473805523072,-7219.1157692320667,10198.399264041458,-10198.399264041458,7219.1157692320667,24695.387463504394,0.0
430012.02908761695,3862225.878295721,-12500.0,14517.219771760119,-9606.7884764045848,6387.8065461754395,-3512.3934106229181,2278.5607692086733,599.83122182791237,10975.244590020669,-6597.4206702194251,9929.5355470305949,-9929.5355470305949,6597.4206702194251,21819.67587613776,0.0
435012.02908761695,3862225.878295721,-12500.0,13601.637294311005,-8176.6879843907955,5119.0579029566516,-3098.0848252339692,1849.0154811149609,503.8363891721188,9728.8359548638273,-5945.9606431759548,9465.7789897127532,-9465.7789897127532,5945.9606431759548,19288.054550285229,0.0
440012.02908761695,3862225.878295721,-12500.0,12626.279618043227,-6951.5513148164791,4131.1983791021657,-2721.7078610111771,1502.9868692429118,422.33845450501309,8631.4090903589968,-5310.5996172379964,8896.4310364106077,-8896.4310364106077,5310.5996172379964,17070.480375103591,0.0
445012.02908761695,3862225.878295721,-12500.0,11647.154678516394,-5910.8670220546092,3359.0461756256564,-2385.8804481366301,1224.8278455325699,353.89464804599572,7668.5255570133268,-4715.8513136366764,8280.7845562788625,-8280.7845562788625,4715.8513136366764,15133.526797704108,0.0
450012.02908761695,3862225.878295721,-12500.0,10698.793914977881,-5031.2698650024658,2752.4842507706257,-2089.7415610410949,1001.2640611761803,296.79212640906087,6825.3810509982413,-4173.0596777279452,7657.0668637590015,-7657.0668637590015,4173.0596777279452,13443.869571263291,0.0
265012.02908761695,3867225.878295721,-12500.0,464.71241105054207,4780.2029972975797,4169.4774257952395,463.66959078242763,1123.4633844130153,122.61233607851338,5232.0555354874905,6176.2740654240242,-1751.7293489096692,1751.7293489096692,-6176.2740654240242,9385.745423129043,0.0
270012.02908761695,3867225.878295721,-12500.0,-540.01662564464948,5090.7520498564027,4876.1491856750608,351.49213204879595,1266.3465050122747,123.7496741603,5883.4961886230039,6949.8008248473288,-2771.6044834644194,2771.6044834644194,-6949.8008248473288,10445.533941596956,0.0
275012.02908761695,3867225.878295721,-12500.0,-1925.973381808471,5299.6819319477017,5685.2358035272564,163.66154658389345,1407.5730400997686,116.42580403665306,6654.7719239474682,7744.5096355446294,-4091.3191558889703,4091.3191558889703,-7744.5096355446294,11697.897199429886,0.0
280012.02908761695,3867225.878295721,-12500.0,-3804.0901533239785,5324.1605416639986,6585.3511888777039,-132.22741942367111,1530.388359324485,95.131421639933038,7584.2120745454413,8500.0565278049071,-5776.7537556975503,5776.7537556975503,-8500.0565278049071,13219.397139923754,0.0
285012.02908761695,3867225.878295721,-12500.0,-6306.4245215866222,5039.8577950907265,7538.4308743299198,-579.92653413357891,1605.4250060525069,51.680466143545729,8729.1399261334518,9110.0516386091913,-7894.5042710874914,7894.5042710874914,-9110.0516386091913,15133.409672344884,0.0
290012.02908761695,3867225.878295721,-12500.0,-9581.054350655435,4265.1965842952313,8457.8755685911856,-1236.8644770466226,1583.3434583538901,-25.759298288158249,10175.824811136223,9396.5777606617667,-10498.620382029349,10498.620382029349,-9396.5777606617667,17635.914912332577,0.0
295012.02908761695,3867225.878295721,-12500.0,-13777.028507125309,2743.5059685745141,9172.7448050356415,-2175.2671723086892,1384.0134448868464,-153.67356066050414,12052.869071650392,9074.2003467157283,-13605.111798607961,13605.111798607961,-9074.2003467157283,21027.536797326833,0.0
300012.02908761695,3867225.878295721,-12500.0,-19011.681384645704,127.47770495236561,9371.4460633780254,-3479.7992066859047,881.4556429218718,-353.81076969251427,14547.120651200803,7702.6323520777769,-17147.032825465671,17147.032825465671,-7702.6323520777769,25745.989812896849,0.0
305012.02908761695,3867225.878295721,-12500.0,-25309.401539459788,-4023.2380843459096,8518.0297735917484,-5237.408156148379,-115.22875322155255,-652.33741746437772,17919.260619278451,4631.9888563708673,-20901.404934541657,20901.404934541657,-4631.9888563708673,32389.369815050071,0.0
310012.02908761695,3867225.878295721,-12500.0,-32499.281835597369,-10208.786603157623,5738.2281591103538,-7512.0162708507396,-1881.6327029860486,-1075.3065671741119,22514.485206492325,-1043.7522581820995,-24381.026043473234,24381.026043473234,1043.7522581820995,41720.134058268719,0.0
315012.02908761695,3867225.878295721,-12500.0,-40063.470892685327,-18878.994294899661,-312.44786768933949,-10293.302388420545,-4787.8205101936146,-1636.3005761487775,28764.561688341841,-10485.166023118481,-26695.157011858253,26695.157011858253,10485.166023118481,54636.499637918132,0.0
320012.02908761695,3867225.878295721,-12500.0,-46949.446477138605,-30181.47909299302,-11546.978686513832,-13408.679603751612,-9272.7330704131527,-2310.1032827540375,37193.948369299134,-24974.167483091733,-26415.2382351509,26415.2382351509,24974.167483091733,72081.596954523236,0.0
325012.02908761695,3867225.878295721,-12500.0,-51415.263553482524,-43487.246806810894,-30375.853481459453,-16400.20742620515,-15734.928887220378,-2987.6122475697853,48482.937728204655,-45500.088643129231,-21553.088565525763,21553.088565525763,45500.088643129231,94826.63786706001,0.0
330012.02908761695,3867225.878295721,-12500.0,-51091.552895609231,-56648.699986869658,-59179.288279786611,-18412.186535194796,-24272.283350576527,-3422.2405334051477,63087.663121215512,-71849.107527969754,-9889.0524893470065,9889.0524893470065,71849.107527969754,123024.3645618241,0.0
335012.02908761695,3867225.878295721,-12500.0,-43623.864407446039,-65142.715886969541,-98828.29529118455,-18224.90334026653,-34234.560557207347,-3223.3791529695563,80134.592887418927,-101011.56928739179,9939.3941209849436,-9939.3941209849436,101011.56928739179,155412.96988413692,0.0
340012.02908761695,3867225.878295721,-12500.0,-28396.964350382365,-61832.86326503718,-145711.30390939937,-14661.245320321239,-43728.408346033553,-2019.7749943384761,97291.533798015298,-125164.36627366403,36144.862580553156,-36144.862580553156,125164.36627366403,188159.82383160078,0.0
345012.02908761695,3867225.878295721,-12500.0,-9411.4304807341432,-39211.112409556401,-187690.1390903279,-7490.6344889334086,-49585.136638469412,120.42435819370269,110353.27659912342,-131008.30195013974,60657.160277775038,-60657.160277775038,131008.30195013974,213846.67666860044,0.0
350012.02908761695,3867225.878295721,-12500.0,2908.3876713999853,3508.0685026674028,-203111.56302258788,1622.7903863006311,-48557.80770461767,2305.1192598461066,113673.52739350745,-104962.15261703366,68515.333768576733,-68515.333768576733,104962.15261703366,222348.15208436866,0.0
355012.02908761695,3867225.878295721,-12500.0,-2866.1685209751854,51207.159476416266,-171985.82893328654,9382.3410917946931,-39700.69128688582,3237.3059971266239,103908.73441648643,-47578.637346685973,46939.131217217517,-46939.131217217517,47578.637346685973,206227.95315134383,0.0
360012.02908761695,3867225.878295721,-12500.0,-24971.249333692595,77097.261299230435,-99316.06376315518,12979.978716084233,-25729.909705116705,2490.115559635602,88456.574987275337,15686.021414063494,2882.5657109622534,-2882.5657109622534,-15686.021414063494,169252.40167739367,0.0
365012.02908761695,3867225.878295721,-12500.0,-45097.862456862924,68160.184715643656,-19779.844555972137,12008.76000366705,-11198.047595267661,1019.4910958667687,70614.288278830718,52985.045356088973,-36776.970549091304,36776.970549091304,-52985.045356088973,127853.29267591903,0.0
370012.02908761695,3867225.878295721,-12500.0,-48587.70987791782,38011.938263022836,34500.676339890124,8006.9359061726354,429.05876135674043,64.337851569777399,56837.543445314717,56789.697113253264,-52706.744425735043,52706.744425735043,-56789.697113253264,98771.905085056467,0.0
375012.02908761695,3867225.878295721,-12500.0,-37255.404719130711,7307.5643953174958,57643.618427561494,2970.0785870245004,7844.7694786051534,24.032393484106464,48630.702108464786,41653.236144881768,-47414.926165939338,47414.926165939338,-41653.236144881768,85024.029999265171,0.0
380012.02908761695,3867225.878295721,-12500.0,-20308.773059377228,-13806.656816666995,60069.093089700451,-1584.8085019219429,11414.313074642338,538.92035392893308,43534.873196602217,22892.064640784934,-32629.042294124913,32629.042294124913,-22892.064640784934,78675.284409167041,0.0
385012.02908761695,3867225.878295721,-12500.0,-4542.1076908602499,-24811.781832415661,53000.376332151245,-4911.7451515225002,12257.84136327054,1126.4174766892349,39361.871997706883,7792.001889233542,-17107.297941342764,17107.297941342764,-7792.001889233542,73396.879533710002,0.0
390012.02908761695,3867225.878295721,-12500.0,7362.0864957837584,-28661.00015120551,43251.217562083388,-6900.4760851508108,11528.646350255458,1525.1233093094302,35317.426393421869,-2179.0217544095722,-4610.4062187543814,4610.4062187543814,2179.0217544095722,67361.123538566593,0.0
395012.02908761695,3867225.878295721,-12500.0,15190.676330040493,-28350.884175857453,33935.47223803059,-7782.9875609705477,10085.737030537581,1687.3388960017569,31335.401664531819,-7876.0127516747662,4135.4442644709297,-4135.4442644709297,7876.0127516747662,60704.478095905637,0.0
400012.02908761695,3867225.878295721,-12500.0,19688.654310635084,-25987.651236321697,26120.125700082001,-7890.7085682083562,8454.8448262786278,1666.8063374317144,27540.028703183507,-10610.953868405633,9643.3986705273401,-9643.3986705273401,10610.953868405633,53938.621847464448,0.0
405012.02908761695,3867225.878295721,-12500.0,21778.144771159568,-22835.75265166958,19948.873724314755,-7523.7443955655299,6908.4192122551767,1537.1780777428967,24045.824347297352,-11496.060062411187,12731.648141262893,-12731.648141262893,11496.060062411187,47470.311834295906,0.0
410012.02908761695,3867225.878295721,-12500.0,22258.551853270739,-19578.062008015953,15221.68397521742,-6906.493730887325,5560.5446658066012,1357.7701473560526,20915.667205362592,-11317.86312625187,14153.251788610747,-14153.251788610747,11317.86312625187,41533.64443332325,0.0
415012.02908761695,3867225.878295721,-12500.0,21733.969333854315,-16544.606721461369,11653.744376253373,-6188.1195327925434,4439.0127577486255,1166.9220535692743,18174.513362246624,-10584.203187206907,14492.893889643497,-14492.893889643497,10584.203187206907,36227.874810381305,0.0
420012.02908761695,3867225.878295721,-12500.0,20628.098382990564,-13867.669808726971,8976.5181519565831,-5459.002156901629,3530.5634916448466,985.80321852229827,15841.34533338465,-9603.8595316118281,14168.218715275832,-14168.218715275832,9603.8595316118281,31566.578058165742,0.0
425012.02908761695,3867225.878295721,-12500.0,19223.623702716144,-11576.074219068216,6968.5779681665163,-4768.881271287597,2806.0615528072503,824.15153186340967,13843.500867978066,-8555.0414344661731,13462.791769883403,-13462.791769883403,8555.0414344661731,27515.549462185616,0.0
430012.02908761695,3867225.878295721,-12500.0,17701.630759208532,-9648.9960067665397,5458.1929481004581,-4141.5687639027001,2233.1615256264154,684.9866775486197,12113.931105261485,-7534.5914351417268,12562.187949987379,-12562.187949987379,7534.5914351417268,24017.782998470273,0.0
435012.02908761695,3867225.878295721,-12500.0,16173.383383271625,-8045.1521168406935,4316.2485643305354,-3585.3554202270975,1781.9391592792879,567.78045799460119,10619.714786942317,-6590.493286561943,11583.928140995658,-11583.928140995658,6590.493286561943,21008.389054841453,0.0
440012.02908761695,3867225.878295721,-12500.0,14703.787252058964,-6717.8859945217318,3447.2214837145316,-3099.8497852625715,1426.9009982607861,470.37693431690315,9331.2615736852676,-5742.4167548560872,10599.845458047554,-10599.845458047554,5742.4167548560872,18422.981435615628,0.0
445012.02908761695,3867225.878295721,-12500.0,13327.741384666575,-5622.3803332512352,2780.958618091357,-2680.2120004208709,1147.2589069065334,390.06129763652365,8220.8375653769217,-4994.2685075362924,9651.8057032876277,-9651.8057032876277,4994.2685075362924,16201.851477949376,0.0
450012.02908761695,3867225.878295721,-12500.0,12061.2209318775,-4718.6894868473928,2266.05384635887,-2319.6677214495649,926.48036792704249,324.11015452211967,7263.3038543605899,-4341.687983354539,8762.4273372084863,-8762.4273372084863,4341.687983354539,14291.741339592678,0.0
260012.02908761695,3872225.878295721,-12500.0,3157.8023993105598,5123.1679012062941,3437.2514978943618,897.62874177522622,1098.7064016460931,167.21464782563706,5246.9159941344988,5707.8650247875448,423.70155461579316,-423.70155461579316,-5707.8650247875448,9728.1370943520214,0.0
265012.02908761695,3872225.878295721,-12500.0,2741.8417220615524,5711.5931123753053,4086.95141106957,914.95590980317138,1279.004126884,186.512129908388,5889.3038875839129,6604.0912605344402,-184.48815996579515,184.48815996579515,-6604.0912605344402,10819.524169639815,0.0
270012.02908761695,3872225.878295721,-12500.0,2063.7718932309913,6321.8825252505039,4873.2501858023188,895.22224939449563,1483.4434114817993,204.55770027068968,6631.8913804895883,7627.0092798907972,-1034.1674135054486,1034.1674135054486,-7627.0092798907972,12061.423850024479,0.0
275012.02908761695,3872225.878295721,-12500.0,1023.3777304168257,6918.6246007815289,5818.5770900199168,816.10733316455128,1708.9966331349156,218.55602995359675,7496.439711052848,8772.5336957111067,-2201.4279086372003,2201.4279086372003,-8772.5336957111067,13485.664851392496,0.0
280012.02908761695,3872225.878295721,-12500.0,-511.98128837187267,7439.3617818027042,6940.9603112521609,644.91138795690392,1946.5344444294035,223.86026905232501,8513.3507395054403,10016.011750419262,-3780.8674284045774,3780.8674284045774,-10016.011750419262,15141.0253753707,0.0
285012.02908761695,3872225.878295721,-12500.0,-2714.3152079669994,7779.4443924368315,8244.4843500667539,334.4881596387944,2175.9609967379097,213.02368676326404,9727.4370657652471,11295.421173600116,-5885.3562514239966,5885.3562514239966,-11295.421173600116,17108.004310901277,0.0
290012.02908761695,3872225.878295721,-12500.0,-5799.8816624004548,7770.103758635214,9700.8177485338001,-181.7726741126416,2358.146257664413,174.51287420353071,11208.024318380318,12483.869729192404,-8640.3493809106658,8640.3493809106658,-12483.869729192404,19525.957106517446,0.0
295012.02908761695,3872225.878295721,-12500.0,-10027.512318823952,7148.2690565891562,11215.054022820434,-995.38089564975917,2421.8606173894345,91.121680194806359,13065.976583747644,13345.964705448469,-12166.995215304791,12166.995215304791,-13345.964705448469,22639.555035886107,0.0
300012.02908761695,3872225.878295721,-12500.0,-15681.723693240216,5518.5254988676552,12565.095676534676,-2226.8552530279308,2243.2918098150681,-61.591468019511694,15480.587613159092,13471.490568329264,-16544.15903020517,16544.15903020517,-13471.490568329264,26869.841461664462,0.0
305012.02908761695,3872225.878295721,-12500.0,-23025.504019463006,2313.0094241490633,13298.74713744604,-4024.2291018069204,1615.4703862220333,-315.814508086709,18737.843125780961,12180.785219632306,-21733.838267416155,21733.838267416155,-12180.785219632306,32904.882394456989,0.0
310012.02908761695,3872225.878295721,-12500.0,-32199.188165606443,-3232.275522423351,12568.625835374069,-6546.7791383408858,206.3687686641351,-708.28310827063922,23277.290196695922,8403.50754754439,-27448.681451392811,27448.681451392811,-8403.50754754439,41786.443041379331,0.0
315012.02908761695,3872225.878295721,-12500.0,-43034.370669347147,-12040.533649163508,8888.3192410912816,-9916.5160089719702,-2489.0769442779688,-1267.2868643121435,29740.738375637575,554.70706592132774,-32939.592031548898,32939.592031548898,-554.70706592132774,54957.414506892099,0.0
320012.02908761695,3872225.878295721,-12500.0,-54755.133708066394,-25007.18188520836,-180.26667313999252,-14109.445853270467,-7178.9580622613294,-1977.7108717367053,39033.182091781186,-13515.560787509186,-36699.056603677418,36699.056603677418,13515.560787509186,74239.280575338067,0.0
325012.02908761695,3872225.878295721,-12500.0,-65574.931154617676,-42505.83159272909,-18315.015330365772,-18755.86055500184,-14719.262747330691,-2705.3655417188379,52517.358480268216,-36317.198393951425,-36139.667339521598,36139.667339521598,36317.198393951425,101687.88377391042,0.0
330012.02908761695,3872225.878295721,-12500.0,-72308.863564554704,-63354.625361735809,-50393.857012698289,-22857.385980913397,-25832.261019086473,-3071.1459262158746,71984.304826797379,-69887.150763386977,-27470.310786292834,27470.310786292834,69887.150763386977,139167.19115563182,0.0
335012.02908761695,3872225.878295721,-12500.0,-70395.302515661664,-83003.920724420095,-101342.77899516877,-24573.884252550772,-40393.275133939387,-2343.3224925067957,97694.888447842561,-113655.2044326741,-6357.3360446027145,6357.3360446027145,113655.2044326741,187270.62047598677,0.0
340012.02908761695,3872225.878295721,-12500.0,-55345.425684660717,-91130.980112071367,-172125.03453779026,-21521.353314715663,-56213.707683478897,365.52823882290272,127478.00356316917,-160089.45691248268,29319.799515065446,-29319.799515065446,160089.45691248268,242963.17866622328,0.0
345012.02908761695,3872225.878295721,-12500.0,-27651.296237563005,-71032.90068621411,-250234.76736577993,-12223.15072466036,-67959.657744182885,5126.4755717306998,155034.90447852277,-188444.27919209233,72593.510777391522,-72593.510777391522,188444.27919209233,295557.70095220761,0.0
350012.02908761695,3872225.878295721,-12500.0,-1872.3614487572313,-9354.1737342938504,-296756.70891714504,1321.7655986015657,-68319.743979468942,9796.3404190742767,168139.39681492129,-164806.66909605823,97851.148775125388,-97851.148775125388,164806.66909605823,323735.01458004763,0.0
355012.02908761695,3872225.878295721,-12500.0,-6408.3378591775181,74538.64070298188,-255786.50963011678,12652.620854649962,-53827.555694949995,10806.47386533795,154144.40959356577,-71890.733421399782,68530.313909744262,-68530.313909744262,71890.733421399782,304334.24248195463,0.0
360012.02908761695,3872225.878295721,-12500.0,-45572.603237594609,116980.00970830573,-123866.54614378109,15991.684359671739,-30597.437659834301,7281.6254098259633,126440.06657272544,39084.524587510445,-10155.26764494897,10155.26764494897,-39084.524587510445,240188.37697913105,0.0
365012.02908761695,3872225.878295721,-12500.0,-74247.96592015223,86281.657907015557,10877.123686522116,12101.740331235047,-8712.7066295503391,2396.0754888009692,97055.617166838929,88486.545638986616,-71082.214351282266,71082.214351282266,-88486.545638986616,172037.56180674149,0.0
370012.02908761695,3872225.878295721,-12500.0,-64928.999164289038,27328.188719003912,79206.285711138276,5013.8443524979657,6470.4784304518926,-506.85781561896397,77487.278242241882,73727.144917367143,-77909.762737654644,77909.762737654644,-73727.144917367143,134466.33713092483,0.0
375012.02908761695,3872225.878295721,-12500.0,-35619.068632286471,-16196.973075923639,91267.911095155199,-2067.3550346489114,14403.492966322592,-833.18349677896413,66577.945107206266,39494.465067072131,-53833.916145942872,53833.916145942872,-39494.465067072131,119660.84170228716,0.0
380012.02908761695,3872225.878295721,-12500.0,-7230.0259090552527,-37065.363004699029,79044.952892756759,-7409.9643273411293,16888.859498952686,137.18531321343607,58668.86061708309,11652.783187880344,-25861.444924811138,25861.444924811138,-11652.783187880344,109562.71546448067,0.0
385012.02908761695,3872225.878295721,-12500.0,12847.036905495705,-42888.772260446232,61517.33205302812,-10568.457498893587,16199.851166019953,1197.9903194458966,51447.235028954892,-5189.4267143993857,-4513.0977834349924,4513.0977834349924,5189.4267143993857,98550.409561751119,0.0
390012.02908761695,3872225.878295721,-12500.0,24755.015133224242,-41144.178292314311,45773.180053947952,-11864.134380271065,14090.005763935458,1859.4828442644596,44630.90463867136,-13619.117740657961,9121.2399361977314,-9121.2399361977314,13619.117740657961,86853.778226042006,0.0
395012.02908761695,3872225.878295721,-12500.0,30652.451307379448,-36345.798895156055,33464.273600312939,-11872.606314313407,11610.025524715238,2101.4485670350909,38380.886097606366,-16863.573108881519,16766.790482135326,-16766.790482135326,16863.573108881519,75456.293045683909,0.0
400012.02908761695,3872225.878295721,-12500.0,32638.603874766544,-30786.474807539304,24369.13415917079,-11128.99393889169,9276.4255036644117,2058.8212347461013,32828.405513412676,-17253.72809353461,20381.221829189726,-20381.221829189726,17253.72809353461,64990.533703866575,0.0
405012.02908761695,3872225.878295721,-12500.0,32277.361412131191,-25498.528608258257,17807.979487023251,-10025.505202605074,7286.1641605264222,1866.7964592124908,28014.531311583283,-16225.897412510083,21488.011330092693,-21488.011330092693,16225.897412510083,55726.700126344622,0.0
410012.02908761695,3872225.878295721,-12500.0,30618.683624936923,-20871.428222968865,13114.832075409018,-8811.258730065043,5673.7618737079283,1618.148391276369,23930.178617143461,-14598.067346742562,21132.09429330286,-21132.09429330286,14598.067346742562,47708.845198165684,0.0
415012.02908761695,3872225.878295721,-12500.0,28327.190994349723,-16989.923278846374,9758.5772652626601,-7627.0899370593843,4403.9052673579599,1365.5585575462692,20521.708815870887,-12809.079609548506,19986.145524947198,-19986.145524947198,12809.079609548506,40862.648321560489,0.0
420012.02908761695,3872225.878295721,-12500.0,25804.860683147032,-13807.089788394065,7347.5256708172628,-6542.6201600212053,3419.0260142160278,1134.4233612643056,17647.870174440104,-11078.679470689778,18465.268607475853,-18465.268607475853,11078.679470689778,35062.047921742611,0.0
425012.02908761695,3872225.878295721,-12500.0,23283.569339014099,-11228.806652814246,5602.7584454231755,-5584.8381998076929,2660.8962769528057,934.22658398352462,15216.315425732259,-9505.0793032657566,16816.227143342156,-16816.227143342156,9505.0793032657566,30166.543542011445,0.0
430012.02908761695,3872225.878295721,-12500.0,20888.750864683854,-9152.7159457616763,4328.7105891939918,-4757.2106824975335,2078.8504694030589,766.15864615494127,13160.460798493741,-8121.6867171659542,15179.491735693031,-15179.491735693031,8121.6867171659542,26040.30260461209,0.0
435012.02908761695,3872225.878295721,-12500.0,18681.139547773942,-7484.5987007294343,3389.0061171010866,-4051.4337545939766,1631.7777060963629,627.60035845349478,11421.948327549093,-6929.1094251101968,13630.112287623811,-13630.112287623811,6929.1094251101968,22560.819730800431,0.0
440012.02908761695,3872225.878295721,-12500.0,16683.276921173441,-6143.8848820872217,2688.5000851337409,-3454.2053039037219,1287.5214612584232,514.53867920287666,9949.8313935300466,-5912.7240904006194,12203.781951479667,-12203.781951479667,5912.7240904006194,19621.765805563165,0.0
445012.02908761695,3872225.878295721,-12500.0,14896.042836520104,-5064.2897075792125,2160.5641634038452,-2950.9189648643314,1021.4326980553662,422.77083557931707,8700.542102487625,-5052.0687288743329,10913.164432357022,-10913.164432357022,5052.0687288743329,17132.974223901088,0.0
450012.02908761695,3872225.878295721,-12500.0,13308.70998687055,-4192.4272212293481,1758.2614870318534,-2527.5224647764862,814.81654000907179,348.44038430612011,7637.3675986578191,-4325.636500821578,9757.916008668657,-9757.916008668657,4325.636500821578,15019.012868944386,0.0
260012.02908761695,3877225.878295721,-12500.0,5416.447583198018,5629.1183660677534,3148.817686450554,1316.1288811583931,1169.5522208487464,222.76383841723936,5897.0596561106086,5670.5190712284129,2109.0806207198925,-2109.0806207198925,-5670.5190712284129,11166.924701118252,0.0
265012.02908761695,3877225.878295721,-12500.0,5404.3792912458848,6425.5368673033772,3789.8378903737243,1430.6681652303398,1387.1387223409445,257.90783911511591,6655.8095923350866,6681.4282459078458,1770.9094349449988,-1770.9094349449988,-6681.4282459078458,12512.36144443342,0.0
270012.02908761695,3877225.878295721,-12500.0,5198.998272466637,7319.4171537971988,4588.5158918382804,1531.9179830171172,1645.3945435564854,296.65215554945115,7533.4432261170823,7884.2269006115439,1223.9161981032735,-1223.9161981032735,-7884.2269006115439,14046.237232969663,0.0
275012.02908761695,3877225.878295721,-12500.0,4703.5216086025885,8301.3848332065027,5584.021041119764,1602.5685025143973,1948.328445071995,337.66264402872599,8551.1931803304433,9305.0927205599928,385.1925745436638,-385.1925745436638,-9305.0927205599928,15795.940590617785,0.0
280012.02908761695,3877225.878295721,-12500.0,3781.1676646170499,9342.4096323679769,6821.3207183228633,1614.9551361897654,2296.6230795063707,378.09721104710951,9735.3958679475854,10962.287942339017,-856.71194055131855,856.71194055131855,-10962.287942339017,17794.90939380927,0.0
285012.02908761695,3877225.878295721,-12500.0,2241.0015196929676,10378.894235707767,8347.0086757920744,1525.8353323208062,2683.5613394274146,412.63352782989642,11120.35901372539,12853.393430177824,-2648.6819261517758,2648.6819261517758,-12853.393430177824,20088.395714586299,0.0
290012.02908761695,3877225.878295721,-12500.0,-178.91615566984069,11288.581348907266,10198.228162734127,1268.9917550740813,3087.563245620518,432.02921589822716,12754.263187811004,14931.558168042578,-5178.3036522249213,5178.3036522249213,-14931.558168042578,22747.414740663422,0.0
295012.02908761695,3877225.878295721,-12500.0,-3828.8712115271674,11852.785591755843,12377.616938566898,745.24123346339707,3458.8495062736365,421.11908819461604,14711.451523861062,17062.947967189557,-8672.8965639358757,8672.8965639358757,-17062.947967189557,25900.924893488391,0.0
300012.02908761695,3877225.878295721,-12500.0,-9159.0220177851588,11699.780342192591,14801.162943500845,-189.90543648552273,3696.1636518718719,356.32697219928355,17117.634336701922,18953.249009449759,-13382.584035391399,13382.584035391399,-18953.249009449759,29805.879581457812,0.0
305012.02908761695,3877225.878295721,-12500.0,-16710.951823802377,10225.841334422279,17195.902970620187,-1738.7186338971921,3607.2463493943296,203.31661178870502,20199.273422918293,20026.131312911195,-19528.851116525635,19528.851116525635,-20026.131312911195,34986.672235172569,0.0
310012.02908761695,3877225.878295721,-12500.0,-27061.530196491181,6498.8711808796461,18909.822999733802,-4166.6112056409338,2844.3538050702023,-83.074967998503197,24372.701402282422,19234.044258193302,-27186.447745289748,27186.447745289748,-19234.044258193302,42473.818283849214,0.0
315012.02908761695,3877225.878295721,-12500.0,-40671.616659112566,-826.59676943339139,18579.734523892526,-7781.6575889371215,806.19144033709642,-550.4446280745783,30386.301954259885,14790.162902985352,-36049.869034486735,36049.869034486735,-14790.162902985352,54118.939506781411,0.0
320012.02908761695,3877225.878295721,-12500.0,-57571.942824464,-13501.32386533858,13596.093305507173,-12846.804635375136,-3490.7900193565633,-1215.7998661999109,39527.481292506462,3847.9960433026899,-45025.934638563092,45025.934638563092,-3847.9960433026899,72860.712656246382,0.0
325012.02908761695,3877225.878295721,-12500.0,-76812.987698376732,-33400.342245696636,-664.48518141011289,-19348.646182777014,-11521.136433537811,-1970.6452967496398,54044.843773032859,-17747.140146284444,-51613.985412917922,51613.985412917922,17747.140146284444,102805.18965918664,0.0
330012.02908761695,3877225.878295721,-12500.0,-95630.709888108278,-61622.323445101436,-31739.269656803044,-26529.015360781614,-25156.083099800293,-2361.6502101088331,78000.679335404886,-55299.812115997549,-51119.665783171418,51119.665783171418,55299.812115997549,149076.90242062905,0.0
335012.02908761695,3877225.878295721,-12500.0,-108333.94793125578,-96283.650875488456,-90600.119306228458,-32197.468985922736,-45920.243873399057,-1238.7071017354288,114961.97542287904,-113851.72314690342,-35975.93957492365,35975.93957492365,113851.72314690342,217099.82113263605,0.0
340012.02908761695,3877225.878295721,-12500.0,-105273.91652278387,-127520.31177582574,-189653.05364734182,-32287.843125009636,-72874.26049305276,3308.9524257602725,165526.68575160194,-193066.12869550497,3622.5044552645268,-3622.5044552645268,193066.12869550497,309703.05893517402,0.0
345012.02908761695,3877225.878295721,-12500.0,-75140.342746773167,-127961.59231828658,-329982.06191712047,-21953.094837826535,-98710.834696349164,12254.198448885534,223726.8749074752,-272094.76230078674,72359.752544223389,-72359.752544223389,272094.76230078674,417915.89092665911,0.0
350012.02908761695,3877225.878295721,-12500.0,-24012.643603873061,-49229.070809799676,-459026.96281275671,-538.63312357125596,-106548.43367460846,21234.999733402146,265949.41750459821,-281454.55711090146,141134.67764523436,-141134.67764523436,281454.55711090146,502292.00737954001,0.0
355012.02908761695,3877225.878295721,-12500.0,-15246.126155436043,113573.57558204341,-422763.04809472663,19122.777842395088,-80466.609962504808,21123.207681822758,250797.75532106584,-126425.99718610676,111411.79319604494,-111411.79319604494,126425.99718610676,491357.7394874884,0.0
360012.02908761695,3877225.878295721,-12500.0,-93757.187487896459,193083.37124585157,-146642.05165159173,19804.214273146943,-35929.382463751012,11768.169469322798,197939.58425423939,97728.307505386707,-49538.94669064341,49538.94669064341,-97728.307505386707,369331.89819411555,0.0
365012.02908761695,3877225.878295721,-12500.0,-125246.28648378742,93610.436233114131,95486.029455170079,8591.187987985455,-1599.9002879413019,1369.5526825639731,144957.30030238576,146528.02773685218,-137723.38106631435,137723.38106631435,-146528.02773685218,251642.53317955253,0.0
370012.02908761695,3877225.878295721,-12500.0,-70562.712763926407,-15471.855181116434,153947.61069560572,-3308.2440917188651,16920.280067804903,-4000.5075230622997,114260.86740090724,78141.053646655666,-100408.37487030681,100408.37487030681,-78141.053646655666,203718.84118924988,0.0
375012.02908761695,3877225.878295721,-12500.0,-10224.509953942548,-61599.461009371109,128966.85488189488,-12090.268395754239,23384.937887552227,-3684.1951171068249,95246.989044337941,17913.376377456894,-40932.06984827893,40932.06984827893,-17913.376377456894,178799.40417693273,0.0
380012.02908761695,3877225.878295721,-12500.0,26804.80055812098,-69385.96180101858,92380.549786556716,-16985.208223154157,23043.308756696242,-1209.5352780808187,79774.427457545346,-12957.086346003349,-555.9278303717274,555.9278303717274,12957.086346003349,154349.44825456411,0.0
385012.02908761695,3877225.878295721,-12500.0,44621.300767802888,-62636.573484490931,63217.54507178632,-18697.720884805331,19848.603955852297,928.59715912106162,66504.606342622516,-25059.637584537883,21080.035984712904,-21080.035984712904,25059.637584537883,130645.05115364808,0.0
390012.02908761695,3877225.878295721,-12500.0,50980.221381788724,-52139.834771073271,42873.867066894563,-18311.808853442959,15980.790876250338,2101.7213544527472,55286.176341261918,-27814.152262613385,30853.521336367372,-30853.521336367372,27814.152262613385,109482.4436930855,0.0
395012.02908761695,3877225.878295721,-12500.0,51182.149428700817,-41893.053292301476,29235.103700967007,-16781.420223552494,12411.379356738993,2500.2029590336465,45949.207449475689,-26423.666533574593,33955.618216405732,-33955.618216405732,26423.666533574593,91406.99520381233,0.0
400012.02908761695,3877225.878295721,-12500.0,48322.67952451676,-33128.888777105291,20173.826573398044,-14776.686753158199,9460.4559006810468,2449.3149944695974,38278.621320408718,-23463.491855472643,33539.497460764382,-33539.497460764382,23463.491855472643,76299.166507947113,0.0
405012.02908761695,3877225.878295721,-12500.0,44131.044961885353,-26035.759013311523,14133.500719172844,-12700.076496620786,7150.2198894919657,2191.934642438443,32032.274091503838,-20142.100161703398,31409.324312799188,-31409.324312799188,20142.100161703398,63808.356210880636,0.0
410012.02908761695,3877225.878295721,-12500.0,39545.377126757048,-20442.218841251957,10070.13986855349,-10760.296785539003,5392.059254907801,1869.5976720939368,26919.163637104946,-16988.609087815094,28567.078676583922,-28567.078676583922,16988.609087815094,53534.841307831688,0.0
415012.02908761695,3877225.878295721,-12500.0,35052.88942400214,-16084.171626658732,7303.6691961899642,-9045.4754042812674,4072.7510668079844,1552.8618170761874,22717.035716274928,-14202.67401130203,25551.700522929008,-25551.700522929008,14202.67401130203,45099.855205825363,0.0
420012.02908761695,3877225.878295721,-12500.0,30886.752426360104,-12704.320918039497,5394.4857261922425,-7576.6581416659537,3088.4331216409855,1271.28751021069,19258.372258688079,-11829.69404310495,22638.830921877641,-22638.830921877641,11829.69404310495,38170.641949191682,0.0
425012.02908761695,3877225.878295721,-12500.0,27139.749041471205,-10083.875463401742,4057.9006743461264,-6341.529601352051,2354.5631390022522,1033.334250232095,16405.556516226636,-9847.6054380940441,19956.721141922382,-19956.721141922382,9847.6054380940441,32466.333925157538,0.0
430012.02908761695,3877225.878295721,-12500.0,23829.573925204611,-8047.5391971738172,3108.2955665009031,-5313.7270402345839,1806.0953878288665,837.70745507028073,14045.244480905874,-8209.0389685168047,17552.943730776897,-17552.943730776897,8209.0389685168047,27755.326042038989,0.0
435012.02908761695,3877225.878295721,-12500.0,20936.029395739661,-6458.9921954513147,2423.521303129357,-4463.0766933182349,1394.4137138663871,679.28395353945871,12085.02873049982,-6861.0971365456826,15432.497975330327,-15432.497975330327,6861.0971365456826,23849.352149076574,0.0
440012.02908761695,3877225.878295721,-12500.0,18421.803793267554,-5213.8031184417896,1922.3273849589739,-3760.5425096991639,1083.7068677394734,551.97735733709942,10450.149594576815,-5753.9620307351252,13579.281022966548,-13579.281022966548,5753.9620307351252,20596.605773751813,0.0
445012.02908761695,3877225.878295721,-12500.0,16243.79928764433,-4232.5312078096995,1550.0464492132762,-3180.2978269351797,847.76499101842819,450.00287985513802,9080.3927348832258,-4844.089823971517,11967.995047781853,-11967.995047781853,4844.089823971517,17875.183835986267,0.0
450012.02908761695,3877225.878295721,-12500.0,14359.091630228553,-3454.8918211193659,1269.4662233647946,-2700.3269824812869,667.43609293619704,368.34545283706569,7927.3667344525811,-4094.8757771922592,10570.604732469179,-10570.604732469179,4094.8757771922592,15587.372710176824,0.0
255012.02908761695,3882225.878295721,-12500.0,7354.5891693951289,5057.5920969213648,2260.2965137547626,1558.6714110998139,990.83789572938429,236.93999528021092,5824.7599653659881,4452.4687110733603,3916.3466836453181,-3916.3466836453181,-4452.4687110733603,11283.825675748278,0.0
260012.02908761695,3882225.878295721,-12500.0,7875.6733352866431,5865.4372396417257,2717.7085645199927,1764.8802801146851,1188.1916237008286,281.41277251189649,6599.4917333867461,5302.3484263986438,4030.2914107437473,-4030.2914107437473,-5302.3484263986438,12723.84898050941,0.0
265012.02908761695,3882225.878295721,-12500.0,8362.161942124123,6818.5022279732739,3296.5240252988265,1993.2257931172185,1430.055554708106,334.36273892857605,7501.7089510354972,6343.1653085709113,4057.4335779118505,-4057.4335779118505,-6343.1653085709113,14386.461179635722,0.0
270012.02908761695,3882225.878295721,-12500.0,8765.7706804626996,7939.0386106419865,4033.9582444238663,2240.5378576255157,1726.2584905939027,396.89161077452502,8554.3536547909753,7619.9265185197419,3946.6548333958362,-3946.6548333958362,-7619.9265185197419,16306.843862086122,0.0
275012.02908761695,3882225.878295721,-12500.0,9011.251578309586,9247.374524800558,4978.8751522437296,2498.8655516681983,2087.7774369444337,469.76585268889602,9784.0788596269867,9185.9053631632742,3623.3896197002982,-3623.3896197002982,-9185.9053631632742,18523.654881779647,0.0
280012.02908761695,3882225.878295721,-12500.0,8983.204765475637,10756.158985158459,6194.4993262805174,2752.1466652992522,2525.6984665884247,552.95046483662782,11221.491266642155,11101.068510810161,2979.8397563645112,-2979.8397563645112,-11101.068510810161,21077.993973677821,0.0
285012.02908761695,3882225.878295721,-12500.0,8507.0072236190026,12459.309032597461,7760.3190590107552,2970.8854405333941,3048.702207348364,644.81371062942503,12901.339672386663,13426.444161716705,1861.886492921114,-1861.886492921114,-13426.444161716705,24011.797189417914,0.0
290012.02908761695,3882225.878295721,-12500.0,7321.9794209058618,14311.663136879733,9770.7961091941506,3103.7976997209075,3657.6541753682545,740.83835533648312,14863.025835119897,16210.076215518686,52.681736418180662,-52.681736418180662,-16210.076215518686,27366.607697700125,0.0
295012.02908761695,3882225.878295721,-12500.0,5045.1492881991526,16192.739121594652,12325.370136854219,3064.9398362364304,4334.6323431515657,831.6418682418996,17152.765654816754,19456.336720091691,-2745.5143708772684,2745.5143708772684,-19456.336720091691,31186.43305955594,0.0
300012.02908761695,3882225.878295721,-12500.0,1126.019766639829,17844.356182833912,15497.645491139927,2714.4601777741918,5021.432901130891,900.11935545766835,19831.482511616425,23063.544860264257,-6925.4712872426808,6925.4712872426808,-23063.544860264257,35536.651546998335,0.0
305012.02908761695,3882225.878295721,-12500.0,-5201.4239719270372,18768.001555024359,19258.624554343642,1831.181914537495,5578.4610703889466,917.66385446230595,22999.77614304232,26703.904284226399,-12970.180856580311,12970.180856580311,-26703.904284226399,40573.329134133164,0.0
310012.02908761695,3882225.878295721,-12500.0,-14949.742695703113,18067.174697497248,23304.80013025484,77.137632438617374,5707.6954984261729,839.8841519659253,26868.940348001564,29604.673524982252,-21396.253306237872,21396.253306237872,-29604.673524982252,46751.652648463249,0.0
315012.02908761695,3882225.878295721,-12500.0,-29346.962189894275,14232.639596486602,26702.947750446798,-3037.9638349479796,4812.1038734704871,603.93246272428348,31944.012792454661,30176.053577058512,-32582.979378133117,32582.979378133117,-30176.053577058512,55360.313767225685,0.0
320012.02908761695,3882225.878295721,-12500.0,-49664.59868093369,4914.1636801582972,27214.237280183843,-8160.3709396438953,1751.4501228623344,136.25940074174491,39443.36775174892,25438.77759955082,-46390.056883776684,46390.056883776684,-25438.77759955082,69593.631845637326,0.0
325012.02908761695,3882225.878295721,-12500.0,-76811.307487181271,-13180.600935603054,20125.086752122315,-15971.91289627,-5537.4997461600233,-595.01979637714408,52197.171815873517,10264.164230150207,-61457.719569936227,61457.719569936227,-10264.164230150207,95895.45017631576,0.0
330012.02908761695,3882225.878295721,-12500.0,-110636.7936919413,-44002.907809741817,-3600.3967126151119,-26744.357190727358,-20481.870377475705,-1375.0773840935678,76939.093594287478,-23468.015974105172,-74120.248386479478,74120.248386479478,23468.015974105172,144613.28826126573,0.0
335012.02908761695,3882225.878295721,-12500.0,-148723.52742437055,-91120.676090285357,-60245.87747491349,-39289.090882226679,-47915.963225780564,-1168.9907870871052,124137.84834800122,-87733.167184674239,-76680.381008291151,76680.381008291151,87733.167184674239,230158.65527467121,0.0
340012.02908761695,3882225.878295721,-12500.0,-182748.82144847049,-154141.02485478765,-178412.7779525934,-49227.887325749005,-92387.661738609764,2728.705375436889,202732.70070790156,-198588.74551317602,-53535.137578116861,53535.137578116861,198588.74551317602,371175.74952062964,0.0
345012.02908761695,3882225.878295721,-12500.0,-187423.73528591273,-211506.44266691862,-401673.53281905304,-46750.457825708887,-151625.46821455107,13345.85610232585,318882.70689661824,-364653.81374221866,25328.904075957398,-25328.904075957398,364653.81374221866,582201.71633065678,0.0
350012.02908761695,3882225.878295721,-12500.0,-117686.04326818784,-161818.21354966133,-729871.72604137147,-15094.667820368773,-196834.7796475481,23721.962157108283,445405.37173017178,-506884.77656797424,178187.85841556909,-178187.85841556909,506884.77656797424,822682.33947097615,0.0
355012.02908761695,3882225.878295721,-12500.0,-45868.100781657915,173155.89963884561,-814817.4782487168,37244.094769993389,-150000.85183604748,11842.548756850014,458965.22541922593,-280270.70380638086,209752.27400955357,-209752.27400955357,280270.70380638086,894763.24432362104,0.0
360012.02908761695,3882225.878295721,-12500.0,-234915.7716742038,353789.73828601523,-96792.798794253409,27301.692152082789,-37409.18146783211,2239.6966257130643,362706.442513688,278855.77978056238,-194051.08178078523,194051.08178078523,-278855.77978056238,651536.70500768325,0.0
365012.02908761695,3882225.878295721,-12500.0,-181742.06795946381,14081.859462350107,310638.3698683228,-3802.2383137938009,18419.189003286443,-4570.2459303738997,247174.51999481302,201395.04789289684,-238556.41627337629,238556.41627337629,-201395.04789289684,433876.10869015794,0.0
370012.02908761695,3882225.878295721,-12500.0,-7444.5796940977489,-124928.13699250926,245701.1498809045,-22424.45717486331,35348.407231635196,-12365.522516558085,181167.99385902003,26242.647333597157,-68121.917400255246,68121.917400255246,-26242.647333597157,342681.93488827295,0.0
375012.02908761695,3882225.878295721,-12500.0,70747.029663379217,-126744.88235409481,149891.05222149682,-29938.291313805265,34637.783019167458,-9281.6951335981248,137680.19557857228,-36526.604400498654,21141.602308172598,-21141.602308172598,36526.604400498654,271077.84086239687,0.0
380012.02908761695,3882225.878295721,-12500.0,92374.293236746031,-101177.72780306885,89183.316004344437,-31094.073926654262,28630.528916566756,-3590.1636873548241,106876.22573860585,-49992.242299050558,53155.495382251218,-53155.495382251218,49992.242299050558,212093.33464218589,0.0
385012.02908761695,3882225.878295721,-12500.0,92250.315199636869,-76281.412720379129,53993.62169455456,-29132.514233269307,22050.842590094293,355.9648852763388,84111.242427074467,-47611.444545390601,60911.045002152568,-60911.045002152568,47611.444545390601,166895.06624259384,0.0
390012.02908761695,3882225.878295721,-12500.0,84579.945037056925,-56692.888529153061,33534.215673959472,-25781.456754005179,16406.49268093038,2262.9025121442792,66884.996418719398,-40920.625032771677,59097.449845664894,-59097.449845664894,40920.625032771677,132754.09174199757,0.0
395012.02908761695,3882225.878295721,-12500.0,74771.93888196889,-42097.148421100734,21393.563908516193,-22036.482544045408,12007.678867934506,2864.3837110542377,53752.540108040725,-33766.880381607138,53742.996524845883,-53742.996524845883,33766.880381607138,106712.33022392611,0.0
400012.02908761695,3882225.878295721,-12500.0,64946.852357347212,-31393.526792830588,14020.041888108006,-18443.532953293103,8735.4232375017382,2808.1007376161433,43618.114837702378,-27377.101598103727,47399.148016550644,-47399.148016550644,27377.101598103727,86581.240492293087,0.0
405012.02908761695,3882225.878295721,-12500.0,55928.464130744404,-23566.476633069811,9437.4660155744459,-15253.297838260522,6356.2744172111716,2483.5397482297922,35704.914622389399,-22044.417911492463,41161.655639509292,-41161.655639509292,22044.417911492463,70840.647866774598,0.0
410012.02908761695,3882225.878295721,-12500.0,47986.6716222381,-17827.281206804142,6525.0423217840053,-12541.529882948156,4643.3595143914972,2088.6055677148138,29464.459721368683,-17729.150007811819,35475.058721110414,-35475.058721110414,17729.150007811819,58418.136869186354,0.0
415012.02908761695,3882225.878295721,-12500.0,41145.166901129742,-13595.801970829019,4633.4250806877681,-10293.755091777592,3412.7750143633784,1711.3127436093821,24500.933347345755,-14287.168821538806,30481.506065105801,-30481.506065105801,14287.168821538806,48535.556221695158,0.0
420012.02908761695,3882225.878295721,-12500.0,35321.675138970888,-10454.122576363457,3378.4681838089923,-8456.7643655013617,2526.5750348220045,1383.8917440386213,20522.38032055481,-11557.912643336167,26183.782783154733,-26183.782783154733,11557.912643336167,40615.604699466952,0.0
425012.02908761695,3882225.878295721,-12500.0,30395.180397440872,-8103.4564504331111,2528.3490194763608,-6966.3435400229455,1885.1089033719047,1112.7473035707494,17309.98444408461,-9396.1692965377079,22524.708023268726,-22524.708023268726,9396.1692965377079,34223.695104404716,0.0
430012.02908761695,3882225.878295721,-12500.0,26238.157063310573,-6330.3796473217544,1940.4889940535154,-5760.5168231825883,1417.6766274510089,893.605676746678,14697.897910435615,-7680.9154322185495,19426.091796871086,-19426.091796871086,7680.9154322185495,29029.479229625562,0.0
435012.02908761695,3882225.878295721,-12500.0,22731.236464510006,-4982.0364083759296,1525.604065337395,-4784.8775573214753,1074.4888797838591,718.68323152021776,12559.385721970542,-6315.182431676114,16807.38904966355,-16807.38904966355,6315.182431676114,24780.073291966084,0.0
440012.02908761695,3882225.878295721,-12500.0,19768.929784304211,-3948.4102233653966,1226.8130333601412,-3993.9399101104432,820.52149622764045,579.8361484704584,10796.938879259496,-5222.8202637044596,14594.001894561705,-14594.001894561705,5222.8202637044596,21280.725036989999,0.0
445012.02908761695,3882225.878295721,-12500.0,17260.898587132797,-3149.8189717129148,1007.2743759712275,-3350.6915874512042,631.0710732892511,469.78323892457598,9335.0567069576773,-4344.6177275561231,12720.353157569585,-12720.353157569585,4344.6177275561231,18380.57694370368,0.0
450012.02908761695,3882225.878295721,-12500.0,15131.200165226974,-2528.1491304330452,842.74731536946149,-2825.4760004312466,488.62860629934829,382.4533270028324,8114.935265153018,-3634.7306781924735,11130.447143194098,-11130.447143194098,3634.7306781924735,15962.126301249044,0.0
455012.02908761695,3882225.878295721,-12500.0,13316.656365280709,-2040.6993614638432,717.03695932891958,-2394.7223853912014,380.70549040932355,312.9621913185166,7090.4935169392693,-3057.6831811580751,9777.2464013807803,-9777.2464013807803,3057.6831811580751,13933.310139864834,0.0
255012.02908761695,3887225.878295721,-12500.0,9450.9139938849112,4919.4894887765859,1818.1198324643087,1922.6345117925434,946.18757069573144,282.24981823109243,6418.1971094083283,3812.8852466804547,5629.6094128881905,-5629.6094128881905,-3812.8852466804547,12598.449775022011,0.0
260012.02908761695,3887225.878295721,-12500.0,10422.74361313884,5770.8942422781283,2185.2333603471943,2224.0955004317234,1144.9633077272213,340.68784267662937,7321.4308970374041,4589.1761441600429,6099.7095088856659,-6099.7095088856659,-4589.1761441600429,14322.558162740392,0.0
265012.02908761695,3887225.878295721,-12500.0,11474.814314201876,6800.5935119395072,2655.5649342582319,2576.7957921803663,1392.9651354856796,412.49109882998698,8385.2052317522503,5558.6322147651636,6568.9587543286061,-6568.9587543286061,-5558.6322147651636,16342.511098445682,0.0
270012.02908761695,3887225.878295721,-12500.0,12590.9410913094,8048.6567149727753,3264.5661480265817,2987.4737153691235,1703.3539520534068,500.63096829547351,9641.7169764882692,6775.8309004659604,7007.9199291303048,-7007.9199291303048,-6775.8309004659604,18714.164941828742,0.0
275012.02908761695,3887225.878295721,-12500.0,13736.615503120709,9562.4279587930614,4061.3085616206399,3461.6363535328019,2092.4845497385977,608.48980880032218,11129.236389348405,8311.180472170643,7368.0949693646062,-7368.0949693646062,-8311.180472170643,21502.207837923914,0.0
280012.02908761695,3887225.878295721,-12500.0,14847.103502598044,11395.421636322002,5113.7638405847711,4001.4318379836473,2580.0834966152133,739.6882670956951,12892.445980378905,10254.431730169599,7571.5628386179387,-7571.5628386179387,-10254.431730169599,24779.357678964789,0.0
285012.02908761695,3887225.878295721,-12500.0,15808.499006202605,13603.04655171239,6515.6262764260628,4601.7806504231858,3188.6551531453692,897.68336602666386,14981.960561393884,12717.319622807063,7495.3721423159113,-7495.3721423159113,-12717.319622807063,28623.171410080602,0.0
290012.02908761695,3887225.878295721,-12500.0,16427.934979523441,16231.70151114593,8394.1828947882987,5243.5490707248719,3941.0551546324309,1084.9980939967113,17452.221749242337,15832.697259926172,6948.5529909844736,-6948.5529909844736,-15832.697259926172,33108.459693103476,0.0
295012.02908761695,3887225.878295721,-12500.0,16387.414418098429,19294.597183933089,10916.818400925731,5881.7024002458293,4854.0370639376097,1301.8932919282684,20356.431747017308,19744.074641249546,5639.4267434536669,-5639.4267434536669,-19744.074641249546,38292.118183009436,0.0
300012.02908761695,3887225.878295721,-12500.0,15174.220161611574,22721.973443117244,14288.645902391128,6424.9821580616508,5923.2590034637797,1544.2429498416925,23736.778999993941,24572.217727225008,3132.2885309041048,-3132.2885309041048,-24572.217727225008,44186.542905043025,0.0
305012.02908761695,3887225.878295721,-12500.0,11981.256172426481,26264.106381801066,18721.145947196346,6701.3324774437633,7090.4725425482893,1800.1714832335826,27609.112946340298,30330.974872606341,-1201.6853122417797,1201.6853122417797,-30330.974872606341,50721.374329474143,0.0
310012.02908761695,3887225.878295721,-12500.0,5577.9210590521197,29313.32931657771,24322.82725577402,6399.6091304217844,8173.6459494867613,2044.0591526685309,31948.533626147262,36738.097299889574,-8217.9089271791054,8217.9089271791054,-36738.097299889574,57716.5996962766,0.0
315012.02908761695,3887225.878295721,-12500.0,-5823.6193262815323,30605.490755137416,30802.929941448416,4973.8489373110042,8719.828690798111,2222.8191809067762,36715.183443399568,42827.142480772593,-18956.622096860752,18956.622096860752,-42827.142480772593,64991.906861783202,0.0
320012.02908761695,3887225.878295721,-12500.0,-24633.499055397562,27796.11433964051,36777.707036819957,1498.2969795732697,7698.5974810103689,2219.1675026241019,42084.359764904686,46236.103699329913,-34402.94880950392,34402.94880950392,-46236.103699329913,73114.698269532659,0.0
325012.02908761695,3887225.878295721,-12500.0,-53787.489099353057,17051.27723542774,38368.458726021599,-5503.0825096453937,2883.4169201817776,1761.0289247682599,49472.734226855049,42114.923457291618,-54900.253769417701,54900.253769417701,-42114.923457291618,86297.522804947381,1.0
330012.02908761695,3887225.878295721,-12500.0,-96694.175920398528,-6991.3316192611373,26855.771069951097,-18100.03979758923,-10291.566242600911,266.20145837652444,65470.167373703451,21853.710467539458,-79342.798436637531,79342.798436637531,-21853.710467539458,118885.13018907231,0.0
335012.02908761695,3887225.878295721,-12500.0,-158530.92912973743,-51135.081996437111,-14797.87164906732,-38511.561207106781,-40478.330691629439,-3202.0813500732688,110076.50659952356,-28509.579517904509,-104995.97631656325,104995.97631656325,28509.579517904509,199172.41073475761,0.0
340012.02908761695,3887225.878295721,-12500.0,-249674.6018720133,-127151.26885207211,-121181.67547627263,-67982.301094114053,-102402.18561639266,-9443.3070192689811,207690.19459541517,-135737.12380874736,-126396.95556917078,126396.95556917078,135737.12380874736,370377.13648141222,0.0
345012.02908761695,3887225.878295721,-12500.0,-373842.77988877957,-257626.96658147682,-387017.71820281824,-104238.6458725229,-219115.19156087039,-19534.267353266132,399223.44902193721,-368634.85481384606,-111563.55496757246,111563.55496757246,368634.85481384606,711422.90023565013,0.0
350012.02908761695,3887225.878295721,-12500.0,-446991.84575061995,-381046.63595900108,-1051889.3638615902,-111990.6353900415,-410356.29087924922,-48373.530213818165,734095.25198570837,-814580.5669159313,72010.733279563719,-72010.733279563719,814580.5669159313,1320724.414329021,0.0
355012.02908761695,3887225.878295721,-12500.0,-317625.78673676326,167520.52531303701,-1924937.6491326634,73082.650049111282,-441926.15777353971,-160247.39290063101,998301.64449343516,-837033.93407171557,377532.55666424742,-377532.55666424742,837033.93407171557,1883423.5658327544,0.0
360012.02908761695,3887225.878295721,-12500.0,-835374.55651404615,530612.56096554105,773633.53621348005,30455.852310767426,5921.8127876892522,-4669.4389314655091,964222.33851235523,971295.39483707724,-950174.25561218546,950174.25561218546,-971295.39483707724,1670300.4903200052,0.0
365012.02908761695,3887225.878295721,-12500.0,86564.823283417791,-368296.03620191594,603328.74969859002,-53695.608258080589,85452.440219506316,5011.0903158885412,456537.05648952094,-1567.3324042161621,-80991.002457193128,80991.002457193128,1567.3324042161621,867941.19545636908,0.0
370012.02908761695,3887225.878295721,-12500.0,250638.37615725704,-269079.13962768437,261010.02425650417,-66402.745258224109,65658.505633780951,-22720.142738644168,289357.62748472858,-121179.08435554271,137340.61846436985,-137340.61846436985,121179.08435554271,566603.45151452173,0.0
375012.02908761695,3887225.878295721,-12500.0,226854.94378460784,-169775.41166852525,123781.89789249659,-58490.751634622451,45338.451599609398,-15865.587645533247,198644.09581785311,-107010.40717779809,150255.89747273881,-150255.89747273881,107010.40717779809,383953.9888769252,0.0
380012.02908761695,3887225.878295721,-12500.0,183807.75061635172,-109361.47797035183,63631.844469700263,-49044.248075199001,31087.500623207703,-6003.8724258859593,139949.83004311519,-82251.665525892706,129494.83029545411,-129494.83029545411,82251.665525892706,271394.59896650095,0.0
385012.02908761695,3887225.878295721,-12500.0,147367.01694340716,-72752.580169875248,34689.591301311164,-40536.688894156818,21291.423354901839,-119.55299833443416,102458.43016266021,-61927.712043989479,106881.37437591513,-106881.37437591513,61927.712043989479,199996.35215111359,0.0
390012.02908761695,3887225.878295721,-12500.0,118953.95919289712,-49699.696418846557,19814.889077790136,-33107.863870163601,14594.729462590023,2447.3552647993906,77573.3794864261,-46663.721647751925,87566.11525177164,-87566.11525177164,46663.721647751925,152281.24445648908,0.0
395012.02908761695,3887225.878295721,-12500.0,96839.534955630254,-34672.1084368132,11795.583463043193,-26784.314494298611,10043.675847349215,3188.776611772611,60253.030583420426,-35377.977942035199,71819.274240782732,-71819.274240782732,35377.977942035199,118742.56931170409,0.0
400012.02908761695,3887225.878295721,-12500.0,79449.963483552594,-24610.426689979871,7305.7912974012688,-21545.38803429242,6957.7920292576227,3101.6175765230541,47705.613147897726,-27035.171024539079,59115.703604953123,-59115.703604953123,27035.171024539079,94237.075728825541,0.0
405012.02908761695,3887225.878295721,-12500.0,65644.376136193809,-17729.949585942406,4709.7557356285643,-17296.940200338249,4860.8670257058802,2708.1228076383286,38340.677415555489,-20840.497101326615,48885.404530773754,-48885.404530773754,20840.497101326615,75832.005663538599,0.0
410012.02908761695,3887225.878295721,-12500.0,54600.173217460455,-12941.500124326427,3164.2029144863932,-13899.824268545808,3427.9043337228404,2249.0462720306537,31196.623778383077,-16211.115725335923,40637.925942112517,-40637.925942112517,16211.115725335923,61732.347496504932,0.0
415012.02908761695,3887225.878295721,-12500.0,45707.924215033032,-9557.6354777705837,2218.1319621585512,-11204.522236666611,2440.8799569289599,1822.3167265289669,25655.472391313655,-12725.283621784389,33971.940444147294,-33971.940444147294,12725.283621784389,50766.87355543075,0.0
420012.02908761695,3887225.878295721,-12500.0,38505.722063304944,-7133.316445233113,1622.8788703177711,-9072.6625345144712,1754.7075126008622,1459.5300681062572,21299.737682544412,-10078.956854203831,28564.859262406178,-28564.859262406178,10078.956854203831,42133.416611648972,0.0
425012.02908761695,3887225.878295721,-12500.0,32638.530242111843,-5374.5832268391032,1237.7003450507716,-7386.1220911130531,1272.9623923408576,1163.9386082035187,17836.760375308782,-8052.827089136601,24159.864816056717,-24159.864816056717,8052.827089136601,35263.548768490771,0.0
430012.02908761695,3887225.878295721,-12500.0,27831.227342157912,-4083.9310439616106,981.06178171234728,-6048.6156476515689,931.34127894369863,928.16554482597837,15055.826155114242,-6488.1875841292531,20553.705920666725,-20553.705920666725,6488.1875841292531,29744.737066601876,0.0
435012.02908761695,3887225.878295721,-12500.0,23869.535846525396,-3126.66659259993,804.72921565744991,-4983.745814976709,686.69174080714163,742.00370035748529,12802.213892922713,-5269.6231038899859,17586.072296252161,-17586.072296252161,5269.6231038899859,25272.354993554261,0.0
440012.02908761695,3887225.878295721,-12500.0,20585.856543237816,-2409.6616640379466,679.61229042800312,-4131.80739573561,509.81719523116379,595.57294197938586,10960.552805650294,-4312.6685104083635,15130.642321970769,-15130.642321970769,4312.6685104083635,21618.352769142832,0.0
445012.02908761695,3887225.878295721,-12500.0,17848.625576860919,-1867.7205621907283,587.85136918091598,-3446.5177369051376,380.78491420492861,480.39759602616641,9443.7519900035259,-3555.0899390099494,13087.840795740494,-13087.840795740494,3555.0899390099494,18610.109971690596,0.0
450012.02908761695,3887225.878295721,-12500.0,15554.134794621117,-1454.6557566361621,518.2923400552545,-2892.1136857794058,285.85425849453856,389.59975952736039,8185.3517034593015,-2950.6867829014273,11379.011056478586,-11379.011056478586,2950.6867829014273,16115.653702576186,0.0
455012.02908761695,3887225.878295721,-12500.0,13620.267740021398,-1137.3807796370897,463.85331159539646,-2440.9631140021429,215.46014593095714,317.7539732409416,7134.1421044250437,-2464.8956706048621,9941.8264577832779,-9941.8264577832779,2464.8956706048621,14033.168073572995,0.0
250012.02908761695,3892225.878295721,-12500.0,10233.608849545144,3823.5463404830007,1150.1410250792858,1943.1929545669125,703.64625345717434,267.79868832899081,6119.1224155112386,2428.7022246964766,6590.5219007707074,-6590.5219007707074,-2428.7022246964766,12164.477568842622,0.0
255012.02908761695,3892225.878295721,-12500.0,11483.649010178598,4491.8471469724773,1353.3954133157174,2272.899448762927,850.45760845840493,325.51990860642246,6991.5229635718233,2925.8369804685731,7347.074499657585,-7347.074499657585,-2925.8369804685731,13866.842756657068,0.0
260012.02908761695,3892225.878295721,-12500.0,12916.891669015899,5308.5459994576486,1611.4870325262141,2669.7252801838372,1034.5891230864625,397.66797105267324,8025.5282680178407,3551.1536324019598,8199.1473296636814,-8199.1473296636814,-3551.1536324019598,15879.031816047825,0.0
265012.02908761695,3892225.878295721,-12500.0,14558.741984027691,6312.5669805465204,1943.8564931930584,3148.7153209946027,1266.9157460356198,488.16598013923249,9256.8162902876102,4344.0259722932697,9153.4652113572483,-9153.4652113572483,-4344.0259722932697,18268.05125461526,0.0
270012.02908761695,3892225.878295721,-12500.0,16434.537681759877,7554.0134800563246,2378.2004825059444,3728.1226714518593,1561.690134818873,601.99048808329303,10729.643713112979,5357.56316978624,10212.373595177971,-10212.373595177971,-5357.56316978624,21116.468151281293,0.0
275012.02908761695,3892225.878295721,-12500.0,18566.075676258275,9097.2204842480132,2954.4292732793342,4429.7287531006941,1937.5096000828869,745.38860490164268,12498.705707239344,6663.7400335721104,11369.53046138828,-11369.53046138828,-6663.7400335721104,24525.450216808451,0.0
280012.02908761695,3892225.878295721,-12500.0,20965.013794500526,11024.170032652532,3730.637251083172,5278.8220668233089,2418.3942200176634,926.07875472328067,14631.053116243302,8360.329333603544,12602.575436446381,-12602.575436446381,-8360.329333603544,28617.561988058915,0.0
285012.02908761695,3892225.878295721,-12500.0,23620.690538622639,13437.617692323623,4792.0717075725688,6303.3823343677714,3034.7577994889443,1153.3837839493303,17207.579798207484,10579.950529702635,13860.732765301853,-13860.732765301853,-10579.950529702635,33538.101673306221,0.0
290012.02908761695,3892225.878295721,-12500.0,26478.221784346952,16462.152060283253,6264.3418349107524,7531.6411929766209,3823.7017415231112,1438.2308086667576,20323.014594588833,13500.971875674271,15044.143070050161,-15044.143070050161,-13500.971875674271,39452.414536074655,0.0
295012.02908761695,3892225.878295721,-12500.0,29399.627158257019,20238.850114858978,8331.9805038398827,8986.4076444852162,4827.2907538614581,1792.9638867607985,24082.007976230707,17358.212481102088,15969.846588902894,-15969.846588902894,-17358.212481102088,46533.580374504934,0.0
300012.02908761695,3892225.878295721,-12500.0,32095.967434013957,24903.52345891537,11261.601353391463,10673.01742196628,6085.8015905383018,2231.0109111310212,28586.138354458981,22446.296207449817,16317.271690966798,-16317.271690966798,-22446.296207449817,54928.829302914215,0.0
305012.02908761695,3892225.878295721,-12500.0,34011.948787911941,30526.54324960721,15421.261995956484,12554.513229532387,7619.2773273522589,2766.5022856999781,33900.819101833098,29095.286953119281,15545.544273926567,-15545.544273926567,-29095.286953119281,64681.020009713851,0.0
310012.02908761695,3892225.878295721,-12500.0,34140.007756197971,36968.883539920913,21262.666359274848,14500.366082169108,9382.4033471726543,3412.9700009563512,39979.294540537318,37566.069825396065,12783.261936273622,-12783.261936273622,-37566.069825396065,75559.642622216925,0.0
315012.02908761695,3892225.878295721,-12500.0,30756.358833568342,43572.903095982008,29160.551460646799,16179.061387851507,11157.739861795435,4173.5309830488723,46500.497076172789,47742.514114977879,6731.6042754989503,-6731.6042754989503,-47742.514114977879,86725.644859559776,0.0
320012.02908761695,3892225.878295721,-12500.0,21159.384683917724,48593.074157162351,38822.660623201533,16834.227447315028,12302.938519975371,4985.7992964405503,52561.41102550365,58379.623409137726,-4253.1911396797732,4253.1911396797732,-58379.623409137726,96163.276675002126,0.0
325012.02908761695,3892225.878295721,-12500.0,1729.196657516,48475.311848250734,47650.032652126894,14848.293307039768,11150.506821329982,5489.8715053097721,56268.319975528997,65632.223534177232,-21480.017795675853,21480.017795675853,-65632.223534177232,100170.63914495541,0.0
330012.02908761695,3892225.878295721,-12500.0,-31262.001682236292,38074.19395894929,47351.981744292483,7036.4948404844936,3639.5871825072904,4257.9857153710063,55290.856284524387,61365.92622336161,-44274.155526191935,44274.155526191935,-61365.92622336161,95847.115213215831,0.0
335012.02908761695,3892225.878295721,-12500.0,-82173.576443782586,14634.850657811377,20513.635265044843,-12183.642872174698,-19392.575959594033,-3286.9948202868245,59863.294149763598,34828.693042256746,-69890.789895312424,69890.789895312424,-34828.693042256746,104322.52455678809,0.0
340012.02908761695,3892225.878295721,-12500.0,-171655.52089085974,-17942.307821285769,-55210.7363093936,-52611.575744005924,-76608.454186393152,-30392.133146400782,120843.17942051496,-19314.332203731981,-107151.9230932655,107151.9230932655,19314.332203731981,209622.58111487638,0.0
345012.02908761695,3892225.878295721,-12500.0,-387109.95331058366,-93386.117153374449,-225375.73800835863,-142585.32209255357,-210712.78284341661,-120937.30302510649,302211.63507538824,-140907.28109795623,-201133.63834255532,201133.63834255532,140907.28109795623,523746.94734298898,0.0
350012.02908761695,3892225.878295721,-12500.0,-801280.80263205373,-381674.55249091721,-990870.15030411317,-359056.53303138656,-628102.67865829088,-458970.03841166553,837382.85298381886,-725972.00833264447,-217402.39005556403,217402.39005556403,725972.00833264447,1491760.4878631411,0.0
355012.02908761695,3892225.878295721,-12500.0,-1819579.7130049295,912585.06224834989,-3884864.046130606,355380.70873536321,-1369891.0721093637,-1792906.6404433197,1887745.2763494435,-1044860.1752463392,-191602.98416572122,191602.98416572122,1044860.1752463392,3581664.9464469864,1.0
360012.02908761695,3892225.878295721,-12500.0,2186713.3372924053,-1411410.7614603653,2052872.1372467715,-665589.82700795098,507991.47580287396,733138.6892830974,1645263.5796460696,-381392.91055061965,1126141.2806958843,-1126141.2806958843,381392.91055061965,3164756.0780465398,0.0
365012.02908761695,3892225.878295721,-12500.0,1107208.193141707,-475946.42544644763,433221.08739817154,-282445.41640082328,183682.12836429392,34091.854453632841,742198.09951252548,-314445.05556102598,735668.83270406781,-735668.83270406781,314445.05556102598,1379380.0535363471,0.0
370012.02908761695,3892225.878295721,-12500.0,618437.6308926699,-228186.28578410874,151639.45604281785,-147420.72951354194,84724.097706162007,-26308.396343568282,407535.67085919948,-191905.72254471591,435204.09606147773,-435204.09606147773,191905.72254471591,758664.47303905163,0.0
375012.02908761695,3892225.878295721,-12500.0,385942.23488015536,-124880.52280936872,64328.262548917643,-93478.961141561012,45926.475678451163,-18118.699595358321,247438.89936184639,-120939.87415728204,278851.10344252229,-278851.10344252229,120939.87415728204,464841.10267039877,0.0
380012.02908761695,3892225.878295721,-12500.0,262244.02148215321,-74106.772024461912,29635.998478124631,-66447.318650485904,26882.069655806936,-6444.2685442089814,162481.77592388084,-80442.214631753013,192373.14948415293,-192373.14948415293,80442.214631753013,309337.92859893752,0.0
385012.02908761695,3892225.878295721,-12500.0,189604.07677457767,-46226.230551875618,14293.297367647951,-49954.886396602458,16380.520244862841,90.986946935097876,113769.83736727518,-55644.429908597442,140239.06346357698,-140239.06346357698,55644.429908597442,219379.63131307502,0.0
390012.02908761695,3892225.878295721,-12500.0,143083.78534711752,-29811.765825271472,7132.9200936038396,-38460.275577468718,10241.334941581254,2767.9687787272546,83612.746371878733,-39595.03370177585,106217.69169968076,-106217.69169968076,39595.03370177585,162829.87082446247,0.0
395012.02908761695,3892225.878295721,-12500.0,111192.92240052547,-19694.055243555074,3685.5775121332244,-29917.892752154177,6528.4875638475005,3455.0462417893405,63616.832445102416,-28798.791747300733,82607.218974480318,-82607.218974480318,28798.791747300733,124737.07532252579,0.0
400012.02908761695,3892225.878295721,-12500.0,88231.284456153197,-13250.364320400142,1994.756724501696,-23415.70874896066,4228.6275204787635,3288.7648668440688,49626.814571000956,-21330.124293597204,65487.724623497044,-65487.724623497044,21330.124293597204,97734.686718030542,0.0
405012.02908761695,3892225.878295721,-12500.0,71122.450337938324,-9042.4013145358404,1157.7175792496973,-18427.65859866358,2776.0154793450656,2830.3298698489898,39448.174428986153,-16049.46499397781,52689.719312909227,-52689.719312909227,16049.46499397781,77897.286503827912,0.0
410012.02908761695,3892225.878295721,-12500.0,58061.263291152682,-6238.1126991147612,742.88005000136491,-14588.674994357689,1842.8040009458809,2325.6876213913192,31830.29586869404,-12247.441054625026,42910.883784033911,-42910.883784033911,12247.441054625026,62949.158933101651,0.0
415012.02908761695,3892225.878295721,-12500.0,47909.052186365836,-4337.2276306934127,538.55204827573209,-11625.238457356287,1234.0779267929174,1869.0552152852963,26007.374851615692,-9466.4140952579819,35314.636368591571,-35314.636368591571,9466.4140952579819,51469.893186933921,0.0
420012.02908761695,3892225.878295721,-12500.0,39905.631125924338,-3029.8897931152742,438.99332885295757,-9328.6632646619091,831.54302045507347,1487.2968856494135,21482.008322496986,-7403.1617386228936,29335.169854744065,-29335.169854744065,7403.1617386228936,42520.917033281163,0.0
425012.02908761695,3892225.878295721,-12500.0,33521.851924821472,-2119.5071598685686,390.79717476563303,-7539.991853988523,562.09455592320262,1179.9026712047348,17916.45692963609,-5852.5004457362229,24575.333400422864,-24575.333400422864,5852.5004457362229,35455.955678501392,0.0
430012.02908761695,3892225.878295721,-12500.0,28378.022834154082,-1478.769351647313,366.90647472471812,-6138.758303907256,379.79524491205188,936.88857197684104,15073.752771425865,-4673.0981644057692,20748.771699951616,-20748.771699951616,4673.0981644057692,29816.568458751521,0.0
435012.02908761695,3892225.878295721,-12500.0,24195.563604783692,-1023.7509675411829,353.71121292961561,-5034.0066945287672,255.32750147168696,746.34290532613227,12783.511504755315,-3766.0885116994959,17644.893441123968,-17644.893441123968,3766.0885116994959,25270.347504489917,0.0
440012.02908761695,3892225.878295721,-12500.0,20766.570268529405,-698.23926926964873,344.51606385484757,-4157.143547188788,169.70598100003807,597.3023753158343,10920.854862182108,-3061.3374433748559,15106.428461177538,-15106.428461177538,3061.3374433748559,21572.119161322193,0.0
445012.02908761695,3892225.878295721,-12500.0,17933.748756435623,-464.04036258830143,336.18153614157461,-3456.3831450674588,110.46776818440766,480.6117487018617,9392.8121166678575,-2508.4509769285023,13014.439944111935,-13014.439944111935,2508.4509769285023,18538.499801202168,0.0
450012.02908761695,3892225.878295721,-12500.0,15576.728839167077,-294.86329990054134,327.37791345633821,-2892.5177030061859,69.327003622219991,388.96912064152133,8129.2452523115053,-2070.7863268359151,11278.011926341358,-11278.011926341358,2070.7863268359151,16030.673690889073,0.0
455012.02908761695,3892225.878295721,-12500.0,13602.47997541501,-172.39461057380669,317.67630580792604,-2435.7398901758538,40.709769925733553,316.68641665419045,7076.6277558370284,-1721.4013839439572,9826.9861405685861,-9826.9861405685861,1721.4013839439572,13942.445194516529,0.0
250012.02908761695,3897225.878295721,-12500.0,11747.414786282812,3209.3479593334378,802.23113021666074,2194.0156167902196,583.20503148614773,297.62741562397241,6567.4194527848085,1517.8779531000891,7914.5186346061291,-7914.5186346061291,-1517.8779531000891,13112.432702675427,0.0
255012.02908761695,3897225.878295721,-12500.0,13335.564232344241,3776.9859816062444,920.53522538495361,2590.4776339958357,704.76412096079378,364.56670391522516,7522.9538640956498,1838.3214588323572,8963.8967734981452,-8963.8967734981452,-1838.3214588323572,15025.41451649631,0.0
260012.02908761695,3897225.878295721,-12500.0,15201.855922059873,4475.3365241538831,1068.8431578066986,3075.5663897785207,857.63230455418511,449.2389171957285,8676.9293917429786,2245.6765835909805,10189.809697527569,-10189.809697527569,-2245.6765835909805,17307.589960112706,0.0
265012.02908761695,3897225.878295721,-12500.0,17403.811312356713,5341.1823301999239,1258.3018904211849,3672.448654803487,1051.2153725003502,556.89576715064038,10067.280126732021,2768.633604335273,11625.793228521143,-11625.793228521143,-2768.633604335273,20046.30861064963,0.0
270012.02908761695,3897225.878295721,-12500.0,20011.55369732319,6423.3463109751665,1505.3364246625367,4411.0037557236319,1298.0184577380858,694.4186237102175,11749.464096463907,3446.9912631983707,13311.233106215688,-13311.233106215688,-3446.9912631983707,23352.692308994749,0.0
275012.02908761695,3897225.878295721,-12500.0,23109.988951496496,7787.043014769677,1834.5949906748699,5329.8367841521858,1614.6614590756058,870.78962907570542,13796.626486872865,4336.5518178459861,15291.382208109044,-15291.382208109044,-4336.5518178459861,27368.478945564078,0.0
280012.02908761695,3897225.878295721,-12500.0,26800.615134775348,9519.8084195863576,2283.7467140693429,6478.8533682465577,2023.1370374813757,1097.6546124504339,16302.874941388125,5516.3699790348892,17616.265189062404,-17616.265189062404,-5516.3699790348892,32274.58823870336,0.0
285012.02908761695,3897225.878295721,-12500.0,31201.862410743477,11739.418013673732,2911.4050200750139,7922.475120903694,2552.2396338190238,1389.9614774686834,19388.902119124854,7099.526006474488,20337.179824375482,-20337.179824375482,-7099.526006474488,38301.273177397205,0.0
290012.02908761695,3897225.878295721,-12500.0,36445.7111857817,14603.96524103197,3810.3410273711797,9743.5510690491283,3238.8895133235396,1766.6592437917684,23208.784769849695,9249.0235343998975,23498.395298318253,-23498.395298318253,-9249.0235343998975,45738.925572535998,0.0
295012.02908761695,3897225.878295721,-12500.0,42665.670776218445,18323.246205442949,5129.5916761640792,12047.863123364044,4128.6069274340225,2251.5237409898041,27956.971573228158,12200.67691641011,27119.361239522095,-27119.361239522095,-12200.67691641011,54946.20234768372,0.0
300012.02908761695,3897225.878295721,-12500.0,49965.784362931168,23167.285961586578,7110.9976475838639,14968.731529193214,5273.409827372876,2874.4881179487711,33872.336362945498,16293.824079535107,31158.612611318422,-31158.612611318422,-16293.824079535107,66346.214742077951,0.0
305012.02908761695,3897225.878295721,-12500.0,58349.582941784953,29457.976563777429,10146.729371558122,18670.009383026598,6723.3553499144591,3674.7602173703399,41229.479373531765,22004.386869173053,35443.793608863845,-35443.793608863845,-22004.386869173053,80386.592667947931,0.0
310012.02908761695,3897225.878295721,-12500.0,67569.203173134534,37502.204539942177,14856.788840125742,23341.877350563685,8503.7047560173742,4708.5738316687866,50288.239168498178,29950.065801084304,39545.103334429601,-39545.103334429601,-29950.065801084304,97402.446280802949,0.0
315012.02908761695,3897225.878295721,-12500.0,76837.15767743293,47352.00219195406,22136.552463404529,29172.120611997285,10560.09185457539,6064.0710943530203,61122.06482658648,40752.547714725246,42583.486839046345,-42583.486839046345,-40752.547714725246,117234.27887786158,0.0
320012.02908761695,3897225.878295721,-12500.0,84405.369637408483,58114.295026800974,32912.178022667198,36245.134788685624,12629.182756638318,7867.6827649712395,73133.790191167966,54383.519365563676,43104.902674401521,-43104.902674401521,-54383.519365563676,138274.46813067878,0.0
325012.02908761695,3897225.878295721,-12500.0,87528.938937931409,66337.739323087924,46584.647013323098,44268.060031189496,13917.93798434895,10170.516078203058,83903.045228041272,67987.172847272654,39807.253904890094,-39807.253904890094,-67987.172847272654,155420.62979422475,0.0
330012.02908761695,3897225.878295721,-12500.0,85431.292688738307,63832.520641834657,55175.115162280024,52063.84930547019,12258.584225338565,12270.578417100673,87458.389889616345,70547.551581252192,35970.714635185555,-35970.714635185555,-70547.551581252192,157673.35469854012,0.0
335012.02908761695,3897225.878295721,-12500.0,92086.375367267508,42415.218092410963,29591.549536872513,57651.991864354852,2123.3477065447505,10142.446839056516,81241.832730804919,37915.756757787807,52640.503470015392,-52640.503470015392,-37915.756757787807,144503.54192437994,0.0
340012.02908761695,3897225.878295721,-12500.0,156467.03135718708,31957.025493902776,-78329.833904876694,63887.374706283626,-25816.333546171038,-12356.479296427018,139231.01377735878,-36733.953732283007,137088.68249130523,-137088.68249130523,36733.953732283007,247587.7788006427,0.0
345012.02908761695,3897225.878295721,-12500.0,346103.45500992535,157080.17148750025,-194524.60966447915,102676.15769987111,-51687.041090429746,-136073.42318672221,341531.4627617643,-18567.424195375352,296152.91041962756,-296152.91041962756,18567.424195375352,614621.23722221167,0.0
350012.02908761695,3897225.878295721,-12500.0,881346.2286855157,502510.59078471124,340277.29078026541,252587.90447885363,127450.55275045888,-897920.23488140223,1077543.9636190569,481091.08253019181,463921.66266939993,-463921.66266939993,-481091.08253019181,1869096.70388022,0.0
355012.02908761695,3897225.878295721,-12500.0,68992.208251930278,-102212.51059100137,3024603.812382509,-4048738.1848709718,555859.6769139776,5079842.6021807808,4797174.698141492,1611621.3603386686,-1036120.1775161212,1036120.1775161212,-1611621.3603386686,8316805.8084860435,0.0
360012.02908761695,3897225.878295721,-12500.0,1823533.4101649057,-121312.28951670976,753133.69620909134,-1012298.7218201197,119620.85456576296,757336.70112612692,1153498.6725082695,80641.655859202321,1080057.5098713799,-1080057.5098713799,-80641.655859202321,2074270.4465730845,0.0
365012.02908761695,3897225.878295721,-12500.0,1141158.5319506214,21980.852205593212,278662.33932450257,-425500.23377735249,79243.337645448599,68740.698344338423,693488.50926768687,25254.93742510007,730401.43073567282,-730401.43073567282,-25254.93742510007,1237926.7885662473,0.0
370012.02908761695,3897225.878295721,-12500.0,668475.0405887292,-7495.3455227292552,93328.449503603842,-199949.0177677983,52252.007027775988,-12138.096291622325,401839.14653541846,-41044.876678906352,455602.663226604,-455602.663226604,41044.876678906352,728610.80437651661,0.0
375012.02908761695,3897225.878295721,-12500.0,416722.29389678384,-12140.823767792681,33838.950349744075,-113918.86243474363,28534.144562421243,-12037.15591285847,246969.06052909986,-45091.778593029187,293481.5355564254,-293481.5355564254,45091.778593029187,456165.30065822607,0.0
380012.02908761695,3897225.878295721,-12500.0,278860.8085940571,-8814.8291746907671,12523.517636824174,-74906.725467429656,14948.7718017029,-3912.8535524179915,162250.52082388816,-36123.753401951137,199837.84928950816,-199837.84928950816,36123.753401951137,305483.02565617673,0.0
385012.02908761695,3897225.878295721,-12500.0,198001.0363443289,-4970.600285411856,4378.6136842965298,-53530.523288454177,7757.3169536861833,1123.8576353529361,113215.82743853268,-26912.777548878512,143145.38919695519,-143145.38919695519,26912.777548878512,216752.4602310232,0.0
390012.02908761695,3897225.878295721,-12500.0,146999.77510806979,-2197.6279673602226,1238.2605461231437,-39922.51702516454,3989.5577778971315,3172.1451069997847,82860.507693912543,-19758.95255381224,106683.90840963778,-106683.90840963778,19758.95255381224,160660.92745598726,0.0
395012.02908761695,3897225.878295721,-12500.0,112730.77609563155,-467.36679169025172,96.272956695985258,-30437.587398989592,2002.1013046552291,3595.2706053943334,62813.61804861734,-14565.645416525935,81899.564453652813,-81899.564453652813,14565.645416525935,122868.57663505616,0.0
400012.02908761695,3897225.878295721,-12500.0,88536.34190981499,529.14914324356118,-239.43469860443975,-23514.387577809841,944.39606352034139,3319.6908452368152,48856.823379537083,-10849.766679412682,64290.290165932485,-64290.290165932485,10849.766679412682,96125.629623756467,0.0
405012.02908761695,3897225.878295721,-12500.0,70812.645599063893,1060.3637205354926,-260.91992804122469,-18345.217166382517,379.22808356233691,2818.2832122810182,38748.212488801219,-8181.9268776661957,51351.971786884344,-51351.971786884344,8181.9268776661957,76521.427042841431,0.0
410012.02908761695,3897225.878295721,-12500.0,57468.37399047838,1310.3770767700144,-173.96376493097392,-14437.03931618617,79.134447645992807,2299.1211218702233,31211.407648059223,-6247.4994960358781,41601.587006952381,-41601.587006952381,6247.4994960358781,61779.084001844254,0.0
415012.02908761695,3897225.878295721,-12500.0,47209.685828796748,1395.7236361367295,-63.204935931621449,-11456.318911836173,-76.369659621848811,1839.9117072617773,25468.563129220111,-4827.8971789279458,34108.05338946508,-34108.05338946508,4827.8971789279458,50477.575104540738,0.0
420012.02908761695,3897225.878295721,-12500.0,39191.874747241345,1387.7095313582759,38.781698657511299,-9165.6496881449475,-152.32344067453025,1460.2600531370135,21017.178527838209,-3773.0726961612327,28257.387250021573,-28257.387250021573,3773.0726961612327,41679.782207243057,0.0
425012.02908761695,3897225.878295721,-12500.0,32839.677712474768,1329.2082181022618,121.67225654922689,-7392.2467634962932,-184.44624197063033,1156.488244700299,17517.578272011571,-2979.7461913334591,23628.789737164636,-23628.789737164636,2979.7461913334591,34742.193243146103,0.0
430012.02908761695,3897225.878295721,-12500.0,27748.290627688464,1245.682084637757,184.32452355880022,-6009.0470049589685,-192.63830222583172,917.27294982291824,14732.311393318629,-2376.1801606926456,19925.053306285838,-19925.053306285838,2376.1801606926456,29209.568860998061,0.0
435012.02908761695,3897225.878295721,-12500.0,23625.615610473487,1152.0437955744287,229.02771966244671,-4922.0575799034668,-188.10101334393846,730.18284587993162,12491.310445758916,-1911.985698979187,16931.319963787519,-16931.319963787519,1911.985698979187,24752.653889827332,0.0
440012.02908761695,3897225.878295721,-12500.0,20256.639346278214,1056.8427992401737,259.02208784586372,-4061.4011369021719,-177.17124575002688,584.09661517970346,10670.449656267381,-1551.3432379473388,14489.333432842348,-14489.333432842348,1551.3432379473388,21129.115223486155,0.0
445012.02908761695,3897225.878295721,-12500.0,17480.536097636101,964.8058758303365,277.48361254496911,-3374.8675393927642,-163.42724658002282,469.85444317800693,9177.702781481521,-1268.4868158028366,12480.742315445135,-12480.742315445135,1268.4868158028366,18158.042986498378,0.0
450012.02908761695,3897225.878295721,-12500.0,15175.373626234201,878.37442571014628,287.16123291836902,-2823.2295453706379,-148.86639197649561,380.20866868293916,7943.8904147707726,-1044.6679418391232,10815.880017522953,-10815.880017522953,1044.6679418391232,15702.713135259013,0.0
455012.02908761695,3897225.878295721,-12500.0,13247.623106991701,798.63644234671165,290.29691692396113,-2376.8364544179153,-134.57344914102256,309.54103768469236,6916.3646059848916,-866.09378013385685,9426.0385856818866,-9426.0385856818866,866.09378013385685,13658.666300777135,0.0
250012.02908761695,3902225.878295721,-12500.0,13021.079283874746,2395.8661265626456,525.49346768988119,2404.8376853856107,429.37757274116882,322.69424567361892,7010.9774471891169,509.76198163658319,9067.8890259621367,-9067.8890259621367,-509.76198163658319,13922.580190631092,0.0
255012.02908761695,3902225.878295721,-12500.0,14892.821724045505,2805.2595099071455,574.33776477066351,2857.1226135924881,514.77141215134361,397.31952043535478,8055.6458289392913,620.7260987193531,10373.375288492058,-10373.375288492058,-620.7260987193531,16014.924654965907,0.0
260012.02908761695,3902225.878295721,-12500.0,17123.37061435885,3307.4519743827655,631.85977012471881,3416.0873225245018,621.23226267550024,492.4173357089004,9310.4276870158665,764.13114174576367,11927.733126184465,-11927.733126184465,-764.13114174576367,18527.640232468144,0.0
265012.02908761695,3902225.878295721,-12500.0,19798.422634478884,3928.7020163021934,701.48036752089206,4111.8053537370151,754.79669724730854,614.33029062245316,10829.629598139234,951.77556952883333,13789.458684676145,-13789.458684676145,-951.77556952883333,21566.158249275595,0.0
270012.02908761695,3902225.878295721,-12500.0,23028.043489625157,4704.1761343297594,788.70984020680885,4984.1132842398856,923.35310926089653,771.48987352206098,12685.201426032081,1200.5941517989459,16033.122738982343,-16033.122738982343,-1200.5941517989459,25267.388788196673,0.0
275012.02908761695,3902225.878295721,-12500.0,26954.621661002297,5681.469611903939,902.66032559067924,6086.1515068414701,1137.15241444715,975.07465856780368,14971.691692571803,1535.2881874440318,18754.254486065976,-18754.254486065976,-1535.2881874440318,29810.463868266972,0.0
280012.02908761695,3902225.878295721,-12500.0,31763.718586390405,6925.6976336057542,1058.7734118868416,7489.3266113696973,1409.3429532638552,1239.8105563027334,17811.950705122897,1992.5104146123776,22075.739491305107,-22075.739491305107,-1992.5104146123776,35431.516226581945,0.0
285012.02908761695,3902225.878295721,-12500.0,37698.827401288865,8526.9306646691566,1283.8429046537235,9290.3241959776769,1756.3610135892636,1584.8780924622442,21368.433460611315,2627.6868891043578,26156.00899012931,-26156.00899012931,-2627.6868891043578,42443.962457421265,0.0
290012.02908761695,3902225.878295721,-12500.0,45081.368207039945,10611.091773064247,1625.4640111455556,11621.193073546227,2197.7549574390687,2034.838064107845,25861.158005589285,3526.3608386104224,31199.132917732,-31199.132917732,-3526.3608386104224,51266.227174799133,0.0
295012.02908761695,3902225.878295721,-12500.0,54337.044973406315,13355.792392365813,2170.2175798895637,14664.182868697353,2754.4862696059863,2620.4604415547292,31592.090168163617,4823.4251902812994,37466.009709308186,-37466.009709308186,-4823.4251902812994,62458.792735865951,0.0
300012.02908761695,3902225.878295721,-12500.0,66028.077644204401,17012.458236352388,3079.4564881299825,18674.334413206532,3443.706226740811,3379.5754938309447,38978.806213914475,6736.1294335247258,45283.185261426275,-45283.185261426275,-6736.1294335247258,76770.878203033208,0.0
305012.02908761695,3902225.878295721,-12500.0,80884.110197299713,21932.951546478325,4661.0103899273754,24015.438109331702,4266.0292204710149,4359.2838911560266,48598.375604520668,9619.9732391600301,55038.289532583993,-55038.289532583993,-9619.9732391600301,95189.465916427609,0.0
310012.02908761695,3902225.878295721,-12500.0,99802.638991892789,28583.070149837295,7513.5487633452885,31220.169787484287,5178.070537480573,5625.0322501977298,61231.034125390193,14055.855445190442,67131.369596943696,-67131.369596943696,-14055.855445190442,118956.47139368411,0.0
315012.02908761695,3902225.878295721,-12500.0,123726.64942357175,37457.370156980483,12807.474065640781,41095.635681919222,6038.5365085063477,7293.6086203956238,77851.703038323409,20942.006103909738,81806.705655283207,-81806.705655283207,-20942.006103909738,149432.82405643296,0.0
320012.02908761695,3902225.878295721,-12500.0,153158.99401710992,48541.048003228367,22747.041431225291,54919.627174006338,6512.9008446937714,9634.94210784801,99382.50658160905,31345.740057876501,98729.289196327038,-98729.289196327038,-31345.740057876501,187439.66763729605,0.0
325012.02908761695,3902225.878295721,-12500.0,186915.51931438679,58973.938290473379,40763.507889458051,74842.157462622883,5920.9155375242235,13356.983715011305,125673.84216397018,44787.23315690046,116373.12298623582,-116373.12298623582,-44787.23315690046,231214.27326398273,0.0
330012.02908761695,3902225.878295721,-12500.0,221012.18279743975,54599.822914315962,67528.620876129309,104789.82797273318,2896.5277635928196,20412.984823954186,153371.52953813842,50094.16551441171,133846.73528802145,-133846.73528802145,-50094.16551441171,273714.95817706891,0.0
335012.02908761695,3902225.878295721,-12500.0,261169.81302661277,-10899.993215260391,72709.91308326296,152428.80737505975,-6924.5117004364693,36239.48843969882,189745.47017310251,-8981.6911975533876,172673.82480977874,-172673.82480977874,8981.6911975533876,337526.79661925009,0.0
340012.02908761695,3902225.878295721,-12500.0,403655.29840637156,-197283.03043297154,-89424.432805143311,236758.4185147119,-46693.508061424691,74451.337342684696,375696.0512617972,-273586.76445513021,361213.36406549846,-361213.36406549846,273586.76445513021,693285.90658187447,0.0
345012.02908761695,3902225.878295721,-12500.0,773998.83920461487,-363528.5800287255,-401382.53609203192,454273.3161813668,-161037.02545891065,209738.19640224267,817792.50988480868,-633559.59041484026,765822.39847395336,-765822.39847395336,633559.59041484026,1459465.8590146878,0.0
350012.02908761695,3902225.878295721,-12500.0,2039121.7715458167,-289635.54294810077,1302959.8784004997,682507.77984125214,-442363.76778135129,1116760.790822458,969946.3805670531,167353.67647137877,1116045.9717106475,-1116045.9717106475,-167353.67647137877,1717513.0470924361,0.0
355012.02908761695,3902225.878295721,-12500.0,-1271298.1664562812,-1147275.0664151085,-1881813.8663658109,964298.03612268704,706917.64390308387,273914.30867662607,1950163.5756707368,-1839861.8188146476,-94135.336447455455,94135.336447455455,1839861.8188146476,3455621.1447661812,0.0
360012.02908761695,3902225.878295721,-12500.0,127473.83036434327,-32818.309106444824,327635.07073619391,-246086.88488007773,-14457.100466355756,365194.55668578018,275117.70545712148,136401.1564758938,-17127.035626394048,17127.035626394048,-136401.1564758938,484280.49997582624,0.0
365012.02908761695,3902225.878295721,-12500.0,470282.56763430079,146072.86950362689,245998.59954390023,-265567.4669013872,-7403.1609557203537,79359.97524528834,358311.94012764085,199142.28645313298,233429.22667129163,-233429.22667129163,-199142.28645313298,625460.31829850364,0.0
370012.02908761695,3902225.878295721,-12500.0,412131.09969901375,114030.42811055211,109731.54086738969,-164558.36321887569,5869.0785285557486,7198.8711717284514,281566.78978897573,104356.15382695138,243871.41220445733,-243871.41220445733,-104356.15382695138,503303.87857402157,0.0
375012.02908761695,3902225.878295721,-12500.0,307567.19179867755,73232.173153857177,45732.05001752956,-101841.21685112824,3723.9418502665312,-2619.470946402259,197387.99762319861,48042.861042345481,196380.60190083185,-196380.60190083185,-48042.861042345481,361664.20272178249,0.0
380012.02908761695,3902225.878295721,-12500.0,225239.95266406192,47729.758982127292,19455.858433644065,-68209.602084030819,107.52948127127866,-271.30365433390989,138655.30612044423,22587.538090294365,149515.75223089612,-149515.75223089612,-22587.538090294365,259976.66118119014,0.0
385012.02908761695,3902225.878295721,-12500.0,167932.36605474673,32797.9304096407,8618.6456660828899,-48883.205971532894,-1871.3161618732811,2279.698392872182,100436.50619652167,11322.976089605043,113883.24541750192,-113883.24541750192,-11322.976089605043,191930.31729828037,0.0
390012.02908761695,3902225.878295721,-12500.0,128311.13562193433,23647.051479393362,4012.988146772379,-36514.941939614837,-2544.675816102394,3388.586187688672,75176.053236790307,6080.6444915467364,88091.792355570709,-88091.792355570709,-6080.6444915467364,145688.12429622503,0.0
395012.02908761695,3902225.878295721,-12500.0,100235.45089184429,17674.692339922607,2005.8931150372043,-27919.873456059267,-2549.0261081171279,3500.49382064066,57820.550646769931,3465.9599307059907,69321.875283765752,-69321.875283765752,-3465.9599307059907,113135.76241653824,0.0
400012.02908761695,3902225.878295721,-12500.0,79747.721001518221,13563.855400934157,1121.0660877761238,-21652.475380957658,-2283.1067611348672,3149.374811356467,45425.77373836279,2072.3463682817965,55397.81413055853,-55397.81413055853,-2072.3463682817965,89447.454345916689,0.0
405012.02908761695,3902225.878295721,-12500.0,64404.418912270194,10620.123681286625,732.79842546076941,-16964.151337051218,-1943.9128163523214,2653.0692973526093,36289.81147735074,1287.0603404966496,44859.988211419142,-44859.988211419142,-1287.0603404966496,71753.332336136795,0.0
410012.02908761695,3902225.878295721,-12500.0,52668.754045447626,8450.2564219508658,566.05131168676166,-13406.607036379641,-1615.920278342348,2161.4222160768618,29390.40712651996,824.66221768725154,36744.309855840285,-36744.309855840285,-824.66221768725154,58269.881903222085,0.0
415012.02908761695,3902225.878295721,-12500.0,43538.497456518242,6815.4365889684241,496.82923181307478,-10681.359552830509,-1329.2108412081102,1731.6798599589538,24082.026513543799,542.90145442976609,30401.435844986678,-30401.435844986678,-542.90145442976609,47831.843852836479,0.0
420012.02908761695,3902225.878295721,-12500.0,36335.059127170047,5562.1128974913981,468.58878239814089,-8577.4612659856102,-1089.8531109540779,1377.2558612058097,19937.372729025526,366.52333574927434,25381.774751388068,-25381.774751388068,-366.52333574927434,39645.073519787133,0.0
425012.02908761695,3902225.878295721,-12500.0,30583.902323156675,4587.2045608425042,455.68946931605643,-6941.4522793142605,-894.39499463181573,1093.4045176561053,16662.049284240678,253.67841350688104,21365.909419886684,-21365.909419886684,-253.67841350688104,33150.88413661121,0.0
430012.02908761695,3902225.878295721,-12500.0,25944.365134086507,3819.2588281999315,446.8646966345259,-5660.1318658364062,-736.37242361804215,869.38300544302956,14046.099572288034,180.14662174501063,18121.905533113088,-18121.905533113088,-180.14662174501063,27946.844450860299,0.0
435012.02908761695,3902225.878295721,-12500.0,22166.727761602218,3207.5243608488945,437.5433246127505,-4649.3601103151959,-609.03884233639178,693.71329801653371,11935.724597198008,131.4554260616278,15478.327959624316,-15478.327959624316,-131.4554260616278,23737.813411718871,0.0
440012.02908761695,3902225.878295721,-12500.0,19064.840388217941,2715.2553862914679,426.22252424197154,-3846.2578514701559,-506.37999364945256,556.17200866910787,10216.805646901024,98.731670255291647,13306.601181356615,-13306.601181356615,-98.731670255291647,20304.213352854025,0.0
445012.02908761695,3902225.878295721,-12500.0,16497.997268427964,2315.4223045029894,412.74644538498359,-3203.5950742824189,-423.38271898518525,448.32920166040435,8804.2155886671662,76.422219140688867,11509.097059944037,-11509.097059944037,-76.422219140688867,17480.691260295174,0.0
450012.02908761695,3902225.878295721,-12500.0,14358.575600916858,1987.870548145806,397.48778820683691,-2685.7087688290453,-356.00416624475747,363.49459775974424,7633.9037350771978,60.990318694205598,10010.889714800604,-10010.889714800604,-60.990318694205598,15141.397227094547,0.0
250012.02908761695,3907225.878295721,-12500.0,13982.573628547381,1427.3404634731476,354.58552394557387,2564.5183868834756,249.60585455140347,341.77959639530832,7360.4531845570837,-530.00153095463884,9979.3532938459357,-9979.3532938459357,530.00153095463884,14557.672139224222,0.0
255012.02908761695,3907225.878295721,-12500.0,16058.354888364222,1633.8763624940725,361.88269991431793,3057.3698852462999,290.433832159524,422.03941263627132,8478.8783579356568,-640.31252010235221,11479.684742353966,-11479.684742353966,640.31252010235221,16785.19743722575,0.0
260012.02908761695,3907225.878295721,-12500.0,18548.879554267798,1879.4373855568822,365.33331863388378,3669.531002491955,338.83326121915678,524.69492003819119,9827.1132891170309,-777.91268663805658,13282.419499497082,-13282.419499497082,777.91268663805658,19470.661075224929,0.0
265012.02908761695,3907225.878295721,-12500.0,21558.943541375571,2172.977284556684,363.8239098040367,4435.7326467238363,396.000659716369,656.80679353641324,11465.248153951372,-950.64731840487912,15464.261049409111,-15464.261049409111,950.64731840487912,22732.625027497332,0.0
270012.02908761695,3907225.878295721,-12500.0,25225.664254189094,2525.8084757796291,356.4122492218421,5402.4452132566057,462.97592488415688,827.79127026991205,13472.71211065534,-1168.8666506985173,18125.479097151703,-18125.479097151703,1168.8666506985173,26726.774181342909,0.0
275012.02908761695,3907225.878295721,-12500.0,29730.434558569836,2952.2952618838062,342.91734767586888,6632.3619472821256,540.20560817518356,1050.1465118328842,15955.727374611308,-1446.2212875177229,21398.475649205837,-21398.475649205837,1446.2212875177229,31659.610151012854,0.0
280012.02908761695,3907225.878295721,-12500.0,35316.196914309498,3470.7778139208103,325.24016903515223,8210.7957584258493,626.62550084797431,1340.2873913319347,19058.031736704863,-1800.6216406879121,25460.013229278098,-25460.013229278098,1800.6216406879121,37808.045132998639,0.0
285012.02908761695,3907225.878295721,-12500.0,42312.846808351911,4104.866408265395,310.24195677386064,10254.90814455186,717.79035220965113,1719.3508976970361,22976.511343910333,-2255.1924697407394,30548.883817066016,-30548.883817066016,2255.1924697407394,45547.810409553756,0.0
290012.02908761695,3907225.878295721,-12500.0,51175.431948672915,4885.39146108968,315.96752291903908,12927.259766195566,802.10730415490809,2213.6215137606378,27984.838244177321,-2838.6726235523383,36991.823787528068,-36991.823787528068,2838.6726235523383,55395.360450658496,0.0
295012.02908761695,3907225.878295721,-12500.0,62542.832633303158,5853.6627882148268,385.21294150842414,16456.213536313935,853.29395045563751,2853.8493241497822,34470.691340056394,-3583.6339829244898,45241.912695033396,-45241.912695033396,3583.6339829244898,68070.70307834541,0.0
300012.02908761695,3907225.878295721,-12500.0,77329.599303652969,7067.6645196448517,615.66466580034705,21167.82494835609,815.32928452087799,3672.2200549149666,42995.768174601559,-4517.9743019331618,55935.4884328357,-55935.4884328357,4517.9743019331618,84592.968254317762,0.0
305012.02908761695,3907225.878295721,-12500.0,96870.465886986858,8614.8677952381095,1228.803537402983,27538.422320693364,572.51585635851882,4695.59053410673,54393.271606545844,-5637.4623396195966,69974.058068028782,-69974.058068028782,5637.4623396195966,106426.04095821608,0.0
310012.02908761695,3907225.878295721,-12500.0,123141.04583096584,10639.016509036166,2733.5644119474309,36287.588719339794,-109.67324523337493,5936.1648485547312,69924.496063072569,-6826.6941517210871,88628.961387175921,-88628.961387175921,6826.6941517210871,135692.92746992063,0.0
315012.02908761695,3907225.878295721,-12500.0,159048.49900839487,13386.736449802587,6333.4467913414619,48557.369857114281,-1699.8689635157809,7394.7431800808181,91511.934121385784,-7644.2343247013414,113614.62615944337,-113614.62615944337,7644.2343247013414,175444.22160444219,0.0
320012.02908761695,3907225.878295721,-12500.0,208573.1098451729,17213.822412319765,14989.842519007749,66297.510603042159,-5118.084722738995,9150.9786983180056,121983.84622100886,-6776.2050976682658,146844.12551281572,-146844.12551281572,6776.2050976682658,229766.16637696949,0.0
325012.02908761695,3907225.878295721,-12500.0,275427.40980904823,21934.442400956686,36280.051267522329,93204.081475930288,-12108.461731985546,11869.928443252244,164774.42792651846,-904.64178678905591,188613.72539538238,-188613.72539538238,904.64178678905591,302603.92566350917,0.0
330012.02908761695,3907225.878295721,-12500.0,353700.65664362116,20987.610467266342,89395.972910603945,137009.20420207735,-25729.255487063954,19138.546368379502,220291.13889281588,15276.396348087452,229363.83528371376,-229363.83528371376,-15276.396348087452,391132.23848345352,0.0
335012.02908761695,3907225.878295721,-12500.0,386588.0566634413,-38668.47454861756,208536.49820621146,210874.77251763293,-51388.457993588381,45316.467178757594,278595.46021145146,22392.595522277581,224477.23308927356,-224477.23308927356,-22392.595522277581,482925.77024139505,0.0
340012.02908761695,3907225.878295721,-12500.0,235103.90132198471,-440307.9074437815,248494.18283078514,297053.75976428791,-109355.96092115391,98664.424263983397,533130.36724975007,-277413.20634923026,163120.11704179214,-163120.11704179214,277413.20634923026,950175.84728054178,0.0
345012.02908761695,3907225.878295721,-12500.0,1127124.8354226477,-708355.44990642776,-1248843.0254480247,87918.00322970617,-145701.04659072665,-15051.397301013574,1393596.2249776095,-1414620.0833464509,1350363.3278879353,-1350363.3278879353,1414620.0833464509,2414165.1234189472,0.0
350012.02908761695,3907225.878295721,-12500.0,-999019.62553884194,-1465396.7781640464,-1208805.2533912228,260871.10011246131,-316779.87668548938,-2235571.7221418656,1505249.1265321681,-1753392.9073432188,-103036.58786947955,103036.58786947955,1753392.9073432188,2874201.2899429454,0.0
355012.02908761695,3907225.878295721,-12500.0,380905.36654271709,-438194.19341549504,-780942.93703705503,134310.63108658185,496306.25899884058,-192466.90423704855,860421.80911147082,-848296.457513873,617061.24740117067,-617061.24740117067,848296.457513873,1543241.9900220614,0.0
360012.02908761695,3907225.878295721,-12500.0,9893.1847935188798,-245843.05414314987,-72474.7971358129,1724.2605006938384,100039.96525094652,59483.705049101482,269612.42504580371,-249487.29202830233,70603.179291714041,-70603.179291714041,249487.29202830233,474001.79345542321,0.0
365012.02908761695,3907225.878295721,-12500.0,93972.337636170239,32242.085891271417,130015.30362013663,-92357.664280893121,-2389.6740989328646,37558.754355793142,105482.85780456984,86482.785245727748,18241.650422274484,-18241.650422274484,-86482.785245727748,187724.54029158212,0.0
370012.02908761695,3907225.878295721,-12500.0,153934.10235925068,98765.027193415241,105366.61366972547,-87212.095864380914,-12159.926829209651,9485.103672490779,148099.83354907628,121688.93612200029,60171.266071462058,-60171.266071462058,-121688.93612200029,262171.35868641257,0.0
375012.02908761695,3907225.878295721,-12500.0,155773.38002470011,91174.91909848692,62952.042151957692,-65657.519790478662,-11460.967420104207,1716.7894893199677,129536.25091131878,91858.823410560755,77363.44993647543,-77363.44993647543,-91858.823410560755,237307.57186789619,0.0
380012.02908761695,3907225.878295721,-12500.0,136171.20906088306,70831.642169390558,35733.663942439831,-48755.24772845539,-10314.187988418187,1609.4860442322752,102543.88128449842,62294.674076093193,75628.385357293664,-75628.385357293664,-62294.674076093193,192824.38436550761,0.0
385012.02908761695,3907225.878295721,-12500.0,113555.72161277659,53010.064823155313,20639.75579631151,-37139.056162389228,-8968.4957539520929,2627.238872704439,79887.723671596381,41857.543087521255,67130.291273896873,-67130.291273896873,-41857.543087521255,153104.2423321534,0.0
390012.02908761695,3907225.878295721,-12500.0,93529.378031355809,39660.313475745555,12410.925526786923,-28906.79720539695,-7488.7694064281186,3131.1920639133546,62696.717621372285,28603.284503592313,57473.998614218523,-57473.998614218523,-28603.284503592313,121708.4614096906,0.0
395012.02908761695,3907225.878295721,-12500.0,77028.444361069749,29983.951606433675,7829.1035344585289,-22788.254320105912,-6067.6234418066888,3093.0461053860236,49815.204958789487,19987.498385589177,48568.879975556192,-48568.879975556192,-19987.498385589177,97489.409129385909,0.0
400012.02908761695,3907225.878295721,-12500.0,63705.189082448625,22967.437942739729,5192.0194395202179,-18101.995094058228,-4829.184692227971,2764.6206028370684,40056.814207915675,14276.06070515461,40897.764406822767,-40897.764406822767,-14276.06070515461,78786.023235012995,0.0
405012.02908761695,3907225.878295721,-12500.0,52984.287395677857,17827.968933250373,3617.5397742760842,-14460.627332995631,-3811.3348271814807,2339.3121993935843,32552.874236448195,10403.582547977026,34462.077039544558,-34462.077039544558,-10403.582547977026,64235.730333523308,0.0
410012.02908761695,3907225.878295721,-12500.0,44337.036851403718,14015.676793404897,2641.4363355889473,-11612.615975531648,-3002.0010365629064,1920.4648211285084,26704.620456276989,7721.0071047973161,29119.847996619224,-29119.847996619224,-7721.0071047973161,52820.605927393102,0.0
415012.02908761695,3907225.878295721,-12500.0,37331.470232124469,11151.283020529758,2012.9171835204199,-9376.7023215134996,-2369.5234516327596,1551.393754841909,22095.826428371995,5826.0174105548904,24701.283669878936,-24701.283669878936,-5826.0174105548904,43790.163684044841,0.0
420012.02908761695,3907225.878295721,-12500.0,31626.25993794854,8972.1954877457592,1592.5796800531168,-7615.3890421563756,-1879.0122952987504,1243.6866280059194,18429.378122939284,4463.4226992518998,21046.968575614192,-21046.968575614192,-4463.4226992518998,36588.216772390864,0.0
425012.02908761695,3907225.878295721,-12500.0,26954.231465582699,7294.7559417696675,1300.7351984908682,-6222.5878956763645,-1499.2219774370465,994.57527026614071,15487.997533766058,3467.6534042350586,18018.987682796738,-18018.987682796738,-3467.6534042350586,30799.267360187161,0.0
430012.02908761695,3907225.878295721,-12500.0,23106.465663556497,5988.9658972049201,1090.5925104543578,-5116.2242580572074,-1204.5441069106109,796.00682404909469,13110.077845350299,2729.0372208486215,15502.237966878642,-15502.237966878642,-2729.0372208486215,26110.422853164659,0.0
435012.02908761695,3907225.878295721,-12500.0,19919.362099934362,4961.7096162613743,933.96341342619667,-4232.9215862265464,-974.90272583656701,638.90241016988102,11174.484073820006,2173.5664529250216,13402.416748827942,-13402.416748827942,-2173.5664529250216,22284.392373435512,0.0
440012.02908761695,3907225.878295721,-12500.0,17264.438186068423,4145.5072579077741,813.43989062455921,-3523.8303329005621,-794.91429492933776,514.9201095198955,9591.0111752347857,1750.4482260358172,11642.994341266862,-11642.994341266862,-1750.4482260358172,19139.981857793762,0.0
445012.02908761695,3907225.878295721,-12500.0,15040.411558273599,3490.9038109950611,718.00694250323147,-2951.3151113215731,-652.92087264833276,417.02462978947966,8290.2343189777548,1424.2787547122161,10162.138674744292,-10162.138674744292,-1424.2787547122161,16537.883259501745,0.0
450012.02908761695,3907225.878295721,-12500.0,13167.122278287157,2961.2661912192316,640.52522441817302,-2486.3541946670412,-540.12605666746367,339.53489609727535,7211.4641204610652,1170.0270903412998,8909.9767206856977,-8909.9767206856977,-1170.0270903412998,14370.281342715316,0.0
250012.02908761695,3912225.878295721,-12500.0,14580.989977716627,362.98218783792373,313.09088644043283,2665.1708351141406,53.642257910007537,354.02123958923323,7601.0873998085144,-1531.9231278708266,10594.61672842,-10594.61672842,1531.9231278708266,14990.127986336331,0.0
255012.02908761695,3912225.878295721,-12500.0,16763.934362868691,341.26095027699421,315.09105043095491,3180.3480151492849,45.062424237055943,437.51010252168771,8764.6966862198515,-1852.2799903092191,12210.091339924213,-12210.091339924213,1852.2799903092191,17299.280054450926,0.0
260012.02908761695,3912225.878295721,-12500.0,19385.648061200201,296.38158785770224,313.08619882613829,3820.7096709268635,28.832897918011565,544.3376095183587,10168.958921323687,-2255.7457256694861,14155.090989593817,-14155.090989593817,2255.7457256694861,20086.438800500608,0.0
265012.02908761695,3912225.878295721,-12500.0,22557.385387147744,216.59018007345784,306.42857453994407,4622.7057930897081,0.5999376989646148,681.83017377931856,11877.099195559716,-2768.2598019218822,16514.034827641593,-16514.034827641593,2768.2598019218822,23476.412038718187,0.0
270012.02908761695,3912225.878295721,-12500.0,26424.759946123813,84.278793703381865,295.06680364695558,5635.0222246539579,-46.481129738784723,859.70242972698736,13972.725792131661,-3425.2384107684538,19397.497800250065,-19397.497800250065,3425.2384107684538,27633.569044044238,0.0
275012.02908761695,3912225.878295721,-12500.0,31180.481792896015,-127.12930640893725,280.45516989311085,6923.1493006711917,-123.28824447059283,1090.7204688655888,16567.759185487837,-4275.5118960075233,22951.814238591225,-22951.814238591225,4275.5118960075233,32776.745264295721,0.0
280012.02908761695,3912225.878295721,-12500.0,37082.830626163472,-458.1003228108309,267.43944239326555,8575.7879835371677,-247.33303270509495,1391.3578164847765,19814.080203883441,-5387.063331106594,27372.868381654484,-27372.868381654484,5387.063331106594,39200.819291757936,0.0
285012.02908761695,3912225.878295721,-12500.0,44483.047148411701,-970.81409329404687,268.12126254968649,10713.858749931662,-447.21377721903559,1782.1409651133663,23920.996303475255,-6855.3936837458004,32926.246491587059,-32926.246491587059,6855.3936837458004,47308.534179920563,0.0
290012.02908761695,3912225.878295721,-12500.0,53867.188466651671,-1761.6859159638582,309.80683206979825,13503.243549061408,-770.37893769627794,2286.9607708628228,29182.177030990384,-8815.6538015118076,39977.396442545578,-39977.396442545578,8815.6538015118076,57658.606462157433,0.0
295012.02908761695,3912225.878295721,-12500.0,65922.385899744637,-2981.4294404001434,451.56925233236029,17172.967272183516,-1296.9026257046637,2929.7521896010094,36018.659770739701,-11459.859750694457,49038.010233025794,-49038.010233025794,11459.859750694457,71040.591291355217,0.0
300012.02908761695,3912225.878295721,-12500.0,81646.313379624306,-4866.8554765565041,819.39998588500339,22041.600989418206,-2164.3318246129629,3725.3051360375271,45050.417448753535,-15059.920577140405,60839.732218695659,-60839.732218695659,15059.920577140405,88595.526047082341,0.0
305012.02908761695,3912225.878295721,-12500.0,102537.01110377892,-7789.6311705337002,1682.9196250648906,28556.869583038788,-3613.1840554204368,4658.3368354391469,57220.593777752219,-19993.579922836383,76455.555726282008,-76455.555726282008,19993.579922836383,112017.86748359441,0.0
310012.02908761695,3912225.878295721,-12500.0,130939.78268765443,-12324.269214425649,3628.952190637267,37358.389862338387,-6071.276312038457,5642.3744938284553,74019.507545678804,-26755.899993479405,97507.055865982577,-97507.055865982577,26755.899993479405,143906.09044842553,0.0
315012.02908761695,3912225.878295721,-12500.0,170713.70820865378,-19316.128753084206,7974.2269901364261,49385.257724110888,-10311.531013903654,6455.456840019634,97898.521569652861,-35885.857361547722,126526.32112241363,-126526.32112241363,35885.857361547722,188384.29293165874,0.0
320012.02908761695,3912225.878295721,-12500.0,228559.89546434573,-29831.549421642321,17817.227743937186,66083.251656639113,-17750.109643953911,6708.4610455223155,133026.66927069813,-47541.020076122237,167572.49919680238,-167572.49919680238,47541.020076122237,252176.36580958756,0.0
325012.02908761695,3912225.878295721,-12500.0,316591.62051752803,-44462.489183160927,41010.982518549768,89862.207661604829,-31018.59773120816,6272.2067806220175,186477.32412950549,-59669.802945356496,227022.4556410966,-227022.4556410966,59669.802945356496,346074.63459061424,0.0
330012.02908761695,3912225.878295721,-12500.0,455725.09344885335,-59843.085127689548,99991.166276566088,124867.07463105943,-55073.095783460572,8583.5450886612252,268356.01575429685,-60280.906847971346,312253.69060346531,-312253.69060346531,60280.906847971346,483773.55585271277,0.0
335012.02908761695,3912225.878295721,-12500.0,666308.44142027316,-54859.892364160994,272286.59907809668,170519.98990132727,-98720.811691056399,35035.322589833886,376996.92690019007,7243.4406480422185,408990.8956707461,-408990.8956707461,-7243.4406480422185,656140.98006393621,0.0
340012.02908761695,3912225.878295721,-12500.0,785338.86388309603,-8697.5619609842524,891358.12318875059,92619.521398857571,-176746.22641964315,115167.516370196,434729.33728243853,363507.14483374142,279941.95044650527,-279941.95044650527,-363507.14483374142,806908.01451440156,0.0
345012.02908761695,3912225.878295721,-12500.0,341645.10148069623,-3525078.6540276054,-2380167.2875837749,-952758.42489893234,1543883.3166024222,-4377039.0286771907,4309632.5237083519,-4294896.261869763,1581603.7334604908,-1581603.7334604908,4294896.261869763,7998961.2551670754,0.0
350012.02908761695,3912225.878295721,-12500.0,2088285.5111568391,294376.04862493387,-1167510.3998748804,284689.02139082697,369182.71962778317,261772.55402041852,1720013.4444506352,-663128.9892981369,1886547.9251171635,-1886547.9251171635,663128.9892981369,2983555.9508270738,0.0
355012.02908761695,3912225.878295721,-12500.0,407254.76439479814,-59837.308650843057,-656954.47916975175,50476.290732786751,314786.45291504759,-109729.6820332106,609111.0579015367,-460727.84834388481,532233.30763823632,-532233.30763823632,460727.84834388481,1079486.5522013614,0.0
360012.02908761695,3912225.878295721,-12500.0,25494.234562092432,-125772.82094127155,-222767.09827015424,57037.054956164393,131157.84090953018,-29841.837808665394,209611.22900171898,-231917.48047754244,115522.63512814873,-115522.63512814873,231917.48047754244,399726.38801753044,0.0
365012.02908761695,3912225.878295721,-12500.0,-38029.05050637322,-24272.754955344368,13948.268823506241,3744.4782033149349,27873.821424209069,-1255.1101641333712,45622.931865232196,-8565.5751372471841,-28278.859330805768,28278.859330805768,8565.5751372471841,79265.166281326339,0.0
370012.02908761695,3912225.878295721,-12500.0,-810.78327694682935,45466.808907440849,69794.253439766835,-20927.87417288791,-4076.2033860547913,261.12432882642088,63096.312428567559,76366.883261572249,-31394.173305501808,31394.173305501808,-76366.883261572249,111696.03534065389,0.0
375012.02908761695,3912225.878295721,-12500.0,33847.984308057108,65758.990605206272,63063.767921545972,-26288.799568169838,-11875.802095077686,76.350179616102196,73986.744035037569,85601.545881643149,-7120.8365994349297,7120.8365994349297,-85601.545881643149,135830.37785960583,0.0
380012.02908761695,3912225.878295721,-12500.0,50564.145594181748,63016.325031402928,45743.853576948975,-25104.026779708118,-12738.172667184808,977.07841909119907,68461.88613792503,71814.375621055922,11331.873115108705,-11331.873115108705,-71814.375621055922,128583.35651962295,0.0
385012.02908761695,3912225.878295721,-12500.0,55096.25041917491,53370.294251115032,31283.906762922754,-22242.303979795441,-11505.175235830411,1896.2990632961919,58821.95823797804,55253.707272950756,21036.848834271739,-21036.848834271739,-55253.707272950756,112057.48242063718,0.0
390012.02908761695,3912225.878295721,-12500.0,53430.232623002936,43163.842272974944,21225.270968224697,-19119.231607640781,-9691.6028175306365,2354.6661024383843,49267.652340693858,41371.868240756332,24836.112673363143,-24836.112673363143,-41371.868240756332,94703.509839437378,0.0
395012.02908761695,3912225.878295721,-12500.0,49086.376989174983,34332.528505840673,14573.963525245612,-16158.305529225876,-7875.1955015467001,2399.0496333904293,40929.714782894633,30828.956362283094,25323.93602604017,-25323.93602604017,-30828.956362283094,79151.860619988016,0.0
400012.02908761695,3912225.878295721,-12500.0,43864.763757821725,27205.769119808068,10212.156946298981,-13510.271515918026,-6278.1765037450814,2203.6250111765967,33963.111139745968,23076.189534592402,24133.809859158831,-24133.809859158831,-23076.189534592402,65972.971249261886,0.0
405012.02908761695,3912225.878295721,-12500.0,38629.462786558623,21609.83607684082,7327.328650294714,-11224.050053920982,-4960.1740466440451,1909.5959578972074,28241.658604005384,17421.002334055167,22193.874679268232,-22193.874679268232,-17421.002334055167,55058.740893924827,0.0
410012.02908761695,3912225.878295721,-12500.0,33765.515345499407,17258.478743171079,5388.9484511653218,-9296.0928695916573,-3908.5527823304387,1600.2627469078204,23574.415203903649,13287.073363126216,20007.050352214403,-20007.050352214403,-13287.073363126216,46105.761347853339,0.0
415012.02908761695,3912225.878295721,-12500.0,29417.463287541839,13879.48045436971,4061.4385338985871,-7695.2117440991251,-3084.2504303587639,1315.7600771418481,19773.430979937166,10244.674083080323,17834.077728075503,-17834.077728075503,-10244.674083080323,38783.924749451187,0.0
420012.02908761695,3912225.878295721,-12500.0,25611.664102205588,11247.762231438115,3133.5165660297234,-6378.525805834639,-2443.4496386698029,1070.9094499676335,16674.119646886757,7985.5177153101022,15800.862321741235,-15800.862321741235,-7985.5177153101022,32793.133888963202,0.0
425012.02908761695,3912225.878295721,-12500.0,22319.31392816034,9187.2132295850952,2471.25532870084,-5301.1816055584786,-1946.4925541968637,867.66638224974554,14139.409399714083,6291.3080605852374,13959.619399495266,-13959.619399495266,-6291.3080605852374,27878.913086218454,0.0
430012.02908761695,3912225.878295721,-12500.0,19488.845805689918,7563.3202339272711,1988.7316576213536,-4421.473018736745,-1560.587394104685,702.32709594037499,12057.990331686759,5007.7320855817507,12323.343696986774,-12323.343696986774,-5007.7320855817507,23832.479255308797,0.0
435012.02908761695,3912225.878295721,-12500.0,17062.318244542377,6274.3742602084621,1630.0171638619163,-3703.0076903927375,-1259.8265832950735,569.27664034000838,10340.677089790413,4025.3024012109008,10885.105980040284,-10885.105980040284,-4025.3024012109008,20485.418185315008,0.0
440012.02908761695,3912225.878295721,-12500.0,14983.397637968377,5243.6921130826859,1358.1349835194778,-3115.2047624344141,-1024.2306569926407,462.76103512255168,8916.5103394447979,3265.829491544871,9628.7725515830152,-9628.7725515830152,-3265.829491544871,17703.071781849525,0.0
445012.02908761695,3912225.878295721,-12500.0,13200.837595399404,4413.3785612963029,1148.2422446116984,-2632.9418305191493,-838.57971835497619,377.6188437614457,7729.1750533913691,2673.0222754124461,8534.8070912297062,-8534.8070912297062,-2673.0222754124461,15378.14858787604,0.0
450012.02908761695,3912225.878295721,-12500.0,11669.688062947325,3739.568519469728,983.37941967525035,-2235.8655044708762,-691.34310036762065,309.50558204825927,6733.9962161318317,2206.0030843529767,7583.3347069931424,-7583.3347069931424,-2206.0030843529767,13425.229600597939,0.0
250012.02908761695,3917225.878295721,-12500.0,14792.192302218937,-729.49823174748553,410.08218617897376,2702.9816977458449,-147.44599209575247,358.9971159343072,7724.9852678817724,-2430.733090737539,10882.653708737365,-10882.653708737365,2430.733090737539,15204.027963898772,0.0
255012.02908761695,3917225.878295721,-12500.0,16978.524324776583,-982.2874554110623,445.60938009268807,3221.0191853180377,-206.15589089847413,443.16381586309188,8902.6488074753106,-2928.5338942735534,12524.221652994227,-12524.221652994227,2928.5338942735534,17536.38432859314,0.0
260012.02908761695,3917225.878295721,-12500.0,19593.35719819607,-1319.7593900791223,490.21130429787229,3862.914606912298,-287.65610023910023,550.58235613270381,10321.591232736893,-3552.913560127553,14492.614012951497,-14492.614012951497,3552.913560127553,20347.491519017782,0.0
265012.02908761695,3917225.878295721,-12500.0,22740.767212737363,-1773.4772614488488,549.05819590265219,4663.7235724086213,-401.64312959382573,688.38042370511494,12044.181552065105,-4342.4056559201072,16867.976533584035,-16867.976533584035,4342.4056559201072,23760.684554802916,0.0
270012.02908761695,3917225.878295721,-12500.0,26554.80808461535,-2388.355206950966,630.85649924382972,5669.6884094144989,-562.42971139318831,865.8818640740194,14152.389762577539,-5349.1574297925144,19753.512554426175,-19753.512554426175,5349.1574297925144,27937.636260922976,0.0
275012.02908761695,3917225.878295721,-12500.0,31209.48244860784,-3229.0434773262664,750.43638599238352,6942.0241909235938,-791.3985090952408,1095.098767982076,16755.14384519988,-6644.3394820785961,23282.969283410566,-23282.969283410566,6644.3394820785961,33092.421965929083,0.0
280012.02908761695,3917225.878295721,-12500.0,36932.551065123414,-4389.738315848298,933.37339169126892,8561.915869471015,-1120.8973024536588,1391.0538477351915,19998.998495394324,-8325.889004355131,27630.794403774977,-27630.794403774977,8325.889004355131,39511.669090395568,0.0
285012.02908761695,3917225.878295721,-12500.0,44025.001497229794,-6009.4511575081087,1224.4013541030442,10636.96214087479,-1600.4926473300816,1771.4765419146743,24083.956316893305,-10529.606440426192,33026.017717421593,-33026.017717421593,10529.606440426192,47583.985205700192,0.0
290012.02908761695,3917225.878295721,-12500.0,52889.214215703927,-8296.0755182590237,1702.9928088524159,13309.143817118304,-2307.1057654735159,2254.817513119845,29287.59167432231,-13445.014495911568,39771.451866683201,-39771.451866683201,13445.014495911568,57844.020403257666,0.0
295012.02908761695,3917225.878295721,-12500.0,64071.309104827182,-11564.858029843321,2512.8762280136375,16763.94714394768,-3361.5568400326028,2854.3101623923458,36003.150213922381,-17337.798077350679,48270.790109845861,-48270.790109845861,17337.798077350679,71040.600264230598,0.0
300012.02908761695,3917225.878295721,-12500.0,78328.498767700352,-16300.751127749974,3919.227437819537,21239.187723546904,-4955.5903474376046,3563.4283557239837,44802.403973104309,-22580.865666372352,59068.318752636973,-59068.318752636973,22580.865666372352,88246.628138409724,0.0
305012.02908761695,3917225.878295721,-12500.0,96744.680690811569,-23261.166299383483,6422.4538478060513,27029.592403592727,-7395.5805701496402,4324.0285922674348,56544.693458183981,-29695.494416920759,72910.984851432397,-72910.984851432397,29695.494416920759,111045.79459673747,0.0
310012.02908761695,3917225.878295721,-12500.0,120948.78893750411,-33649.407834106212,10991.2809443849,34477.366581712078,-11170.958238238914,4963.3969797591508,72576.628239578655,-39401.640078604119,90856.176024672226,-90856.176024672226,39401.640078604119,141869.95923816485,0.0
315012.02908761695,3917225.878295721,-12500.0,153573.17622485387,-49421.102856302256,19557.727527060146,43923.123805240706,-17052.752610229916,5089.7629959648075,95116.964749566439,-52671.664394959836,114487.17119000293,-114487.17119000293,52671.664394959836,184650.59165220871,0.0
320012.02908761695,3917225.878295721,-12500.0,199320.25850218517,-73885.051263293353,36123.551107668114,55539.456175994805,-26205.484457419778,4006.331569307576,128030.24998983205,-70784.972991209506,146412.77323091202,-146412.77323091202,70784.972991209506,246164.95241823653,0.0
325012.02908761695,3917225.878295721,-12500.0,267620.14418157504,-113168.78880869148,69479.928228030869,68731.229850949152,-40203.308741506611,1194.1434740255575,178390.78171945937,-95456.412182802378,191518.84751827904,-191518.84751827904,95456.412182802378,338961.71165538521,0.0
330012.02908761695,3917225.878295721,-12500.0,378994.9763875209,-181239.32378179065,141499.6922575174,79127.440735778291,-60403.525448989269,855.03064899127844,259318.59327954068,-129443.86659375239,259574.50402997306,-259574.50402997306,129443.86659375239,487708.58659642015,0.0
335012.02908761695,3917225.878295721,-12500.0,576127.37577879115,-324895.66778587794,327653.50598811125,57899.373150079344,-81460.949019202904,37287.023685328393,398993.81208551436,-177144.09968753497,363256.90484676778,-363256.90484676778,177144.09968753497,751556.18369212223,0.0
340012.02908761695,3917225.878295721,-12500.0,845171.14267123945,-765248.69637405407,1248127.6239047009,-169975.36049684792,12031.412397993085,240935.19903396151,864686.27708261088,-90588.177588857172,317136.53895425639,-317136.53895425639,90588.177588857172,1617059.5620204213,1.0
345012.02908761695,3917225.878295721,-12500.0,-1133055.0376285936,-94299.56404786506,-5147291.2542532096,-60677.880640087475,-1208558.1213185866,-916183.27957617538,2438844.3089373731,-2652421.9308204325,877798.00296763249,-877798.00296763249,2652421.9308204325,4631550.61125209,1.0
350012.02908761695,3917225.878295721,-12500.0,-629839.61843622313,137723.24281003358,-655654.15146683331,-43943.164709935008,244014.36882815172,-83078.88477915297,425075.39393862966,-151638.90608968106,-261978.23369337022,261978.23369337022,151638.90608968106,745018.91223777016,0.0
355012.02908761695,3917225.878295721,-12500.0,-146108.91629486083,25694.005243737829,-425424.90897333925,70045.995566227444,244850.43518451511,-64414.777306287571,316267.80542213866,-190954.65108587383,36005.648527127385,-36005.648527127385,190954.65108587383,551420.81269188761,0.0
360012.02908761695,3917225.878295721,-12500.0,-118128.22578670696,-74442.641396490217,-209183.36349208228,68863.502590610151,132495.56001127738,-35368.018142523128,184177.54611953796,-162491.80705097417,-1797.1759788071067,1797.1759788071067,162491.80705097417,325872.55021699192,0.0
365012.02908761695,3917225.878295721,-12500.0,-113563.38183555611,-50739.327646087557,-43606.669327390933,41379.705195705836,52017.027273630978,-15968.908208680017,94902.632112322739,-52919.249659820067,-59093.350676954913,59093.350676954913,52919.249659820067,169023.15187244228,0.0
370012.02908761695,3917225.878295721,-12500.0,-79931.77681423875,-2871.9107437613993,29879.504321743039,17037.144600751253,12787.1262663246,-7378.7174888900754,58953.517149697305,23480.117595246407,-67453.000948640052,67453.000948640052,-23480.117595246407,103640.66665260147,0.0
375012.02908761695,3917225.878295721,-12500.0,-41177.484417876061,27250.78068229929,47837.781612469982,2434.0357393934833,-3206.1878888361148,-3267.8136088759579,52350.305046409907,54002.719658063666,-50261.759311231697,50261.759311231697,-54002.719658063666,90899.664195066536,0.0
380012.02908761695,3917225.878295721,-12500.0,-11620.15816572937,38940.346905150029,44175.337480559814,-5036.9817804532258,-8733.4563716212488,-869.14862650749967,48668.02354837922,58290.728553452995,-29449.092235147658,29449.092235147658,-58290.728553452995,86503.461334352556,0.0
385012.02908761695,3917225.878295721,-12500.0,7035.8001216873554,40048.787541610742,35124.986308170803,-8378.9986554735333,-9835.9857341309853,551.1625355593419,43737.574599304011,52030.657940616045,-13037.566684528912,13037.566684528912,-52030.657940616045,79534.771954797019,0.0
390012.02908761695,3917225.878295721,-12500.0,17377.641104313996,36494.547225541559,26430.841509516198,-9463.6421401095977,-9164.6281204250045,1278.9108827689092,38243.510477805896,43034.924471861392,-2038.0075098257985,2038.0075098257985,-43034.924471861392,70732.477040641286,0.0
395012.02908761695,3917225.878295721,-12500.0,22287.129990824462,31454.758395181951,19525.972367812647,-9356.1196270058754,-7894.3108451191029,1547.1873058767183,32906.863992040962,34417.555750848172,4652.412589312582,-4652.412589312582,-34417.555750848172,61630.185743912058,0.0
400012.02908761695,3917225.878295721,-12500.0,23919.210062863967,26382.536010926553,14405.731635875158,-8664.973891306825,-6540.4825773383309,1548.6125366174356,28081.325765401336,27142.724999812832,8368.3044864567291,-8368.3044864567291,-27142.724999812832,53101.990379319017,0.0
405012.02908761695,3917225.878295721,-12500.0,23689.951942466141,21845.260292052408,10705.946000230622,-7736.0254647183265,-5311.2711767645169,1417.7105547022927,23882.230502347735,21320.380938127171,10169.619719559327,-10169.619719559327,-21320.380938127171,45511.179927699784,0.0
410012.02908761695,3917225.878295721,-12500.0,22476.09286434784,17998.45383786198,8050.6237328949819,-6758.836836983699,-4271.7766934983201,1236.1458008244849,20304.695354151245,16771.169425237651,10794.30564189406,-10794.30564189406,-16771.169425237651,38941.702407450335,0.0
415012.02908761695,3917225.878295721,-12500.0,20800.883205729289,14822.723460530802,6139.4713866431457,-5830.1416385087668,-3424.0477381271598,1048.0182223090994,17291.489747679188,13251.691364924633,10726.216891914586,-10726.216891914586,-13251.691364924633,33343.832100248903,0.0
420012.02908761695,3917225.878295721,-12500.0,18966.756732432343,12235.041437625265,4752.8664712699983,-4993.0684140310277,-2745.7554506797187,874.26430589801464,14767.959983370276,10535.275963142349,10272.036731642065,-10272.036731642065,-10535.275963142349,28613.051028272308,0.0
425012.02908761695,3917225.878295721,-12500.0,17141.781770638681,10138.212575545003,3735.8794660541985,-4261.1563716463643,-2208.1025184887731,722.86687739786555,12658.820100954323,8434.7251687828266,9621.479498322291,-9621.479498322291,-8434.7251687828266,24630.026139117832,0.0
430012.02908761695,3917225.878295721,-12500.0,15413.845246560648,8441.0843478040515,2980.7228242568685,-3632.6398465491652,-1783.4477465725633,595.16720354174674,10895.467396788112,6803.346597011734,8889.2599003244377,-8889.2599003244377,-6803.346597011734,21279.551290471012,0.0
435012.02908761695,3917225.878295721,-12500.0,13823.847848833058,7065.3638153360398,2412.6156933604943,-3098.6262805575216,-1448.0226018925252,489.44967865130485,9418.4773888506861,5529.0314936099767,8142.8279952102439,-8142.8279952102439,-5529.0314936099767,18458.421955010796,0.0
440012.02908761695,3917225.878295721,-12500.0,12385.814887260953,5946.6339996853312,1979.5094769573791,-2647.5946548060574,-1182.4515968764831,402.84789665570577,8177.8133922847401,4527.0923523511347,7420.2473639855207,-7420.2473639855207,-4527.0923523511347,16077.794980923374,0.0
445012.02908761695,3917225.878295721,-12500.0,11098.932218497399,5033.0715872279197,1644.9360155245615,-2267.7320531213827,-971.38102709027498,332.29080890519191,7132.0167372990409,3733.8230394042967,6741.5377776830919,-6741.5377776830919,-3733.8230394042967,14062.888129528506,0.0
450012.02908761695,3917225.878295721,-12500.0,9954.6834743124073,4283.4766254198876,1383.1232268797025,-1948.0521090088107,-802.82977032779957,274.92946861815142,6247.0557093897105,3101.3001513814283,6115.8142378863267,-6115.8142378863267,-3101.3001513814283,12351.580142886842,0.0
250012.02908761695,3922225.878295721,-12500.0,14620.899257342389,-1781.650054995966,638.9916904584893,2678.513765747296,-342.4552071589992,356.75447714804238,7730.7754566811072,-3172.8157409603282,10838.790266833092,-10838.790266833092,3172.8157409603282,15195.972398103693,0.0
255012.02908761695,3922225.878295721,-12500.0,16711.226615112755,-2245.9243386690432,743.20915103011976,3180.6112160711655,-447.92567909015122,439.12294156044277,8891.4875939127396,-3799.1196178336413,12418.475391295184,-12418.475391295184,3799.1196178336413,17493.113154320821,0.0
260012.02908761695,3922225.878295721,-12500.0,19188.33292165184,-2846.9815003535655,880.76145328153655,3798.538588916404,-589.50182868311992,543.69316419768268,10284.113375355779,-4577.2176365172845,14293.923037436267,-14293.923037436267,4577.2176365172845,20250.847496727303,0.0
265012.02908761695,3922225.878295721,-12500.0,22137.323655884422,-3631.2627547883767,1066.7364764033766,4563.2130748007185,-781.16307204777354,676.98639287885362,11966.322944276671,-5550.2591655089309,16530.188019549849,-16530.188019549849,5550.2591655089309,23583.71064623339,0.0
270012.02908761695,3922225.878295721,-12500.0,25663.757326859995,-4663.1839151710055,1324.3762814774263,5514.4328965781415,-1042.954547127162,847.35404193617705,14012.867451649188,-6775.1134846927253,19207.494550658535,-19207.494550658535,6775.1134846927253,27639.997679079152,0.0
275012.02908761695,3922225.878295721,-12500.0,29898.269236600318,-6032.9206368321175,1690.0719808545082,6703.2602605061456,-1403.8754917683875,1065.2385545834948,16521.436688223457,-8326.9287092323539,22424.174622953826,-22424.174622953826,8326.9287092323539,32613.192446466168,0.0
280012.02908761695,3922225.878295721,-12500.0,35001.650781177254,-7867.8692736651101,2221.7689464580667,8194.6805812363709,-1906.2219483036347,1343.1143623931484,19620.818700657448,-10305.029919466917,26299.354445745656,-26299.354445745656,10305.029919466917,38757.765634411197,0.0
285012.02908761695,3922225.878295721,-12500.0,41169.796873618463,-10349.6345685345,3013.3821332001826,10070.105518876973,-2612.105252923418,1694.5625724797055,23482.440913005274,-12840.237946170546,30974.35533199245,-30974.35533199245,12840.237946170546,46411.290233635911,0.0
290012.02908761695,3922225.878295721,-12500.0,48637.171578901223,-13739.293210402104,4219.9609372113864,12428.613927611799,-3613.1267944472529,2131.296321043058,28337.009941578857,-16103.187526265523,36610.621100847478,-36610.621100847478,16103.187526265523,56025.919887411212,0.0
295012.02908761695,3922225.878295721,-12500.0,57675.980076069754,-18415.049944249677,6102.555731408931,15384.470686303857,-5044.3660993802669,2655.7354046745027,34499.136566721929,-20311.904643037211,43379.682984017258,-43379.682984017258,20311.904643037211,68214.279242870485,0.0
300012.02908761695,3922225.878295721,-12500.0,68585.428762905969,-24928.326272060771,9109.9503730970264,19055.776490380824,-7103.421175075835,3244.5345289101879,42405.042916541664,-25733.7192488949,51436.115520912506,-51436.115520912506,25733.7192488949,83818.804741624583,0.0
305012.02908761695,3922225.878295721,-12500.0,81659.293311179194,-34087.109107240074,14031.335437966236,23533.904930904322,-10072.726767905253,3815.2766568960733,52672.528675048568,-32669.023291966085,60854.624423513342,-60854.624423513342,32669.023291966085,104021.66252937722,0.0
310012.02908761695,3922225.878295721,-12500.0,97103.875670821668,-47079.830228822109,22290.31572310171,28813.314896010597,-14334.29014624989,4166.594992985325,66199.467550697344,-41386.525140329766,71489.050500228244,-71489.050500228244,41386.525140329766,130529.71417833323,0.0
315012.02908761695,3922225.878295721,-12500.0,114822.11969189259,-65660.863709050871,36536.005578003285,34640.413828357676,-20337.425886588066,3894.4889425851516,84325.362072247604,-51933.190878952133,82642.483004515641,-82642.483004515641,51933.190878952133,165904.53978784481,0.0
320012.02908761695,3922225.878295721,-12500.0,133733.76139543593,-92423.658074858919,61917.781694239573,40189.795071457971,-28394.77113506219,2374.0946869868671,109067.48680066684,-63590.561812073451,92181.386345371138,-92181.386345371138,63590.561812073451,214172.87293963693,0.0
325012.02908761695,3922225.878295721,-12500.0,149050.90235695537,-131006.04907395602,109171.96047782293,43324.468419152909,-37921.69756970145,-692.11774936239226,143253.43999898437,-73034.254304735965,93535.534576492253,-93535.534576492253,73034.254304735965,281912.50006579759,0.0
330012.02908761695,3922225.878295721,-12500.0,139232.06036373528,-183286.83312910105,203100.70327296091,38725.240153889019,-44827.101673374244,-2113.4323704638432,190892.93019793963,-65701.832421339423,62876.366358972067,-62876.366358972067,65701.832421339423,379993.19213550095,0.0
335012.02908761695,3922225.878295721,-12500.0,5930.2246242586052,-208620.75643538043,398558.19754917087,15867.545554994489,-32998.081305033964,12511.415395689819,287873.04137300391,35121.921504605714,-96388.847084028588,96388.847084028588,-35121.921504605714,534982.14434254484,0.0
340012.02908761695,3922225.878295721,-12500.0,-447701.0177114433,214758.10897020798,501976.56051660399,1071.0466025892104,6716.0661714806056,7422.7280160649989,521188.53870599216,508528.30873856414,-527964.82483258308,527964.82483258308,-508528.30873856414,902943.0790696952,0.0
345012.02908761695,3922225.878295721,-12500.0,-176822.25354317494,344244.96208503412,-1035944.0367258599,-56063.535928110046,-805.62768272692165,-115360.6161907044,566258.49970498111,-235740.25598182849,160958.00234311161,-160958.00234311161,235740.25598182849,1076854.6288787462,1.0
350012.02908761695,3922225.878295721,-12500.0,-298245.19164873729,-157385.7113224678,-764553.75592377991,-23487.72708505702,170906.58868746788,-40949.064878895813,426354.36584417318,-502866.15326480544,61968.267732453649,-61968.267732453649,502866.15326480544,753138.33653669094,0.0
355012.02908761695,3922225.878295721,-12500.0,-237624.09056313452,-131657.04785713556,-392941.14578423387,38320.118566943107,177376.6874535353,-24161.87887576034,288266.34223158081,-292825.73362344858,-19551.62829651346,19551.62829651346,292825.73362344858,503624.18781227595,0.0
360012.02908761695,3922225.878295721,-12500.0,-171398.57768020433,-112154.4260372857,-204205.12631092704,54424.214707143481,117251.75244817784,-21944.18985503044,192240.25783759222,-184078.5252472373,-37304.512299192706,37304.512299192706,184078.5252472373,340854.39406108868,0.0
365012.02908761695,3922225.878295721,-12500.0,-139133.49048187103,-80540.379908605828,-77911.322541069152,46475.722156013442,61723.465726970113,-15889.576633516812,121744.24089961618,-93293.308517869838,-61569.062304508647,61569.062304508647,93293.308517869838,220820.17991571463,0.0
370012.02908761695,3922225.878295721,-12500.0,-108494.47049357128,-40301.972039314787,-6057.9268978379705,31325.093170045366,26130.222987859779,-9808.1372586536963,76689.61757524604,-24111.908575540328,-70118.38438709543,70118.38438709543,24111.908575540328,141379.09269678834,0.0
375012.02908761695,3922225.878295721,-12500.0,-75959.458866344095,-7915.0961062374035,24936.610439538257,17739.976715132852,7011.9785170210653,-5403.4318219819988,53818.641656653621,16118.878964969103,-62190.971637985363,62190.971637985363,-16118.878964969103,96534.522570369998,0.0
380012.02908761695,3922225.878295721,-12500.0,-47099.25145896247,11781.154722783245,33215.552159704108,8077.893313498831,-2069.4206094614251,-2535.3026397159292,42581.498040648519,33746.225329180321,-47200.442351940685,47200.442351940685,-33746.225329180321,74042.284018763079,0.0
385012.02908761695,3922225.878295721,-12500.0,-24939.454708463905,21230.598923126588,31534.255025032518,1962.9351913557728,-5764.5344880421972,-783.26180598733959,35839.730993368918,38114.853662001166,-32062.685078084021,32062.685078084021,-38114.853662001166,62226.004447947045,0.0
390012.02908761695,3922225.878295721,-12500.0,-9484.7988458213495,24254.3776425586,26581.772093693697,-1583.3055025056949,-6773.4382992747323,205.48300712006139,30862.425993099041,36088.019665396117,-19658.618801000484,19658.618801000484,-36088.019665396117,54361.634784653936,0.0
395012.02908761695,3922225.878295721,-12500.0,560.4947065348797,23822.395062140196,21267.786679943256,-3438.4519922641266,-6543.6655892405015,700.04786184053955,26711.8117009737,31601.048834930349,-10506.555232778832,10506.555232778832,-31601.048834930349,47878.687344717386,0.0
400012.02908761695,3922225.878295721,-12500.0,6683.1255285851203,21791.665137773543,16629.762501867164,-4245.3459775851052,-5817.9079573282252,895.46709565631352,23104.578314864972,26608.156298191403,-4174.6200006063864,4174.6200006063864,-26608.156298191403,42074.260176630531,0.0
405012.02908761695,3922225.878295721,-12500.0,10131.880798269071,19196.72678875269,12899.745654444161,-4436.7310433203829,-4959.6192047770701,923.3855374399767,19955.818072949256,21959.027702412452,-0.067637706879395409,0.067637706879395409,-21959.027702412452,36828.460522658024,0.0
410012.02908761695,3922225.878295721,-12500.0,11832.867570315739,16564.372807909043,10009.719246443507,-4289.2924119542267,-4133.842926974382,866.45629692393914,17225.263226435003,17949.730590896983,2628.0679201054991,-2628.0679201054991,-17949.730590896983,32143.242703166372,0.0
415012.02908761695,3922225.878295721,-12500.0,12430.33780312041,14135.114497156816,7807.1868103323068,-3972.8427170725354,-3405.1980509710752,773.21281735393723,14875.512380768769,14622.275843552028,4190.4587923382951,-4190.4587923382951,-14622.275843552028,28016.252134982224,0.0
420012.02908761695,3922225.878295721,-12500.0,12355.865402382868,11997.812308434537,6137.7591732041992,-3587.5787459682474,-2789.8585023454798,670.3079473251164,12865.386801018269,11915.08358117213,5038.3156940519793,-5038.3156940519793,-11915.08358117213,24420.476167352947,0.0
425012.02908761695,3922225.878295721,-12500.0,11891.31835664754,10165.843197866365,4871.337335710532,-3190.0056246644508,-2282.4185790286679,571.23529453514959,11152.113086941545,9734.0856741467323,5418.0755751771094,-5418.0755751771094,-9734.0856741467323,21310.735814435324,0.0
430012.02908761695,3922225.878295721,-12500.0,11217.1213195249,8618.2018189533756,3906.2124620110649,-2810.0395227673907,-1869.2959238396868,481.98790125741925,9694.3348760780664,7983.9171036832558,5498.4635485578037,-5498.4635485578037,-7983.9171036832558,18633.326909720181,0.0
435012.02908761695,3922225.878295721,-12500.0,10446.522076953435,7320.796640108103,3165.6453671013651,-2461.883369595294,-1535.0861574089922,404.5059198536095,8454.116817707345,6579.9360371453986,5393.1029754656447,-5393.1029754656447,-6579.9360371453986,16333.182196108133,0.0
440012.02908761695,3922225.878295721,-12500.0,9648.9733592962093,6236.9734107858176,2592.7153819445557,-2150.7587477566944,-1265.3349076613381,338.68160135772121,7397.89730738046,5451.4923213716111,5177.5367037699025,-5177.5367037699025,-5451.4923213716111,14358.151260235203,0.0
445012.02908761695,3922225.878295721,-12500.0,8865.7035947455952,5332.3061710559014,2145.4931040696333,-1876.9704962878029,-1047.5413877440608,283.47623144686656,6496.6782245773366,4541.4605977483407,4901.3902638256968,-4901.3902638256968,-4541.4605977483407,12661.083370260836,0.0
250012.02908761695,3927225.878295721,-12500.0,14098.876703719119,-2731.9344131512962,978.99896752002144,2596.4494734793693,-521.20636176381129,347.78287965643597,7623.3809697263796,-3721.6813634898417,10484.067496615746,-10484.067496615746,3721.6813634898417,14974.682574037644,0.0
255012.02908761695,3927225.878295721,-12500.0,16008.302070070542,-3369.354126369763,1178.0313107408886,3066.1765406732948,-666.56938039292072,426.15099506496125,8738.6598933580499,-4418.5296355048304,11924.760125469613,-11924.760125469613,4418.5296355048304,17182.77466252834,0.0
260012.02908761695,3927225.878295721,-12500.0,18238.60090520708,-4179.5730387470694,1441.4211757213777,3638.3119583789025,-858.15812916202276,524.87207580220763,10067.832367376735,-5271.8708604083922,13607.622495854917,-13607.622495854917,5271.8708604083922,19816.873852389072,0.0
265012.02908761695,3927225.878295721,-12500.0,20848.194468090151,-5216.3056071174087,1795.8395054305147,4337.6870001794268,-1112.5856931619662,649.56039156835504,11660.798553044177,-6321.0977045418149,15575.219750748485,-15575.219750748485,6321.0977045418149,22976.839662204202,0.0
270012.02908761695,3927225.878295721,-12500.0,23903.869765301031,-6551.8217784506433,2280.8955326058917,5194.9915530361113,-1453.0411396351415,807.19590001693314,13580.785751208101,-7615.5745949164502,17874.840279653115,-17874.840279653115,7615.5745949164502,26789.316483919487,0.0
275012.02908761695,3927225.878295721,-12500.0,27479.309254321695,-8283.7233205739285,2956.2188388816785,6247.5346886899988,-1912.0305993870204,1006.149432936087,15908.15894907349,-9216.3819152382748,20556.079368776722,-20556.079368776722,9216.3819152382748,31415.431412346235,0.0
280012.02908761695,3927225.878295721,-12500.0,31650.680221269195,-10544.059416893731,3912.8266500003247,7539.3669926958037,-2535.2049947044943,1255.7915047943518,18745.265656869185,-11197.33336311514,23665.168174642691,-23665.168174642691,11197.33336311514,37060.603507007021,0.0
285012.02908761695,3927225.878295721,-12500.0,36486.61770978311,-13511.266353714667,5291.6013254887112,9119.8198367783298,-3386.5463763062808,1565.1410971819287,22222.501829003613,-13643.789117704604,27233.200088980309,-27233.200088980309,13643.789117704604,43986.87221220183,0.0
290012.02908761695,3927225.878295721,-12500.0,42027.752279892331,-17424.945926774693,7313.6516718526118,11038.607221974042,-4554.9596309018125,1939.4790272625821,26505.689318966583,-16646.04138117894,31253.066417759183,-31253.066417759183,16646.04138117894,52528.009900259822,0.0
295012.02908761695,3927225.878295721,-12500.0,48246.945045926237,-22602.042723485731,10330.724541935224,13334.034008618621,-6161.5152036211111,2372.9416124759764,31804.612257466179,-20280.451267396056,35635.608662570914,-35635.608662570914,20280.451267396056,63107.32399809952,0.0
300012.02908761695,3927225.878295721,-12500.0,54973.861773010525,-29448.896871907546,14909.49911778563,16008.174061388067,-8364.263080534527,2833.7899831386294,38381.986115000393,-24564.007016844735,40127.429660608119,-40127.429660608119,24564.007016844735,76257.207384354842,0.0
305012.02908761695,3927225.878295721,-12500.0,61752.109542008118,-38452.869868582762,21972.898114533724,18978.835109428714,-11351.52469530292,3238.045065542472,46561.205539016977,-29351.83489990517,44156.750524328847,-44156.750524328847,29351.83489990517,92637.290275055289,0.0
310012.02908761695,3927225.878295721,-12500.0,67562.400946441645,-50108.214166631587,33035.056445221991,21993.167147754248,-15299.96657323915,3410.0658019608013,56737.006894700266,-34110.907791231526,46539.370522881451,-46539.370522881451,34110.907791231526,113042.09111037107,0.0
315012.02908761695,3927225.878295721,-12500.0,70256.842450293028,-64645.491376371334,50577.647336265756,24485.005717401993,-20240.363918846102,3048.1190971265491,69486.668886865955,-37413.75461399374,44895.679333770306,-44895.679333770306,37413.75461399374,138370.3429582722,0.0
320012.02908761695,3927225.878295721,-12500.0,65314.324820961083,-81147.690599168898,78564.036902898166,25370.163305975588,-25704.420012695158,1784.674536070562,85702.363600139812,-35751.242476222498,34431.875535522777,-34431.875535522777,35751.242476222498,169473.45267720771,0.0
325012.02908761695,3927225.878295721,-12500.0,43027.283335470871,-94555.512326060474,122531.73759091042,22855.298549164658,-29913.797296152592,-383.76634724225181,106463.90781119792,-20582.667197113591,5395.4041228013848,-5395.4041228013848,20582.667197113591,206714.01464284342,0.0
330012.02908761695,3927225.878295721,-12500.0,-16047.500143528825,-85214.668611443311,184468.39449471462,14756.344177254239,-28326.023584330291,-1931.2482142132255,134035.78255573442,28353.540761473032,-60126.816182713199,60126.816182713199,-28353.540761473032,249840.58686083968,0.0
335012.02908761695,3927225.878295721,-12500.0,-127913.93502785153,7450.1768401366026,222106.75357053799,1377.964693137948,-13548.462211269638,-274.84277484912377,175588.71353771025,141802.99695979373,-168968.37333740102,168968.37333740102,-141802.99695979373,307981.80401672615,0.0
340012.02908761695,3927225.878295721,-12500.0,-181198.6770003525,222257.39952100004,12478.299738378362,-11431.11394751047,13756.148531077732,-3581.1870108823728,242974.12810574064,218877.61692328251,-171116.71984441538,171116.71984441538,-218877.61692328251,428734.28423991776,0.0
345012.02908761695,3927225.878295721,-12500.0,-54663.803170880885,191677.85364121082,-471431.85576155968,-25935.033102750538,56834.538507948266,-11098.771111953141,286969.13257164112,-81909.4949995567,87623.154421647414,-87623.154421647414,81909.4949995567,561853.72305310308,0.0
350012.02908761695,3927225.878295721,-12500.0,-68027.045173649167,-45954.236245862405,-538993.23603497667,-12329.659483521429,111979.01876618218,-4440.309689102125,294154.49685148353,-318381.38015493087,137928.47704340291,-137928.47704340291,318381.38015493087,547913.28455490607,0.0
355012.02908761695,3927225.878295721,-12500.0,-116387.78549651397,-123857.48810422937,-364299.18616454554,18823.681204644647,120775.83844244096,-7360.9565541586526,240194.13737826562,-285728.21666826017,57224.723219689113,-57224.723219689113,285728.21666826017,437288.62361040019,0.0
360012.02908761695,3927225.878295721,-12500.0,-124788.55606388046,-120749.3482803501,-211513.56072427705,36879.1937171748,93780.710963244826,-12222.576357624908,176592.78114293452,-200638.12845792796,-195.31980621432012,195.31980621432012,200638.12845792796,322739.0845552978,0.0
365012.02908761695,3927225.878295721,-12500.0,-118113.13260362994,-94855.12169195668,-104301.67142107515,39046.610763412704,59680.348408569342,-12106.448053165333,123244.41158533638,-122038.64911550103,-35407.12078233112,35407.12078233112,122038.64911550103,228507.5363068791,0.0
370012.02908761695,3927225.878295721,-12500.0,-103082.04192008468,-62124.479467158933,-36334.130287972017,32249.575884673908,32378.639684766109,-9196.5254971765335,83690.650095189369,-59544.981853936712,-52612.171288064026,52612.171288064026,59544.981853936712,157628.35706953576,0.0
375012.02908761695,3927225.878295721,-12500.0,-82529.865346605846,-32463.334245666974,816.91713235107659,22964.799402686422,14515.553372662152,-6003.0124907940753,57890.249471411931,-16877.766872117812,-54968.026628009808,54968.026628009808,16877.766872117812,108630.71625390086,0.0
380012.02908761695,3927225.878295721,-12500.0,-60875.579682139993,-10607.971138695922,17537.487360053856,14608.572572796173,4197.6858677690525,-3480.9753188909049,42553.938647285235,8016.3991861924733,-48383.667514443914,48383.667514443914,-8016.3991861924733,77284.815882535549,0.0
385012.02908761695,3927225.878295721,-12500.0,-41559.148727250285,3220.1744887561927,22744.748521204227,8257.0417872670623,-1171.1528795154468,-1747.2256686129972,33153.579088977975,20169.164269560439,-38324.701472164583,38324.701472164583,-20169.164269560439,58306.759427928984,0.0
390012.02908761695,3927225.878295721,-12500.0,-26080.447501023453,10818.624551845467,22368.579994250445,3868.9328898971285,-3615.0749185391223,-654.54434103892936,27041.603183479034,24491.424064337094,-28170.613609377673,28170.613609377673,-24491.424064337094,46873.923157224366,0.0
395012.02908761695,3927225.878295721,-12500.0,-14537.278732574974,14255.934104827014,19752.894379548732,1038.3267892961217,-4452.3756048578643,-17.046381025481523,22745.138283220011,24558.231974244976,-19453.219466314455,19453.219466314455,-24558.231974244976,39511.417633227546,0.0
400012.02908761695,3927225.878295721,-12500.0,-6364.8638842523696,15183.577565734964,16564.116613925293,-674.86322838290107,-4469.618905028593,321.90060065412365,19472.505372657986,22602.899121155715,-12589.503015115677,12589.503015115677,-22602.899121155715,34206.025158965713,0.0
405012.02908761695,3927225.878295721,-12500.0,-819.36990039798343,14729.644865333623,13534.151366321681,-1634.0052389739963,-4110.1525838237121,476.6787015109133,16826.894385022937,19887.081362099358,-7466.8757153922434,7466.8757153922434,-19887.081362099358,29977.954387999052,0.0
410012.02908761695,3927225.878295721,-12500.0,2791.5130292093791,13598.310946090176,10924.791282203925,-2106.8239679523263,-3611.6606219350465,524.26310800414467,14613.077874141925,17064.575360660634,-3783.5231043949252,3783.5231043949252,-17064.575360660634,26399.268789564507,0.0
415012.02908761695,3927225.878295721,-12500.0,5029.7380202943295,12201.426965558914,8782.2403520192511,-2278.4516188633565,-3094.2775785831627,513.53339101294478,12729.195347417652,14440.397443436486,-1212.7099891804319,1212.7099891804319,-14440.397443436486,23288.335984589885,0.0
420012.02908761695,3927225.878295721,-12500.0,6320.0970372268885,10765.560872475155,7065.3371595986146,-2271.6768353462767,-2613.4850016820365,474.08770684600012,11114.575290541054,12131.888153630149,531.83686186671639,-531.83686186671639,-12131.888153630149,20560.939906321262,0.0
425012.02908761695,3927225.878295721,-12500.0,6970.5233646348634,9406.0623136042668,5705.7895263227329,-2165.4207216481509,-2190.596432622558,423.06111011549558,9726.950969137124,10161.709161329185,1678.4738932448681,-1678.4738932448681,-10161.709161329185,18167.92008533367,0.0
430012.02908761695,3927225.878295721,-12500.0,7198.3584010999593,8174.3014655542347,4634.1693935585263,-2009.0328172626478,-1829.7644988548013,369.87961355219892,8533.1137130038205,8508.7972239830924,2400.3738772784609,-2400.3738772784609,-8508.7972239830924,16071.840089695264,0.0
435012.02908761695,3927225.878295721,-12500.0,7154.2086454646069,7086.3807511022205,3789.6079883855832,-1832.5017503994841,-1527.1883754901164,319.37041115870358,7505.2271758610495,7135.0554204272084,2824.9799656035361,-2824.9799656035361,-7135.0554204272084,14239.400531753288,0.0
440012.02908761695,3927225.878295721,-12500.0,6940.9996621529044,6140.0170225823322,3122.1923209963502,-1653.4219421472003,-1275.9376006780826,273.71092418612682,6619.3770308760804,5998.6351513698737,3044.3316871012958,-3044.3316871012958,-5998.6351513698737,12639.613411719845,0.0
445012.02908761695,3927225.878295721,-12500.0,6628.2332776334961,5324.1759945860103,2592.3790832965865,-1481.6028288382697,-1068.3642160455281,233.61091077214743,5854.9184021991641,5060.0368198094757,3124.0762958545547,-3124.0762958545547,-5060.0368198094757,11243.74261435374,0.0
250012.02908761695,3932225.878295721,-12500.0,13279.731935061547,-3531.9252402858883,1398.5659708230467,2464.8461826845046,-675.49715232704989,332.93817145937953,7413.2012971315926,-4060.6051309597801,9861.1679002772798,-9861.1679002772798,4060.6051309597801,14559.441783498998,0.0
255012.02908761695,3932225.878295721,-12500.0,14945.116903353754,-4291.5651189228347,1706.0422666770389,2889.4051539510456,-851.40261560319209,405.52768455770513,8459.0158269976018,-4769.0673008696122,11104.062364231375,-11104.062364231375,4769.0673008696122,16632.957771095211,0.0
260012.02908761695,3932225.878295721,-12500.0,16851.231112620844,-5240.55256886806,2110.0611940697895,3399.3787681607787,-1079.6713610967224,496.05086174103747,9694.1699963573483,-5619.7043731100284,12521.693955890452,-12521.693955890452,5619.7043731100284,19085.441910865131,0.0
265012.02908761695,3932225.878295721,-12500.0,19027.210316235825,-6431.5543382800188,2647.7315963114215,4012.5763129725824,-1377.6810406602704,609.0465148878011,11158.861449641538,-6641.3795351920544,14131.340489979413,-14131.340489979413,6641.3795351920544,21998.34433942465,0.0
270012.02908761695,3932225.878295721,-12500.0,21498.841868122716,-7932.468332459518,3372.4911050082005,4749.5390200554584,-1768.9510149860125,749.93377102011732,12902.317917950049,-7866.6784510882535,15944.706520463085,-15944.706520463085,7866.6784510882535,25471.825227406262,0.0
275012.02908761695,3932225.878295721,-12500.0,24282.127996124356,-9830.2346716694883,4362.0215671835358,5632.8584210468789,-2285.2440937299275,924.84226438445114,14984.494963457766,-9330.0130331729561,17961.107783621574,-17961.107783621574,9330.0130331729561,29628.510998795882,0.0
280012.02908761695,3932225.878295721,-12500.0,27371.830418588077,-12234.658845304682,5730.2178937245426,6685.22998940662,-2969.1487608584926,1139.9960776151822,17477.690375440878,-11062.86951711349,20155.591053675351,-20155.591053675351,11062.86951711349,34617.255744121518,0.0
285012.02908761695,3932225.878295721,-12500.0,30721.601783151935,-15280.92031181062,7645.2849878724837,7925.1127848783972,-3876.9014576425689,1400.1897405261684,20467.693609321366,-13083.496520338344,22458.58244121708,-22458.58244121708,13083.496520338344,40616.059844015464,0.0
290012.02908761695,3932225.878295721,-12500.0,34210.225189790232,-19127.55878692534,10356.834054404955,9358.0767192398926,-5080.5881419831258,1705.5401276434161,24054.184533451898,-15376.024627802057,24721.565095071077,-24721.565095071077,15376.024627802057,47832.418879081357,0.0
295012.02908761695,3932225.878295721,-12500.0,37585.136265510118,-23942.722406307323,14235.588731343392,10960.743139849048,-6667.4401296875139,2045.2095517999537,28354.335374292776,-17849.770030475949,26659.964864353853,-26659.964864353853,17849.770030475949,56497.666903707119,0.0
300012.02908761695,3932225.878295721,-12500.0,40369.539428528231,-29862.904985921345,19828.6543198199,12652.844387679879,-8730.8303335509499,2386.4092758667234,33545.302398786793,-20261.948832834867,27759.775875028667,-27759.775875028667,20261.948832834867,66848.963458972401,0.0
305012.02908761695,3932225.878295721,-12500.0,41712.6558433967,-36889.999449001261,27927.356233799481,14252.14483660113,-11341.216231611539,2657.7583637534012,39830.602230446151,-22073.801788057972,27128.725206112627,-27128.725206112627,22073.801788057972,79087.247212819522,0.0
310012.02908761695,3932225.878295721,-12500.0,40156.138284405359,-44652.516789271533,39620.190005215991,15409.660089052359,-14473.468994547247,2731.1884099115441,47289.440226452447,-22188.715839067103,23270.26570481724,-23270.26570481724,22188.715839067103,93291.022233758631,0.0
315012.02908761695,3932225.878295721,-12500.0,33298.288453636873,-51869.058435101208,56216.690861171795,15536.170954568472,-17848.716452020824,2423.5243162307179,55964.992699630144,-18494.641720963918,13781.015145238645,-13781.015145238645,18494.641720963918,109257.26533172719,0.0
320012.02908761695,3932225.878295721,-12500.0,17446.827176514857,-55173.549123990975,78630.121935829928,13772.356393458602,-20634.085780770936,1577.5432364584256,65838.903063244332,-7156.4984717080515,-4874.7369618769299,4874.7369618769299,7156.4984717080515,126272.94352323213,0.0
325012.02908761695,3932225.878295721,-12500.0,-12019.996900287262,-46767.090297620707,104817.99811276689,9154.6490829607683,-20991.464509013236,321.51835152593691,76974.145412874277,17948.150273491374,-36597.739398166545,36597.739398166545,-17948.150273491374,143165.29583264832,0.0
330012.02908761695,3932225.878295721,-12500.0,-56245.864197250034,-11590.078523579688,121252.56128079307,1287.4085904449346,-15787.856514922403,-553.28291130931984,90510.24964749426,62470.331291338312,-79997.179500150785,79997.179500150785,-62470.331291338312,160865.59741475174,0.0
335012.02908761695,3932225.878295721,-12500.0,-96527.027128509028,64571.795460256952,84289.763959390591,-8380.8373579826493,-1653.7855315077534,18.723513351726822,111418.930567748,112612.12623007398,-108933.73752605697,108933.73752605697,-112612.12623007398,193096.27576209494,0.0
340012.02908761695,3932225.878295721,-12500.0,-83437.136716364577,142991.89114529663,-69043.702997860659,-16366.668552189289,22009.123518427597,1451.1628213670331,144975.37983186566,95386.610581471177,-60189.944997257116,60189.944997257116,-95386.610581471177,264174.58449349122,0.0
345012.02908761695,3932225.878295721,-12500.0,-25172.470475702874,114930.3252796388,-275194.09167346096,-17954.672161721606,52174.708061039681,2239.1032379782982,174673.86918989144,-46345.55445679999,55829.318922586855,-55829.318922586855,46345.55445679999,344784.48600105522,0.0
350012.02908761695,3932225.878295721,-12500.0,-13567.417001852531,3424.5010736629124,-349457.74140915694,-7367.549067305662,77898.625719070929,757.94645695152963,192343.70153229096,-182464.52466973959,106805.09012685982,-106805.09012685982,182464.52466973959,369109.58897791983,0.0
355012.02908761695,3932225.878295721,-12500.0,-43305.576797525144,-73502.418906526582,-291506.39133676025,10540.724146915063,84299.327865187312,-3923.4539130073094,176921.11158473906,-213286.28241319142,78077.688457197946,-78077.688457197946,213286.28241319142,332850.62461496913,0.0
360012.02908761695,3932225.878295721,-12500.0,-69777.938087914386,-96193.430301951885,-198439.22164873249,24409.688365417838,72126.382887793894,-8029.2244813160341,144366.41484719422,-179558.42098066403,31359.050343242227,-31359.050343242227,179558.42098066403,271044.22213714704,0.0
365012.02908761695,3932225.878295721,-12500.0,-82038.080885465781,-88356.822510318612,-116736.6817302328,29580.874726092759,52135.050489501707,-9051.5386237839793,110008.30961206365,-127602.24214825363,-6183.3450423594259,6183.3450423594259,127602.24214825363,207999.08249448947,0.0
370012.02908761695,3932225.878295721,-12500.0,-82007.265242603782,-67768.520968979094,-57435.089649078276,27769.887473053528,33006.274081018048,-7777.6137827507919,80474.177654427753,-78257.483411491019,-29385.302252714406,29385.302252714406,78257.483411491019,153783.31697304975,0.0
375012.02908761695,3932225.878295721,-12500.0,-73459.409308509305,-44891.754111759466,-19662.288084585198,22505.58164713081,18408.454774640813,-5718.5686374921706,58069.070830111188,-39557.026355162794,-39552.996431842424,39552.996431842424,39557.026355162794,111447.81527018601,0.0
380012.02908761695,3932225.878295721,-12500.0,-60528.790704940489,-25210.815296982757,1547.3674747170053,16509.236336043276,8657.5294909306158,-3779.5803664445539,42728.593357243109,-13021.238949676113,-40453.127176188282,40453.127176188282,13021.238949676113,80625.232145515882,0.0
385012.02908761695,3932225.878295721,-12500.0,-46636.226121456355,-10606.773097581448,11769.054437406494,11189.050099763796,2737.6204672405142,-2276.4770352123883,32440.337042207349,3161.98313711628,-36138.495886255085,36138.495886255085,-3161.98313711628,59360.758719501981,0.0
390012.02908761695,3932225.878295721,-12500.0,-33906.725355558796,-880.03628378668986,15509.407534079721,7017.3692886644421,-556.12213646554449,-1227.1112993832501,25457.677365122094,11850.748848434943,-29702.609577363306,29702.609577363306,-11850.748848434943,45232.652320196197,0.0
395012.02908761695,3932225.878295721,-12500.0,-23289.293991057679,4995.8029610768199,15819.897109006635,3984.8991015778265,-2198.6927964281776,-545.24072309186647,20639.214646799748,15680.225263752478,-23028.628415310493,23028.628415310493,-15680.225263752478,35976.859454052894,0.0
400012.02908761695,3932225.878295721,-12500.0,-14962.837878169348,8153.4110763619856,14538.518632726164,1897.0300023981297,-2868.2571764933141,-128.75517955198541,17201.090219451435,16626.999259145578,-17048.149363800407,17048.149363800407,-16626.999259145578,29793.718901981636,0.0
405012.02908761695,3932225.878295721,-12500.0,-8711.8514610439324,9535.4877879291071,12676.439150176066,523.93418905340445,-2998.9370281005499,108.92719083492608,14632.612913599267,16011.257296515001,-12096.700613647818,12096.700613647818,-16011.257296515001,25439.825218188187,0.0
410012.02908761695,3932225.878295721,-12500.0,-4174.2605511885904,9830.6665683337451,10743.169985558612,-337.80530567768625,-2853.5701946778349,232.10904695654398,12622.778281410188,14648.219677164923,-8193.256423317207,8193.256423317207,-14648.219677164923,22156.51271814515,0.0
415012.02908761695,3932225.878295721,-12500.0,-974.66630913671872,9504.6046058256034,8967.2560980766975,-847.75172903453551,-2584.2002077553348,285.14756242412773,10989.654835595322,13010.183361199604,-5216.5486938090398,5216.5486938090398,-13010.183361199604,19521.957577205609,0.0
420012.02908761695,3932225.878295721,-12500.0,1217.2100448525666,8855.7262964604415,7430.1322047481381,-1123.0599882801496,-2274.7966639318047,297.17418208521917,9627.0420598697547,11353.446177291275,-3001.6665560727943,3001.6665560727943,-11353.446177291275,17313.074090564667,0.0
425012.02908761695,3932225.878295721,-12500.0,2669.0076210109219,8067.0104679856713,6141.6801510884861,-1246.25258659262,-1969.0659473320732,286.61816833331142,8470.6834717367637,9805.3261553864613,-1386.5967542657354,1386.5967542657354,-9805.3261553864613,15411.994184044144,0.0
430012.02908761695,3932225.878295721,-12500.0,3587.4793047208632,7245.7598569776328,5080.6029621143871,-1273.8129104951838,-1687.6900424784624,264.76303045889483,7479.0928176050311,8419.569492388553,-230.95163244184596,230.95163244184596,-8419.569492388553,13753.068265578473,0.0
435012.02908761695,3932225.878295721,-12500.0,4127.6104098820751,6451.4475954450518,4214.8666379112801,-1243.5624306682778,-1438.6457898185095,238.28886115597612,6623.316438369402,7209.9370019911603,579.29657859190365,-579.29657859190365,-7209.9370019911603,12295.762652213461,0.0
440012.02908761695,3932225.878295721,-12500.0,4403.290708174718,5714.2395021505272,3511.4011428474255,-1180.3556664424414,-1223.2227095324781,210.99167410616747,5881.6601220112243,6169.8643140075419,1133.3315972034989,-1133.3315972034989,-6169.8643140075419,11011.716922335199,0.0
445012.02908761695,3932225.878295721,-12500.0,4497.0601355031849,5046.8721717978615,2940.2126903723165,-1100.224300011143,-1039.4381518927835,184.90417475793009,5236.9630840242135,5283.5666739564713,1499.2875537636589,-1499.2875537636589,-5283.5666739564713,9878.7967743014233,1.0
250012.02908761695,3937225.878295721,-12500.0,12231.447108316608,-4150.1176403373674,1860.2954299581136,2294.0601006437319,-799.7098926014063,313.33344949896474,7114.833955700602,-4192.232685124739,9027.8741919254462,-9027.8741919254462,4192.232685124739,13977.654599520212,0.0
255012.02908761695,3937225.878295721,-12500.0,13614.904354347887,-4975.7804675382895,2276.3314110632914,2664.9584214746328,-995.55118581013221,378.87539319422785,8072.864974814519,-4859.6004430549492,10036.487507042273,-10036.487507042273,4859.6004430549492,15881.831431982018,0.0
260012.02908761695,3937225.878295721,-12500.0,15155.193664596116,-5988.0220231432204,2816.8458588107783,3102.6840986077364,-1245.7651154228627,459.61320846877447,9191.6621089197906,-5640.2649197715036,11148.126937921144,-11148.126937921144,5640.2649197715036,18110.237157697768,0.0
265012.02908761695,3937225.878295721,-12500.0,16854.352305988406,-7231.310367984921,3525.9095309634208,3618.0747733815215,-1566.7697037660057,558.97056708536388,10501.028404778319,-6548.6781502570993,12356.472654983027,-12356.472654983027,6548.6781502570993,20724.527397389989,0.0
270012.02908761695,3937225.878295721,-12500.0,18702.072068581107,-8759.3467998807009,4464.9039873761185,4221.9863429204388,-1979.9595920726408,680.81004003296141,12035.642336899515,-7596.1686141009141,13641.739173321095,-13641.739173321095,7596.1686141009141,23797.180476226149,0.0
275012.02908761695,3937225.878295721,-12500.0,20666.604389102813,-10635.072875959608,5719.6269035764089,4923.6177585973874,-2512.8952897185,829.1310963455187,13835.023360008083,-8785.8926719674964,14961.586060800571,-14961.586060800571,8785.8926719674964,27411.886196641572,0.0
280012.02908761695,3937225.878295721,-12500.0,22680.40493819135,-12928.380400811637,7410.1081471467442,5727.3412807651102,-3200.3390786777882,1007.3502558017102,15942.893826346981,-10103.663106632712,16236.883013463475,-16236.883013463475,10103.663106632712,31662.472588897468,0.0
285012.02908761695,3937225.878295721,-12500.0,24617.899994878724,-15708.892206513185,9703.7099130513361,6627.0548216286479,-4084.506711145345,1216.8213893914633,18407.00610642113,-11501.758402618396,17329.800609234437,-17329.800609234437,11501.758402618396,36648.962418728741,0.0
290012.02908761695,3937225.878295721,-12500.0,26261.900093441018,-19028.753530515209,12831.378942385159,7596.6114322284866,-5213.128860057398,1454.072229029741,21298.386866751556,-12871.023448220409,18010.93212493883,-18010.93212493883,12871.023448220409,42468.355289100356,0.0
295012.02908761695,3937225.878295721,-12500.0,27254.709680899559,-22885.986741258024,17104.61401297152,8574.4653838659633,-6632.4366162278675,1706.0834178739267,24741.715641094917,-13994.036066143693,17911.907950395078,-17911.907950395078,13994.036066143693,49196.269460877906,0.0
300012.02908761695,3937225.878295721,-12500.0,27031.340827665532,-27151.22862707101,22924.228374389691,9440.7975768922806,-8369.519892936878,1943.1350346311726,28752.382798324532,-14469.247515731631,16461.974699206643,-16461.974699206643,14469.247515731631,56853.72964398536,0.0
305012.02908761695,3937225.878295721,-12500.0,24739.385927268278,-31427.953431296595,30755.226630086956,9987.3773574977313,-10394.265229391251,2110.1339998247358,33313.332018121706,-13595.238463654208,12815.990497666815,-12815.990497666815,13595.238463654208,65352.287611345862,0.0
310012.02908761695,3937225.878295721,-12500.0,19173.915425445099,-34798.700921549171,41000.561968397778,9887.1805904253997,-12545.848926568427,2121.7524214661735,38368.192291807594,-10214.907071934547,5810.1215074743222,-5810.1215074743222,10214.907071934547,74415.610261127877,0.0
315012.02908761695,3937225.878295721,-12500.0,8824.9945577564613,-35400.047700263844,53608.387005636156,8687.3603734263688,-14407.259811703398,1876.5226895284254,43795.201068119641,-2573.0699487348893,-5936.1283983715102,5936.1283983715102,2573.0699487348893,83508.190443777698,0.0
320012.02908761695,3937225.878295721,-12500.0,-7680.6862080157007,-29838.992563462125,67039.827659191273,5880.5256107333953,-15129.851804527771,1317.8986970219971,49478.353058065673,11564.305080169568,-23437.811739775232,23437.811739775232,-11564.305080169568,91941.972230064595,0.0
325012.02908761695,3937225.878295721,-12500.0,-30069.656906830398,-12907.761283332344,75934.996674009119,1146.5217765045738,-13287.867071207305,560.09865818246135,55676.870327301862,33698.882656727001,-45496.436807904189,45496.436807904189,-33698.882656727001,99808.559519371716,0.0
330012.02908761695,3937225.878295721,-12500.0,-52925.775115360135,20333.32204894711,67276.574090405702,-5168.353465209947,-7025.6186899245204,-10.106828629216013,64010.560565633423,60318.870009612532,-64531.68151057262,64531.68151057262,-60318.870009612532,111160.38237676863,0.0
335012.02908761695,3937225.878295721,-12500.0,-62195.816058385622,65418.374036134846,19877.319058819601,-11530.522462892297,5086.316951194015,44.278091818061554,78023.493832590408,74429.103318646405,-62447.950110261678,62447.950110261678,-74429.103318646405,137174.16251130064,0.0
340012.02908761695,3937225.878295721,-12500.0,-44310.13121844938,94953.198512443661,-76099.587051398907,-15277.885612278291,22554.865671631083,545.57345911809557,98677.96432737849,45744.21230001247,-21764.702775471451,21764.702775471451,-45744.21230001247,183638.99142870426,0.0
345012.02908761695,3937225.878295721,-12500.0,-12986.802671596866,74988.773088073416,-182200.43667137864,-13572.426528916303,41831.085080139303,446.16115885131728,117766.43828197227,-32172.33097119203,39893.90802827687,-39893.90802827687,32172.33097119203,231859.52355721276,0.0
350012.02908761695,3937225.878295721,-12500.0,-1054.0141813588193,16033.256632531427,-234849.20373280963,-5391.1075301042974,56509.226177434088,-1251.4468461510826,130439.91127822806,-112124.89260882737,75630.809392784067,-75630.809392784067,112124.89260882737,255053.59600527419,0.0
355012.02908761695,3937225.878295721,-12500.0,-14208.356308235419,-38657.860250725163,-220554.60951735024,6250.1365446546779,60982.592267905777,-4101.6372798186148,127885.75933199095,-149405.47498433565,69986.588069462843,-69986.588069462843,149405.47498433565,246015.28075269179,0.0
360012.02908761695,3937225.878295721,-12500.0,-35308.469355766916,-67004.645210096933,-170711.06489337282,16235.163131166166,55144.658606323625,-6410.9403474961546,112554.16055811013,-144201.73359954939,42452.259068608706,-42452.259068608706,144201.73359954939,215555.42121865336,0.0
365012.02908761695,3937225.878295721,-12500.0,-51551.650709217982,-71759.729406112849,-115035.83163027954,21502.750034379736,43393.933178512685,-7118.8359170026915,92154.455798224139,-116364.03345370773,12709.27779460817,-12709.27779460817,116364.03345370773,176945.97619392385,0.0
370012.02908761695,3937225.878295721,-12500.0,-59079.511126801655,-62541.665316765662,-68054.822008829477,22073.978426524067,30520.993628107099,-6438.6920455711324,71916.34112780256,-82355.259096440044,-10033.548748849491,10033.548748849491,82355.259096440044,138977.81903583868,0.0
375012.02908761695,3937225.878295721,-12500.0,-58718.226968817871,-47625.396547948483,-33950.542400492333,19582.353992311211,19437.728634988682,-5095.691074474651,54593.744898445875,-51381.48094632291,-23635.40633573119,23635.40633573119,51381.48094632291,106061.89389211553,0.0
380012.02908761695,3937225.878295721,-12500.0,-52998.254985581494,-32337.520864222137,-11822.10565835005,15769.541857369049,11138.961837027373,-3672.0089416526794,41303.947195184737,-27193.357399870907,-29374.108374208558,29374.108374208558,27193.357399870907,79705.07813103449,0.0
385012.02908761695,3937225.878295721,-12500.0,-44575.34341070662,-19349.041132432078,1113.6491070540128,11830.209371872683,5489.0877587738241,-2457.5667013524912,31622.044684242275,-10244.051507430406,-29683.833645227722,29683.833645227722,10244.051507430406,59753.496635258518,0.0
390012.02908761695,3937225.878295721,-12500.0,-35486.016703139736,-9499.9185476939783,7799.2524360223942,8374.4028580664744,1920.8228185067971,-1534.4318802091968,24610.890990231968,586.75898839460751,-26900.255160022723,26900.255160022723,-586.75898839460751,45265.075472189776,0.0
395012.02908761695,3937225.878295721,-12500.0,-26980.127893312801,-2630.6602593993057,10611.533235405783,5609.8847540476354,-176.76945003460176,-882.469416051341,19562.544035896331,6870.1930463573981,-22758.53802595667,22758.53802595667,-6870.1930463573981,35049.01873176451,0.0
400012.02908761695,3937225.878295721,-12500.0,-19657.647067850303,1821.0972409862127,11216.736150707189,3527.226013071861,-1306.233205045776,-446.40515951084217,15921.483221614497,10057.30982770944,-18346.857659513516,18346.857659513516,-10057.30982770944,27956.32309671188,0.0
405012.02908761695,3937225.878295721,-12500.0,-13689.230512245551,4484.4000008906542,10678.787476556347,2025.0645766966525,-1832.4134844567398,-168.20395602398776,13256.824525615473,11277.962571396041,-14248.859926230271,14248.859926230271,-11277.962571396041,23018.324194974357,0.0
410012.02908761695,3937225.878295721,-12500.0,-9007.9908128809511,5906.3538348355087,9629.9784083847226,979.16948192523625,-2001.3754598340784,0.74554694124052023,11255.356415052041,11329.958070115215,-10716.714904401077,10716.714904401077,-11329.958070115215,19498.065370191845,0.0
415012.02908761695,3937225.878295721,-12500.0,-5440.8788842774438,6509.4819449850302,8422.1450779565184,274.40295734908136,-1970.8924463216997,97.087178986370191,9703.2073329594296,10740.607042841424,-7810.8039739500346,7810.8039739500346,-10740.607042841424,16884.275314280985,0.0
420012.02908761695,3937225.878295721,-12500.0,-2785.7636926089408,6597.8828186709516,7236.750978974479,-183.95246382076584,-1838.1586833685476,146.79018753445939,8460.7467862748053,9840.9471479054755,-5493.9078619463962,5493.9078619463962,-9840.9471479054755,14849.016093412045,0.0
425012.02908761695,3937225.878295721,-12500.0,-850.63500292016079,6380.198780698408,6157.1679553615431,-468.86370937619279,-1660.8556055085053,167.5169493348611,7438.8139419021636,8829.1767727740935,-3687.7928032304139,3687.7928032304139,-8829.1767727740935,13193.428684069322,0.0
430012.02908761695,3937225.878295721,-12500.0,530.05582638187457,5994.426919167051,5213.1391556741282,-634.28802409326181,-1471.8098623081987,170.91961031722423,6580.4053159599862,7817.798702648488,-2304.076581182167,2304.076581182167,-7817.798702648488,11800.305593067193,0.0
435012.02908761695,3937225.878295721,-12500.0,1491.4108133082684,5528.9337571580727,4406.8489284587313,-719.04269672277269,-1288.6658260336942,164.49442477410597,5848.2439495232238,6866.0651654438889,-1259.2912201349873,1259.2912201349873,-6866.0651654438889,10600.443416480346,0.0
440012.02908761695,3937225.878295721,-12500.0,2139.9639209837887,5038.4286723415144,3727.6107276571151,-750.50381593508394,-1120.0482536584068,152.95113703120404,5216.9926488778292,6001.2572100933903,-481.03093164876509,481.03093164876509,-6001.2572100933903,9551.6542730136916,0.0
250012.02908761695,3942225.878295721,-12500.0,11028.109249429413,-4572.9913596194001,2326.083695570991,2095.5404949130339,-891.02118456747507,290.21491194589089,6745.5440371105569,-4135.6019829610823,8049.4229207592098,-8049.4229207592098,4135.6019829610823,13261.921757442189,0.0
255012.02908761695,3942225.878295721,-12500.0,12116.702151896021,-5410.2047672498302,2838.5905870617157,2408.6592394533973,-1096.1423257769686,347.96976013172343,7603.7120153583464,-4720.5564277379926,8809.9960217967182,-8809.9960217967182,4720.5564277379926,14973.818920776901,0.0
260012.02908761695,3942225.878295721,-12500.0,13283.593432723346,-6415.001930798634,3495.1749259856224,2770.2315458762555,-1353.9315559050556,418.10146897858658,8592.5662045677,-5381.4139935056264,9606.1613284184768,-9606.1613284184768,5381.4139935056264,16952.282750119597,0.0
265012.02908761695,3942225.878295721,-12500.0,14509.347916797731,-7618.9443073751563,4342.1271825892436,3184.9489341159524,-1678.535374550755,502.9861482275744,9731.9344232207477,-6117.5464222564788,10413.021152688378,-10413.021152688378,6117.5464222564788,19239.902673668541,0.0
270012.02908761695,3942225.878295721,-12500.0,15757.09101440114,-9055.8905811673903,5441.4307529886219,3655.5362042919705,-2087.5113711516319,605.08133432109867,11043.052242286692,-6919.4904127720129,11187.926134263862,-11187.926134263862,6919.4904127720129,21883.387957255258,0.0
275012.02908761695,3942225.878295721,-12500.0,16963.243180354602,-10758.574298647691,6875.6910692345291,4180.615901869076,-2602.082320255487,726.55871424711518,12547.593796269082,-7762.1360473782879,11861.461248532942,-11861.461248532942,7762.1360473782879,24931.629256076198,0.0
280012.02908761695,3942225.878295721,-12500.0,18024.267486836598,-12751.42494121434,8753.8172179047669,4751.2028228120644,-3246.7471882396799,868.58297192703162,14268.263168940812,-8593.7803124193433,12324.657901268552,-12324.657901268552,8593.7803124193433,28431.676701114233,0.0
285012.02908761695,3942225.878295721,-12500.0,18778.378255878575,-15036.714770686214,11216.469483684205,5345.177980603331,-4047.4493694150751,1030.0153200737232,16261.248214298401,-9318.9579011376845,12411.537166701688,-12411.537166701688,9318.9579011376845,32421.320843166221,0.0
290012.02908761695,3942225.878295721,-12500.0,18981.783586586691,-17569.212246812309,14438.461273065972,5919.0020496761936,-5026.8095928934981,1205.2574034117372,18594.16715480588,-9772.4157797329499,11876.870882122035,-11876.870882122035,9772.4157797329499,36916.446598815346,0.0
295012.02908761695,3942225.878295721,-12500.0,18281.135534505862,-20211.804018286704,18621.366252750086,6396.1461644161263,-6193.8214431616971,1380.9979435008843,21234.186266187415,-9681.6965163805362,10371.502498715108,-10371.502498715108,9681.6965163805362,41890.974540913659,0.0
300012.02908761695,3942225.878295721,-12500.0,16189.574958811205,-22661.440583634685,23961.239719197092,6652.8230872351778,-7523.8393144953116,1532.0081798997353,24154.362520548686,-8618.4215088767833,7424.1078425794794,-7424.1078425794794,8618.4215088767833,47248.111490225085,0.0
305012.02908761695,3942225.878295721,-12500.0,12086.859794212669,-24333.569499376052,30559.882593307186,6504.6165362627999,-8923.0994455701675,1617.345039145456,27300.314228164083,-5947.9796472140533,2453.2805614320096,-2453.2805614320096,5947.9796472140533,52786.645366505574,0.0
310012.02908761695,3942225.878295721,-12500.0,5291.7658092360916,-24202.416383894953,38218.108975922027,5704.1824838293351,-10172.246950862862,1581.0043026837081,30582.614671440599,-814.92075883237294,-5134.3238975789573,5134.3238975789573,814.92075883237294,58184.219733842969,0.0
315012.02908761695,3942225.878295721,-12500.0,-4694.6683928273596,-20638.689070025142,46005.773958788319,3971.4391830621125,-10850.429247897857,1365.0769645906512,33916.0154040911,7731.0702884925267,-15645.619760791269,15645.619760791269,-7731.0702884925267,63074.578793835215,0.0
320012.02908761695,3942225.878295721,-12500.0,-17612.362384886903,-11425.867918298756,51482.028582184503,1090.3006473754886,-10265.471835896948,944.67265978476166,37373.697520146932,20225.795840068575,-28412.881056589657,28412.881056589657,-20225.795840068575,67435.663812247818,0.0
325012.02908761695,3942225.878295721,-12500.0,-31403.526463675706,5535.3783985366517,49621.947161243173,-2897.0643448490541,-7467.3066921898635,378.96382048055523,41555.579223311288,35479.812278581958,-40562.51607438481,40562.51607438481,-35479.812278581958,72694.187743979754,0.0
330012.02908761695,3942225.878295721,-12500.0,-41145.777596477055,29917.821801136175,32411.665163494152,-7426.1743233708512,-1485.2503779824613,-173.91003694425285,47989.841025079724,48263.574577829604,-45741.033138473074,45741.033138473074,-48263.574577829604,83264.01262968099,0.0
335012.02908761695,3942225.878295721,-12500.0,-40094.715298899588,54934.921199339406,-7897.6223717108041,-11248.914410464204,8097.7750671915746,-571.98643321765201,58403.3577937667,47771.609000611315,-35347.932803473792,35347.932803473792,-47771.609000611315,104671.17428795295,0.0
340012.02908761695,3942225.878295721,-12500.0,-25851.61766848321,66182.314519178763,-69028.348124315817,-12670.408445937248,20397.1092487346,-916.62574260020847,72065.047145138815,22679.618640673631,-6143.8063427382913,6143.8063427382913,-22679.618640673631,135766.8424672361,0.0
345012.02908761695,3942225.878295721,-12500.0,-7254.5555817060422,51818.419443409439,-130617.34018837482,-10332.432292777912,32871.876679137626,-1589.6275085830453,84559.187286117522,-25005.990092841799,30430.642803703224,-30430.642803703224,25005.990092841799,166032.26619847454,0.0
350012.02908761695,3942225.878295721,-12500.0,1679.0704813198167,17117.394527618253,-166204.72828637884,-4264.6046982739144,42024.540299368382,-2848.1251719558704,92722.443504252165,-74809.438353377147,54435.213790907685,-54435.213790907685,74809.438353377147,183513.44553786601,0.0
355012.02908761695,3942225.878295721,-12500.0,-3730.1401087344193,-19637.113140734113,-166205.82709129699,3678.7914387927058,45234.556861147779,-4382.5471793008264,93928.068705864862,-105444.37102406641,56360.130471074255,-56360.130471074255,105444.37102406641,183381.347929904,0.0
360012.02908761695,3942225.878295721,-12500.0,-17329.242997641253,-44477.508422085382,-140622.25367506509,10835.029220530134,42331.237753900976,-5512.6522526503813,86878.479053482894,-111166.99050809024,41830.072222042538,-41830.072222042538,111166.99050809024,168702.22955818326,0.0
365012.02908761695,3942225.878295721,-12500.0,-31096.972136561657,-54325.175156743389,-104897.73050674338,15351.019545060264,35307.121922844774,-5804.8937184168572,75072.033854881432,-98648.327139273839,21373.012355364837,-21373.012355364837,98648.327139273839,145784.87466405975,0.0
370012.02908761695,3942225.878295721,-12500.0,-40412.081397782931,-52647.378590855609,-70196.61984451559,16851.111683099811,26763.944850297627,-5320.667828823126,61744.011148686572,-77413.693367617627,2651.9467181743385,-2651.9467181743385,77413.693367617627,120331.84589929818,0.0
375012.02908761695,3942225.878295721,-12500.0,-44133.91218164473,-44459.768514680087,-41906.756884084207,16009.514466380942,18675.285240266283,-4394.4864588918444,49106.201866661286,-54776.108200960531,-10888.221668913979,10888.221668913979,54776.108200960531,96129.609646943383,0.0
380012.02908761695,3942225.878295721,-12500.0,-43133.680937175421,-33904.753492584154,-21350.120305990749,13825.213908222073,12038.861526116658,-3355.3867358291473,38443.834069274992,-34869.934494297442,-18770.200396107615,18770.200396107615,34869.934494297442,75147.404661367094,0.0
385012.02908761695,3942225.878295721,-12500.0,-39007.752254066574,-23614.864703036164,-7714.6932938886357,11148.777865284452,7092.4338319096696,-2408.3262538648214,30084.319327408444,-19303.46078266824,-22004.987420358862,22004.987420358862,19303.46078266824,58053.808043684461,0.0
390012.02908761695,3942225.878295721,-12500.0,-33301.879394041513,-14889.863560520105,585.64346210571659,8529.0052753453365,3660.4138866001381,-1639.1531805319546,23660.704489577369,-8137.5882990928667,-22042.410726746592,22042.410726746592,8137.5882990928667,44737.823721391418,0.0
395012.02908761695,3942225.878295721,-12500.0,-27178.718184721507,-8126.3411946146271,5157.3816743250336,6243.364118612516,1417.9271763905488,-1058.9631034303029,18791.778019871883,-699.81505951254439,-20206.03384794034,20206.03384794034,699.81505951254439,34703.552463942971,0.0
400012.02908761695,3942225.878295721,-12500.0,-21367.087832304867,-3223.5822264964872,7312.1602158183177,4385.5408133946676,36.341752284534195,-643.63996780773812,15144.251370908014,3893.2231959411183,-17484.407131627533,17484.407131627533,-3893.2231959411183,27322.243177303833,0.0
405012.02908761695,3942225.878295721,-12500.0,-16242.04724817199,130.41583403701088,8001.968577734141,2946.5297768045102,-757.1481340872167,-358.2492362659562,12422.279851741923,6466.8721662188218,-14521.352059309746,14521.352059309746,-6466.8721662188218,21972.647774235505,0.0
410012.02908761695,3942225.878295721,-12500.0,-11937.470418937835,2293.1709865819907,7865.790968006092,1870.7833534294969,-1166.9225144524794,-169.05870147158524,10379.355171469837,7686.3619845074736,-11686.9305785878,11686.9305785878,-7686.3619845074736,18110.004351545107,0.0
415012.02908761695,3942225.878295721,-12500.0,-8444.4714460688119,3588.3983346368182,7307.747022469046,1089.0595523819977,-1336.6177950175863,-48.112071982658918,8823.3864327265801,8043.6675163194104,-9162.6856861122706,9162.6856861122706,-8043.6675163194104,15294.3633917283,0.0
420012.02908761695,3942225.878295721,-12500.0,-5681.9519272735606,4278.0986450653099,6570.4334806550396,534.9778556771663,-1362.7636854888417,25.950567788396604,7612.9016466054782,7882.1154314654759,-7013.2462064807187,7013.2462064807187,-7882.1154314654759,13194.773222513719,0.0
425012.02908761695,3942225.878295721,-12500.0,-3541.0352132371918,4560.672589092248,5791.7515374373188,151.81017503754714,-1308.0060955628537,68.647320562373352,6648.1226741593655,7430.99089315131,-5237.5350572083635,5237.5350572083635,-7430.99089315131,11577.707088336327,0.0
430012.02908761695,3942225.878295721,-12500.0,-1910.1368364802211,4579.8085787799646,5044.7674494236362,-105.90913879468258,-1211.7644995031012,90.871909621319787,5860.6698047749396,6837.7435269441494,-3801.887679992863,3801.887679992863,-6837.7435269441494,10286.91474749716,0.0
435012.02908761695,3942225.878295721,-12500.0,-687.3560806907625,4436.2052807091004,4363.9737091886791,-273.18592375872618,-1098.0693475799962,100.08106191033337,5204.2915358925948,6193.6820879899014,-2659.8078189692105,2659.8078189692105,-6193.6820879899014,9221.6754228540722,0.0
255012.02908761695,3947225.878295721,-12500.0,10544.627554052517,-5605.1271800356581,3349.3202967705515,2135.847530211774,-1153.941407031223,314.5645015951643,7076.0207657398187,-4396.7026931224937,7509.9972614252947,-7509.9972614252947,4396.7026931224937,13955.315048496439,0.0
260012.02908761695,3947225.878295721,-12500.0,11358.64961862358,-6543.9388398512674,4090.2172285918959,2422.704470198355,-1406.6892713511686,373.95836712894675,7929.630216735085,-4908.0880215460193,8007.547417540246,-8007.547417540246,4908.0880215460193,15673.745155500203,0.0
265012.02908761695,3947225.878295721,-12500.0,12150.674393001844,-7636.8265855808186,5028.0237004593037,2741.1008237202332,-1718.5853663276334,444.49439630302868,8895.6398774638783,-5441.9445116420593,8447.0052256075269,-8447.0052256075269,5441.9445116420593,17628.177472408785,0.0
270012.02908761695,3947225.878295721,-12500.0,12868.413036332233,-8896.6322490723087,6218.4829001015032,3087.7447385378323,-2102.5116313116682,527.46645716722071,9984.1852645505969,-5972.2170101306565,8773.1937832906824,-8773.1937832906824,5972.2170101306565,19843.600102712157,0.0
275012.02908761695,3947225.878295721,-12500.0,13433.368011498927,-10326.569898185684,7731.4524188572686,3454.0829664038652,-2572.6204499670926,623.61646126999517,11205.213405440752,-6453.5479696537132,8905.4017676969233,-8905.4017676969233,6453.5479696537132,22341.056086129895,0.0
280012.02908761695,3947225.878295721,-12500.0,13731.25785476461,-11910.508826626612,9651.8587730002109,3823.1394595700767,-3142.9187630104207,732.48306050807685,12606.566872443005,-6811.2144390414278,8728.4983338142792,-8728.4983338142792,6811.2144390414278,25132.570812044134,0.0
285012.02908761695,3947225.878295721,-12500.0,13600.891307084392,-13596.907208910339,12077.495461089851,4165.0399218695475,-3824.1871295123037,851.34915268555994,14221.896816318318,-6927.1591272330834,8082.9793590487816,-8082.9793590487816,6927.1591272330834,28213.33925103657,0.0
290012.02908761695,3947225.878295721,-12500.0,12823.446244849643,-15273.297600859547,15109.543480987704,4431.107937303881,-4618.0004234224616,973.66932912124082,16011.395426013247,-6621.9642205907166,6756.289686174603,-6756.289686174603,6621.9642205907166,31550.530755964697,0.0
295012.02908761695,3947225.878295721,-12500.0,11117.230691596193,-16727.82292210899,18827.945591617507,4546.9778563918389,-5506.0262953269184,1086.969614524925,17952.479571416865,-5634.7105989965548,4481.2624518345438,-4481.2624518345438,5634.7105989965548,35069.016578684532,0.0
300012.02908761695,3947225.878295721,-12500.0,8149.0125578988473,-17595.755309794509,23237.483478862727,4406.5097682170899,-6432.2812401978208,1170.5644680642943,20006.762871151615,-3608.0655195452782,954.27287241155227,-954.27287241155227,3608.0655195452782,38637.563706707464,0.0
305012.02908761695,3947225.878295721,-12500.0,3583.3127297638207,-17295.723291413509,28161.276297258006,3870.94616624421,-7276.3338815856996,1194.2244549506536,22118.918418095418,-97.987771754889081,-4102.597928687459,4102.597928687459,97.987771754889081,42068.002923148808,0.0
310012.02908761695,3947225.878295721,-12500.0,-2794.612229231675,-14980.199570163784,33049.513209376717,2782.0229960676011,-7818.2387663184163,1120.2080114555702,24238.409692006946,5349.0663142578451,-10794.517715139551,10794.517715139551,-5349.0663142578451,45162.113588250453,0.0
315012.02908761695,3947225.878295721,-12500.0,-10836.104287031816,-9570.8763007670168,36677.163687861961,1002.5790218705308,-7704.248813416144,912.16746062744483,26389.311542519776,12971.359754415227,-18768.487199416038,18768.487199416038,-12971.359754415227,47887.582960915999,0.0
320012.02908761695,3947225.878295721,-12500.0,-19647.460039191235,-32.956277802653474,36770.194841827994,-1501.3548530356554,-6439.3109952042414,552.79375717545759,28822.51722406628,22307.703076151065,-26764.972910333196,26764.972910333196,-22307.703076151065,50818.409305396606,0.0
325012.02908761695,3947225.878295721,-12500.0,-27196.695637301102,13875.255287133921,29819.33726918836,-4538.3087370627436,-3455.5026869237358,63.293472130077376,32211.381180200224,31409.572811546481,-32150.663889967567,32150.663889967567,-31409.572811546481,55810.903427846846,0.0
330012.02908761695,3947225.878295721,-12500.0,-30401.468847381915,30279.948262776197,11778.37303275251,-7574.6128059385373,1686.371877440479,-497.77701106867835,37573.673443696927,36105.839176726557,-31012.482341931023,31012.482341931023,-36105.839176726557,65903.857864182035,0.0
335012.02908761695,3947225.878295721,-12500.0,-26553.565733697444,44034.045510858748,-19403.838093190396,-9732.6040678359404,8959.5665033728819,-1080.0881854525242,45453.900749598179,30566.354993683137,-19871.580417496607,19871.580417496607,-30566.354993683137,82824.344072101463,0.0
340012.02908761695,3947225.878295721,-12500.0,-16144.180861479612,47870.222252828571,-59863.396366497058,-10028.961686774564,17543.740553744417,-1705.9381511586066,54851.925036965018,10752.508752478363,753.76630193981418,-753.76630193981418,-10752.508752478363,104167.29118347967,0.0
345012.02908761695,3947225.878295721,-12500.0,-4393.9034315923909,37271.902634410733,-98557.655128706712,-7852.9622943338854,25801.056203588734,-2457.403567822374,63305.023297888576,-20571.804917716188,24046.66345604325,-24046.66345604325,20571.804917716188,124107.15124338977,0.0
350012.02908761695,3947225.878295721,-12500.0,1917.1327784951284,15176.57396520674,-122879.36070532758,-3436.362509483436,31787.110549515273,-3342.1915607463607,68652.57823154502,-53268.162537214645,40357.208940272198,-40357.208940272198,53268.162537214645,136759.46836635098,0.0
355012.02908761695,3947225.878295721,-12500.0,-176.755938139964,-9694.8186232670796,-126993.75719482267,2092.7179213808636,34134.03043505727,-4184.633421522658,70634.049245143251,-76404.950853979099,44183.378481865082,-44183.378481865082,76404.950853979099,139215.12459623878,0.0
360012.02908761695,3947225.878295721,-12500.0,-8478.8603511677375,-29215.801128906718,-114029.02382511392,7239.7838767213725,32690.721248537604,-4714.3680635339251,67453.287819959805,-85023.555697044518,36889.133945683148,-36889.133945683148,85023.555697044518,132198.08422863678,0.0
365012.02908761695,3947225.878295721,-12500.0,-18611.712237463358,-39834.801299612569,-91629.607676975837,10871.787492037854,28423.807083488489,-4767.7313274457865,60610.442624433163,-80758.468779392919,23667.159997383762,-23667.159997383762,80758.468779392919,118629.2000871616,0.0
370012.02908761695,3947225.878295721,-12500.0,-27035.836680843051,-42128.96162481932,-67015.445409880514,12592.107749780542,22767.311450390647,-4379.1027333484044,51945.475635162038,-68426.200781503023,9613.808889298416,-9613.808889298416,68426.200781503023,101846.88131274922,0.0
375012.02908761695,3947225.878295721,-12500.0,-32079.393066652374,-38628.43991154954,-44819.715818573204,12634.569375232562,16985.500730175019,-3713.1259198602834,42978.968188721119,-52883.207603070128,-2090.9396182060736,2090.9396182060736,52883.207603070128,84553.203247666665,0.0
380012.02908761695,3947225.878295721,-12500.0,-33614.555441480356,-32079.982071567221,-27099.263959251384,11534.371809322234,11875.231535270994,-2951.7812404240854,34778.907551215503,-37592.220881241476,-10222.028717038291,10222.028717038291,37592.220881241476,68501.402566092642,0.0
385012.02908761695,3947225.878295721,-12500.0,-32358.223579457965,-24614.028681141051,-14154.413054140579,9842.7193036694516,7774.6813448959847,-2227.0291969144623,27914.310744717481,-24439.960373554262,-14858.955686826193,14858.955686826193,24439.960373554262,54592.038272843034,0.0
390012.02908761695,3947225.878295721,-12500.0,-29287.622536510818,-17557.237380804392,-5371.9037723739202,7981.9999076531858,4708.6008382668506,-1607.974756730885,22363.1715708706,-14103.685682327683,-16707.279467693887,16707.279467693887,14103.685682327683,43111.081172986575,0.0
395012.02908761695,3947225.878295721,-12500.0,-25295.90203228925,-11560.572829337167,178.63068120109807,6215.7708106287555,2540.6513681364499,-1115.8249936852289,17950.988110962979,-6524.6315214376827,-16626.583363700549,16626.583363700549,6524.6315214376827,33968.580480940618,0.0
400012.02908761695,3947225.878295721,-12500.0,-21052.078135379277,-6818.9552830161856,3411.2521514060272,4676.2990032153048,1080.7273079505778,-744.01144373008378,14504.386945430637,-1292.4224412211242,-15380.884811614929,15380.884811614929,1292.4224412211242,26882.537893754252,0.0
405012.02908761695,3947225.878295721,-12500.0,-16986.704840018701,-3270.1890824060647,5081.3734716697218,3407.350775816607,144.06148614039807,-473.72651757089659,11845.61662109453,2106.8740264595044,-13548.275692570511,13548.275692570511,-2106.8740264595044,21499.851711982967,0.0
410012.02908761695,3947225.878295721,-12500.0,-13334.971658402748,-736.21503411428921,5754.4154767090849,2401.7863573675322,-423.85499024398104,-283.28730943731961,9806.5692943695012,4158.9105604232673,-11519.075197875893,11519.075197875893,-4158.9105604232673,17466.345932777789,0.0
415012.02908761695,3947225.878295721,-12500.0,-10194.325725189015,991.77085183122836,5826.2096624243268,1628.0787136694139,-741.70849993144429,-152.76700422901803,8240.8025022798865,5266.7946342289288,-9531.0291349224426,9531.0291349224426,-5266.7946342289288,14462.795458495231,0.0
420012.02908761695,3947225.878295721,-12500.0,-7575.9058907753379,2109.5457095982711,5560.1863699849891,1046.5515161549501,-895.77427242037584,-65.728279622419933,7028.6674653616374,5740.3293651021531,-7712.2994856050909,7712.2994856050909,-5740.3293651021531,12220.838588714421,0.0
425012.02908761695,3947225.878295721,-12500.0,-5443.0249237107655,2781.9726568181354,5124.2815183040639,618.13081855070925,-946.34615810338983,-9.4439771692981829,6077.2140347770437,5805.524231126853,-6119.0756869419374,6119.0756869419374,-5805.524231126853,10527.323414416354,0.0
430012.02908761695,3947225.878295721,-12500.0,-3736.9171632686475,3139.289798113301,4621.1574087365207,308.35358691875814,-934.29042961488494,25.541796527741013,5317.0520654360935,5620.9712806460793,-4763.9263248540046,4763.9263248540046,-5620.9712806460793,9221.4943663804297,0.0
435012.02908761695,3947225.878295721,-12500.0,-2392.4285481066199,3280.0991538156504,4110.6196220041547,88.659678545053467,-886.58919745545609,46.055198352906729,4697.8882003794224,5294.4515426274202,-3635.2653917815996,3635.2653917815996,-5294.4515426274202,8187.6196435099318,0.0
255012.02908761695,3952225.878295721,-12500.0,8979.9467657014775,-5587.6034905122078,3775.8702840073738,1860.1168030075128,-1172.6012741532738,280.2525324308026,6513.2874375404817,-3939.4191755084921,6211.3560364843088,-6211.3560364843088,3939.4191755084921,12870.984450729255,0.0
260012.02908761695,3952225.878295721,-12500.0,9481.4564043033497,-6418.04939168896,4563.828052839247,2077.7615404407761,-1410.3118456543266,329.33282189881453,7233.440958785749,-4290.9687888052013,6446.0531891983319,-6446.0531891983319,4290.9687888052013,14332.828883756807,0.0
265012.02908761695,3952225.878295721,-12500.0,9902.714110423125,-7352.3198087022292,5540.7255409837053,2309.3171603853898,-1697.3154131221067,386.37931196639119,8032.0291212074335,-4618.6696575035139,6574.6066470871838,-6574.6066470871838,4618.6696575035139,15965.234869782977,0.0
270012.02908761695,3952225.878295721,-12500.0,10186.280066038275,-8384.6542464606191,6751.1106037120362,2547.6649993051988,-2041.7661593195016,451.79811157070139,8912.2172130212457,-4885.978307954465,6538.9096048126576,-6538.9096048126576,4885.978307954465,17776.569733988385,0.0
275012.02908761695,3952225.878295721,-12500.0,10252.932413619686,-9494.3205888886841,8246.1567771339996,2780.3134581355184,-2451.1565436578317,525.31501025434454,9914.9283418299347,-5037.13084474276,6260.2633910203785,-6260.2633910203785,5037.13084474276,19768.000594651101,0.0
280012.02908761695,3952225.878295721,-12500.0,9996.5992144005304,-10635.758172187281,10080.571591684313,2986.9578763852182,-2930.3610943003077,605.43116405659146,11057.553113190414,-4989.7426356797296,5635.147070159197,-5635.147070159197,4989.7426356797296,21928.851853282667,0.0
285012.02908761695,3952225.878295721,-12500.0,9280.5378755741149,-11724.082227043502,12304.759710636083,3136.4180076830257,-3478.1432385821877,688.62185755719213,12302.548257679951,-4626.1836611517283,4532.7758928815601,-4532.7758928815601,4626.1836611517283,24230.495366696472,0.0
290012.02908761695,3952225.878295721,-12500.0,7937.7422915436455,-12614.938373150562,14948.260731565633,3183.2421365199334,-4081.3040290323779,768.25386240153591,13633.428038191925,-3785.4099150871853,2797.8217576676743,-2797.8217576676743,3785.4099150871853,26619.372526000901,0.0
295012.02908761695,3952225.878295721,-12500.0,5781.1754580519337,-13078.950483878845,17988.096265112737,3064.8683255551864,-4705.4983450543314,833.30644166240745,15024.93142268532,-2259.6291816672601,264.59101041868109,-264.59101041868109,2259.6291816672601,29011.563272325464,0.0
300012.02908761695,3952225.878295721,-12500.0,2633.2794609227885,-12774.68820820966,21292.864431454898,2701.3404719355235,-5281.949505509936,867.23485455408911,16443.77051277486,194.67667436773081,-3206.6997225111386,3206.6997225111386,-194.67667436773081,31295.676273913788,0.0
305012.02908761695,3952225.878295721,-12500.0,-1611.4721528783691,-11232.564886840704,24531.952136024531,2001.2747704019926,-5690.4381092178328,847.74460951120261,17860.846950581923,3813.2897434596616,-7655.9318413106721,7655.9318413106721,-3813.2897434596616,33360.217849291737,0.0
310012.02908761695,3952225.878295721,-12500.0,-6876.1467976572576,-7878.4868247779623,27044.509214463123,879.70169176707816,-5742.0228871721129,748.75233908866483,19285.054797669294,8719.049373408332,-12894.211396021019,12894.211396021019,-8719.049373408332,35178.888271916665,0.0
315012.02908761695,3952225.878295721,-12500.0,-12740.462301772643,-2151.1361007223422,27687.403147321733,-705.95607638187073,-5171.0195182653515,545.89152797060456,20831.935144105439,14719.183067022308,-18316.330626800205,18316.330626800205,-14719.183067022308,37005.353504769693,0.0
320012.02908761695,3952225.878295721,-12500.0,-18272.542178289554,6212.2528403270635,24746.295424366064,-2699.6935013663401,-3654.4797196823774,225.47197822339629,22817.964874434867,20992.604097187505,-22702.895299723779,22702.895299723779,-20992.604097187505,39683.004001369147,0.0
325012.02908761695,3952225.878295721,-12500.0,-21995.555544524294,16679.368337129952,16111.517747524982,-4882.2890122046683,-883.69510460510651,-207.06307408274725,25784.016181485473,25758.437272527743,-24177.661690511406,24177.661690511406,-25758.437272527743,44777.770523022657,0.0
330012.02908761695,3952225.878295721,-12500.0,-22248.21888009095,27359.655845381723,21.19722478873577,-6834.4875153547391,3297.1859284508469,-727.39167522595233,30254.004565065232,26244.419376864334,-20633.785659241137,20633.785659241137,-26244.419376864334,53835.062079965195,0.0
335012.02908761695,3952225.878295721,-12500.0,-18128.860515241944,34901.469399946851,-23509.192165361073,-7985.3349310856547,8711.8251097790198,-1306.243492303975,36230.855912402338,19490.858541006899,-10889.565979416895,10889.565979416895,-19490.858541006899,66901.283858483046,0.0
340012.02908761695,3952225.878295721,-12500.0,-10645.720677108076,35593.039706507014,-51250.027400532745,-7786.7478802344122,14726.38347159677,-1925.0917496042832,42879.970325035407,4206.9477590168972,3815.1956216063454,-3815.1956216063454,-4206.9477590168972,81926.473437651453,0.0
345012.02908761695,3952225.878295721,-12500.0,-2897.1834897408271,27617.98684165025,-76930.246544174966,-5975.3961391067278,20311.812553478347,-2567.6516022740666,48775.740526876543,-17382.927087099502,19392.870249422769,-19392.870249422769,17382.927087099502,95595.41896831317,0.0
350012.02908761695,3952225.878295721,-12500.0,1537.8653329314745,12740.142137686393,-93935.841113465256,-2776.1009216612242,24354.736773181237,-3184.41878324749,52596.590302073135,-39764.507031172092,30726.687399486676,-30726.687399486676,39764.507031172092,104767.30456751306,0.0
355012.02908761695,3952225.878295721,-12500.0,852.94413278584398,-4469.6478257594099,-98761.547385574522,1121.8327100295869,26092.414640559167,-3674.8686028584289,54332.509984057462,-56933.360350879055,34596.154502973572,-34596.154502973572,56933.360350879055,107697.09063642536,0.0
360012.02908761695,3952225.878295721,-12500.0,-4183.0530466183263,-19271.785462632746,-92282.415527381178,4842.6250078166986,25404.860615487236,-3926.9458358129027,52971.294918846819,-65422.996399263619,31104.79683627743,-31104.79683627743,65422.996399263619,104426.55393504162,0.0
365012.02908761695,3952225.878295721,-12500.0,-11255.430123842743,-28877.143800255824,-78291.450914312256,7679.9972849047308,22781.068488280071,-3883.9277228738833,48960.395163579873,-65190.840640272771,22772.620287298327,-22772.620287298327,65190.840640272771,96321.700258818179,0.0
370012.02908761695,3952225.878295721,-12500.0,-18015.507388877657,-32823.45355424747,-61169.512423144872,9307.7753871124987,19027.082074375881,-3574.6902510985788,43320.784709181811,-58495.475718019923,12711.513105730748,-12711.513105730748,58495.475718019923,85276.698810498216,0.0
375012.02908761695,3952225.878295721,-12500.0,-22959.824254227195,-32184.163254526291,-44335.707687730493,9770.3683937829392,14936.980639497804,-3089.0170003156095,37030.302012366941,-48279.623541913839,3338.745069459037,-3338.745069459037,48279.623541913839,73073.353513992683,0.0
380012.02908761695,3952225.878295721,-12500.0,-25556.281613437477,-28590.003195013032,-29783.358138079628,9337.8418397239348,11091.54496448329,-2530.6549677681101,30867.459248001956,-37071.494678356321,-4026.6811662497639,4026.6811662497639,37071.494678356321,61058.959801745303,0.0
385012.02908761695,3952225.878295721,-12500.0,-25971.170905649975,-23565.218370563587,-18283.852406556351,8346.8188917777061,7810.642578713142,-1982.7997133764497,25388.011412195661,-26563.1992540266,-9002.7359743833076,9002.7359743833076,26563.1992540266,50081.091126352199,0.0
390012.02908761695,3952225.878295721,-12500.0,-24719.883570271104,-18236.358807240416,-9811.3769620719559,7095.1503863330008,5201.3169139342108,-1496.1108608761717,20762.704273624295,-17635.036482698055,-11793.689051557636,11793.689051557636,17635.036482698055,40561.734884122634,0.0
395012.02908761695,3952225.878295721,-12500.0,-22398.739274637839,-13294.264766552689,-3935.5621001235013,5798.5957330107585,3235.781635959228,-1092.2824285157512,16931.78412919055,-10568.200636648926,-12868.692158135305,12868.692158135305,10568.200636648926,32618.453977207282,0.0
400012.02908761695,3952225.878295721,-12500.0,-19532.548929259348,-9076.9342564827457,-94.041056826692397,4589.2752066291241,1820.1093264497867,-773.35762394903713,13819.920946748662,-5281.3537387758997,-12745.668353821264,12745.668353821264,5281.3537387758997,26180.280747231755,0.0
405012.02908761695,3952225.878295721,-12500.0,-16515.192619253081,-5683.6234878118703,2254.0703159859495,3533.1620743427802,840.66643237073254,-530.70095962963853,11334.187692010677,-1517.9835653621922,-11878.047803785259,11878.047803785259,1517.9835653621922,21077.302214443593,0.0
410012.02908761695,3952225.878295721,-12500.0,-13606.705095780986,-3075.3328390563534,3560.9571799795613,2651.5352158819856,189.74556903130406,-351.41649130571471,9371.8423206136922,1031.4339515913525,-10613.918664036284,10613.918664036284,-1031.4339515913525,17100.933577795029,0.0
415012.02908761695,3952225.878295721,-12500.0,-10956.482991153931,-1147.1962889267588,4174.1458840093292,1939.275498275038,-223.3695968567437,-222.14703054943686,7832.59586971309,2662.1244641465182,-9195.9859855072482,9195.9859855072482,-2662.1244641465182,14040.116570486054,0.0
420012.02908761695,3952225.878295721,-12500.0,-8633.4896933998225,226.19583477417325,4345.7111146961888,1377.9904378368683,-469.841468096678,-130.94495693484478,6626.4775031027893,3625.2062727687494,-7779.4447945536685,7779.4447945536685,-3625.2062727687494,11700.8121393695,0.0
425012.02908761695,3952225.878295721,-12500.0,-6653.8057887574851,1165.9831541010458,4250.6528081867855,944.35745738884941,-602.88800925741202,-67.948796732449054,5677.4219346471582,4119.9538254525942,-6454.289911600752,6454.289911600752,-4119.9538254525942,9915.1363954805493,0.0
430012.02908761695,3952225.878295721,-12500.0,-5002.0777415457223,1777.6637509627262,4006.1106829901473,614.88541595920867,-660.94803156815112,-25.420157760973463,4923.9633453906345,4297.1867484119448,-5265.6096825649784,5265.6096825649784,-4297.1867484119448,8544.5295083518649,0.0
255012.02908761695,3957225.878295721,-12500.0,7486.527235874998,-5395.1449383796507,4098.0737895257034,1592.5307666965482,-1157.7258691883717,246.37342298130903,5936.5997975248529,-3399.8768226881948,4973.5418631296834,-4973.5418631296834,3399.8768226881948,11760.983669089786,0.0
260012.02908761695,3957225.878295721,-12500.0,7727.0575516500548,-6091.8243734189591,4895.7701357140104,1749.1116970353175,-1373.3652231981066,285.96403945090367,6530.5846782715125,-3597.1412106307425,4991.9900385443407,-4991.9900385443407,3597.1412106307425,12980.205335500987,0.0
265012.02908761695,3957225.878295721,-12500.0,7851.2257771108634,-6843.5975181115073,5862.8062464887907,1906.2782170776914,-1627.6402212188545,330.87106962137284,7174.9505049553172,-3734.7842439322394,4876.6975163279494,-4876.6975163279494,3734.7842439322394,14314.668558518904,0.0
270012.02908761695,3957225.878295721,-12500.0,7804.2908357033712,-7630.6499965519888,7030.0310944024923,2055.0057704216324,-1924.4955495429849,380.88039282409295,7903.6510006917697,-3772.0411783808654,4573.9525031620515,-4573.9525031620515,3772.0411783808654,15761.329465531824,0.0
275012.02908761695,3957225.878295721,-12500.0,7515.986548640617,-8416.1612489664349,8428.0001566367937,2181.481564813022,-2265.8980595358566,435.07458609773363,8728.198436084489,-3651.7574911873317,4016.0618965381736,-4016.0618965381736,3651.7574911873317,17309.065518294465,0.0
280012.02908761695,3957225.878295721,-12500.0,6899.4408569149318,-9138.0274066099137,10081.245867734213,2265.4856498651543,-2649.7690094380305,491.40742443970504,9614.6241729543272,-3296.2832234463726,3121.185811460075,-3121.185811460075,3296.2832234463726,18935.353871390249,0.0
285012.02908761695,3957225.878295721,-12500.0,5852.8929241791611,-9698.1016234755389,11997.583470966201,2278.6768887037692,-3066.7061629025648,546.1282111957064,10551.443608906346,-2604.2989851914313,1796.5095343618252,-1796.5095343618252,2604.2989851914313,20602.86608839902,0.0
290012.02908761695,3957225.878295721,-12500.0,4267.0237138127686,-9949.5500508384612,14149.526894045419,2183.2402069028903,-3495.0723415971602,593.07801336672139,11522.21500460837,-1451.0304729012805,-52.100400202664332,52.100400202664332,1451.0304729012805,22257.501437724724,0.0
295012.02908761695,3957225.878295721,-12500.0,2042.1772557371032,-9684.7692871945874,16444.043630833927,1931.8254002803972,-3894.1441375949912,622.96559556751572,12506.691623068418,303.47304548348484,-2499.1629518758937,2499.1629518758937,-303.47304548348484,23831.500283729762,0.0
300012.02908761695,3957225.878295721,-12500.0,-878.8900967054916,-8630.0094721614059,18676.905591643583,1470.4157524048846,-4195.5100606372871,622.88466291110512,13487.855183404241,2790.0147558657841,-5561.0136457940462,5561.0136457940462,-2790.0147558657841,25259.464443934005,0.0
305012.02908761695,3957225.878295721,-12500.0,-4457.3957877903613,-6459.1418229222145,20470.841038857761,746.55982739301896,-4294.128633311414,576.55160229375122,14469.256630913336,6078.1813225366168,-9133.4753116770044,9133.4753116770044,-6078.1813225366168,26522.111549619549,0.0
310012.02908761695,3957225.878295721,-12500.0,-8484.0179560258257,-2847.5638496219899,21206.399530096503,-274.21058912225459,-4042.7776997143374,465.9057183803443,15508.287463804758,10083.491344689048,-12905.472318421909,12905.472318421909,-10083.491344689048,27739.478049855097,0.0
315012.02908761695,3957225.878295721,-12500.0,-12499.417089508797,2406.2568354151267,19976.590028753846,-1582.121795988787,-3257.0436910532794,274.57190755406066,16763.293530517876,14429.219652422413,-16266.44826237734,16266.44826237734,-14429.219652422413,29321.020113010549,0.0
320012.02908761695,3957225.878295721,-12500.0,-15757.539432928479,9173.1890204430965,15633.620989594732,-3089.8713662823484,-1741.1864594914193,-7.1441240285226293,18522.34215475995,18290.292537156543,-18262.720218658491,18262.720218658491,-18290.292537156543,32081.708427924561,0.0
325012.02908761695,3957225.878295721,-12500.0,-17319.583029933408,16731.396650549857,7033.3097685424846,-4604.027288100925,655.63224736002769,-377.58952907071591,21135.936030555553,20314.357727104445,-17707.593959219932,17707.593959219932,-20314.357727104445,37043.321183345754,0.0
330012.02908761695,3957225.878295721,-12500.0,-16371.647498508528,23592.043541042138,-6438.3816979959056,-5823.6660751150621,3954.1822043915258,-822.35755257537005,24805.760937079256,18798.265746902336,-13563.88335862175,13563.88335862175,-18798.265746902336,44770.53096570709,0.0
335012.02908761695,3957225.878295721,-12500.0,-12744.540509170729,27675.309423891063,-24148.27499589224,-6392.0153407100524,7956.6466005565935,-1317.3312478353969,29351.555052060146,12290.764678219082,-5593.1271679523234,5593.1271679523234,-12290.764678219082,54783.26060884718,0.0
340012.02908761695,3957225.878295721,-12500.0,-7351.4226829427016,27040.213064622956,-43735.804559370801,-6008.6423955254231,12207.767144944937,-1832.4551948750714,34162.292152203656,527.50022060896254,5048.4944079171328,-5048.4944079171328,-527.50022060896254,65604.922996385474,0.0
345012.02908761695,3957225.878295721,-12500.0,-2074.1591305573274,20947.749805029602,-61478.648269445119,-4567.2070461140429,16061.448367358395,-2330.3078414832476,38382.085128103427,-14876.729552917888,15849.531207315373,-15849.531207315373,14876.729552917888,75277.192667890704,0.0
350012.02908761695,3957225.878295721,-12500.0,1073.4519452305326,10513.035517273102,-73653.45810540278,-2243.2049244590107,18861.13087289242,-2761.0012798967591,41234.203354105732,-30712.726897385539,23909.751106520533,-23909.751106520533,30712.726897385539,82013.241014963525,0.0
355012.02908761695,3957225.878295721,-12500.0,982.89707823353933,-1688.9089437730631,-78115.165876034109,536.95792903374922,20161.261868845275,-3065.3013067269803,42622.561922179586,-43493.8075437921,27290.402175536376,-27290.402175536376,43493.8075437921,84743.958337585849,0.0
360012.02908761695,3957225.878295721,-12500.0,-2101.8271566036128,-12823.722191244336,-74998.520321286676,3244.2502065017688,19870.868376515224,-3193.2915532141583,42126.546955808371,-50910.837817158033,25765.502107985005,-25765.502107985005,50910.837817158033,83336.836299965871,0.0
365012.02908761695,3957225.878295721,-12500.0,-6952.3331128251166,-20913.338987880103,-66221.568365271218,5430.6165826810957,18243.904819629803,-3127.4693382959977,39747.683400066708,-52467.395266512729,20562.495452595598,-20562.495452595598,52467.395266512729,78442.761314464151,0.0
370012.02908761695,3957225.878295721,-12500.0,-12091.934913266383,-25251.239774177768,-54392.183676037275,6849.4193865807383,15741.855388979144,-2891.4151863675816,36050.19890153603,-49151.808625781021,13523.638845421705,-13523.638845421705,49151.808625781021,71134.955424835949,0.0
375012.02908761695,3957225.878295721,-12500.0,-16371.96528777377,-26172.352266257232,-41865.399349202286,7471.2565061444584,12861.140714767387,-2538.3895610464642,31647.106075834301,-42661.476644515569,6332.4800505116254,-6332.4800505116254,42661.476644515569,62550.861388942867,0.0
380012.02908761695,3957225.878295721,-12500.0,-19191.047110109121,-24563.851043988263,-30278.073583869904,7422.3046281655143,10007.028308121489,-2130.2872045547711,27073.628024089405,-34708.39495819321,119.81676025713023,-119.81676025713023,34708.39495819321,53656.190512488152,0.0
385012.02908761695,3957225.878295721,-12500.0,-20438.975485087602,-21429.703678388512,-20498.62498076956,6899.2126432088507,7442.0723765337643,-1720.1191029035158,22765.509990878596,-26628.401700090566,-4581.6428119617503,4581.6428119617503,26628.401700090566,45146.019104169784,0.0
390012.02908761695,3957225.878295721,-12500.0,-20323.388848084251,-17628.881967134505,-12795.425621936551,6100.5623278988478,5293.1173771529484,-1343.8449574424312,18990.314746619577,-19270.744199525296,-7696.0219327972718,7696.0219327972718,19270.744199525296,37443.962173645523,0.0
395012.02908761695,3957225.878295721,-12500.0,-19194.737933827742,-13775.528071077655,-7060.2622620808561,5188.6472464086619,3586.7158953182252,-1020.2430391660631,15757.457004872353,-13055.457442268569,-9417.4035785233718,9417.4035785233718,13055.457442268569,30751.830721992206,0.0
400012.02908761695,3957225.878295721,-12500.0,-17420.775870747158,-10242.422898873847,-2999.049581192975,4277.3185607640062,2288.9646597127048,-754.90357826814329,13038.466915914178,-8094.864222173067,-10053.569957896387,10053.569957896387,8094.864222173067,25113.999287854884,0.0
405012.02908761695,3957225.878295721,-12500.0,-15317.435312532149,-7211.6466296898016,-262.02398492896134,3435.5827998850341,1337.6056065692123,-545.10414800468948,10794.164274248857,-4315.5629823608306,-9923.6783496864864,9923.6783496864864,4315.5629823608306,20476.436493286179,0.0
410012.02908761695,3957225.878295721,-12500.0,-13123.015691011084,-4735.4239758580879,1482.3744183857575,2697.7971700152061,663.2339103283972,-383.8814780198756,8969.1943176479435,-1553.2850479946719,-9304.8474515612343,9304.8474515612343,1553.2850479946719,16732.292818738839,0.0
415012.02908761695,3957225.878295721,-12500.0,-10998.572887097795,-2788.7645293648911,2514.2752241830694,2074.7458541937517,201.07226161122844,-262.81661015450254,7500.892028221404,384.45063719001064,-8412.8520666944278,8412.8520666944278,-384.45063719001064,13753.16352803207,0.0
420012.02908761695,3957225.878295721,-12500.0,-9040.707987727681,-1307.9953067164545,3053.9005294925673,1562.9399013455718,-103.84011192545806,-173.6647334705213,6327.0767061182396,1682.5977758149293,-7402.4481934708328,7402.4481934708328,-1682.5977758149293,11408.498642308288,0.0
425012.02908761695,3957225.878295721,-12500.0,-7297.8694329218433,-215.72412834977769,3265.8561511374201,1151.3888686622183,-295.40879136744684,-109.1503837813911,5390.7934013836539,2501.7184926904856,-6376.7269825042322,6376.7269825042322,-2501.7184926904856,9576.47237703477,0.0
430012.02908761695,3957225.878295721,-12500.0,-5785.5481016593749,564.71630014633672,3268.538484928511,826.05567579562774,-407.27366609605525,-63.243417172339718,4642.6379999686505,2972.6886623909145,-5399.0628969145237,5399.0628969145237,-2972.6886623909145,8149.3831475843117,0.0
260012.02908761695,3962225.878295721,-12500.0,6144.1389961365621,-5622.5449876717148,5081.9992801319431,1446.2954275735856,-1305.3366131482928,245.13891892959117,5842.7209601379091,-2883.8018205068079,3691.2716396194742,-3691.2716396194742,2883.8018205068079,11657.051052817802,0.0
265012.02908761695,3962225.878295721,-12500.0,6045.4010499324013,-6187.9590858374395,5998.2245746715816,1542.6173184728877,-1523.0156582571099,279.51997141374704,6379.5423407806784,-2860.1962384677731,3399.9379706303621,-3399.9379706303621,2860.1962384677731,12725.794430565846,0.0
270012.02908761695,3962225.878295721,-12500.0,5766.1531854833838,-6737.2755759248203,7073.4186964617911,1620.8176544589294,-1769.5410174718436,316.50997323051655,6985.5455832036332,-2713.3983362356175,2920.0525459801383,-2920.0525459801383,2713.3983362356175,13855.659756142457,0.0
275012.02908761695,3962225.878295721,-12500.0,5250.1334220268427,-7225.4956827745582,8318.8708816743838,1667.5896515499066,-2042.7941118347728,354.85123048295554,7629.8169371019603,-2391.5323625641072,2199.4163391410425,-2199.4163391410425,2391.5323625641072,15029.578365380657,0.0
280012.02908761695,3962225.878295721,-12500.0,4433.6278990353885,-7585.374884637502,9733.3789839959045,1664.8910610178268,-2336.0847267458284,392.31632078390317,8304.464261230265,-1829.5105313298943,1181.0611896906801,-1181.0611896906801,1829.5105313298943,16221.550633795656,0.0
285012.02908761695,3962225.878295721,-12500.0,3250.3729298272319,-7720.9464020107653,11292.190257384245,1589.2860874636103,-2635.4411682122832,425.3191885142395,8998.6844070480311,-950.11963124815145,-190.4471396981661,190.4471396981661,950.11963124815145,17396.077201029613,0.0
290012.02908761695,3962225.878295721,-12500.0,1641.662382099558,-7501.8730882068894,12930.098593673836,1411.9666151819692,-2915.9475961235626,448.48873698155614,9699.8694020206112,330.35486146163021,-1956.7878497503148,1956.7878497503148,-330.35486146163021,18510.673133203498,0.0
295012.02908761695,3962225.878295721,-12500.0,-425.89950043259114,-6761.7117892707083,14517.315927694119,1100.2088330888701,-3137.2276126528609,454.30121924788784,10397.767068839023,2088.2789017344371,-4125.0067625168958,4125.0067625168958,-2088.2789017344371,19525.409607422713,0.0
300012.02908761695,3962225.878295721,-12500.0,-2932.9045189984531,-5305.7555933079157,15828.247112013785,621.36301230211473,-3238.6874191022885,432.96090145375513,11093.830448542773,4365.571700467317,-6635.6002935244487,6635.6002935244487,-4365.571700467317,20426.478914649615,0.0
305012.02908761695,3962225.878295721,-12500.0,-5770.1344678326341,-2937.3596644035683,16507.373232393085,-49.321779265080394,-3136.0705170411502,372.80911243525759,11818.335150207635,7124.0837491995671,-9319.7522549606983,9319.7522549606983,-7124.0837491995671,21273.692449219772,0.0
310012.02908761695,3962225.878295721,-12500.0,-8698.3759750346599,486.018884574119,16044.830342063127,-916.07271594007466,-2722.273753562622,261.58527786576701,12654.939951240871,10179.514718199516,-11852.850474199542,11852.850474199542,-10179.514718199516,22277.062834435623,0.0
315012.02908761695,3962225.878295721,-12500.0,-11322.86047357666,4958.6074250884467,13787.689585120597,-1945.6959802044551,-1876.8575847513107,88.719147367175097,13761.133547882164,13124.013370576438,-13724.767739681705,13724.767739681705,-13124.013370576438,23872.603060534802,0.0
320012.02908761695,3962225.878295721,-12500.0,-13115.186618415528,10200.859394675195,9027.4139484217249,-3050.1829697410449,-489.11115994805391,-151.59548353606263,15352.945933105037,15269.421886746153,-14265.688367133607,14265.688367133607,-15269.421886746153,26685.25752846033,0.0
325012.02908761695,3962225.878295721,-12500.0,-13523.420207476664,15544.8595553827,1204.6413060429807,-4077.2875650559527,1503.1758210528783,-457.42000338508433,17620.231303106273,15674.376386157061,-12777.705630856288,12777.705630856288,-15674.376386157061,31253.459210765966,0.0
330012.02908761695,3962225.878295721,-12500.0,-12188.120972378996,19920.894706493247,-9768.5005371073021,-4821.2282753605195,4064.959891677755,-817.38972829842328,20596.091796987446,13334.370415586965,-8799.3424008853272,8799.3424008853272,-13334.370415586965,37649.246992835841,0.0
335012.02908761695,3962225.878295721,-12500.0,-9206.5176486991186,22055.174912617986,-23170.842955750053,-5063.4016432353101,7023.1008370887248,-1210.9496271353605,24071.59994857839,7565.6583545320955,-2443.46412751244,2443.46412751244,-7565.6583545320955,45329.486740098771,0.0
340012.02908761695,3962225.878295721,-12500.0,-5284.4802191629888,20909.155671006592,-37342.827635623777,-4640.234942947809,10060.698438086551,-1609.8070507869497,27618.692910102029,-1532.0632350302785,5379.0975626278614,-5379.0975626278614,1532.0632350302785,53281.061211554326,0.0
345012.02908761695,3962225.878295721,-12500.0,-1595.164288561989,16196.007050005805,-49988.995895214328,-3514.8093446132575,12768.450150183204,-1979.5425040824994,30706.213858823437,-12817.495158420332,13083.520242381766,-13083.520242381766,12817.495158420332,60304.251048678321,0.0
350012.02908761695,3962225.878295721,-12500.0,671.09562393000317,8647.1363513468532,-58897.705098728526,-1814.7426932152991,14748.420818611583,-2282.1069958767221,32863.849121893356,-24326.037470247833,18940.065625063504,-18940.065625063504,24326.037470247833,65329.864619400447,0.0
355012.02908761695,3962225.878295721,-12500.0,820.06643452749836,-203.36928088683609,-62721.566841718479,191.8941282201599,15730.673995316582,-2481.6371745062256,33996.933672341453,-33938.54910086235,21745.377222357212,-21745.377222357212,33938.54910086235,67684.869997113128,0.0
360012.02908761695,3962225.878295721,-12500.0,-1097.367541365049,-8608.7925881837164,-61366.996547947427,2177.4194725423149,15647.807057704122,-2553.8416256222499,33914.021713267248,-40124.458044290375,21228.291748059186,-21228.291748059186,40124.458044290375,67215.231442999851,0.0
365012.02908761695,3962225.878295721,-12500.0,-4419.0725101420685,-15209.288977244605,-55825.447181912175,3853.0149586353068,14633.904693019849,-2494.465519142786,32493.005720247955,-42343.864248276659,17990.026803574961,-17990.026803574961,42343.864248276659,64235.618025570562,0.0
370012.02908761695,3962225.878295721,-12500.0,-8232.5293579145946,-19339.857040611383,-47650.59824137557,5038.860687164115,12957.616636841271,-2321.0795387063586,30046.376856763167,-40982.453653738259,13113.770388531315,-13113.770388531315,40982.453653738259,59360.823600172611,0.0
375012.02908761695,3962225.878295721,-12500.0,-11720.936053914107,-21001.264864124842,-38415.366399956103,5683.0303416251709,10929.975366364815,-2066.8442672058468,26956.65095724467,-36990.728040093316,7724.9900206034708,-7724.9900206034708,36990.728040093316,53309.919754951348,0.0
380012.02908761695,3962225.878295721,-12500.0,-14353.850124866181,-20634.187896392363,-29362.156857800936,5836.8516281116599,8827.7358978735865,-1770.1641802240001,23585.021563523173,-31479.438369668089,2698.9121993984245,-2698.9121993984245,31479.438369668089,46752.119159411515,0.0
385012.02908761695,3962225.878295721,-12500.0,-15916.122730190549,-18860.958653265752,-21281.46786441316,5610.6094800671899,6852.1473376900994,-1465.4765862799625,20236.64252392347,-25430.782283492146,-1442.4403942696936,1442.4403942696936,25430.782283492146,40219.903977343711,0.0
390012.02908761695,3962225.878295721,-12500.0,-16438.539455831542,-16291.962687156656,-14550.039817432389,5131.5206137050554,5121.3519823388979,-1178.10093290191,17175.749670734636,-19562.925848508472,-4497.6086401456278,4497.6086401456278,19562.925848508472,34082.172415659705,0.0
395012.02908761695,3962225.878295721,-12500.0,-16097.641711262906,-13421.163875393249,-9241.0512464350068,4515.1797234244787,3683.7707310854585,-923.18851022121794,14494.639409038373,-14313.084275650217,-6492.1660919501846,6492.1660919501846,14313.084275650217,28556.712260662851,0.0
400012.02908761695,3962225.878295721,-12500.0,-15127.223891013527,-10593.957253700228,-5243.0616430815671,3851.8093541154763,2539.3079668556807,-707.26321679467924,12172.802624744454,-9885.4111612637644,-7579.2443886093279,7579.2443886093279,9885.4111612637644,23741.357372933238,0.0
405012.02908761695,3962225.878295721,-12500.0,-13757.969300955814,-8018.6526207295028,-2356.2062202782495,3203.5278844605041,1659.6881808571623,-530.75621142886769,10198.542747145988,-6320.2195146373788,-7961.2888089312955,7961.2888089312955,6320.2195146373788,19649.266002769837,0.0
410012.02908761695,3962225.878295721,-12500.0,-12185.08722737572,-5796.8574328380937,-357.09955554927791,2607.7989105384681,1004.0303234188528,-390.46088820549051,8547.6812923239395,-3558.8915000795851,-7839.7613866192505,7839.7613866192505,3558.8915000795851,16240.214048663978,0.0
415012.02908761695,3962225.878295721,-12500.0,-10556.787861019076,-3956.8939485772453,963.98640917484772,2083.2525557990557,529.01853007336138,-281.43680902035703,7185.1688707001431,-1493.7959548069648,-7388.8960236085586,7388.8960236085586,1493.7959548069648,13444.757849049234,0.0
420012.02908761695,3962225.878295721,-12500.0,-8975.4084312316409,-2482.4097579174604,1785.9597756840071,1635.5869047099693,194.59609838620187,-198.27963081336452,6071.2545844458955,-1.7292771009101671,-6746.1877568683885,6746.1877568683885,1.7292771009101671,11181.110497389371,0.0
425012.02908761695,3962225.878295721,-12500.0,-7504.6402834921046,-1333.6264170670756,2252.240570048476,1262.4777936595078,-33.479537236707372,-135.8567128196749,5166.1282363370165,1036.4129094217478,-6012.7124505777983,6012.7124505777983,-1036.4129094217478,9365.892557818981,0.0
260012.02908761695,3967225.878295721,-12500.0,4757.9724552644147,-5063.8849600857193,5131.1630137872662,1174.9952462434987,-1215.5356274722587,207.7072824152595,5209.0511752945449,-2195.1257622967692,2567.7794243919229,-2567.7794243919229,2195.1257622967692,10394.494459832658,0.0
265012.02908761695,3967225.878295721,-12500.0,4504.0049313961981,-5453.8835003490376,5966.2582027071212,1223.6893183677541,-1395.9813172950985,233.25279104036161,5661.8863895006789,-2045.0243521152336,2162.1176230279234,-2162.1176230279234,2045.0243521152336,11233.677208577703,0.0
270012.02908761695,3967225.878295721,-12500.0,4077.1199198539989,-5789.915638789892,6916.8736092391382,1249.0737222302284,-1593.5148558748808,259.60893018650592,6138.8845860956508,-1763.8863399526012,1582.161790544144,-1582.161790544144,1763.8863399526012,12097.36234396062,0.0
275012.02908761695,3967225.878295721,-12500.0,3436.3814545259147,-6025.355713288478,7978.4519043225519,1239.424766170509,-1803.3577715148322,285.40036807814261,6634.5797785204159,-1309.0184264266322,792.04878837026718,-792.04878837026718,1309.0184264266322,12967.290282973663,0.0
280012.02908761695,3967225.878295721,-12500.0,2540.2975448363845,-6096.1453926425856,9130.6430837786265,1179.8649878515453,-2016.2827931274749,308.4647783556382,7141.7486682876179,-631.30176853700596,-241.92450795899089,241.92450795899089,631.30176853700596,13819.684509980918,0.0
285012.02908761695,3967225.878295721,-12500.0,1352.8527243279182,-5918.0526019694425,10327.554957886485,1052.4072251273385,-2216.5892783758795,325.60677825851928,7652.3232800629658,321.10033732831641,-1544.0248265447749,1544.0248265447749,-321.10033732831641,14627.107290572707,0.0
290012.02908761695,3967225.878295721,-12500.0,-146.52780002725785,-5386.203423028157,11484.435132077184,836.73248040774865,-2379.6486991101451,332.3629652225714,8159.9171491805382,1594.6626063186318,-3117.3634553540146,3117.3634553540146,-1594.6626063186318,15364.269713248308,0.0
295012.02908761695,3967225.878295721,-12500.0,-1948.1973695743116,-4379.6012039311363,12461.021015771415,512.21763059441628,-2469.3013167050653,322.85543800913979,8665.0895790280847,3215.748390243371,-4926.7393296730897,4926.7393296730897,-3215.748390243371,16021.277329228156,0.0
300012.02908761695,3967225.878295721,-12500.0,-3992.8615958625996,-2774.6741583091066,13043.612256670445,61.830105978371719,-2435.7878545558015,289.85812926957124,9184.6050284021057,5166.8827355357671,-6876.2278883751433,6876.2278883751433,-5166.8827355357671,16629.124851137596,0.0
305012.02908761695,3967225.878295721,-12500.0,-6150.1895446936433,-472.82656805529979,12931.362838521694,-521.59018461378309,-2215.4950194812313,225.24068615456554,9764.7737386227673,7353.1289873843743,-8784.5540021122924,8784.5540021122924,-7353.1289873843743,17300.600118574246,0.0
310012.02908761695,3967225.878295721,-12500.0,-8202.6566431701121,2553.9323598747073,11737.602739842827,-1226.6648538860427,-1734.4755504389548,120.94803034101726,10494.462482631041,9561.8659740514831,-10366.52316942606,10366.52316942606,-9561.8659740514831,18276.447976130272,0.0
315012.02908761695,3967225.878295721,-12500.0,-9847.9011125762627,6200.451364737638,9022.9989948173297,-2013.6456809825361,-918.10555125882263,-29.430985526261729,11504.510243013661,11427.742379146479,-11236.084530294604,11236.084530294604,-11427.742379146479,19931.374992679706,0.0
320012.02908761695,3967225.878295721,-12500.0,-10737.455315485258,10162.367489844763,4379.7577290745094,-2806.5745555995372,291.3466603954659,-228.67680140106771,12934.929182674579,12426.837495636519,-10952.664412073827,10952.664412073827,-12426.837495636519,22667.321903814074,0.0
325012.02908761695,3967225.878295721,-12500.0,-10565.813517509237,13898.671382566723,-2423.712847225258,-3492.6761045211906,1909.9531917811282,-473.99696428279645,14868.476925073664,11934.245720497425,-9129.1944035243487,9129.1944035243487,-11934.245720497425,26702.608480184263,0.0
330012.02908761695,3967225.878295721,-12500.0,-9202.4168660113573,16670.903125238248,-11259.429419460303,-3934.8645196207772,3885.5958011850021,-755.74866791744432,17265.345121411796,9373.193811246023,-5596.5893263563166,5596.5893263563166,-9373.193811246023,31913.202289947989,0.0
335012.02908761695,3967225.878295721,-12500.0,-6819.6282390827191,17698.353648764325,-21489.392541173933,-4000.2737509300737,6080.6263959420467,-1057.29846742314,19941.501833662645,4444.5165369217611,-572.39289661344037,572.39289661344037,-4444.5165369217611,37835.991286549419,0.0
340012.02908761695,3967225.878295721,-12500.0,-3934.7684686091011,16414.882895573293,-31956.971248355367,-3600.1734230956072,8277.0483734949248,-1356.1091320724024,22600.620998415176,-2644.9045090752688,5265.2136484092389,-5265.2136484092389,2644.9045090752688,43782.536749464547,0.0
345012.02908761695,3967225.878295721,-12500.0,-1297.8380873499218,12727.814137043097,-41199.863619539552,-2727.2658960637687,10212.128382060804,-1625.9491907033573,24903.26125803942,-11091.020583358923,10890.433308901871,-10890.433308901871,11091.020583358923,48993.421956872626,0.0
350012.02908761695,3967225.878295721,-12500.0,359.08335371900739,7130.5555829407131,-47847.371521359826,-1471.9582755203394,11638.492182852164,-1840.2869824893355,26555.775802496089,-19642.751725084181,15228.921255382487,-15228.921255382487,19642.751725084181,52802.21233776641,0.0
355012.02908761695,3967225.878295721,-12500.0,590.86489366503008,578.50413850750397,-51030.24577827294,-5.8156650660771838,12387.54391323151,-1976.8999937313376,27500.118657093182,-26962.468157342686,17511.737362000626,-17511.737362000626,26962.468157342686,54773.528672863671,0.0
360012.02908761695,3967225.878295721,-12500.0,-619.33760495416493,-5819.6315084147454,-50601.9740193943,1463.5854148903807,12409.888078721171,-2022.8433623200449,27613.801742058349,-32025.62785969206,17501.671511279448,-17501.671511279448,32025.62785969206,54773.436985764245,0.0
365012.02908761695,3967225.878295721,-12500.0,-2907.9345545938909,-11133.707218828235,-47084.925269366839,2747.2046236979927,11776.970749237829,-1977.8059042602217,26766.042302040405,-34367.980471551797,15492.576053079301,-15492.576053079301,34367.980471551797,52954.440435066659,0.0
370012.02908761695,3967225.878295721,-12500.0,-5711.3108290839182,-14818.066409383868,-41413.720215113106,3716.0780824247995,10647.589057133693,-1854.0175743871755,25132.573227158307,-34099.687076948081,12123.89898008204,-12123.89898008204,34099.687076948081,49674.156798007665,0.0
375012.02908761695,3967225.878295721,-12500.0,-8467.4732809413963,-16743.244851969197,-34627.005848219036,4317.1229043140029,9217.7669935568574,-1672.5880618538583,22953.505657221209,-31740.798623744915,8134.8531786655585,-8134.8531786655585,31740.798623744915,45387.946753879754,0.0
380012.02908761695,3967225.878295721,-12500.0,-10754.606357960012,-17099.776530569099,-27630.423855567988,4564.5584463824707,7674.6239425219374,-1457.9970071884607,20472.1249400583,-27994.254340539886,4168.3330550424398,-4168.3330550424398,27994.254340539886,40552.684941672152,0.0
385012.02908761695,3967225.878295721,-12500.0,-12341.972643745758,-16254.014857590477,-21077.27427376133,4517.3902874801997,6166.7934309228958,-1233.0059574391933,17901.700363976241,-23552.516748798458,670.76648366827249,-670.76648366827249,23552.516748798458,35561.809232196036,0.0
390012.02908761695,3967225.878295721,-12500.0,-13172.898609664824,-14618.593285656141,-15351.409142487328,4254.5594036139237,4793.4894222021721,-1015.4405050925154,15426.662792034937,-18980.301880076429,-2121.7776365966238,2121.7776365966238,18980.301880076429,30714.509679830975,0.0
395012.02908761695,3967225.878295721,-12500.0,-13314.051219708748,-12566.013251938261,-10611.553574931126,3855.3152033852271,3607.5104222677328,-817.09213220677373,13211.747626235334,-14671.351350851888,-4145.3794563359434,4145.3794563359434,14671.351350851888,26211.663527716166,0.0
400012.02908761695,3967225.878295721,-12500.0,-12899.391715791893,-10386.941764933599,-6858.3082994296965,3387.4013039365318,2625.4790223879754,-644.18516604325418,11258.885039055325,-10856.137302894931,-5451.4437353158091,5451.4437353158091,10856.137302894931,22167.963644091546,0.0
405012.02908761695,3967225.878295721,-12500.0,-12084.65449554617,-8281.6337522509639,-3998.5963740463558,2902.2286121636557,1839.8462517778848,-498.63146468591424,9554.6803833503509,-7635.0429633601898,-6153.1531802071668,6153.1531802071668,7635.0429633601898,18631.029983683682,0.0
410012.02908761695,3967225.878295721,-12500.0,-11017.415826679222,-6370.4001216353909,-1895.9282830717018,2434.813814621903,1229.4475701359486,-379.45630299365814,8092.6609108739676,-5018.1334111267188,-6385.044411581337,6385.044411581337,5018.1334111267188,15601.258750466834,0.0
415012.02908761695,3967225.878295721,-12500.0,-9821.427137064542,-4711.8354227992577,-404.09263497770507,2006.2400628981377,767.34435653998685,-284.03830937013407,6856.5488121964709,-2960.7910927036323,-6277.3390562070726,6277.3390562070726,2960.7910927036323,13049.016158970471,0.0
420012.02908761695,3967225.878295721,-12500.0,-8591.349895628382,-3321.7383089598261,613.33003670348239,1626.9970897571598,425.92595661501167,-209.03174007469093,5823.2732213377039,-1390.9842193732793,-5942.5275188895876,5942.5275188895876,1390.9842193732793,10927.958095462103,0.0
425012.02908761695,3967225.878295721,-12500.0,-7393.8255784633375,-2189.1916128391549,1273.7480301549863,1300.2181829907593,179.7879900635821,-150.97147300206262,4966.8174237373341,-227.76943767539569,-5470.4927437480364,5470.4927437480364,227.76943767539569,9184.4515157778387,0.0
265012.02908761695,3972225.878295721,-12500.0,3223.1891606420459,-4696.8435838792575,5795.1671400547584,950.694862024337,-1257.2737858793948,192.47709842629143,5001.2567448291775,-1320.5121438044091,1159.3903792074796,-1159.3903792074796,1320.5121438044091,9860.5225140914063,0.0
270012.02908761695,3972225.878295721,-12500.0,2716.3905370898715,-4853.1256198463943,6604.1111148455602,938.57194201484481,-1409.8624496900054,210.41012349121149,5372.0273077828833,-951.84598530805681,540.15847089582837,-540.15847089582837,951.84598530805681,10507.199143616903,0.0
275012.02908761695,3972225.878295721,-12500.0,2027.9674660296316,-4887.1210109260637,7471.154324377605,891.63432383209147,-1563.885686186597,226.59148234821512,5749.564566449787,-423.70664804227272,-251.17876492895402,251.17876492895402,423.70664804227272,11137.888966845734,0.0
280012.02908761695,3972225.878295721,-12500.0,1135.0462697086659,-4742.9562911498369,8363.6764241094643,798.37358521384692,-1709.1842525661257,239.06775933890691,6128.561547735073,296.98761217180731,-1229.2410752646986,1229.2410752646986,-296.98761217180731,11734.377077184186,0.0
285012.02908761695,3972225.878295721,-12500.0,24.404293538841316,-4352.4868769341356,9224.9255753462039,645.86817845037763,-1830.2823264158985,245.13358353600574,6504.9054559427095,1239.5200459288803,-2395.3837187870163,2395.3837187870163,-1239.5200459288803,12280.112054983167,0.0
290012.02908761695,3972225.878295721,-12500.0,-1299.2481754271055,-3637.9592855748924,9964.7268811667946,420.86037510650078,-1904.9225144355735,241.22175449822754,6878.7545710613158,2421.0225278236271,-3728.0781842396023,3728.0781842396023,-2421.0225278236271,12767.935221835141,0.0
295012.02908761695,3972225.878295721,-12500.0,-2802.5903342791767,-2519.3118053110747,10449.576719953748,111.77724855990117,-1902.830006972797,222.88274127355015,7259.7678433711053,3833.5314175703061,-5170.6006929097985,5170.6006929097985,-3833.5314175703061,13214.382650438763,0.0
300012.02908761695,3972225.878295721,-12500.0,-4411.8159686514473,-928.4635515387638,10494.679838027789,-288.02848882237635,-1785.2881408990688,184.93371990030431,7674.6293022955351,5425.9867406266903,-6617.3987719083862,6617.3987719083862,-5425.9867406266903,13682.436593890294,0.0
305012.02908761695,3972225.878295721,-12500.0,-6002.6729045539869,1167.3661546465539,9862.7476402903139,-775.73628944938184,-1506.4232335075346,121.86853508115718,8175.0979728382245,7082.4387084655227,-7902.7179267861866,7902.7179267861866,-7082.4387084655227,14309.249309140623,0.0
310012.02908761695,3972225.878295721,-12500.0,-7398.1363407934123,3733.1943452437613,8277.025425604128,-1333.6029503907355,-1017.3439089939175,28.601610458289521,8840.8200076228459,8601.1309510782121,-8798.1747582370117,8798.1747582370117,-8601.1309510782121,15320.00295855822,0.0
315012.02908761695,3972225.878295721,-12500.0,-8381.7979330711623,6629.129052343942,5457.6368678565459,-1923.7863150283952,-274.19994021918069,-98.452388715489306,9767.3145123722206,9684.1985593159607,-9028.9546141510818,9028.9546141510818,-9684.1985593159607,16990.333209765842,0.0
320012.02908761695,3972225.878295721,-12500.0,-8734.9229825810726,9580.5167945462017,1188.1311872393399,-2485.6479248827327,749.53936410194717,-260.08933813950779,11033.789201715066,9952.8997626910041,-8318.6505744233928,8318.6505744233928,-9952.8997626910041,19539.018572341884,0.0
325012.02908761695,3972225.878295721,-12500.0,-8299.1244387511506,12175.581190806472,-4590.6178091806723,-2938.4686625415429,2048.0354690603972,-453.09371785734464,12661.840034185469,9004.2665485482248,-6466.3746799723249,6466.3746799723249,-9004.2665485482248,23009.511873181811,0.0
330012.02908761695,3972225.878295721,-12500.0,-7052.5701688551444,13913.305929393728,-11680.781570997318,-3192.1309375451542,3569.2534073234324,-669.4540680141082,14588.281688298172,6515.3091582068746,-3443.5864653357157,3443.5864653357157,-6515.3091582068746,27225.630896967676,0.0
335012.02908761695,3972225.878295721,-12500.0,-5169.2921753837209,14312.148502082266,-19565.59573104369,-3166.0142908727275,5208.6091901535556,-896.35173627228278,16665.939516791346,2376.4903466799014,524.56255031204398,-524.56255031204398,-2376.4903466799014,31827.640133912842,0.0
340012.02908761695,3972225.878295721,-12500.0,-3021.4923600365064,13059.484125143934,-27436.399607252813,-2812.2307650090734,6816.3795248761198,-1117.10880192073,18689.304605213583,-3195.4309269821865,4943.1315996651083,-4943.1315996651083,3195.4309269821865,36345.221316071511,0.0
345012.02908761695,3972225.878295721,-12500.0,-1100.0159799101764,10145.205024077924,-34335.270501012477,-2135.1995726380019,8221.3519827841792,-1313.0939421207577,20435.77133524547,-9630.7587381027715,9132.4992719165584,-9132.4992719165584,9630.7587381027715,40283.625914938733,0.0
350012.02908761695,3972225.878295721,-12500.0,129.72765154180374,5909.8739638220341,-39382.646119874487,-1198.4950963525273,9266.0980153108867,-1466.4211508107203,21717.600794852639,-16106.879430547189,12402.667586164651,-12402.667586164651,16106.879430547189,43213.17465263082,0.0
355012.02908761695,3972225.878295721,-12500.0,375.5806204209448,970.39678947838354,-42003.438849855323,-113.9573850923401,9842.5037564481136,-1563.0382936386579,22515.725571830197,-21752.074935730972,14249.04615516376,-14249.04615516376,21752.074935730972,44844.970454697082,0.0
360012.02908761695,3972225.878295721,-12500.0,-399.10821539264816,-3949.9735160430628,-42056.198558099655,984.14920535341923,9914.5131110886687,-1595.4641668231013,22719.051991374363,-25870.118388847084,14482.791820656312,-14482.791820656312,25870.118388847084,45072.308210580573,0.0
365012.02908761695,3972225.878295721,-12500.0,-1991.1247667819407,-8211.198893273282,-39819.80580181571,1970.2221337059511,9520.2707429757666,-1564.2526172282576,22220.237240457864,-28092.341826875596,13244.820336762194,-13244.820336762194,28092.341826875596,43967.746038344812,0.0
370012.02908761695,3972225.878295721,-12500.0,-4049.7343468443182,-11389.712106579094,-35864.00071121777,2752.3329674109668,8754.9825195280446,-1477.5572924939979,21121.396179079016,-28409.533581446114,10915.868810225007,-10915.868810225007,28409.533581446114,41742.632376266607,0.0
375012.02908761695,3972225.878295721,-12500.0,-6193.4656507953669,-13320.85961236728,-30873.925731355273,3284.0204715315131,7743.1774415404134,-1348.9394088198042,19574.95028689102,-27098.745565348872,7978.9187689556129,-7978.9187689556129,27098.745565348872,38687.470133166491,0.0
380012.02908761695,3972225.878295721,-12500.0,-8103.7168623850903,-14062.980336847844,-25496.389329449699,3562.3701630352225,6610.9708825947682,-1194.2674733780159,17745.201389523325,-24598.089542106762,4893.4629790807194,-4893.4629790807194,24598.089542106762,35112.787357133908,0.0
385012.02908761695,3972225.878295721,-12500.0,-9573.0095649399082,-13820.281998214165,-20244.228897025238,3616.8786188376621,5465.8773100811504,-1028.7763758921003,15784.008532796546,-21383.523936473728,2015.900179770133,-2015.900179770133,21383.523936473728,31303.828677565853,0.0
390012.02908761695,3972225.878295721,-12500.0,-10510.487628028532,-12861.111456751871,-15461.831021688307,3495.1131019652021,4386.7430892160119,-865.03159369907837,13818.484798819776,-17880.07568409307,-429.02249102189489,429.02249102189489,17880.07568409307,27493.838288141174,0.0
395012.02908761695,3972225.878295721,-12500.0,-10920.063360401644,-11454.06046535436,-11335.365520144562,3249.8653315280844,3422.4299653705903,-712.01649863182297,11969.042672865166,-14415.779833021308,-2338.9371588325075,2338.9371588325075,14415.779833021308,23854.277993249158,0.0
400012.02908761695,3972225.878295721,-12500.0,-10867.938836940795,-9829.1944434437846,-7926.4189519262454,2930.1320075731373,2596.0545887850903,-575.15096449790144,10334.772930550031,-11210.937579227768,-3704.9751827292962,3704.9751827292962,11210.937579227768,20497.128834848187,0.0
405012.02908761695,3972225.878295721,-12500.0,-10451.425719029839,-8161.6945980716873,-5211.8262920062916,2576.2339184232505,1911.6047230070399,-456.87206049610529,8882.9982452563781,-8389.6117821032367,-4578.1967956041717,4578.1967956041717,8389.6117821032367,17484.005975785858,0.0
410012.02908761695,3972225.878295721,-12500.0,-9775.007468472013,-6571.0771556422687,-3119.3571593345082,2218.2392346597253,1360.6616110867299,-357.43191328582714,7608.5750258610433,-6001.2193420856865,-5040.232368475462,5040.232368475462,6001.2193420856865,14837.838172806023,0.0
415012.02908761695,3972225.878295721,-12500.0,-8935.0359712742684,-5128.9877954720741,-1554.8707228368273,1876.5071947596819,928.00693895805989,-275.67558152918883,6506.7643705979244,-4043.7252112352689,-5181.7374973599872,5181.7374973599872,4043.7252112352689,12554.315060653822,0.0
420012.02908761695,3972225.878295721,-12500.0,-8011.9045690457124,-3870.2622401395533,-420.48972682200173,1563.3044196154535,595.71940795676528,-209.67914491926831,5566.153546677102,-2483.8270953682759,-5088.8099268383703,5088.8099268383703,2483.8270953682759,10611.671280957475,0.0
270012.02908761695,3977225.878295721,-12500.0,1648.1191226423305,-3971.139068985613,6179.7499969275668,684.75613131201624,-1228.6409652443044,168.65434986079731,4688.2618560787705,-285.90622151131646,-240.55815807971231,240.55815807971231,285.90622151131646,9092.5281354879608,0.0
275012.02908761695,3977225.878295721,-12500.0,965.35870768815391,-3854.2284544657027,6857.2051922847822,615.38793313322014,-1335.6479699637662,177.7102541164478,4974.4182769915014,268.03844010133054,-987.66997987638706,987.66997987638706,-268.03844010133054,9540.8675296392266,0.0
280012.02908761695,3977225.878295721,-12500.0,127.12745073817695,-3561.9506748233885,7510.2150287419372,505.36780838368577,-1426.472238737917,182.69451972086085,5258.226936811925,978.80584963440515,-1868.2781905824527,1868.2781905824527,-978.80584963440515,9951.6807718808068,0.0
285012.02908761695,3977225.878295721,-12500.0,-864.3738788717468,-3042.8833423873762,8079.0937508169654,346.01248861042205,-1487.0222629094942,181.40470282174127,5539.6638204535711,1857.8289760549178,-2868.8059734225453,2868.8059734225453,-1857.8289760549178,10319.722663722383,0.0
290012.02908761695,3977225.878295721,-12500.0,-1989.8466668170124,-2243.7665999031874,8477.6484326368791,129.45167789377888,-1498.3590687459846,171.07965700341458,5824.4802252421359,2901.6083283395283,-3954.5137424457116,3954.5137424457116,-2901.6083283395283,10653.992167311369,0.0
295012.02908761695,3977225.878295721,-12500.0,-3206.0599295464308,-1117.2606600083673,8588.4120477126089,-149.63952575166647,-1436.3321566429422,148.44382363946031,6128.5936290423233,4081.6500242102147,-5061.6644637685176,5061.6644637685176,-4081.6500242102147,10990.850942522777,0.0
300012.02908761695,3977225.878295721,-12500.0,-4439.7096696111103,365.57428876386075,8261.0961704920901,-491.59532597752354,-1272.0229198065911,109.87814548849019,6483.066607599847,5332.2091593846289,-6090.5384302209241,6090.5384302209241,-5332.2091593846289,11410.777593317083,0.0
305012.02908761695,3977225.878295721,-12500.0,-5584.5752843434693,2197.7720279911728,7317.7686687937094,-888.71911807130152,-973.55764089536683,51.765954511232756,6937.0760595989414,6537.8062765487057,-6902.3365870222742,6902.3365870222742,-6537.8062765487057,12050.739515021049,0.0
310012.02908761695,3977225.878295721,-12500.0,-6505.765678239738,4315.4519017071716,5569.1941484171439,-1322.1072116021344,-509.87868693957171,-28.957565297461223,7554.0305848371063,7524.6951402456716,-7324.4829369554545,7324.4829369554545,-7524.6951402456716,13093.498653509305,0.0
315012.02908761695,3977225.878295721,-12500.0,-7055.2677143739138,6577.9583190682179,2846.4100627034054,-1759.2611109810009,143.16625520935361,-134.07212558907977,8396.4779364847545,8062.9755709586725,-7169.5109795637209,7169.5109795637209,-8062.9755709586725,14716.311299674389,0.0
320012.02908761695,3977225.878295721,-12500.0,-7101.4005057785917,8757.7210563909321,-951.48962290889597,-2153.8672491445286,994.69327987885299,-263.25069936439218,9502.1483730577638,7887.5005855102963,-6271.11168228527,6271.11168228527,-7887.5005855102963,17014.8874688498,0.0
325012.02908761695,3977225.878295721,-12500.0,-6569.8886050217925,10551.199526360477,-5799.3826144468894,-2449.2627738930319,2029.9646259215872,-413.32669271573775,10862.149314966136,6743.7011206350107,-4535.4253423562477,4535.4253423562477,-6743.7011206350107,19952.334051840022,0.0
330012.02908761695,3977225.878295721,-12500.0,-5486.3046610531537,11620.558600631513,-11494.025624551043,-2586.5337878186974,3203.5094361763072,-577.87906855566462,12412.241568696816,4456.5550484630694,-1996.1838065550551,1996.1838065550551,-4456.5550484630694,23359.020529634417,0.0
335012.02908761695,3977225.878295721,-12500.0,-4001.859955548422,11666.309852107745,-17632.452391661711,-2516.679986053161,4437.604616631812,-747.35091771388477,14039.454270375625,1007.3258856739576,1147.7242229414333,-1147.7242229414333,-1007.3258856739576,26965.388201629168,0.0
340012.02908761695,3977225.878295721,-12500.0,-2383.3464957204887,10514.790842934983,-23644.602520143315,-2214.1292317457628,5628.9921345475368,-909.82782297716085,15600.105089330282,-3410.8869805330014,4536.8193674413897,-4536.8193674413897,3410.8869805330014,30446.46718918236,0.0
345012.02908761695,3977225.878295721,-12500.0,-959.00966242833942,8188.8990220983169,-28887.495327565954,-1687.1189179894593,6664.3233783271517,-1052.4539952039286,16944.838746263795,-8390.6236090112106,7711.1544117711574,-7711.1544117711574,8390.6236090112106,33471.662869779131,0.0
350012.02908761695,3977225.878295721,-12500.0,-33.244761127125514,4928.3442235484408,-32779.965447646457,-980.42871370852265,7441.2060241599238,-1163.2987769426284,17952.142391445483,-13376.288187252092,10214.805277996304,-10214.805277996304,13376.288187252092,35755.884377404327,0.0
355012.02908761695,3977225.878295721,-12500.0,197.91563431192128,1143.680680516718,-34932.655452471598,-168.30777841245461,7888.6753882640714,-1233.310941498034,18634.281216401851,-17784.01984789396,11708.603356502736,-11708.603356502736,17784.01984789396,37102.940915755767,0.0
360012.02908761695,3977225.878295721,-12500.0,-304.07237169164961,-2681.4185062382348,-35225.475951520995,660.67909888260294,7980.4006305998691,-1257.8766619454627,18871.470867231419,-21132.769346231027,12047.489497247785,-12047.489497247785,21132.769346231027,37430.547350524044,0.0
365012.02908761695,3977225.878295721,-12500.0,-1423.91651522859,-6101.7622202771327,-33808.049381054647,1421.8345319986322,7736.6083429691944,-1237.525776515494,18587.631561375292,-23138.981259628046,11295.596601790226,-11295.596601790226,23138.981259628046,36771.287416562613,0.0
370012.02908761695,3977225.878295721,-12500.0,-2940.896405533987,-8796.3187272066134,-31032.687870280879,2049.6363162333359,7215.140614149369,-1177.556297991822,17844.316173189512,-23747.213259386725,9681.86945997355,-9681.86945997355,23747.213259386725,35251.907145576093,0.0
375012.02908761695,3977225.878295721,-12500.0,-4596.8770054995121,-10605.778122645797,-27353.416974021111,2506.1114509638751,6495.8401937305234,-1086.7190231673637,16739.57341189004,-23099.068501174403,7522.3602781804548,-7522.3602781804548,23099.068501174403,33059.606211544713,0.0
380012.02908761695,3977225.878295721,-12500.0,-6157.5340969618956,-11523.149297999775,-23228.011947851457,2781.4366040406367,5663.7997291553911,-975.41147122889879,15384.912748355931,-21464.676627004446,5141.0817603220958,-5141.0817603220958,21464.676627004446,30405.770481338306,0.0
385012.02908761695,3977225.878295721,-12500.0,-7450.8953114931446,-11654.076603316953,-19047.613272270304,2888.6407289447875,4795.923332056389,-853.91989742894179,13888.820471314008,-19166.15739361056,2811.9164353627175,-2811.9164353627175,19166.15739361056,27495.365016275864,0.0
390012.02908761695,3977225.878295721,-12500.0,-8380.3183081964053,-11167.192253299065,-15101.475176045995,2855.486128620626,3952.8964607976254,-731.11086549421179,12345.864517018386,-16514.775336779134,729.43157241065273,-729.43157241065273,16514.775336779134,24506.161880818407,0.0
395012.02908761695,3977225.878295721,-12500.0,-8917.8855506884302,-10249.803037257292,-11571.720556828457,2716.3171621923839,3176.4659611419784,-613.7327403839962,10832.590294952795,-13771.275342570447,-995.07195044968466,995.07195044968466,13771.275342570447,21578.229242745412,0.0
400012.02908761695,3977225.878295721,-12500.0,-9087.2292548340665,-9076.4731952324601,-8547.4087591850348,2505.6103249327834,2490.6323344837306,-506.26823126960505,9434.3250737047056,-11128.926727273798,-2321.257668535518,2321.257668535518,11128.926727273798,18811.783918380694,0.0
405012.02908761695,3977225.878295721,-12500.0,-8943.6909535785471,-7791.5818262783641,-6047.259844007398,2253.8364146721592,1905.0017456730839,-411.16993395977357,8205.6993128036756,-8713.4501942055213,-3260.3825845208635,3260.3825845208635,8713.4501942055213,16270.588236771497,0.0
410012.02908761695,3977225.878295721,-12500.0,-8556.8412206420253,-6503.2434182468569,-4043.3127912425762,1985.4600607980267,1418.8369577466278,-329.2881928847886,7107.5552662761747,-6592.8095229772707,-3855.5369734130445,3855.5369734130445,6592.8095229772707,13988.253928935126,0.0
415012.02908761695,3977225.878295721,-12500.0,-7997.5869760604328,-5284.7459329811963,-2481.1417624062369,1718.5251206754144,1024.8441711653174,-260.34321094770007,6138.6201400964137,-4790.9580633958249,-4165.2018591282522,4165.2018591282522,4790.9580633958249,11975.414346329235,0.0
275012.02908761695,3982225.878295721,-12500.0,186.68387461492614,-2948.0913536753314,6187.7272632761278,400.39962195127299,-1125.6185541671975,137.71291955747,4303.6540694040705,783.92177002943561,-1476.8635965733256,1476.8635965733256,-783.92177002943561,8164.8353064955181,0.0
280012.02908761695,3982225.878295721,-12500.0,-568.9112025272301,-2563.2296162489297,6631.1450057065595,285.32258736313906,-1174.2163960444632,137.6175546435876,4518.7876611981737,1449.8854933358184,-2240.8607844342114,2240.8607844342114,-1449.8854933358184,8446.5355673031008,0.0
285012.02908761695,3982225.878295721,-12500.0,-1425.3742988040221,-1979.8600410226543,6957.562179777753,130.60709369133696,-1190.406147772858,131.74367859657147,4735.2685912533807,2235.4189084154568,-3070.8183249129715,3070.8183249129715,-2235.4189084154568,8700.9730306513829,0.0
290012.02908761695,3982225.878295721,-12500.0,-2356.6177437519168,-1164.7056269719262,7090.0568522374215,-67.780173180221865,-1158.7609038776966,118.01066519823155,4962.882975947542,3124.1048286465289,-3926.9958331608864,3926.9958331608864,-3124.1048286465289,8949.7496001143099,0.0
295012.02908761695,3982225.878295721,-12500.0,-3318.1172684882549,-94.431409627571071,6930.7238110475482,-311.15869315357139,-1060.7108097559972,94.066046358448773,5220.7947332049798,4077.367803959698,-4747.5174025652559,4747.5174025652559,-4077.367803959698,9241.3931447449413,0.0
300012.02908761695,3982225.878295721,-12500.0,-4244.5673865672607,1234.5770224187181,6362.6910967696713,-596.41453833284015,-875.35137605841169,57.446453986982675,5539.9156981521937,5026.9305048604474,-5445.7926659723344,5445.7926659723344,-5026.9305048604474,9660.5939301448016,0.0
305012.02908761695,3982225.878295721,-12500.0,-5050.8619005517194,2794.1244645654588,5257.7133064482323,-914.09485533472366,-581.24859849363816,5.8521290320200343,5962.079140488444,5868.7380254904037,-5911.8862904123562,5911.8862904123562,-5868.7380254904037,10327.207525994518,0.0
310012.02908761695,3982225.878295721,-12500.0,-5638.609627530569,4511.6833915327998,3491.631296890363,-1246.7115858163929,-159.49566076418083,-62.458897064771065,6533.1839203001837,6461.4657602412062,-6020.5193326616754,6020.5193326616754,-6461.4657602412062,11373.135175277726,0.0
315012.02908761695,3982225.878295721,-12500.0,-5910.0180374168676,6261.1547269818848,968.99113593446395,-1567.891840016777,401.95353521659445,-148.18303610206198,7289.9577366333615,6633.7052611824065,-5648.0626159725589,5648.0626159725589,-6633.7052611824065,12897.655752308747,0.0
320012.02908761695,3982225.878295721,-12500.0,-5789.2985272817859,7862.3814765663665,-2344.5097866830338,-1843.1790501615662,1103.0943994768493,-250.46038618081755,8244.9160504731826,6203.7812849688471,-4699.0446843139744,4699.0446843139744,-6203.7812849688471,14925.102224129128,0.0
325012.02908761695,3982225.878295721,-12500.0,-5248.47437004106,9095.3013236266725,-6387.444803671201,-2033.2087337386474,1926.8602829002182,-366.45575537605492,9376.4590062342959,5013.7351717570682,-3138.8991534479965,3138.8991534479965,-5013.7351717570682,17389.811318072359,0.0
330012.02908761695,3982225.878295721,-12500.0,-4330.3312275410481,9732.1769003082991,-10976.60838141175,-2099.4990807013423,2835.9132405169134,-491.17281606531043,10627.783859604533,2973.7221602919499,-1024.5926292660608,1024.5926292660608,-2973.7221602919499,20147.579276534641,0.0
335012.02908761695,3982225.878295721,-12500.0,-3158.2981328873389,9585.1727448566107,-15802.988427982809,-2012.1795361941647,3773.0598770348056,-617.62657259378796,11913.651328117807,105.92125750960076,1479.3046545278669,-1479.3046545278669,-105.92125750960076,22998.920871827166,0.0
340012.02908761695,3982225.878295721,-12500.0,-1924.2327895059223,8558.1048204600429,-20460.495767084423,-1757.8880804266498,4666.559210026594,-737.44071016346186,13132.505745705959,-3428.4808411019058,4111.0709601962299,-4111.0709601962299,3428.4808411019058,25716.230694677077,0.0
345012.02908761695,3982225.878295721,-12500.0,-852.04062874849581,6684.7251392553753,-24508.147696622742,-1345.3373774952706,5440.17012990889,-841.83363665418733,14182.096453775337,-7334.8646936482464,6553.3242074038908,-6553.3242074038908,7334.8646936482464,28073.577704922754,0.0
350012.02908761695,3982225.878295721,-12500.0,-145.80162278942262,4136.6948626194189,-27552.159038400194,-806.2685698414158,6025.936904591269,-922.84252601639014,14984.873702023122,-11229.226239708823,8497.2997293415137,-8497.2997293415137,11229.226239708823,29877.065544508518,0.0
355012.02908761695,3982225.878295721,-12500.0,60.232776226978004,1194.3765956481027,-29323.322795980646,-190.85586394290303,6376.29172790968,-974.5358904881748,15573.039503582391,-14711.061108990998,9710.0245943445043,-9710.0245943445043,14711.061108990998,30990.628817001318,0.0
360012.02908761695,3982225.878295721,-12500.0,-268.276075317194,-1811.4348365420904,-29724.699365913591,441.39089001921616,6471.9443628866502,-993.92631220437306,15814.388780285311,-17442.427713559184,10081.52332658968,-10081.52332658968,17442.427713559184,31351.538057419188,0.0
365012.02908761695,3982225.878295721,-12500.0,-1065.1820737197693,-4567.0945153325292,-28836.028827533886,1032.5210531160628,6323.4086115802029,-981.34415859110823,15663.830826224479,-19207.863845106356,9637.372937957658,-9637.372937957658,19207.863845106356,30972.327223368025,0.0
370012.02908761695,3982225.878295721,-12500.0,-2189.8072463064741,-6831.4741654369909,-26878.241212368248,1535.6657436356966,5966.2626044740682,-940.18198559808775,15159.466270632485,-19939.054840893572,8516.538112583592,-8516.538112583592,19939.054840893572,29929.95856603179,0.0
375012.02908761695,3982225.878295721,-12500.0,-3466.995075950324,-8465.3351307713619,-24154.49423352741,1920.8496862588806,5452.2092892379369,-876.10724512046863,14365.21569697073,-19702.969019146847,6926.916907033662,-6926.916907033662,19702.969019146847,28346.406413260542,0.0
380012.02908761695,3982225.878295721,-12500.0,-4726.647205655906,-9432.6865659152791,-20988.017164968725,2176.3501097413459,4838.8839947481347,-795.9863752156316,13357.266892949574,-18664.521250074122,5095.7725400717527,-5095.7725400717527,18664.521250074122,26366.281485313131,0.0
385012.02908761695,3982225.878295721,-12500.0,-5832.2835433874188,-9781.3199134813367,-17672.409187416441,2306.3384063493259,4181.0129919191204,-706.80904777457886,12213.171190052111,-17039.634252434553,3229.0850668248404,-3229.0850668248404,17039.634252434553,24136.449268359454,0.0
390012.02908761695,3982225.878295721,-12500.0,-6694.7946588666,-9613.4605277868777,-14441.571813289562,2326.3629345326331,3524.4209607716639,-614.83783546194286,11003.73620473847,-15052.352190340938,1486.7602040891388,-1486.7602040891388,15052.352190340938,21790.706612402795,0.0
395012.02908761695,3982225.878295721,-12500.0,-7273.0712287232773,-9056.245685080492,-11458.860942499876,2258.2856429323797,2903.1949993986314,-525.09237536205183,9788.1811902354821,-12903.823795839757,-26.142190848526297,26.142190848526297,12903.823795839757,19440.514861520256,0.0
400012.02908761695,3982225.878295721,-12500.0,-7565.9999169179728,-8238.0995046792559,-8820.5998841499586,2125.8514092178511,2339.4669101297732,-441.16236276885081,8612.976214214983,-10755.129026475399,-1256.1136604703752,1256.1136604703752,10755.129026475399,17171.256549034133,0.0
405012.02908761695,3982225.878295721,-12500.0,-7600.647749280085,-7273.2482627643176,-6567.8185190981521,1951.4746226873654,1844.8996962962087,-365.27273456583532,7542.4658047869516,-8721.9398788404542,-2191.0666854151814,2191.0666854151814,8721.9398788404542,15042.626970323932,0.0
410012.02908761695,3982225.878295721,-12500.0,-7420.3120096308403,-6253.913776278785,-4700.989371841375,1754.3374151004466,1422.990435092981,-298.49944224724669,6603.1088546135761,-6877.3387661593097,-2847.8848766553911,2847.8848766553911,6877.3387661593097,13091.621019312637,0.0
275012.02908761695,3987225.878295721,-12500.0,-365.9295293890425,-2174.3210031200879,5502.9079164819414,236.30085390098034,-937.41130768660196,105.41843229079637,3728.6764578737989,1148.6143609954088,-1774.004275079692,1774.004275079692,-1148.6143609954088,6991.8457458186294,0.0
280012.02908761695,3987225.878295721,-12500.0,-1027.4210187098338,-1740.1670129295719,5770.4713366798715,123.75849260926755,-954.443726397207,102.05657337454531,3895.6715817813747,1749.5576073598704,-2417.5390232695481,2417.5390232695481,-1749.5576073598704,7188.3498586527221,0.0
285012.02908761695,3987225.878295721,-12500.0,-1749.4878493782539,-1138.7621803952029,5903.9635299870097,-19.719868377727607,-939.53835176356256,93.58403861743632,4069.0993723878128,2428.9573377500215,-3086.814923052531,3086.814923052531,-2428.9573377500215,7376.047206370341,0.0
290012.02908761695,3987225.878295721,-12500.0,-2504.3658773338198,-351.96336320950883,5837.973486613877,-195.6007399717796,-880.5406947812246,78.468405289092203,4261.0850451459237,3163.4834518777252,-3742.3556519479125,3742.3556519479125,-3163.4834518777252,7584.9356100984642,0.0
295012.02908761695,3987225.878295721,-12500.0,-3250.9586526421135,627.18747427891515,5494.1071958310122,-402.83857872348858,-763.58450912662897,55.057374245652575,4491.4321237833856,3911.5627963834781,-4328.7883202737867,4328.7883202737867,-3911.5627963834781,7868.3355206717133,0.0
300012.02908761695,3987225.878295721,-12500.0,-3934.7223443602998,1787.3573740237878,4784.6081978505017,-636.73409997441411,-573.97546926023551,21.715992285648028,4787.8496977976829,4609.2638462219911,-4774.8581000312279,4774.8581000312279,-4609.2638462219911,8304.8906914240069,0.0
305012.02908761695,3987225.878295721,-12500.0,-4490.3348627673522,3091.1301324889455,3620.1508712499794,-887.81575623675599,-297.75332004971136,-22.965154302962585,5182.9734866298149,5168.204372320768,-4996.7773388199894,4996.7773388199894,-5168.204372320768,8988.9215550328481,0.0
310012.02908761695,3987225.878295721,-12500.0,-4848.2800305823675,4468.1870053589737,1922.7749865332769,-1141.0397175819051,75.992025585709072,-79.894766739918694,5707.2841995035542,5477.5611550356189,-4906.3234116780677,4906.3234116780677,-5477.5611550356189,10005.748833779933,0.0
315012.02908761695,3987225.878295721,-12500.0,-4945.904388235339,5812.0834505739131,-356.07582579882359,-1375.7170892971542,552.15642641343732,-149.16316327939779,6379.5045887372416,5412.4644502455476,-4424.492714656807,4424.492714656807,-5412.4644502455476,11401.420855629261,0.0
320012.02908761695,3987225.878295721,-12500.0,-4742.1921676530892,6983.8500219258067,-3214.3122005156033,-1566.6081797788624,1126.3979661928131,-229.73282177637938,7198.3230821974275,4850.4014956148239,-3500.0260081431861,3500.0260081431861,-4850.4014956148239,13164.110087389963,0.0
325012.02908761695,3987225.878295721,-12500.0,-4233.5308437659205,7825.2261705068868,-6579.1590894408027,-1686.4943297977056,1782.3741898338362,-319.21088199798885,8138.7234962324619,3695.293550957771,-2129.7681518912532,2129.7681518912532,-3695.293550957771,15224.035883587801,0.0
330012.02908761695,3987225.878295721,-12500.0,-3465.7207908363871,8182.2596738807279,-10294.996981298558,-1710.1915902883732,2490.4075059693096,-413.78788145918247,9153.4932682311337,1905.6619506896757,-375.25803109786852,375.25803109786852,-1905.6619506896757,17464.952765413906,0.0
335012.02908761695,3987225.878295721,-12500.0,-2536.5867760076662,7936.2570396868832,-14126.333061046702,-1619.439111331362,3208.5307481920904,-508.41172636456599,10178.666368695245,-480.30819936199998,1631.4896874136002,-1631.4896874136002,480.30819936199998,19739.453701223123,0.0
340012.02908761695,3987225.878295721,-12500.0,-1585.0337385458408,7034.7765589384735,-17780.583998572918,-1407.5494226592484,3886.4384807489073,-597.22554287405842,11141.593036112308,-3332.0739986751423,3698.7731238234455,-3698.7731238234455,3332.0739986751423,21885.857364173851,0.0
345012.02908761695,3987225.878295721,-12500.0,-766.60440829019717,5512.7380646170186,-20949.423582962965,-1082.4232263922881,4472.0460788449163,-674.23313671738435,11971.028888737423,-6434.1691395576599,5603.658744685179,-5603.658744685179,6434.1691395576599,23746.628947804536,0.0
350012.02908761695,3987225.878295721,-12500.0,-221.15537662282563,3494.9951132866586,-23360.08856314655,-666.75650991615839,4919.3973973715474,-734.08574374159878,12622.596274675419,-9515.7694830707878,7132.4621878347461,-7132.4621878347461,9515.7694830707878,25186.995505495648,0.0
355012.02908761695,3987225.878295721,-12500.0,-42.374613592078376,1177.3402994805012,-24822.870079762699,-195.03437720890972,5195.9961664211296,-772.83333870491151,13130.821047589439,-12296.305273259804,8121.9917757514377,-8121.9917757514377,12296.305273259804,26110.783799490269,0.0
360012.02908761695,3987225.878295721,-12500.0,-258.91591368367602,-1209.3537514806753,-25261.178085493917,292.05397908661917,5287.6374993283853,-788.47101340172333,13361.158782214257,-14534.544439736215,8489.0944176717858,-8489.0944176717858,14534.544439736215,26470.253000598135,0.0
365012.02908761695,3987225.878295721,-12500.0,-832.58731740817973,-3441.1377164124733,-24716.478785756131,754.29239334839406,5199.5591364441634,-781.15368023004544,13293.265082092303,-16067.19529023114,8240.2569983678095,-8240.2569983678095,16067.19529023114,26268.017731323398,0.0
370012.02908761695,3987225.878295721,-12500.0,-1672.549987137772,-5337.1357362869157,-23329.125821268193,1157.956863448271,4953.8933027757957,-753.03796833597914,12951.047170947026,-16827.513681821518,7460.4824204290126,-7460.4824204290126,16827.513681821518,25551.263832520548,0.0
375012.02908761695,3987225.878295721,-12500.0,-2659.2313996133375,-6781.3697209338252,-21303.38386545709,1479.8117718825513,4584.466204835996,-707.80984565664608,12376.700537528293,-16841.983630006485,6287.4972565204207,-6287.4972565204207,16841.983630006485,24400.35888863989,0.0
380012.02908761695,3987225.878295721,-12500.0,-3669.7948874109179,-7727.8028232887254,-18867.881012459435,1708.5243742740247,4130.5375497661653,-650.03484973642071,11622.689904654284,-16210.073790474122,4880.6418072115521,-4880.6418072115521,16210.073790474122,22914.915296996463,0.0
385012.02908761695,3987225.878295721,-12500.0,-4598.531674921278,-8191.4970439546223,-16241.21113183269,1843.7483365153932,3631.0058993044477,-584.48864558686364,10744.57679109753,-15075.609339718014,3393.0124803268245,-3393.0124803268245,15075.609339718014,21200.270032842476,0.0
390012.02908761695,3987225.878295721,-12500.0,-5368.8571880012614,-8231.6608136016603,-13608.280621776101,1893.6589769986545,3120.0928771502367,-515.59995951130247,9795.2209037242465,-13598.103400920532,1952.0710598318083,-1952.0710598318083,13598.103400920532,19356.490810208186,0.0
395012.02908761695,3987225.878295721,-12500.0,-5936.8526543976413,-7932.5054837490743,-11108.599227577159,1871.8573283634228,2624.8746217796497,-447.07792447957689,8820.8199975622028,-11929.732605202054,650.10015537917661,-650.10015537917661,11929.732605202054,17470.881274623254,0.0
400012.02908761695,3987225.878295721,-12500.0,-6288.3824693477654,-7386.2748588158393,-8834.6519333331562,1794.4055329993726,2164.5142062458881,-381.73595074027241,7858.831326723739,-10200.404746385797,-456.91645554457136,456.91645554457136,10200.404746385797,15614.034799228235,0.0
405012.02908761695,3987225.878295721,-12500.0,-6432.5487022157859,-6680.7011947714564,-6837.0294210793218,1677.4572675758377,1750.7424606911309,-321.47904260686477,6937.6942378653403,-8510.6934742008143,-1344.7671911566345,1344.7671911566345,8510.6934742008143,13838.814197450611,0.0
410012.02908761695,3987225.878295721,-12500.0,-6393.9589677286367,-5891.3548493046274,-5133.0137711412699,1535.6558224425924,1389.0741804718125,-267.402103077373,6107.2400696911209,-6930.943196996519,-2013.6853076340835,2013.6853076340835,6930.943196996519,12181.416702803583,0.0
285012.02908761695,3992225.878295721,-12500.0,-1907.3475467317728,-488.47546597109294,4943.0908792785212,-121.01281444562694,-730.91214459130697,64.62809214874413,3519.2959159047855,2487.7247509770077,-2981.94083328549,2981.94083328549,-2487.7247509770077,6298.4721713153331,0.0
290012.02908761695,3992225.878295721,-12500.0,-2509.5377658810607,243.80520708558228,4735.5906113999563,-273.43447525963711,-656.09212423314773,49.426033695530734,3689.4881916252889,3079.6011981600668,-3469.2925330798753,3469.2925330798753,-3079.6011981600668,6495.702617139189,0.0
295012.02908761695,3992225.878295721,-12500.0,-3080.7559641752109,1116.7300070603994,4274.0832169175037,-446.97384949906927,-531.94564056447632,27.588192889026235,3902.651477355133,3650.845923446373,-3870.7896143418479,3870.7896143418479,-3650.845923446373,6788.4905884708605,0.0
300012.02908761695,3992225.878295721,-12500.0,-3577.3509250766106,2111.2061733707928,3494.5938850104185,-636.47224113922925,-348.40820833550015,-1.9417034100978803,4181.7063949538242,4145.1361377839494,-4129.941372815314,4129.941372815314,-4145.1361377839494,7243.057911528731,0.0
305012.02908761695,3992225.878295721,-12500.0,-3950.7057493880898,3187.7837580604637,2336.944312719897,-833.29590757346932,-96.704869041971691,-39.989191177175471,4550.2805385240072,4490.2162076512504,-4184.6894217386889,4184.6894217386889,-4490.2162076512504,7926.9242244616835,0.0
310012.02908761695,3992225.878295721,-12500.0,-4152.9559526745261,4283.4068774212792,754.8542112762932,-1025.0453351637677,228.97000619186986,-86.957410673146882,5026.8587754290202,4601.3078296835865,-3974.4792225595938,3974.4792225595938,-4601.3078296835865,8889.0919007029006,0.0
315012.02908761695,3992225.878295721,-12500.0,-4145.2553163099074,5311.3188325570536,-1271.3599335110764,-1195.8270979088757,629.48082323318727,-142.62818309220006,5618.682938151197,4388.9300247471074,-3450.5655719607685,3450.5655719607685,-4388.9300247471074,10143.285261175663,0.0
320012.02908761695,3992225.878295721,-12500.0,-3907.6462979278213,6165.9136796842231,-3721.2428773498318,-1327.31501866656,1098.7941712746658,-205.97731286223222,6317.7438664198935,3771.5872163365812,-2588.5532632444174,2588.5532632444174,-3771.5872163365812,11662.328739763012,0.0
325012.02908761695,3992225.878295721,-12500.0,-3448.4777069060856,6733.7196405604382,-6522.9316038433835,-1400.708883582608,1622.5107513720693,-275.05902087249262,7099.9815567916057,2692.3905916790845,-1400.8057200413625,1400.8057200413625,-2692.3905916790845,13382.522277386772,0.0
330012.02908761695,3992225.878295721,-12500.0,-2810.4005925473384,6910.2104903418112,-9548.2068596562931,-1399.4711261775351,2177.4497210680884,-347.00524620401325,7927.3301761622879,1136.7931948627381,54.859341784585695,-54.859341784585695,-1136.7931948627381,15212.385669357729,0.0
335012.02908761695,3992225.878295721,-12500.0,-2069.8714735898952,6619.9429912443311,-12617.701208658289,-1312.4211315372811,2732.7737640686564,-418.17696940643629,8751.7501055242974,-853.14815869542883,1674.1160744277017,-1674.1160744277017,853.14815869542883,17042.565531569944,0.0
340012.02908761695,3992225.878295721,-12500.0,-1328.3162895601358,5835.3591090055997,-15518.167701787788,-1136.4990255068838,3252.8480160744421,-484.47589773292782,9520.6263539759475,-3173.208808647827,3315.440877437205,-3315.440877437205,3173.208808647827,18756.601985135214,0.0
345012.02908761695,3992225.878295721,-12500.0,-695.61697983050146,4588.5987174729535,-18030.245066365023,-878.41186579238035,3701.5523065477446,-541.78799254248111,10183.580749375791,-5664.0093733335816,4819.6646178456867,-4819.6646178456867,5664.0093733335816,20242.642311752967,0.0
350012.02908761695,3992225.878295721,-12500.0,-269.5151999707445,2971.7648442875866,-19961.27722388451,-554.54921362773518,4047.2615204621029,-586.4865461118959,10727.251534568721,-8131.0899085221199,6036.0244231440056,-6036.0244231440056,8131.0899085221199,21405.18509449036,0.0
355012.02908761695,3992225.878295721,-12500.0,-116.53062647506857,1124.3136005427291,-21175.24089123197,-188.99692352073768,4267.3863721088865,-615.900091331147,11161.790762349669,-10374.179292900662,6848.1600506814975,-6848.1600506814975,10374.179292900662,22175.070080541253,0.0
360012.02908761695,3992225.878295721,-12500.0,-259.86854859890877,-789.63351738009851,-21612.131776960159,189.96529763010392,4351.4010290770775,-628.64770110555355,11374.209160476128,-12218.463672075097,7193.0420389390456,-7193.0420389390456,12218.463672075097,22515.855967848023,0.0
365012.02908761695,3992225.878295721,-12500.0,-677.47370842060457,-2608.0233435425621,-21292.308284159612,554.04287626356313,4301.6887804905273,-624.76831233894779,11357.25054057576,-13539.9010051722,7068.0635479513476,-7068.0635479513476,13539.9010051722,22425.443638098444,0.0
370012.02908761695,3992225.878295721,-12500.0,-1309.9381749624579,-4194.7803553565836,-20305.978258913376,878.79235410788692,4132.1580097211263,-605.6284494737605,11125.987484407482,-14278.879590892349,6525.4919533044122,-6525.4919533044122,14278.879590892349,21932.948980546764,0.0
375012.02908761695,3992225.878295721,-12500.0,-2074.9909355362815,-5455.6584400751417,-18792.112346229605,1146.3634538345143,3865.1687860621532,-573.63806413301972,10708.592881408684,-14440.496542517854,5657.2884691693052,-5657.2884691693052,14440.496542517854,21091.898224656594,0.0
380012.02908761695,3992225.878295721,-12500.0,-2883.9598104356833,-6343.9562046587216,-16913.109664899745,1346.7251447589406,3527.6465652610341,-531.85304231670136,10141.500140724125,-14083.682695091462,4575.4630888657985,-4575.4630888657985,14083.682695091462,19971.447816969514,0.0
385012.02908761695,3992225.878295721,-12500.0,-3656.0639415391829,-6857.0963534020493,-14831.204395205326,1477.4300441636651,3147.2823350737717,-483.55396502696937,9464.6755435688265,-13303.77627763596,3393.1613230763242,-3393.1613230763242,13303.77627763596,18647.404548197319,0.0
390012.02908761695,3992225.878295721,-12500.0,-4328.0285173694874,-7027.0674576933607,-12690.616365146545,1542.3036656095856,2749.4827259487338,-431.87838659475295,8717.5289433096732,-12213.568357883141,2210.1328284566225,-2210.1328284566225,12213.568357883141,17194.442643677201,0.0
395012.02908761695,3992225.878295721,-12500.0,-4858.3840263182419,-6908.2513491714844,-10606.984399887206,1549.5759504969808,2355.3900326398361,-379.55559286685673,7935.8626501931158,-10926.723999999474,1104.1197729425739,-1104.1197729425739,10926.723999999474,15680.314371964037,0.0
400012.02908761695,3992225.878295721,-12500.0,-5227.2306924121749,-6565.5930525935819,-8663.6235204088753,1509.9333235983424,1980.984856830408,-328.75872495695432,7149.9877353494494,-9545.7455072187131,127.90608812429491,-127.90608812429491,9545.7455072187131,14162.292630512395,0.0
290012.02908761695,3997225.878295721,-12500.0,-2426.2171358632127,667.58476512849711,3782.843961414846,-316.05421262714077,-477.29872680072555,28.401223436860086,3222.5978453952175,2917.9319093744839,-3154.5771059848416,3154.5771059848416,-2917.9319093744839,5626.4408742845662,0.0
295012.02908761695,3997225.878295721,-12500.0,-2857.6163105120172,1431.7296581717801,3253.9275753004313,-459.6603562019319,-353.61208654913361,8.6412975147838882,3423.6786473724787,3341.8783727429059,-3413.7312397273276,3413.7312397273276,-3341.8783727429059,5933.6059086361138,0.0
300012.02908761695,3997225.878295721,-12500.0,-3212.3473717083452,2273.2958133026573,2453.8527598499222,-611.91216681638605,-181.97721237191141,-17.029710766558452,3686.8748437997351,3676.1867149761129,-3537.8390463216047,3537.8390463216047,-3676.1867149761129,6398.190972134109,0.0
305012.02908761695,3997225.878295721,-12500.0,-3455.0771354515673,3154.7327304463024,1343.5631436207459,-765.34971942217169,42.875988100322246,-49.062161963306373,4028.1161102175079,3863.3092925236292,-3481.9799956970205,3481.9799956970205,-3863.3092925236292,7064.2379147669189,0.0
310012.02908761695,3997225.878295721,-12500.0,-3553.6198580432988,4021.9849002390715,-102.12286721471131,-910.02276648118652,323.59264657371136,-87.568679469143831,4457.3487398886064,3839.5178990743548,-3205.6015095477055,3205.6015095477055,-3839.5178990743548,7955.5594121238755,0.0
315012.02908761695,3997225.878295721,-12500.0,-3484.8778380315007,4805.8410092047779,-1885.8158233825993,-1033.8789758828548,658.90924517840233,-132.19714684910298,4975.0664943163365,3541.4970533969454,-2680.0026004760557,2680.0026004760557,-3541.4970533969454,9068.2880198485836,0.0
320012.02908761695,3997225.878295721,-12500.0,-3241.2856531150746,5426.7150807530261,-3979.1147083464152,-1123.6703746992573,1042.4913670185881,-182.02565262373528,5570.6704024223327,2915.7834910826791,-1896.6393293952101,1896.6393293952101,-2915.7834910826791,10370.952423383846,0.0
325012.02908761695,3997225.878295721,-12500.0,-2836.3165660245741,5803.2484865652305,-6316.5130465330176,-1166.3957138634241,1462.194767469043,-235.50867027377643,6222.812737090152,1930.0714207034466,-874.5554785535237,874.5554785535237,-1930.0714207034466,11809.142569521167,0.0
330012.02908761695,3997225.878295721,-12500.0,-2307.2375117536781,5864.1219902257035,-8794.0602868718288,-1151.1513651059497,1900.0731821674067,-290.50189061588515,6901.2574676703653,584.33433113678723,335.29399597777723,-335.29399597777723,-584.33433113678723,13311.587496524346,0.0
335012.02908761695,3997225.878295721,-12500.0,-1713.4626072278757,5561.2100485266219,-11274.771247032972,-1071.0980353977386,2333.3772940144959,-344.38347257248478,7569.7743062052177,-1081.1092456790532,1650.9967741800076,-1650.9967741800076,1081.1092456790532,14796.623335943355,0.0
340012.02908761695,3997225.878295721,-12500.0,-1129.7443281630287,4881.1324631287725,-13601.446880792359,-925.11966897317313,2736.595972490788,-394.27332971381247,8189.7904893787727,-2983.5440615943266,2967.1558583831743,-2967.1558583831743,2983.5440615943266,16179.234586441818,0.0
345012.02908761695,3997225.878295721,-12500.0,-634.91914293536524,3851.9354613094415,-15615.532102441408,-718.72670423693864,3084.3185600841844,-437.32690419538704,8725.3207663556932,-5003.7666246466279,4168.4078889828061,-4168.4078889828061,5003.7666246466279,17378.68947154432,0.0
350012.02908761695,3997225.878295721,-12500.0,-298.51395010062333,2542.45146285894,-17178.551634074738,-463.87785409834623,3354.4261404506628,-471.05796941501069,9191.8774231938532,-6999.879298263224,5146.5226451676936,-5146.5226451676936,6999.879298263224,18326.132832967829,0.0
355012.02908761695,3997225.878295721,-12500.0,-168.51442175526816,1053.7694801466589,-18191.424861984837,-177.65236855255915,3530.9635820560952,-493.63361920209258,9558.7870445210028,-8826.5006473363028,5817.1799335179458,-5817.1799335179458,8826.5006473363028,18971.043512378099,0.0
360012.02908761695,3997225.878295721,-12500.0,-263.45349978591116,-495.47569365299546,-18607.222583356503,119.99085240913929,3606.0765008135991,-504.08284524056307,9750.9322130452547,-10355.147728449347,6132.3554817775203,-6132.3554817775203,10355.147728449347,19285.454690456521,0.0
365012.02908761695,3997225.878295721,-12500.0,-570.70166983525132,-1986.4927183679529,-18434.676920424474,408.88071867033699,3580.6249709091358,-502.37949050465664,9764.8565815081911,-11491.125518680283,6085.4866058626631,-6085.4866058626631,11491.125518680283,19265.238675605913,0.0
370012.02908761695,3997225.878295721,-12500.0,-1050.9352148061614,-3316.3666348113584,-17732.34843802562,671.15543195121847,3463.4265335200216,-489.38863544956166,9610.0561336553437,-12183.445962301694,5708.768942605062,-5708.768942605062,12183.445962301694,18928.403368725423,0.0
375012.02908761695,3997225.878295721,-12500.0,-1647.0490250384971,-4409.4730963164884,-16595.714523493112,893.14928847273814,3269.4127660926415,-466.69556651515745,9305.5355474414046,-12426.444277788563,5064.0993830955449,-5064.0993830955449,12426.444277788563,18310.959257076825,0.0
380012.02908761695,3997225.878295721,-12500.0,-2294.8676596881005,-5222.699305450612,-15140.791972642974,1066.3765554510717,3017.1894648324255,-436.35989941184783,8876.8143389555971,-12254.037038123985,4230.5658279044583,-4230.5658279044583,12254.037038123985,17461.317543424859,0.0
385012.02908761695,3997225.878295721,-12500.0,-2933.0794269606631,-5744.6805785336774,-13487.98988072477,1187.5951680211954,2726.5355279722107,-400.6475560753949,8352.7908474762244,-11729.117713550217,3291.6406271190535,-3291.6406271190535,11729.117713550217,16434.29758609899,0.0
390012.02908761695,3997225.878295721,-12500.0,-3510.612612557054,-5990.576851259686,-11748.944926149223,1258.1371336440454,2416.2690056510837,-361.78730136726693,7762.8740714142295,-10931.093597973901,2324.5436559987074,-2324.5436559987074,10931.093597973901,15285.65070114178,0.0
395012.02908761695,3997225.878295721,-12500.0,-3990.7218103607956,-5994.4534594613961,-10017.729208034827,1282.7944049398916,2102.72650682831,-321.78323533093442,7134.6910336677856,-9944.1599417610014,1393.1018317798871,-1393.1018317798871,9944.1599417610014,14067.697961955697,0.0
295012.02908761695,4002225.878295721,-12500.0,-2613.4593897231171,1618.1514891172656,2411.2489936881775,-452.26534564907945,-217.89174520446034,-4.0996940949477807,3030.147395555704,3015.9977598396067,-2980.7353575381007,2980.7353575381007,-3015.9977598396067,5249.4271890599048,0.0
300012.02908761695,4002225.878295721,-12500.0,-2862.0750072493679,2323.8471278891002,1623.3027794583459,-573.8853597832034,-61.004555950440569,-26.133102687050961,3277.3250416286883,3227.133863876692,-3009.7097945238665,3009.7097945238665,-3227.133863876692,5713.2218458486304,0.0
305012.02908761695,4002225.878295721,-12500.0,-3012.343502649423,3041.2784188421706,583.16551146862776,-693.05540125083826,137.21485167729116,-52.901871880513262,3590.6206646340447,3300.0893117693449,-2883.8028145063172,2883.8028145063172,-3300.0893117693449,6347.508578431637,0.0
310012.02908761695,4002225.878295721,-12500.0,-3043.1560604292981,3725.3819598810383,-720.68209285396722,-801.92671995375372,377.52314685105932,-84.360069424818732,3974.3243383565418,3187.5777215608164,-2576.587443543393,2576.587443543393,-3187.5777215608164,7160.2287110642446,0.0
315012.02908761695,4002225.878295721,-12500.0,-2941.6223420735269,4321.6698318454073,-2281.2998674947708,-891.4301973961243,657.65596453894693,-120.11958003786678,4425.3143977421687,2845.2784285229932,-2072.3711183485034,2072.3711183485034,-2845.2784285229932,8139.1504360571189,0.0
320012.02908761695,4002225.878295721,-12500.0,-2707.2033797151048,4770.4153282844391,-4068.1440646226147,-952.00320984685243,971.65440607608764,-159.39187828981079,4932.5976643444628,2238.6969022500375,-1371.6070542860152,1371.6070542860152,-2238.6969022500375,9253.7980163069897,0.0
325012.02908761695,4002225.878295721,-12500.0,-2354.8488165988788,5013.179234096513,-6023.9682200511215,-974.63107833322101,1309.5271133726058,-200.96716103756859,5477.9987815849272,1350.7869498807297,-495.25742748852309,495.25742748852309,-1350.7869498807297,10459.191720978044,0.0
330012.02908761695,4002225.878295721,-12500.0,-1916.0485315529622,5001.0601392486406,-8065.1854164460856,-952.09586932228331,1657.4311977074599,-243.24652859661347,6037.6567340565862,188.9080872726025,513.26181166085485,-513.26181166085485,-188.9080872726025,11699.954750999608,0.0
335012.02908761695,4002225.878295721,-12500.0,-1436.9260733773197,4703.3397282373244,-10086.701832904597,-880.2338212034839,1998.4904999452722,-284.33545080919197,6584.0808797424834,-1210.667405498501,1589.7407447168844,-1589.7407447168844,1210.667405498501,12914.61488523056,0.0
340012.02908761695,4002225.878295721,-12500.0,-973.10577648067351,4114.6648263778279,-11971.353022532832,-758.94086805990628,2314.246157342584,-322.19676546554899,7088.6542921348246,-2782.3824136784101,2654.9717574446245,-2654.9717574446245,2782.3824136784101,14040.319181485649,0.0
345012.02908761695,4002225.878295721,-12500.0,-581.96548817780717,3258.849999274747,-13602.863941208898,-592.66838846588053,2586.5764579167167,-354.84526999043896,7525.7916386199677,-4436.1273983449128,3624.1728263923069,-3624.1728263923069,4436.1273983449128,15017.919301375652,0.0
350012.02908761695,4002225.878295721,-12500.0,-313.76144031557675,2187.9573588955791,-14880.120102889327,-390.23349954591367,2799.7763528171945,-380.55673629933472,7932.9609992843698,-6066.8375548644844,4418.4179942578075,-4418.4179942578075,6066.8375548644844,15796.98907079932,0.0
355012.02908761695,4002225.878295721,-12500.0,-203.61828357869533,976.42891481711581,-15729.901887392796,-163.92035571000048,2942.4094631682774,-398.05612087745482,8242.0748691114477,-7567.3575096754112,4975.6959582266618,-4975.6959582266618,7567.3575096754112,16340.09063274668,0.0
360012.02908761695,4002225.878295721,-12500.0,-266.25464969159782,-288.66351693152166,-16115.436355600874,71.980628602552599,3008.571155605398,-406.64960631160949,8413.9776846755649,-8842.0051380780897,5259.1731260961806,-5259.1731260961806,8842.0051380780897,16625.617312401857,0.0
365012.02908761695,4002225.878295721,-12500.0,-494.59173745557564,-1519.1575820201165,-16039.13082635442,302.90717698540624,2998.3320676767171,-406.27938249337291,8446.0466668161698,-9818.0284034074248,5260.9439489582546,-5260.9439489582546,9818.0284034074248,16648.784716215669,0.0
370012.02908761695,4002225.878295721,-12500.0,-862.3079984320301,-2636.7025764487453,-15539.313176539759,515.69460043890649,2917.3230528380163,-397.49344420136896,8344.2343250945978,-10452.791230040006,5000.7826649300287,-5000.7826649300287,10452.791230040006,16420.69927755541,0.0
375012.02908761695,4002225.878295721,-12500.0,-1329.4017213696952,-3580.9675179686201,-14682.207921573872,699.88083770143112,2775.6135363347694,-381.34143566861962,8121.47889849291,-10735.721813026903,4520.6721233401131,-4520.6721233401131,10735.721813026903,15965.810131372922,0.0
380012.02908761695,4002225.878295721,-12500.0,-1849.2197393111894,-4314.0158653407525,-13551.243048113996,848.46610916937698,2586.1624646355403,-359.22151870280976,7795.8090302962573,-10685.379876914451,3876.7615583335664,-3876.7615583335664,10685.379876914451,15318.29069706363,0.0
385012.02908761695,4002225.878295721,-12500.0,-2375.3485728879778,-4820.7582137173085,-12235.976727442843,958.09062362079669,2363.1624438527197,-332.70815533116485,7388.2453481659677,-10343.004368205624,3130.6806161189115,-3130.6806161189115,10343.004368205624,14518.010796645536,0.0
390012.02908761695,4002225.878295721,-12500.0,-2867.1359208544736,-5106.2285309532781,-10822.505616896722,1028.7146269097882,2120.5527911580166,-303.3898736908406,6920.789248920265,-9764.3343302324975,2341.852754072911,-2341.852754072911,9764.3343302324975,13606.687753053298,0.0
305012.02908761695,4007225.878295721,-12500.0,-2623.5600042630022,2881.1755100181695,7.7737218669575618,-621.75073879190893,198.61911295419031,-53.394401569421881,3219.1228309789872,2803.650330681724,-2380.0946413162737,2380.0946413162737,-2803.650330681724,5740.0603245674856,0.0
310012.02908761695,4007225.878295721,-12500.0,-2611.2748337795429,3419.4859041485552,-1157.984616092454,-703.50719405814505,403.4968745861882,-79.056262317772621,3560.1905194073906,2635.451736699194,-2064.7242314850482,2064.7242314850482,-2635.451736699194,6472.7106159026671,0.0
315012.02908761695,4007225.878295721,-12500.0,-2494.6837909011688,3871.9895451482848,-2518.6483858900046,-767.90206400676254,637.43424176680674,-107.73910456493562,3952.1035735537253,2276.0637361618928,-1594.0106404516582,1594.0106404516582,-2276.0637361618928,7329.4050570814743,0.0
320012.02908761695,4007225.878295721,-12500.0,-2277.009713545287,4193.9303634862908,-4044.5941622410014,-808.02968894373873,895.1314702346275,-138.7887609526073,4384.543498181105,1703.7275313307666,-973.21200272051169,973.21200272051169,-1703.7275313307666,8282.843858967095,0.0
325012.02908761695,4007225.878295721,-12500.0,-1972.8281951427236,4343.2128119239178,-5686.984549256973,-817.61825067196526,1168.4855458284214,-171.26627314262288,4842.3792800695155,910.73898832502096,-222.76671192752264,222.76671192752264,-910.73898832502096,9296.4472920810349,0.0
330012.02908761695,4007225.878295721,-12500.0,-1608.2590402354062,4286.1569078274833,-7378.8406053847029,-791.87292826505211,1446.8227765116944,-203.97944463720901,5306.8116926988678,-92.209285650142363,621.02235385976314,-621.02235385976314,92.209285650142363,10327.130409186107,0.0
335012.02908761695,4007225.878295721,-12500.0,-1219.1713538391937,4003.220938778441,-9039.0809875923824,-728.2855667560957,1717.5422462420074,-235.55264109034744,5756.8331289253647,-1273.5647458500655,1507.7585599832062,-1507.7585599832062,1273.5647458500655,11328.225335728304,0.0
340012.02908761695,4007225.878295721,-12500.0,-847.35353908344678,3493.5158004595546,-10579.453199240412,-627.24979915102324,1967.1469180765923,-264.53357681449614,6170.9641958030643,-2581.2962461435895,2377.3722282216772,-2377.3722282216772,2581.2962461435895,12252.705445249985,0.0
345012.02908761695,4007225.878295721,-12500.0,-535.12275358880095,2776.9713582614013,-11913.546396818132,-492.33140827670377,2182.5455755418211,-289.52276245712551,6534.0224662784949,-3946.5914511701203,3166.7507131221291,-3166.7507131221291,3946.5914511701203,13056.637419136869,0.0
350012.02908761695,4007225.878295721,-12500.0,-319.34143046985025,1893.4058353858045,-12966.461401807193,-330.09820801390237,2352.4298155477163,-309.31060900481134,6890.3574858624543,-5290.6162268843273,3817.5091307352154,-3817.5091307352154,5290.6162268843273,13702.563072422356,0.0
355012.02908761695,4007225.878295721,-12500.0,-226.06807065303727,898.42562023871847,-13683.368099859304,-149.50381076076641,2468.4898912790686,-322.99818729809164,7151.6004296488236,-6533.2880935908688,4283.4211596571949,-4283.4211596571949,6533.2880935908688,14162.372288768238,0.0
360012.02908761695,4007225.878295721,-12500.0,-266.98023248698041,-143.16516862963545,-14035.340447098664,39.081314299693595,2526.2529436617851,-330.08311051423073,7304.453869739049,-7602.4744167294975,4536.0304494412903,-4536.0304494412903,7602.4744167294975,14419.25221595236,0.0
365012.02908761695,4007225.878295721,-12500.0,-438.28128249421911,-1165.1638737088233,-14021.445685693772,225.01723720581791,2525.4037080360927,-330.49615968591951,7346.5595906931749,-8441.8846058219042,4567.3774878236291,-4567.3774878236291,8441.8846058219042,14468.439666217148,0.0
370012.02908761695,4007225.878295721,-12500.0,-722.17268325814382,-2107.485768819814,-13666.924127055163,398.51593411783483,2469.5576359245001,-324.58438941826444,7281.6108371524233,-9016.2904993840148,4389.493092888375,-4389.493092888375,9016.2904993840148,14316.718423990691,0.0
375012.02908761695,4007225.878295721,-12500.0,-1090.3747216570314,-2922.081266572292,-13018.130788877963,551.55000411875426,2365.5694521281257,-313.04795755637849,7118.4876212506624,-9313.3836885909022,4031.0554108017109,-4031.0554108017109,9313.3836885909022,13980.823338739459,0.0
380012.02908761695,4007225.878295721,-12500.0,-1508.7834259036431,-3576.4529569014571,-12135.47955781465,678.42820614332561,2222.5380801772621,-296.84293439968826,6870.0330357767489,-9342.3735768807328,3532.1683168823001,-3532.1683168823001,9342.3735768807328,13485.075530862443,0.0
320012.02908761695,4012225.878295721,-12500.0,-1928.5212511168584,3690.7603042615838,-3947.7677293981515,-687.55357532416497,818.29836770871748,-120.46123359227288,3911.4928708621665,1281.300009648724,-670.93255998269524,670.93255998269524,-1281.300009648724,7435.6921314075889,0.0
325012.02908761695,4012225.878295721,-12500.0,-1667.0427774721625,3774.8772815378011,-5332.388945081967,-688.81315372825691,1040.612871782273,-145.9697911501691,4297.3925702888782,576.72885020178592,-28.120608117093695,28.120608117093695,-576.72885020178592,8291.2481690162404,0.0
330012.02908761695,4012225.878295721,-12500.0,-1363.3190105853132,3691.3590855165471,-6742.9774409038209,-662.29184408805384,1264.8196820439587,-171.45104481974812,4685.0781868228687,-289.8818918492326,680.74359135553925,-680.74359135553925,289.8818918492326,9152.4155425626886,0.0
335012.02908761695,4012225.878295721,-12500.0,-1045.3415645556247,3427.8838074072546,-8116.5900066678996,-606.50834872419796,1481.4438148642387,-195.90058169399731,5058.3748345620279,-1291.6010241191611,1415.9856508010098,-1415.9856508010098,1291.6010241191611,9983.4592898672254,0.0
340012.02908761695,4012225.878295721,-12500.0,-744.79927448362298,2985.9543084725688,-9386.0775679454564,-522.07274849897431,1680.5148395515473,-218.27387236203484,5400.9726888042078,-2387.0058807753467,2131.6406310375514,-2131.6406310375514,2387.0058807753467,10748.795826107027,0.0
345012.02908761695,4012225.878295721,-12500.0,-493.28811093069396,2382.1254485332315,-10486.431699653209,-411.83174699906124,1852.4599379358278,-237.57432132242437,5718.4736184063931,-3523.0383343947256,2780.164050650606,-2780.164050650606,3523.0383343947256,11415.379867981745,0.0
350012.02908761695,4012225.878295721,-12500.0,-318.21110996319192,1647.1672799194071,-11361.440039810352,-280.72635298505571,1989.0295105251976,-252.94328374024516,6019.7773116674098,-4639.8210005466035,3317.7972935607886,-3317.7972935607886,4639.8210005466035,11955.021949540665,0.0
355012.02908761695,4012225.878295721,-12500.0,-239.14243597369645,823.15901609535081,-11969.540447246427,-135.36439959202292,2084.1089200642023,-263.73929728302716,6241.6090671634902,-5676.7414596593426,3709.6492040600538,-3709.6492040600538,5676.7414596593426,12346.359154297774,0.0
360012.02908761695,4012225.878295721,-12500.0,-265.36225516585023,-41.04612338200576,-12287.865115708228,16.632983796788405,2134.2838835337939,-269.59425193564414,6377.0993999953098,-6578.7972377673414,3933.5692730656283,-3933.5692730656283,6578.7972377673414,12576.211717206257,0.0
365012.02908761695,4012225.878295721,-12500.0,-395.01224858262646,-895.18234503715973,-12313.826752422492,167.40272436214977,2139.0729735209056,-270.4384868487416,6424.0930325169247,-7302.113165460657,3982.139944369369,-3982.139944369369,7302.113165460657,12640.152460485622,0.0
335012.02908761695,3797225.878295721,-17500.0,-261.90936033796567,-1220.7280328962211,-12401.601664146398,-324.20524467158157,-3045.6897114476783,-549.61430993479394,6725.3711374382965,-7552.5672815617872,4069.356142449773,-4069.356142449773,7552.5672815617872,13288.219940042714,0.0
340012.02908761695,3797225.878295721,-17500.0,-88.43920787756025,-323.17493299249367,-12479.381202065333,-108.09312713252881,-3060.3489589724472,-551.07180792560177,6709.4534826832814,-6862.8805517345518,4090.0386251246746,-4090.0386251246746,6862.8805517345518,13283.92278096092,0.0
345012.02908761695,3797225.878295721,-17500.0,-28.845087783988546,603.02801020294237,-12251.506434994273,113.64264696643521,-3009.1041456011476,-542.17654021795977,6599.7266701282906,-5972.0870195638672,3922.2687407180761,-3922.2687407180761,5972.0870195638672,13102.537107781574,0.0
350012.02908761695,3797225.878295721,-17500.0,-89.081925524097983,1503.4151560072851,-11713.519145951484,329.41145855842603,-2891.2594878351506,-522.87726687479096,6399.2617711342727,-4922.8213643175623,3568.2649538422829,-3568.2649538422829,4922.8213643175623,12745.883405115812,0.0
355012.02908761695,3797225.878295721,-17500.0,-262.50309631789742,2323.1559079496292,-10883.094072937718,527.60943027858548,-2710.5261084938629,-493.75841503981877,6136.021445109378,-3771.4281322589486,3046.8370864696872,-3046.8370864696872,3771.4281322589486,12225.444538704642,0.0
360012.02908761695,3797225.878295721,-17500.0,-530.22812099109171,3013.1793994055611,-9799.1899166410913,697.8149221557378,-2474.8371715343183,-456.00868206485666,5835.2696885473342,-2582.3113164030315,2391.9283853162774,-2391.9283853162774,2582.3113164030315,11562.012921235453,0.0
365012.02908761695,3797225.878295721,-17500.0,-863.46434766355242,3535.6620833096817,-8518.3238747258583,831.85649339495649,-2195.6283138331132,-411.3188868410524,5485.8969990686473,-1421.0355092735524,1648.8706724051247,-1648.8706724051247,1421.0355092735524,10784.407528537771,0.0
370012.02908761695,3797225.878295721,-17500.0,-1227.3726038406467,3867.8932161260573,-7108.5522052271608,924.57629895149671,-1886.6934670035032,-361.72384821828172,5100.1400435069754,-347.37078771605906,868.99181179876609,-868.99181179876609,347.37078771605906,9927.4272388428526,0.0
375012.02908761695,3797225.878295721,-17500.0,-1585.7098998708377,4003.8664083846088,-5642.2198928878497,974.16896996571541,-1562.8054233080304,-309.41286441842072,4695.008277999249,590.50469216392719,103.58540775218546,-103.58540775218546,-590.50469216392719,9029.3109201416646,0.0
380012.02908761695,3797225.878295721,-17500.0,-1905.3474047844904,3953.4786239720024,-4188.737247462419,982.07184881068565,-1238.3274839137064,-256.537988209231,4287.9974758691378,1359.7580148664283,-601.66356988680491,601.66356988680491,-1359.7580148664283,8129.0255413358082,0.0
385012.02908761695,3797225.878295721,-17500.0,-2159.8599725009562,3739.7076593718116,-2808.5319072856364,952.46677770397287,-926.02455653053983,-205.04625213892129,3895.4289977899916,1944.2075615271974,-1210.8844578903108,1210.8844578903108,-1944.2075615271974,7263.6415259082341,0.0
320012.02908761695,3802225.878295721,-17500.0,-1545.8034908541001,-3952.3275197941457,-11789.608210919001,-1044.6969971511551,-3078.919044904178,-589.79075628559644,7066.1925223543612,-9348.4180657672623,3324.7615000965338,-3324.7615000965338,9348.4180657672623,13936.239974550299,0.0
325012.02908761695,3802225.878295721,-17500.0,-1073.3321026184003,-3326.3608760458069,-12785.887408157223,-876.69884671029024,-3303.1797874192348,-625.8676387566054,7360.8597343667752,-9413.3146607786894,3907.5675009279312,-3907.5675009279312,9413.3146607786894,14520.948704287481,0.0
330012.02908761695,3802225.878295721,-17500.0,-644.71086831703258,-2518.1179639220923,-13562.957434778584,-667.96831641580889,-3475.7214565384556,-653.0263755005069,7570.2873443466351,-9203.1592126608321,4359.1379035289028,-4359.1379035289028,9203.1592126608321,14945.800745147337,0.0
335012.02908761695,3802225.878295721,-17500.0,-299.4257319439551,-1556.5174840981922,-14052.05265552643,-425.60563138791588,-3582.2247372304978,-669.12937066502218,7679.3795069575526,-8700.5679192510961,4632.1150028484872,-4632.1150028484872,8700.5679192510961,15182.08465802715,0.0
340012.02908761695,3802225.878295721,-17500.0,-72.221273701337537,-488.52810195464434,-14196.657590363095,-160.41329554075116,-3611.1518775436543,-672.50180715199394,7676.9981971207744,-7910.4513310629955,4689.3248513653125,-4689.3248513653125,7910.4513310629955,15208.413587841291,0.0
345012.02908761695,3802225.878295721,-17500.0,12.442176499148918,623.76693093543849,-13960.788582253661,113.78585098432417,-3555.3570166996783,-662.15494630341595,7557.886917316403,-6862.6729788441371,4510.13897487748,-4510.13897487748,6862.6729788441371,15013.585368257753,0.0
350012.02908761695,3802225.878295721,-17500.0,-55.001175456154208,1709.0152268166369,-13335.557596222359,381.3834313498906,-3413.325463885878,-637.9487632753553,7327.5049442615655,-5611.2260295824763,4095.1542865664105,-4095.1542865664105,5611.2260295824763,14598.700958432897,0.0
355012.02908761695,3802225.878295721,-17500.0,-266.6995124160959,2694.6378564096422,-12342.491068045278,626.62041905653268,-3189.7658426355256,-600.66197861939611,7024.7128142367255,-4229.5643917237921,3467.946340785069,-3467.946340785069,4229.5643917237921,13978.140393751228,0.0
360012.02908761695,3802225.878295721,-17500.0,-597.7276569721929,3515.7091527246002,-11032.586763724199,835.36007773096628,-2895.383016893627,-551.94857741594501,6664.1882279054307,-2802.589339623099,2673.1901435565146,-2673.1901435565146,2802.589339623099,13179.147123721596,0.0
365012.02908761695,3802225.878295721,-17500.0,-1009.4202056795963,4122.9443043242773,-9480.9932130416892,996.67481992947364,-2545.8211086717952,-494.18334822741434,6242.2426946121022,-1416.6692602697817,1771.2780990002311,-1771.2780990002311,1416.6692602697817,12239.999654580632,0.0
370012.02908761695,3802225.878295721,-17500.0,-1455.0548224510294,4488.2144576488899,-7778.2168418762703,1103.9578303965791,-2159.9506466529615,-430.22070916193263,5777.1098659758491,-149.58684535339506,830.43677387275102,-830.43677387275102,149.58684535339506,11207.024187552239,0.0
375012.02908761695,3802225.878295721,-17500.0,-1886.6519131055893,4606.5750332252601,-6019.5614787318309,1155.3709836741598,-1757.8112572372959,-363.10759875431177,5291.4170224769377,937.66527578372484,-82.039916823667454,82.039916823667454,-937.66527578372484,10130.880900199985,0.0
380012.02908761695,3802225.878295721,-17500.0,-2261.4453571483709,4494.6759771417728,-4294.801632665225,1153.6000216253594,-1358.5760918276233,-295.79691673917876,4807.9897101521738,1805.8771878632606,-907.70186629779027,907.70186629779027,-1805.8771878632606,9062.6197959672609,0.0
385012.02908761695,3802225.878295721,-17500.0,-2546.7898979639567,4186.2386781997193,-2679.8640892256367,1105.0318853398619,-978.86676387305704,-230.90504140243362,4347.6137288885957,2438.8744877545141,-1602.6100110772552,1602.6100110772552,-2438.8744877545141,8049.8959964237029,0.0
390012.02908761695,3802225.878295721,-17500.0,-2722.8009905198937,3725.8403406487987,-1231.5997674178157,1018.5753113518527,-631.63031290223705,-170.54087980347703,3927.2677118080273,2841.4086150662579,-2140.0712545043725,2140.0712545043725,-2841.4086150662579,7133.4981352065761,0.0
395012.02908761695,3802225.878295721,-17500.0,-2782.6511458130331,3162.3739970257434,14.081376396275099,904.3742234887286,-325.64780250185731,-116.21923588214443,3558.7684565598774,3034.6816499279262,-2510.4990879831844,2510.4990879831844,-3034.6816499279262,6344.1248934482401,0.0
310012.02908761695,3807225.878295721,-17500.0,-3015.7233486899449,-5382.0935811745876,-10144.086076886537,-1512.2350455830556,-2867.5836946515951,-591.38081711924838,7016.6633074769916,-9477.3928488914171,1910.3178108262464,-1910.3178108262464,9477.3928488914171,13870.942722968806,0.0
315012.02908761695,3807225.878295721,-17500.0,-2492.9139586601582,-5172.3544625667728,-11626.639354859779,-1432.8701778104721,-3223.5446487985155,-652.65837630168471,7531.2983997157799,-10156.053551601408,2751.4650158648396,-2751.4650158648396,10156.053551601408,14873.220652459271,0.0
320012.02908761695,3807225.878295721,-17500.0,-1919.4385899034169,-4730.8346469313001,-13043.04628275281,-1297.2896572955817,-3558.5441002311582,-709.29764619046011,7991.5466582427316,-10611.822805510423,3573.9320067409276,-3573.9320067409276,10611.822805510423,15774.701309167494,0.0
325012.02908761695,3807225.878295721,-17500.0,-1337.5871473169643,-4044.3598624379474,-14304.650092337779,-1103.8320744965297,-3852.5643950053691,-758.04101818538504,8373.5953907475923,-10781.036652991466,4315.5396397998011,-4315.5396397998011,10781.036652991466,16530.221999769499,0.0
330012.02908761695,3807225.878295721,-17500.0,-797.96033967169296,-3120.320874899016,-15315.411876223458,-855.51451900952907,-4084.4682283621837,-795.55052537837196,8653.9568529732878,-10612.292333902846,4908.6120383579801,-4908.6120383579801,10612.292333902846,17095.173405811063,0.0
335012.02908761695,3807225.878295721,-17500.0,-353.89135034322959,-1990.7972652425842,-15981.55644358298,-560.74697473926244,-4234.085978846264,-818.73402081426866,8811.6622341863167,-10075.768964419181,5287.8580611089028,-5287.8580611089028,10075.768964419181,17429.606260363562,0.0
340012.02908761695,3807225.878295721,-17500.0,-53.919287041937991,-713.51109519259285,-16223.502961122751,-233.36006999315589,-4284.688315627408,-825.11181456637485,8830.7958883939064,-9171.3537668223616,5399.9666149175646,-5399.9666149175646,9171.3537668223616,17502.760893838749,0.0
345012.02908761695,3807225.878295721,-17500.0,66.457041997592739,631.51741737951431,-15988.21326190581,108.24324209175603,-4225.4573888193081,-813.16451520235853,8703.616912468291,-7933.4720238441751,5213.2316977679584,-5213.2316977679584,7933.4720238441751,17297.375567865693,0.0
350012.02908761695,3807225.878295721,-17500.0,-8.0551400080115201,1949.8822414898846,-15259.428983919797,442.82495117032107,-4053.4655562885719,-782.59622287787909,8439.6748469501745,-6430.8133471890087,4725.0125108149405,-4725.0125108149405,6430.8133471890087,16813.020416650801,0.0
355012.02908761695,3807225.878295721,-17500.0,-268.36695242078645,3144.334368156814,-14063.235791249534,748.72407523884874,-3774.6897601022297,-734.45331673187297,8086.0114512536375,-4760.1304872029996,3964.9219101536492,-3964.9219101536492,4760.1304872029996,16067.76804506935,0.0
360012.02908761695,3807225.878295721,-17500.0,-681.20216538064562,4127.864668437107,-12467.135999002285,1006.5271359898844,-3403.7452160542625,-671.06352370782679,7649.5508030050341,-3034.7213118987574,2992.4413458705194,-2992.4413458705194,3034.7213118987574,15097.727238202571,0.0
365012.02908761695,3807225.878295721,-17500.0,-1193.951724125558,4835.5370051236623,-10572.345019160493,1201.4647064468709,-2962.3096325253937,-595.79921168548265,7135.932770928147,-1369.7512044152857,1889.0694760093018,-1889.0694760093018,1369.7512044152857,13954.404269609749,0.0
370012.02908761695,3807225.878295721,-17500.0,-1743.1781539401113,5232.482310463165,-8500.7210563078752,1325.0534561577981,-2476.5160785874846,-512.70491227550792,6571.0911233434226,132.52437953126571,746.59460141412865,-746.59460141412865,-132.52437953126571,12700.265163846845,0.0
375012.02908761695,3807225.878295721,-17500.0,-2264.7370680688323,5316.4381111690718,-6379.1232150458973,1375.6800920980195,-1973.8355922669557,-426.05635064245342,5985.4020711903649,1394.526351838917,-345.85686615325517,345.85686615325517,-1394.526351838917,11403.204513316525,0.0
380012.02908761695,3807225.878295721,-17500.0,-2703.1596220127026,5114.7277677477859,-4324.4637670947195,1358.1001563656735,-1480.0565449490136,-339.93070296112222,5408.8793175125893,2369.9746365905162,-1313.1758189680741,1313.1758189680741,-2369.9746365905162,10130.711798504053,0.0
385012.02908761695,3807225.878295721,-17500.0,-3018.3643409443521,4676.9490169415894,-2432.2127759452396,1282.07093603316,-1016.8831534133762,-257.85283059784331,4868.0516643583223,3044.7172610539833,-2101.8930921087799,2101.8930921087799,-3044.7172610539833,8944.3136871021161,0.0
390012.02908761695,3807225.878295721,-17500.0,-3188.7334003103206,4065.4833014692181,-769.89614319129566,1160.5004875954232,-600.46353259121315,-182.56339405714817,4383.4885644976694,3432.5981281680015,-2683.1679428054304,2683.1679428054304,-3432.5981281680015,7894.479887945934,0.0
395012.02908761695,3807225.878295721,-17500.0,-3210.6458898714168,3346.0189983708888,624.28466654439023,1007.5238576775538,-240.90805056717483,-115.91900617126049,3968.0225738498539,3568.1535596337553,-3051.4941969400807,3051.4941969400807,-3568.1535596337553,7015.9045473405822,0.0
400012.02908761695,3807225.878295721,-17500.0,-3095.3616301228776,2579.76617005759,1738.6869639530582,836.84071633866904,57.350366365667746,-58.912723342264087,3625.9282874711348,3498.1850034383538,-3220.3501574466168,3220.3501574466168,-3498.1850034383538,6323.4532518414953,0.0
405012.02908761695,3807225.878295721,-17500.0,-2864.4913813880657,1818.2333299297059,2582.8626760739317,660.51015462929831,294.62249718219886,-11.782736516617808,3353.3935764718699,3273.9241602155525,-3216.3374508522429,3216.3374508522429,-3273.9241602155525,5810.2533847775712,0.0
305012.02908761695,3812225.878295721,-17500.0,-4188.5909993713858,-6156.6278592699109,-9100.3468351992269,-1843.6728758057648,-2789.3313881615254,-617.94007230175214,7159.4683040335749,-9413.5367985995163,814.8759297170327,-814.8759297170327,9413.5367985995163,14200.836473708889,0.0
310012.02908761695,3812225.878295721,-17500.0,-3701.259379579943,-6252.1863721824202,-10854.033676249086,-1834.5011947824892,-3236.0577694309145,-699.29451216622908,7832.4549890558028,-10487.143957063261,1763.9398120615924,-1763.9398120615924,10487.143957063261,15505.748843805841,0.0
315012.02908761695,3812225.878295721,-17500.0,-3096.7781958156033,-6106.7925563570288,-12655.492767911497,-1762.0266632838152,-3686.6258736216514,-779.6810021990907,8476.6248198075155,-11399.44193053157,2779.3664679023768,-2779.3664679023768,11399.44193053157,16758.670151498322,0.0
320012.02908761695,3812225.878295721,-17500.0,-2409.8820831628414,-5676.8641378762877,-14413.897649503628,-1617.5253613353441,-4118.8071904196104,-855.17950320149203,9063.1952601404919,-12061.097325073724,3799.3416994883119,-3799.3416994883119,12061.097325073724,17905.289889274067,0.0
325012.02908761695,3812225.878295721,-17500.0,-1692.3977399831394,-4936.0906139457975,-16016.468260918024,-1396.7257615790679,-4506.0061974782029,-921.28745705216704,9560.667696649396,-12383.374800679487,4744.8186108587961,-4744.8186108587961,12383.374800679487,18885.942422628581,0.0
330012.02908761695,3812225.878295721,-17500.0,-1009.9643145481375,-3884.5450643955851,-17336.120525714097,-1101.6575193997487,-4819.1652437268767,-973.26439392128623,9937.0801600215964,-12290.283179240039,5525.7887190386946,-5525.7887190386946,12290.283179240039,19639.933096469678,0.0
335012.02908761695,3812225.878295721,-17500.0,-434.87323405913617,-2555.950306115285,-18244.275693945088,-741.98880313133088,-5029.6788807227404,-1006.6104448353162,10163.073950013197,-11732.422604262441,6051.829208312769,-6051.829208312769,11732.422604262441,20111.257999236317,0.0
340012.02908761695,3812225.878295721,-17500.0,-35.467661565467161,-1020.6808958648287,-18627.936313805414,-335.38485640385613,-5113.0744352545835,-1017.6300764227525,10215.695032529133,-10699.967500040802,6245.9511723593059,-6245.9511723593059,10699.967500040802,20255.298509394237,0.0
345012.02908761695,3812225.878295721,-17500.0,136.20877686991599,617.64683479428606,-18408.250311790987,93.492371276698222,-5052.8371340062895,-1003.9801682463353,10083.454348326135,-9231.281962382971,6059.2754457458341,-6059.2754457458341,9231.281962382971,20045.373059436046,0.0
350012.02908761695,3812225.878295721,-17500.0,55.697683142235739,2232.8280741490589,-17556.705109055914,515.43130926653168,-4843.6171219623629,-965.09778589343864,9781.4613690415808,-7414.0479112689709,5483.074166940055,-5483.074166940055,7414.0479112689709,19478.0786254052,0.0
355012.02908761695,3812225.878295721,-17500.0,-266.86977402424577,3692.82679159383,-16104.558793366803,900.27443382857064,-4492.9827275149555,-902.40269876376544,9361.6686962302956,-5377.1072560457733,4554.5390835946901,-4554.5390835946901,5377.1072560457733,18576.167404075921,0.0
360012.02908761695,3812225.878295721,-17500.0,-786.53187406766313,4879.3874828150538,-14142.23712511003,1221.0079773481209,-4021.1408052474462,-819.21067489505708,8828.229178119469,-3273.6864789090441,3353.8587414669501,-3353.8587414669501,3273.6864789090441,17388.100828336996,0.0
365012.02908761695,3812225.878295721,-17500.0,-1430.6764745819617,5705.9114126396826,-11808.004249588266,1457.4460084122738,-3458.5486216834242,-720.36453978990858,8197.7127180643693,-1259.4097213019725,1992.5743747067547,-1992.5743747067547,1259.4097213019725,15984.180054638146,0.0
370012.02908761695,3812225.878295721,-17500.0,-2112.0113570478211,6129.2441495409948,-9268.1518492184605,1598.6912094110783,-2841.8718203066342,-611.6502396236184,7506.6100294372673,529.83104924654629,595.79667828078766,-595.79667828078766,-529.83104924654629,14449.819160944235,0.0
375012.02908761695,3812225.878295721,-17500.0,-2743.9042057504839,6152.7471062880768,-6693.4156790323987,1643.8769308824021,-2209.1824461383176,-499.11495512110213,6796.1268077027189,1994.988215948471,-717.26563751990443,717.26563751990443,-1994.988215948471,12877.145908633456,0.0
380012.02908761695,3812225.878295721,-17500.0,-3254.1529280634859,5820.6713147809478,-4237.0393724263813,1601.1823032656423,-1595.4192650999955,-388.41577685959379,6106.0286386342095,3082.5727563544742,-1849.7930071341025,1849.7930071341025,-3082.5727563544742,11356.200739890912,0.0
385012.02908761695,3812225.878295721,-17500.0,-3594.1375583479203,5206.2167937431723,-2018.8689742405845,1485.5404585017973,-1028.954303096074,-284.30671465511097,5470.1634757090005,3784.2485053340902,-2737.5320343983499,2737.5320343983499,-3784.2485053340902,9966.6138143621338,0.0
390012.02908761695,3812225.878295721,-17500.0,-3742.0721775999873,4396.9266336062301,-117.59183196971706,1315.7126638315362,-529.71204998505095,-190.32653850083884,4912.9798886720237,4129.0872257406081,-3351.5687680710275,3351.5687680710275,-4129.0872257406081,8769.9770850369096,0.0
395012.02908761695,3812225.878295721,-17500.0,-3700.9048229616255,3480.9542331287803,1429.1889246506375,1111.4065492898976,-108.84812534995466,-108.69858219249301,4447.2931334597897,4171.6986695149417,-3694.7279421213816,3694.7279421213816,-4171.6986695149417,7802.9351641295307,0.0
400012.02908761695,3812225.878295721,-17500.0,-3492.6141219418128,2536.62733496479,2619.0703788296696,890.9430738465428,230.3398937021021,-40.41026032514894,4073.8051454820688,3979.5804930937534,-3793.9079208820799,3793.9079208820799,-3979.5804930937534,7072.1680478092876,0.0
405012.02908761695,3812225.878295721,-17500.0,-3151.0097276009424,1626.2790492806798,3475.8524976229019,669.71822124835217,490.75480450923686,14.583945549416422,3782.8295092021353,3622.2119468094679,-3690.9281075898689,3690.9281075898689,-3622.2119468094679,6554.4467411850528,0.0
410012.02908761695,3812225.878295721,-17500.0,-2714.812269395909,794.08555393897211,4039.8911723659412,459.47229099315859,679.57559835466122,57.099192249388039,3558.0050451718075,3163.2121816721228,-3433.9626988449654,3433.9626988449654,-3163.2121816721228,6204.5629006601193,0.0
415012.02908761695,3812225.878295721,-17500.0,-2222.1228614239913,66.930213076506561,4359.5221902666999,268.22121195430509,806.43336877497893,88.45003324165981,3380.8004552450939,2655.796184144227,-3070.7948511013096,3070.7948511013096,-2655.796184144227,5969.0618341559148,0.0
300012.02908761695,3817225.878295721,-17500.0,-5435.2837031013123,-6557.8102501089006,-7543.5932357868087,-2122.1363074073934,-2567.5394259500254,-620.6623263710527,7100.5472409389558,-8754.0902217999537,-559.18286305203492,559.18286305203492,8754.0902217999537,14144.894827961289,0.0
305012.02908761695,3817225.878295721,-17500.0,-5090.3142296736069,-7007.6523157736401,-9442.6715538110129,-2205.6300123222413,-3085.8537446565842,-721.28193585462213,7917.2807448835429,-10182.607751582747,384.84096193731239,-384.84096193731239,10182.607751582747,15733.102407189379,0.0
310012.02908761695,3817225.878295721,-17500.0,-4566.1366981640931,-7249.6408065087198,-11521.741506714219,-2227.8499915418774,-3640.6077016478876,-826.41280205793976,8746.2540276237778,-11555.980910130955,1489.2521044905579,-1489.2521044905579,11555.980910130955,17340.758637463387,0.0
315012.02908761695,3817225.878295721,-17500.0,-3876.4633476321301,-7210.9707308514135,-13707.879480298154,-2172.1475391550375,-4211.6091649253949,-932.04537310754461,9554.5190291871604,-12772.65286370425,2709.2918879746348,-2709.2918879746348,12772.65286370425,18911.268214263469,0.0
320012.02908761695,3817225.878295721,-17500.0,-3058.2813630815294,-6825.4589786760807,-15892.80030994241,-2024.4212522033779,-4770.770977314045,-1032.9493495774523,10304.895033041399,-13714.788913386343,3972.4433391312677,-3972.4433391312677,13714.788913386343,20375.408968781256,0.0
325012.02908761695,3817225.878295721,-17500.0,-2173.7599201737048,-6046.09557004815,-17934.152615489755,-1775.9828600233941,-5282.8657111641087,-1122.8970874486984,10955.605915206093,-14259.249369309226,5179.3050082108339,-5179.3050082108339,14259.249369309226,21654.340723438592,0.0
330012.02908761695,3817225.878295721,-17500.0,-1307.475188423665,-4859.062463855842,-19663.870000843959,-1426.5427783480122,-5707.8483610353696,-1195.1304013362717,11462.916276003032,-14294.159349892689,6210.443010850031,-6210.443010850031,14294.159349892689,22665.110474991798,0.0
335012.02908761695,3817225.878295721,-17500.0,-557.59149985524721,-3296.2261864150846,-20904.868880557231,-986.6381606602605,-6004.8991849446529,-1243.0665761379964,11785.395657407891,-13739.425985456552,6940.2048181879709,-6940.2048181879709,13739.425985456552,23328.655122681943,0.0
340012.02908761695,3817225.878295721,-17500.0,-21.052913764206544,-1442.0775979145699,-21495.289310895074,-478.68158819844928,-6137.8735889280251,-1261.1620931368866,11889.542221704665,-12567.386034485988,7256.5957568304675,-7256.5957568304675,12567.386034485988,23579.587572842851,0.0
345012.02908761695,3817225.878295721,-17500.0,225.01562272725093,568.79305994546019,-21316.75256429143,64.084602445898724,-6081.3229498483543,-1245.7916231684717,11757.954701189055,-10818.133510726253,7083.863763031547,-7083.863763031547,10818.133510726253,23376.433120644178,0.0
350012.02908761695,3817225.878295721,-17500.0,141.32048159984396,2565.8661589435501,-20320.277559907983,601.03091734842167,-5825.7463101384828,-1195.9465703176297,11411.683959780899,-8603.7409878271847,6402.1619858902141,-6402.1619858902141,8603.7409878271847,22710.24744092039,0.0
355012.02908761695,3817225.878295721,-17500.0,-261.66738320551258,4367.2836108741658,-18542.51561375655,1089.5923754082883,-5380.6622786261687,-1113.5783391236228,10906.047141783214,-6097.7806596322735,5258.0199489964161,-5258.0199489964161,6097.7806596322735,21609.655761514037,0.0
360012.02908761695,3817225.878295721,-17500.0,-922.41306617367695,5809.799116134287,-16106.159383548154,1491.6426099189734,-4774.385130321878,-1003.4692020551015,10247.628982227423,-3510.5381599153143,3761.0053438668083,-3761.0053438668083,3510.5381599153143,20140.569430317868,0.0
365012.02908761695,3817225.878295721,-17500.0,-1739.1077630933576,6776.3805086015691,-13203.058709891768,1779.2673892241219,-4050.3557035136323,-872.65021864874029,9466.5066098951538,-1055.428901820432,2066.166634913001,-2066.166634913001,1055.428901820432,18400.474626161507,0.0
370012.02908761695,3817225.878295721,-17500.0,-2589.8795460737715,7213.9264973643185,-10063.516396726976,1938.5096033382138,-3260.7401927165665,-729.47306731588333,8614.1672759911744,1084.8469829288665,346.47689628243131,-346.47689628243131,-1084.8469829288665,16507.977079173121,0.0
375012.02908761695,3817225.878295721,-17500.0,-3356.495485583247,7136.7199669076927,-6920.0203209115261,1970.2638919819485,-2458.9024981384723,-582.54654321764042,7747.152366553808,2783.564772790271,-1237.0014954923618,1237.0014954923618,-2783.564772790271,14589.766190425413,0.0
380012.02908761695,3817225.878295721,-17500.0,-3944.8255301423974,6616.0166986327959,-3974.6010547607507,1888.37603802682,-1692.4942494941129,-439.7467315937418,6918.5143955930398,3981.2222592391317,-2559.3269619742696,2559.3269619742696,-3981.2222592391317,12767.042058848825,0.0
385012.02908761695,3817225.878295721,-17500.0,-4297.1833140539538,5760.31202491163,-1376.8822921910889,1715.7660954096118,-998.54671833029067,-307.47511007341711,6171.2448598290057,4682.2027193936601,-3545.0279284254825,3545.0279284254825,-4682.2027193936601,11142.764965112772,0.0
390012.02908761695,3817225.878295721,-17500.0,-4395.0042365466425,4692.70573377038,784.42907787657555,1479.7715059483678,-401.18168917762853,-190.25071027693053,5533.3980216945329,4940.5969253944168,-4169.5117494030455,4169.5117494030455,-4940.5969253944168,9790.0313516486567,0.0
395012.02908761695,3817225.878295721,-17500.0,-4253.4665402171768,3531.0750497022404,2478.0687359512203,1207.8358097468483,88.217651385222652,-90.638047028739109,5015.5557491428508,4840.9733299299332,-4451.0389503007573,4451.0389503007573,-4840.9733299299332,8742.1910010775591,0.0
400012.02908761695,3817225.878295721,-17500.0,-3911.4225993947998,2374.4431965985809,3718.8068137590062,924.2852902948481,469.06054795185241,-9.442925045415425,4611.52783868804,4479.539017618491,-4437.5687120255634,4437.5687120255634,-4479.539017618491,7988.1005854811938,0.0
405012.02908761695,3817225.878295721,-17500.0,-3420.1723416826471,1296.3306346214586,4552.7447300758813,648.46467613660741,748.6950439727442,53.925813654981745,4302.614527177132,3949.2784239694324,-4192.7086739348897,4192.7086739348897,-3949.2784239694324,7478.1441275476755,0.0
410012.02908761695,3817225.878295721,-17500.0,-2833.6774209037553,343.98076544743577,5043.0515892202893,394.12084500573297,939.41265401104192,101.03112542533475,4064.1786012578837,3330.458607887354,-3783.7378775529874,3783.7378775529874,-3330.458607887354,7141.9829622901743,0.0
415012.02908761695,3817225.878295721,-17500.0,-2201.5318260091317,-458.50909751051717,5258.3688026789396,169.70862156142132,1055.8284451251054,134.00055183954842,3872.003352099463,2686.1976916295157,-3273.1074477475099,3273.1074477475099,-2686.1976916295157,6909.6602931582556,0.0
420012.02908761695,3817225.878295721,-17500.0,-1564.9004869002076,-1105.1411744973366,5264.6923090022574,-20.760024252782568,1112.8883100365913,155.18729006274577,3706.3724635115595,2061.8781626822006,-2713.5442585281621,2713.5442585281621,-2061.8781626822006,6725.7271564353086,0.0
290012.02908761695,3822225.878295721,-17500.0,-6499.5463347870254,-5612.0898260130252,-4020.4778179552541,-2087.5463410514212,-1724.9248397453769,-491.99280831649378,6077.530387711131,-5948.6547611363139,-2643.3384894449327,2643.3384894449327,5948.6547611363139,11992.899824731312,0.0
295012.02908761695,3822225.878295721,-17500.0,-6594.1302490722437,-6464.3767385630199,-5588.5811920936239,-2303.7996720478004,-2204.1981404984062,-595.18757135074884,6888.1835850897478,-7480.1543350918437,-2072.6916329532505,2072.6916329532505,7480.1543350918437,13668.528010464914,0.0
300012.02908761695,3822225.878295721,-17500.0,-6504.1651707031442,-7261.607299260465,-7464.5524185674658,-2492.8458440152986,-2760.1780112247761,-711.41061020645395,7775.9927290263713,-9153.178425731574,-1273.2202751766686,1273.2202751766686,9153.178425731574,15483.315134265087,0.0
305012.02908761695,3822225.878295721,-17500.0,-6197.7927349967931,-7929.4187874835161,-9645.1559568820248,-2634.5564951290271,-3388.3263630276165,-839.00603414658133,8746.1284355976477,-10907.893539544428,-233.47577859512148,233.47577859512148,10907.893539544428,17405.934895959708,0.0
310012.02908761695,3822225.878295721,-17500.0,-5656.94055554444,-8377.482838479802,-12096.064948138699,-2705.7962047759352,-4075.8476007209715,-974.76323263068218,9764.2894147073166,-12652.758555749042,1035.2908664812858,-1035.2908664812858,12652.758555749042,19387.689033565992,0.0
315012.02908761695,3822225.878295721,-17500.0,-4886.1245373899601,-8505.7303059433852,-14741.430826629923,-2682.3395440152153,-4799.5634033766073,-1113.6502338013333,10779.738007758549,-14263.047741355731,2490.1440354468295,-2490.1440354468295,14263.047741355731,21360.527173871713,0.0
320012.02908761695,3822225.878295721,-17500.0,-3920.8765796776929,-8216.0095005094645,-17455.768419735592,-2541.9839019386259,-5524.5779719279953,-1248.7341887021564,11742.872727426453,-15585.212523974511,4049.3145360803674,-4049.3145360803674,15585.212523974511,23236.978470469614,0.0
325012.02908761695,3822225.878295721,-17500.0,-2833.1820623262834,-7429.3615606199701,-20061.755136499934,-2268.755932507403,-6204.5299720263884,-1371.4077547080483,12597.978330358554,-16449.493162399936,5590.0202213869634,-5590.0202213869634,16449.493162399936,24913.076412513565,0.0
330012.02908761695,3822225.878295721,-17500.0,-1730.6483313387789,-6107.2289187960778,-22337.949626769947,-1857.6765292753544,-6784.2079823278264,-1472.0101156745486,13284.894179882369,-16691.927175622583,6954.7359391418076,-6954.7359391418076,16691.927175622583,26275.114678121347,0.0
335012.02908761695,3822225.878295721,-17500.0,-746.45104296583531,-4272.4700928912698,-24039.639832045417,-1319.0653345387918,-7205.0222247951615,-1540.8615200050372,13744.624457772128,-16184.383913330512,7968.5312112594293,-7968.5312112594293,16184.383913330512,27210.626907252776,0.0
340012.02908761695,3822225.878295721,-17500.0,-19.009792885810533,-2023.7136102743418,-24933.06854701816,-680.98287937164912,-7413.1030368197917,-1569.6056204577383,13927.660759622046,-14867.463660848684,8467.3741585280259,-8467.3741585280259,14867.463660848684,27622.86713488559,0.0
345012.02908761695,3822225.878295721,-17500.0,336.09129984966398,464.13636821362775,-24838.522731270652,11.565103575923853,-7368.8088063797686,-1552.6191814510539,13806.767458709182,-12777.493523762554,8333.0068659728058,-8333.0068659728058,12777.493523762554,27446.776862675084,0.0
350012.02908761695,3822225.878295721,-17500.0,255.2264126668766,2958.1910075807755,-23672.549136577374,701.41859381596691,-7055.4975607347205,-1488.1679529985238,13407.781401111459,-10057.404370847013,7525.5252405809615,-7525.5252405809615,10057.404370847013,26663.291269189445,0.0
355012.02908761695,3822225.878295721,-17500.0,-252.58485353595432,5204.0055701090359,-21476.205589749883,1327.61358337974,-6484.9373854877031,-1378.976472281302,12790.649744577589,-6943.8399629613778,6102.488753009935,-6102.488753009935,6943.8399629613778,25308.114524778783,0.0
360012.02908761695,3822225.878295721,-17500.0,-1101.9631198738675,6972.2801856932738,-18418.382322580594,1835.5127198013311,-5697.4113632661056,-1232.0399356453847,11969.353798945824,-3730.160752923035,4215.8438269731969,-4215.8438269731969,3730.160752923035,23472.31799024823,0.0
365012.02908761695,3822225.878295721,-17500.0,-2147.664526357627,8102.5045637046924,-14769.921764455119,2186.037107304704,-4755.8892477360369,-1057.6701518771883,10992.002785916888,-713.85503034725195,2084.8517907997407,-2084.8517907997407,713.85503034725195,21293.452463895421,0.0
370012.02908761695,3822225.878295721,-17500.0,-3216.8239590067496,8530.1799287433641,-10855.030005667448,2361.463070925191,-3735.7116753965006,-868.01427446811522,9931.9358895027035,1856.3659944417586,-47.584357264187702,47.584357264187702,-1856.3659944417586,18939.056164488349,0.0
375012.02908761695,3822225.878295721,-17500.0,-4146.3731714416554,8290.0588805632469,-6994.2172273990336,2366.3783280102675,-2712.5509539112518,-675.38406773454142,8867.708967433844,3818.4793245084861,-1961.6254013040357,1961.6254013040357,-3818.4793245084861,16585.869972616176,0.0
380012.02908761695,3822225.878295721,-17500.0,-4813.8125873317485,7496.8165396661034,-3455.0293813857334,2224.0388579613232,-1751.760931486268,-490.75538675804466,7870.4967033406774,5111.0684084121158,-3496.4149803985497,3496.4149803985497,-5111.0684084121158,14398.362342098299,0.0
385012.02908761695,3822225.878295721,-17500.0,-5153.4467284713901,6312.0171570791254,-422.07146101023579,1969.741309610532,-901.40079425453234,-322.70458607402963,6994.2668486315852,5763.5660467020716,-4566.9546102639415,4566.9546102639415,-5763.5660467020716,12508.709849606645,0.0
390012.02908761695,3822225.878295721,-17500.0,-5156.6505377379344,4908.8374795617265,2010.5413128545799,1643.3732547900518,-189.7189526173168,-176.89990372288938,6269.0998968697795,5870.6151475357719,-5161.554839327905,5161.554839327905,-5870.6151475357719,10998.899501629758,0.0
395012.02908761695,3822225.878295721,-17500.0,-4860.1630130520716,3443.7349618305238,3828.5116644911864,1282.9992603170572,373.49174026667907,-56.119171533116166,5699.0655919843739,5561.0383259145892,-5325.5442321708924,5325.5442321708924,-5561.0383259145892,9887.6595722077036,0.0
400012.02908761695,3822225.878295721,-17500.0,-4328.7885028621922,2039.460998147003,5076.3884609217148,920.53233361352329,793.0593821795776,39.340162446025936,5265.958587719816,4970.1599175916353,-5139.1752995863035,5139.1752995863035,-4970.1599175916353,9130.2820893189892,0.0
405012.02908761695,3822225.878295721,-17500.0,-3638.28585852179,779.2553984590661,5834.1139395721066,579.68385806139531,1083.6411235320413,111.03710784491322,4938.1993067151379,4220.248186080652,-4696.5129363979258,4696.5129363979258,-4220.248186080652,8638.3647665085446,0.0
410012.02908761695,3822225.878295721,-17500.0,-2862.0277453520735,-290.67963113757855,6196.5116125395143,275.78976479830732,1265.1607210209681,161.71432922580323,4681.3058681986249,3409.9796197769751,-4089.2827004225778,4089.2827004225778,-3409.9796197769751,8312.2213468114114,0.0
415012.02908761695,3822225.878295721,-17500.0,-2062.6650667187928,-1154.0938704416701,6258.2591302578467,16.854693789762276,1359.1550066703217,194.6962599670178,4465.7252167818224,2611.3481135194625,-3396.8750156226797,3396.8750156226797,-2611.3481135194625,8067.7558459872344,0.0
420012.02908761695,3822225.878295721,-17500.0,-1288.3757527640314,-1816.1029498823762,6104.6363694167903,-194.82454655172955,1386.2530416540726,213.42177118025691,4270.2377300177832,1871.4982889724442,-2681.8294991362982,2681.8294991362982,-1871.4982889724442,7847.4753146520698,0.0
425012.02908761695,3822225.878295721,-17500.0,-572.4867448252935,-2295.14354737336,5807.0689221765524,-360.93939314627249,1364.7061278878405,221.12684769197426,4081.8415286751515,1217.0858350633189,-1989.2861914089926,1989.2861914089926,-1217.0858350633189,7618.8452434248366,0.0
290012.02908761695,3827225.878295721,-17500.0,-7472.0283454004993,-5822.360554634326,-3427.8179294292067,-2350.9064070277409,-1723.0115330329647,-540.26961675279745,6525.1283868307946,-5674.9013970552751,-3527.7289163154951,3527.7289163154951,5674.9013970552751,12788.966433087107,0.0
295012.02908761695,3827225.878295721,-17500.0,-7725.3071044765711,-6892.9810205414715,-5100.5431747603625,-2642.9930328281753,-2271.9693404175105,-665.54054624183584,7466.6257819134471,-7422.8397672835272,-3008.0504676288106,3008.0504676288106,7422.8397672835272,14737.055389188119,0.0
300012.02908761695,3827225.878295721,-17500.0,-7768.2027598663499,-7946.4407540995853,-7165.3730381765381,-2913.5103971775889,-2924.9556960850068,-809.45556642925158,8509.5328967074347,-9392.1344596527197,-2207.317454076976,2207.317454076976,9392.1344596527197,16886.743750421585,0.0
305012.02908761695,3827225.878295721,-17500.0,-7549.0267640587135,-8895.5333050925456,-9639.5950109794394,-3136.9410190628591,-3681.352560197528,-970.62053424907901,9653.7755692278752,-11525.733010420314,-1094.6083081473707,1094.6083081473707,11525.733010420314,19208.548006903198,0.0
310012.02908761695,3827225.878295721,-17500.0,-7028.9866547179718,-9626.7693532581816,-12504.694995083264,-3282.1764926957544,-4530.1414382563516,-1145.5117134798879,10891.655687170911,-13723.851544938649,335.89910005513957,-335.89910005513957,13723.851544938649,21650.023291001773,0.0
315012.02908761695,3827225.878295721,-17500.0,-6195.0669869502544,-10005.632736695796,-15689.749153801737,-3314.5758712340203,-5446.2052055200566,-1327.959768503141,12165.761965678526,-15837.864278552035,2050.7685508889035,-2050.7685508889035,15837.864278552035,24131.516957328808,0.0
320012.02908761695,3827225.878295721,-17500.0,-5074.1140299060917,-9889.8426825021288,-19055.847473073041,-3199.9437244611927,-6387.3331821542024,-1508.8657301723372,13404.995787955215,-17671.297916003801,3963.7760014627356,-3963.7760014627356,17671.297916003801,26544.079882578921,0.0
325012.02908761695,3827225.878295721,-17500.0,-3744.533143318577,-9152.1718073719785,-22386.845142875882,-2910.5459025103373,-7293.2171038350161,-1676.3640808760595,14533.784514336588,-18992.518926135534,5927.6193835820941,-5927.6193835820941,18992.518926135534,28751.386032457744,0.0
330012.02908761695,3827225.878295721,-17500.0,-2340.2282213927792,-7711.7723046543342,-25393.369443977819,-2432.5977627949314,-8087.9088395190511,-1816.619394912067,15468.847057629824,-19562.624510749003,7736.9411098922119,-7736.9411098922119,19562.624510749003,30597.418432053164,0.0
335012.02908761695,3827225.878295721,-17500.0,-1040.9394753526337,-5568.8246719534391,-27736.940313266728,-1773.7593106853446,-8686.9475090406195,-1915.3402571196921,16125.431321997832,-19178.599314134532,9148.4526581630053,-9148.4526581630053,19178.599314134532,31921.173153479493,0.0
340012.02908761695,3827225.878295721,-17500.0,-45.283898583492935,-2832.4731648250754,-29077.30609645665,-968.29068376200564,-9009.2952682920932,-1959.8742658139859,16429.30195346901,-17725.447258921202,9920.4207274587789,-9920.4207274587789,17725.447258921202,32577.955983421929,0.0
345012.02908761695,3827225.878295721,-17500.0,471.52553678636616,270.89425937804117,-29138.354000733227,-77.258069640166298,-8992.482206613744,-1941.4968932800903,16336.254282916763,-15223.702601793459,9866.6281720072184,-9866.6281720072184,15223.702601793459,32464.605437843893,0.0
350012.02908761695,3827225.878295721,-17500.0,405.33885894092424,3419.8349634156857,-27777.713734402674,817.98719448828751,-8607.4355102688351,-1857.3236379611226,15873.7226951053,-11854.01796610854,8911.0096986471126,-8911.0096986471126,11854.01796610854,31543.498851193322,0.0
355012.02908761695,3827225.878295721,-17500.0,-240.36288050189233,6252.1816098378313,-25037.240086317572,1628.7493647081264,-7868.2836942055328,-1711.2637720403939,15110.919458856293,-7943.1330330789024,7123.1057700690017,-7123.1057700690017,7943.1330330789024,29858.539529042955,0.0
360012.02908761695,3827225.878295721,-17500.0,-1345.3841573359662,8439.4541351301286,-21152.839352897929,2275.4173162958632,-6833.2285828968652,-1513.689211474212,14074.536631958834,-3907.7589056761431,4716.9858807720275,-4716.9858807720275,3907.7589056761431,27537.51408318408,0.0
365012.02908761695,3827225.878295721,-17500.0,-2698.4643478557509,9757.8358622569522,-16514.477893527484,2702.5757367812721,-5595.2094033363028,-1279.863420010699,12838.288289435059,-170.32995632008135,2008.7827630398142,-2008.7827630398142,170.32995632008135,24778.438253985758,0.0
370012.02908761695,3827225.878295721,-17500.0,-4050.1104689945919,10131.04992360703,-11586.969497353824,2888.1346760901165,-4264.8180082592999,-1027.5437819107919,11508.10064561173,2926.0138342908667,-654.47673447671605,654.47673447671605,-2926.0138342908667,21822.587237352716,0.0
375012.02908761695,3827225.878295721,-17500.0,-5173.0908700281107,9631.6497304887907,-6817.9481039168786,2844.0236574778096,-2950.6342617879486,-774.36414525414159,10194.561873133083,5175.2786946038241,-2969.7201598385927,2969.7201598385927,-5175.2786946038241,18920.354080146783,0.0
380012.02908761695,3827225.878295721,-17500.0,-5909.1880750298724,8444.7923727502621,-2562.4820855598182,2609.1996063001525,-1742.6294354857782,-535.57733805179078,8993.4439706813591,6524.2729951623251,-4731.5584777027698,4731.5584777027698,-6524.2729951623251,16296.31346517959,0.0
385012.02908761695,3827225.878295721,-17500.0,-6189.4471613019496,6812.1626551330164,956.84273920192618,2238.1970641162438,-702.40194513285314,-322.56098903872544,7970.8245541547803,7049.2636225299848,-5851.9586402252844,5851.9586402252844,-7049.2636225299848,14116.96522596441,0.0
390012.02908761695,3827225.878295721,-17500.0,-6027.8582317908977,4976.8458839142613,3652.0398912794517,1789.1753190962861,138.92532061711253,-142.22973549566859,7154.484541218897,6909.8923069001576,-6348.139294766981,6348.139294766981,-6909.8923069001576,12463.430378241163,0.0
395012.02908761695,3827225.878295721,-17500.0,-5497.7660548633139,3143.7193538108118,5544.5976602977507,1314.5031913407092,776.77604177339799,2.7400455102283789,6534.3423768794619,6299.4389533090862,-6311.1463959523453,6311.1463959523453,-6299.4389533090862,11317.843783349093,0.0
400012.02908761695,3827225.878295721,-17500.0,-4702.8804708350117,1460.1491973349837,6728.3215594989888,855.23469601432987,1225.9236362101315,113.12411266192422,6072.9216979520861,5405.0871480308824,-5869.5300800660416,5869.5300800660416,-5405.0871480308824,10578.875701618666,0.0
405012.02908761695,3827225.878295721,-17500.0,-3752.0074531765067,14.052159036429494,7332.9348837328953,439.31420125537693,1512.6385558292704,192.10541546193721,5721.7793660312091,4383.695797206844,-5158.5776710033088,5158.5776710033088,-4383.695797206844,10107.201329130876,0.0
410012.02908761695,3827225.878295721,-17500.0,-2741.8765375055123,-1157.1229735216957,7495.7101890765998,82.485411349170647,1667.9309582633377,244.23181188386332,5436.1913636564168,3352.0796613817793,-4299.7418583676636,4299.7418583676636,-3352.0796613817793,9774.3375815524942,0.0
415012.02908761695,3827225.878295721,-17500.0,-1748.4357915322637,-2052.8696073767369,7343.2381324510561,-209.33140299847693,1722.6657033587987,274.54649006043024,5182.9344900088136,2387.5959081978208,-3390.2795411431562,3390.2795411431562,-2387.5959081978208,9488.7147682677751,0.0
420012.02908761695,3827225.878295721,-17500.0,-824.76372455707178,-2696.0676517842653,6982.1740571805449,-437.21182083629276,1704.5943247501561,287.96381811631983,4941.4128400680047,1534.3784396234605,-2500.692324334897,2500.692324334897,-1534.3784396234605,9197.6179379342666,0.0
425012.02908761695,3827225.878295721,-17500.0,-3.1163548612739973,-3121.7871373202474,6496.4694655857402,-606.60499614512025,1636.9518165610702,288.88824270267833,4701.1879300188411,811.5624047270453,-1676.9758974281276,1676.9758974281276,-811.5624047270453,8877.5774277676283,0.0
430012.02908761695,3827225.878295721,-17500.0,701.05782294858227,-3369.2070464472508,5948.5486926782687,-725.23097423469687,1538.1415931485001,281.03314589529589,4458.6232455210029,221.23333344890904,-945.14401541039047,945.14401541039047,-221.23333344890904,8523.3117835912981,0.0
285012.02908761695,3832225.878295721,-17500.0,-7885.86064458705,-4670.6464186410194,-1297.733047483563,-2241.4384733363686,-1167.7632821420495,-458.57505417967758,6020.7709076279734,-3521.4486607420022,-4705.5330960172869,4705.5330960172869,3521.4486607420022,11586.373796402631,0.0
290012.02908761695,3832225.878295721,-17500.0,-8515.7609793844113,-5881.8330659150188,-2615.3548924599891,-2615.9871053179136,-1662.1699349034573,-584.16158774804467,6970.3603829814429,-5147.7935417432218,-4559.7875091007973,4559.7875091007973,5147.7935417432218,13547.393716117409,0.0
295012.02908761695,3832225.878295721,-17500.0,-8991.7950609350592,-7196.8444651549698,-4353.0147589551052,-3002.6859983141426,-2281.2489465085177,-734.7174897642808,8056.360774945003,-7104.0767280810214,-4147.7233673987466,4147.7233673987466,7104.0767280810214,15793.644752413878,0.0
300012.02908761695,3832225.878295721,-17500.0,-9239.2286371763239,-8554.3126192039017,-6578.1741784808055,-3379.5418220808483,-3038.7368065559936,-911.47845182951164,9280.9010618756183,-9384.601618354498,-3401.1720317629656,3401.1720317629656,9384.601618354498,18323.932528292509,0.0
305012.02908761695,3832225.878295721,-17500.0,-9179.9482287706924,-9857.1125659292484,-9339.8108263968152,-3715.2776025425546,-3941.1277334615543,-1113.7706084751039,10641.230415066429,-11944.360303726316,-2260.7787108615021,2260.7787108615021,11944.360303726316,21115.718988422206,0.0
310012.02908761695,3832225.878295721,-17500.0,-8744.4526324906274,-10967.829675577836,-12648.862098865942,-3969.1135196431815,-4982.4515878509019,-1338.071695676218,12133.814708999011,-14683.2682245018,-691.91107351077244,691.91107351077244,14683.2682245018,24117.055312627668,0.0
315012.02908761695,3832225.878295721,-17500.0,-7889.597700875438,-11710.700463062525,-16453.311616173418,-4092.5314406271223,-6138.2016314369776,-1577.0749309598768,13723.430362585636,-17432.219794811776,1294.3875733539398,-1294.3875733539398,17432.219794811776,27238.654398078132,0.0
320012.02908761695,3832225.878295721,-17500.0,-6620.7068755077826,-11884.5776125092,-20611.114353003588,-4033.9735913735071,-7359.4933376441732,-1819.0111276093769,15319.044466141781,-19946.662363180923,3618.1384667308921,-3618.1384667308921,19946.662363180923,30347.98632511327,0.0
325012.02908761695,3832225.878295721,-17500.0,-5013.6469290037803,-11291.136961866669,-24868.072409088185,-3747.1134708891705,-8569.4092579658027,-2047.6005439617043,16815.17894015594,-21915.586100324668,6111.0543038359538,-6111.0543038359538,21915.586100324668,33268.3184739223,0.0
330012.02908761695,3832225.878295721,-17500.0,-3228.7168808582987,-9779.5192432932454,-28851.855248857122,-3202.3688002336035,-9664.1605405058035,-2243.0146912229284,18095.501700941808,-22993.955729546866,8510.9048700678577,-8510.9048700678577,22993.955729546866,35786.088033939915,0.0
335012.02908761695,3832225.878295721,-17500.0,-1505.579045302344,-7302.1145960263702,-32095.538738072133,-2399.7247073498411,-10521.697604039224,-2384.0790488657849,19037.157780900387,-22862.673426315665,10481.164858316621,-10481.164858316621,22862.673426315665,37669.631624276291,0.0
340012.02908761695,3832225.878295721,-17500.0,-129.82186843062095,-3966.8655712069713,-34100.609931284831,-1379.0690460330136,-11019.022369140832,-2451.5748619255264,19527.136098120052,-21310.32676655391,11663.986572788061,-11663.986572788061,21310.32676655391,38700.17213519838,0.0
345012.02908761695,3832225.878295721,-17500.0,629.9739565631096,-63.29908752441041,-34437.37967229871,-223.13016128845342,-11056.426086128617,-2431.9968883017295,19491.344260326303,-18316.643171227399,11763.296716439492,-11763.296716439492,18316.643171227399,38711.946431204706,0.0
350012.02908761695,3832225.878295721,-17500.0,601.00383516868351,3960.6145953881605,-32861.208614368479,950.97941064544432,-10582.940706583668,-2320.7310437430015,18952.130741925437,-14105.138078917887,10637.492940509841,-10637.492940509841,14105.138078917887,37633.18847661544,0.0
355012.02908761695,3832225.878295721,-17500.0,-227.74750926065678,7579.5460393351659,-29404.640932491984,2012.0142644391317,-9614.4412236370208,-2123.6033813723525,17996.685452563943,-9132.6128268451139,8366.2996701646953,-8366.2996701646953,9132.6128268451139,35515.852705636178,0.0
360012.02908761695,3832225.878295721,-17500.0,-1684.4764929735838,10312.233113286484,-24402.577709988997,2841.844518450052,-8236.5049703677723,-1856.2335346410114,16671.849500616132,-4003.2679950604252,5256.5912339610186,-5256.5912339610186,4003.2679950604252,32542.500949691668,0.0
365012.02908761695,3832225.878295721,-17500.0,-3455.1189245492619,11840.612576906162,-18429.215036177658,3360.829466937545,-6589.0673864056407,-1541.3644393648403,15089.153919884147,670.21362614880911,1774.2890422623113,-1774.2890422623113,-670.21362614880911,29004.758643359102,0.0
370012.02908761695,3832225.878295721,-17500.0,-5172.5971082080559,12079.353351790105,-12164.865858792708,3542.4663858917706,-4837.3605784879128,-1204.9786236260206,13404.24739558287,4407.5129437826072,-1575.2228893148274,1575.2228893148274,-4407.5129437826072,25257.794480916946,0.0
375012.02908761695,3832225.878295721,-17500.0,-6517.245688627615,11170.698515980021,-6243.2461011034011,3412.9207068265473,-3139.0437244732179,-872.23862369791027,11774.969122093242,6950.5429701925696,-4370.2526493051482,4370.2526493051482,-6950.5429701925696,21662.244498208933,0.0
380012.02908761695,3832225.878295721,-17500.0,-7288.3933057620525,9415.4752719567241,-1134.6152262988803,3037.5011016635722,-1618.0751593223272,-564.16798381413173,10329.943352410759,8276.803043206899,-6353.5294525489207,6353.5294525489207,-8276.803043206899,18525.443711986729,0.0
385012.02908761695,3832225.878295721,-17500.0,-7426.5707884324074,7176.5035765196772,2904.3673779687283,2500.6679476360382,-351.51664151360274,-295.61900665667906,9146.0187921907454,8547.6291571840538,-7450.6706285570044,7450.6706285570044,-8547.6291571840538,16048.260277646463,0.0
390012.02908761695,3832225.878295721,-17500.0,-6991.5140923630915,4792.706357045714,5816.6816689737061,1886.8849596339214,630.42889740700173,-74.67719851999783,8238.9830904107348,8025.6466891716627,-7736.7344443301572,7736.7344443301572,-8025.6466891716627,14285.788018254721,0.0
395012.02908761695,3832225.878295721,-17500.0,-6116.765340508151,2526.1061891876129,7691.7735474300252,1267.1587897911379,1335.194360125653,96.705916637204538,7572.008984568989,6996.03976760769,-7377.6065564317087,7377.6065564317087,-6996.03976760769,13145.073425828372,0.0
400012.02908761695,3832225.878295721,-17500.0,-4962.4783956130177,544.25696871524849,8701.7829656584145,692.65398815601748,1794.8164615595931,221.29770370360458,7079.3391088710023,5711.794621289826,-6571.8527766506504,6571.8527766506504,-5711.794621289826,12439.58020656541,0.0
405012.02908761695,3832225.878295721,-17500.0,-3679.8565227891877,-1071.6663044122029,9047.0669527396094,194.20839664365801,2053.4253456775768,304.88457063680721,6692.981489543422,4366.9929135463199,-5507.9656318725074,5507.9656318725074,-4366.9929135463199,11972.780438419792,0.0
410012.02908761695,3832225.878295721,-17500.0,-2391.1574194018381,-2306.0655917948852,8919.2519304817924,-214.51848910550424,2157.6214758403275,354.69325670566667,6359.8464068532385,3092.1336116841185,-4340.6667854589105,4340.6667854589105,-3092.1336116841185,11595.957132703266,0.0
415012.02908761695,3832225.878295721,-17500.0,-1182.9975486494216,-3185.6581387991705,8481.5245499038901,-532.42937905216252,2150.3540290800065,378.16713887965653,6046.4201502322812,1962.3982050877387,-3182.9805250747986,3182.9805250747986,-1962.3982050877387,11221.411487285137,0.0
420012.02908761695,3832225.878295721,-17500.0,-108.34515095307998,-3759.5700650558711,7861.8444273225596,-766.40814412949806,2067.8447391562313,382.16622923539785,5735.6972870420723,1011.0716187416654,-2108.416370765719,2108.416370765719,-1011.0716187416654,10809.636709227056,0.0
425012.02908761695,3832225.878295721,-17500.0,807.19471017517219,-4084.8927483408957,7154.0771820513446,-927.55517830508154,1938.6866333532253,372.5465584072594,5421.7687142790783,243.1194790113592,-1158.0839299344257,1158.0839299344257,-243.1194790113592,10351.141800463682,0.0
430012.02908761695,3832225.878295721,-17500.0,1557.9234606841992,-4217.5598992485538,6423.0062993498314,-1028.4758885146914,1784.2532388569791,354.0226248873596,5105.0026603274246,-353.50698053563428,-349.148894969308,349.148894969308,353.50698053563428,9852.0498819957847,0.0
435012.02908761695,3832225.878295721,-17500.0,2151.1930363044303,-4207.4271423929622,5710.5515236349447,-1081.5454799466327,1619.7465011038482,330.20994269668256,4788.6707273847314,-799.54345871055136,317.37855331262006,-317.37855331262006,799.54345871055136,9324.90382968015,0.0
280012.02908761695,3837225.878295721,-17500.0,-7709.8855106946821,-3141.9845210603698,571.79304415997035,-1976.0708357968117,-594.9105766972865,-356.6046275198936,5438.6507232196836,-1270.4606944476586,-5417.9427339657668,5417.9427339657668,1270.4606944476586,10205.486497644295,0.0
285012.02908761695,3837225.878295721,-17500.0,-8676.8696614930504,-4330.3363657917862,-301.98469072069008,-2396.6557337388717,-994.15834960127052,-473.00917896050964,6339.3981474243719,-2596.4491846418578,-5670.2145901639242,5670.2145901639242,2596.4491846418578,12049.398530473843,0.0
290012.02908761695,3837225.878295721,-17500.0,-9587.5083961747478,-5721.715358742149,-1558.6334114777476,-2864.0573752364176,-1522.4715635788525,-618.39848403480437,7401.8438765741012,-4302.6086532212421,-5725.7437498945937,5725.7437498945937,4302.6086532212421,14236.299266256534,0.0
295012.02908761695,3837225.878295721,-17500.0,-10364.473522594877,-7296.0166542112074,-3299.1411721903401,-3365.4929166242387,-2206.2396019921225,-796.89902577825785,8641.6577577524204,-6435.9432127374539,-5497.3977504425429,5497.3977504425429,6435.9432127374539,16796.934056007532,0.0
300012.02908761695,3837225.878295721,-17500.0,-10910.8757663775,-8999.6513966755538,-5628.746001942799,-3877.7040466623698,-3070.2520690492956,-1011.5372736825559,10069.026835983952,-9020.2783943449449,-4887.1376536502266,4887.1376536502266,9020.2783943449449,19747.873101902984,0.0
305012.02908761695,3837225.878295721,-17500.0,-11115.656478595118,-10732.697910835599,-8642.1002235732722,-4364.1511254790239,-4132.7570620648385,-1263.1085738803999,11686.272805563571,-12036.912960539155,-3796.7322048748192,3796.7322048748192,12036.912960539155,23081.794785930568,0.0
310012.02908761695,3837225.878295721,-17500.0,-10866.486349535458,-12337.356344305221,-12398.907643322478,-4773.1978664703847,-5398.202039263193,-1548.7212661438766,13489.01099118194,-15400.30923916575,-2146.9353069875815,2146.9353069875815,15400.30923916575,26755.390052882256,0.0
315012.02908761695,3837225.878295721,-17500.0,-10072.301041963381,-13592.621913709823,-16888.889580185587,-5038.6696698239421,-6847.7897208638697,-1860.1752233352026,15458.661772373787,-18932.051196740969,93.647950477999984,-93.647950477999984,18932.051196740969,30675.771094882246,0.0
320012.02908761695,3837225.878295721,-17500.0,-8695.7452772579963,-14222.716760466694,-21988.258165824194,-5084.6271009821148,-8429.0349303512794,-2182.5635009714588,17509.444208024157,-22340.510331831618,2871.6243119960636,-2871.6243119960636,22340.510331831618,34687.925744201893,0.0
325012.02908761695,3837225.878295721,-17500.0,-6791.2420638592812,-13928.067193164286,-27415.84641321671,-4836.0398000238756,-10047.014109744952,-2493.709301209461,19498.809573554739,-25218.482669812471,6010.9201369360198,-6010.9201369360198,25218.482669812471,38567.350089681058,0.0
330012.02908761695,3837225.878295721,-17500.0,-4537.6210250108325,-12445.420118836053,-32705.477459757429,-4235.9173793050359,-11561.747142276523,-2765.1964138765402,21262.82075291716,-27074.601676970495,9188.493583066911,-9188.493583066911,27074.601676970495,42023.939034795323,0.0
335012.02908761695,3837225.878295721,-17500.0,-2246.9058883292337,-9634.7482823301598,-37218.681623837088,-3266.8008616462021,-12797.024321602721,-2965.5531930128373,22621.974757206393,-27411.802846166731,11944.77357114862,-11944.77357114862,27411.802846166731,44723.615251167772,0.0
340012.02908761695,3837225.878295721,-17500.0,-328.55537364866888,-5574.0673192993681,-40222.182458184601,-1970.7878034731307,-13564.676518319466,-3065.5205498174546,23401.751557658816,-25852.719093384909,13749.322256824456,-13749.322256824456,25852.719093384909,46332.159808639204,0.0
345012.02908761695,3837225.878295721,-17500.0,801.59534614044401,-623.68284576541726,-41038.356444572048,-459.04242673429212,-13703.29869687656,-3044.3128597244613,23474.973553379885,-22285.490855150034,14126.676623249923,-14126.676623249923,22285.490855150034,46578.967872899259,0.0
350012.02908761695,3837225.878295721,-17500.0,852.23028794604204,4587.414603917121,-39241.449224683471,1097.9972261522337,-13122.656608538417,-2894.9354392035602,22844.260805135691,-16973.781116334765,12815.083511912841,-12815.083511912841,16973.781116334765,45328.456707355348,0.0
355012.02908761695,3837225.878295721,-17500.0,-221.60011412079251,9281.2305429231983,-34829.831112656924,2502.515270323604,-11837.905851530648,-2626.5795161246883,21629.260194640286,-10563.779807103889,9895.0786589412382,-9895.0786589412382,10563.779807103889,42636.850377780298,0.0
360012.02908761695,3837225.878295721,-17500.0,-2170.4907702701998,12733.932786952106,-28287.069124316451,3575.6247490989772,-9977.3025944201727,-2263.1726949787217,19910.29398775327,-3952.2754134529164,5814.8945532947791,-5814.8945532947791,3952.2754134529164,38770.063592962673,0.0
365012.02908761695,3837225.878295721,-17500.0,-4515.7476290761651,14483.376979790395,-20480.946556090879,4201.247727144013,-7756.3750749490137,-1838.6921518676052,17856.286411858731,1949.8886502391447,1278.8513787651577,-1278.8513787651577,-1949.8886502391447,34169.197569741511,0.0
370012.02908761695,3837225.878295721,-17500.0,-6705.5241109004373,14445.824044766243,-12431.109441896051,4350.0883193465161,-5426.8755750929677,-1390.9048105983929,15700.628797992365,6459.7487799073424,-2960.9246537326976,2960.9246537326976,-6459.7487799073424,29370.479221035832,0.0
375012.02908761695,3837225.878295721,-17500.0,-8286.7043490002598,12893.052408747302,-5047.2835488855526,4075.6722649319331,-3220.4386226913703,-955.28825740445757,13671.775552045647,9264.4341575979106,-6313.3447421357159,6313.3447421357159,-9264.4341575979106,24902.476914797062,0.0
380012.02908761695,3837225.878295721,-17500.0,-9014.5856291644759,10317.947427594278,1053.8528461379424,3487.8096783005608,-1307.1027547212173,-560.35721919360492,11940.495115642478,10419.638868418595,-8469.1360069225229,8469.1360069225229,-10419.638868418595,21183.169545256977,0.0
385012.02908761695,3837225.878295721,-17500.0,-8868.5804115371157,7265.8064200947465,5602.8926543433472,2717.3677208385916,221.13571366260797,-225.04068478493284,10586.507959265615,10238.511604795944,-9405.1829698238344,9405.1829698238344,-10238.511604795944,18431.612874626368,0.0
390012.02908761695,3837225.878295721,-17500.0,-7995.1606556220659,4202.3407881673011,8623.4121572936838,1885.8721076778986,1343.9332874339382,41.786859304813362,9594.185922843164,9144.3313702528903,-9305.2782298374586,9305.2782298374586,-9144.3313702528903,16621.489265042776,0.0
395012.02908761695,3837225.878295721,-17500.0,-6623.5624132872153,1449.0424778071842,10325.929397074715,1087.2268148383307,2092.8934305541466,239.9749030415102,8881.272381689736,7548.8788920782054,-8453.904383080564,8453.904383080564,-7548.8788920782054,15525.653450727448,0.0
400012.02908761695,3837225.878295721,-17500.0,-4992.0085225089915,-821.88372133625194,11002.252144960066,381.90639647341646,2528.7282447460261,375.68576823684288,8344.9814428389091,5782.5429263294891,-7146.71535615013,7146.71535615013,-5782.5429263294891,14846.671353434829,0.0
405012.02908761695,3837225.878295721,-17500.0,-3301.6049306132054,-2557.9038927810552,10948.293211205493,-200.00868791908889,2722.0619484248195,458.70663845440367,7898.7717517987467,4072.3385402127574,-5635.8106576095761,5635.8106576095761,-4072.3385402127574,14338.513676842023,0.0
410012.02908761695,3837225.878295721,-17500.0,-1697.5326756296777,-3785.6902863125524,10420.669539721335,-651.51274069746,2740.5199165703211,500.11168180666408,7486.4533985490416,2550.5283194156527,-4107.7171838945123,4107.7171838945123,-2550.5283194156527,13850.923238468407,0.0
415012.02908761695,3837225.878295721,-17500.0,-269.19248300434703,-4574.5178041873742,9620.1753061726686,-980.57133058995225,2641.8656857208575,510.59049363533256,7079.4033853454475,1276.7029026835246,-2683.5022340439764,2683.5022340439764,-1276.7029026835246,13315.316700638965,0.0
420012.02908761695,3837225.878295721,-17500.0,939.9322688393022,-5009.4274351602116,8691.945265101569,-1203.2051793291801,2471.628158142455,499.47659916914387,6667.7167278046736,261.74450472387718,-1430.0292242107553,1430.0292242107553,-261.74450472387718,12714.368242983741,0.0
425012.02908761695,3837225.878295721,-17500.0,1919.4802468411428,-5174.4913238267618,7733.72740399124,-1338.4635023069166,2263.4718982798972,474.34714942409812,6251.8691140316869,-512.03931901018939,-374.51980256379369,374.51980256379369,512.03931901018939,12056.810971481855,0.0
430012.02908761695,3837225.878295721,-17500.0,2680.3133229325008,-5144.0622663806325,6806.632901918967,-1405.2325877982405,2040.9109190037495,441.00459648671614,5836.9214030264284,-1076.3101583534037,481.91385142903096,-481.91385142903096,1076.3101583534037,11361.568469984742,0.0
435012.02908761695,3837225.878295721,-17500.0,3245.1020348335837,-4979.3987299633845,5945.3532090325234,-1420.4930611586681,1819.4453961136724,403.67181834179149,5429.1260034259667,-1467.2249300796186,1153.5281562100624,-1153.5281562100624,1467.2249300796186,10649.198972319093,0.0
275012.02908761695,3842225.878295721,-17500.0,-6911.7912369803653,-1435.8837642193769,2007.7368452002013,-1579.5303031225394,-62.273714476150765,-243.63577689492067,4863.2222968715942,814.24923164105576,-5554.5860581457146,5554.5860581457146,-814.24923164105576,8844.6111899356474,0.0
280012.02908761695,3842225.878295721,-17500.0,-8106.9929123028214,-2446.7047742899117,1586.8956988126465,-2000.8797618407,-341.0392863257855,-342.33670788766392,5666.3226550676927,-91.633310745927702,-6150.3100889498201,6150.3100889498201,91.633310745927702,10455.153066041314,0.0
285012.02908761695,3842225.878295721,-17500.0,-9360.0086423194516,-3713.891213360886,871.63929464453827,-2496.7560736850924,-736.29677522545467,-470.81787918866473,6638.63307323558,-1360.0020356762416,-6654.734600916393,6654.734600916393,1360.0020356762416,12428.193630956706,0.0
290012.02908761695,3842225.878295721,-17500.0,-10613.178307773453,-5260.2053438515886,-247.15492775741939,-3066.8102676654535,-1281.8543668364407,-635.62664225774745,7808.7224139024056,-3075.4275204915725,-6986.2876152424906,6986.2876152424906,3075.4275204915725,14823.398813982663,0.0
295012.02908761695,3842225.878295721,-17500.0,-11780.431192544071,-7087.8345229392016,-1902.0994121212761,-3702.2112708747145,-2016.112296666071,-843.41476974322779,9204.2233125473558,-5321.5092439452037,-7037.7651577540601,7037.7651577540601,5321.5092439452037,17697.053879642033,0.0
300012.02908761695,3842225.878295721,-17500.0,-12743.784978601152,-9163.0179964551808,-4244.4280597868965,-4381.2295184973136,-2979.2502393738559,-1099.984344495736,10848.488903053707,-8165.8929959819379,-6677.5886913474787,6677.5886913474787,8165.8929959819379,21093.798909091274,0.0
305012.02908761695,3842225.878295721,-17500.0,-13354.884690328046,-11396.293845326807,-7430.2509592249025,-5064.1981555373377,-4207.613290484026,-1408.7531327545635,12756.417052043969,-11636.240402136718,-5758.3245871413055,5758.3245871413055,11636.240402136718,25034.211950167355,0.0
310012.02908761695,3842225.878295721,-17500.0,-13445.946847796244,-13620.597212673878,-11593.230189997168,-5688.8809768730844,-5724.2968180838989,-1768.5765406273881,14931.616455653919,-15685.941740975048,-4136.8989664150231,4136.8989664150231,15685.941740975048,29497.686444852145,0.0
315012.02908761695,3842225.878295721,-17500.0,-12855.145772077743,-15572.938973908833,-16799.224686923029,-6168.2242650063499,-7525.3633572913986,-2171.0667692798056,17364.5560673008,-20151.336509128283,-1710.8445018948387,1710.8445018948387,20151.336509128283,34400.983865688046,0.0
320012.02908761695,3842225.878295721,-17500.0,-11470.216055789657,-16890.373344734664,-22981.482894126966,-6393.5421252516126,-9562.414805525983,-2597.9109530283049,19990.679666036449,-24708.155593099022,1527.7354640448048,-1527.7354640448048,24708.155593099022,39574.791751864141,0.0
325012.02908761695,3842225.878295721,-17500.0,-9288.8693761359518,-17136.106128802421,-29863.092708527136,-6246.8358462531414,-11724.789712120784,-3019.2086832719901,22641.026816122565,-28844.216308620296,5426.0335576419784,-5426.0335576419784,28844.216308620296,44743.938870770507,0.0
330012.02908761695,3842225.878295721,-17500.0,-6483.5847514100915,-15872.851999582061,-36887.814597213925,-5624.9733860976303,-13828.18225301137,-3394.2556399921282,25087.12490877038,-31875.585321933824,9610.8371019259957,-9610.8371019259957,31875.585321933824,49520.793219619773,0.0
335012.02908761695,3842225.878295721,-17500.0,-3442.6439979806191,-12791.547915368112,-43199.043921525503,-4474.6976319983705,-15619.767486583771,-3676.0974793641894,27065.757523679975,-33037.86024728237,13470.220705441128,-13470.220705441128,33037.86024728237,53424.861491173848,0.0
340012.02908761695,3842225.878295721,-17500.0,-746.29976336147047,-7877.2559624927144,-47718.948398510816,-2830.3633216111393,-16809.896565312119,-3820.0804511269607,28304.191554599078,-31670.448129377601,16221.355571153614,-16221.355571153614,31670.448129377601,55941.026527872076,0.0
345012.02908761695,3842225.878295721,-17500.0,956.99254828657399,-1552.3325935977307,-49365.378641485455,-838.31887810866976,-17133.308093788717,-3794.5353429172346,28580.8315190227,-27468.194677884247,17093.826909616495,-17093.826909616495,27468.194677884247,56619.768570527063,0.0
350012.02908761695,3842225.878295721,-17500.0,1167.2749241262964,5297.6759784579044,-47384.340838679076,1251.0440234471473,-16427.68876947997,-3589.7737333742707,27845.817566620804,-20708.267938798053,15602.102308228494,-15602.102308228494,20708.267938798053,55203.485643659071,0.0
355012.02908761695,3842225.878295721,-17500.0,-236.9378148741373,11494.083083028456,-41680.4957845971,3133.4481159512757,-14700.195866808775,-3221.4646210511355,26271.167733186612,-12313.209051559026,11798.28156020439,-11798.28156020439,12313.209051559026,51738.487534474451,0.0
360012.02908761695,3842225.878295721,-17500.0,-2888.1932969991085,15913.785448640569,-32964.209088240008,4531.5753471584621,-12147.172543527162,-2727.0000874102252,24000.834736789788,-3650.6525124898699,6350.2886917606947,-6350.2886917606947,3650.6525124898699,46620.310899290474,0.0
365012.02908761695,3842225.878295721,-17500.0,-6035.3054954108529,17866.976281259347,-22588.123932088103,5273.6504364146303,-9109.4749254687395,-2156.9166252025097,21292.710232413046,3884.6626447148519,355.13355032871095,-355.13355032871095,-3884.6626447148519,40537.689334204988,0.0
370012.02908761695,3842225.878295721,-17500.0,-8828.1056959403322,17301.735982730326,-12123.749406751405,5333.6089438395602,-5979.3942535331325,-1565.0466132690465,18505.112606225674,9305.0293418575875,-5039.6483282794325,5039.6483282794325,-9305.0293418575875,34324.940986946029,0.0
375012.02908761695,3842225.878295721,-17500.0,-10622.070043962678,14734.443674332357,-2894.7932964727938,4817.6155160109729,-3101.058930636249,-1000.1010192130924,15972.935280771364,12258.869367306059,-9002.7480268960098,9002.7480268960098,-12258.869367306059,28770.31325456687,0.0
380012.02908761695,3842225.878295721,-17500.0,-11144.203854767502,10980.588516688545,4310.556307845678,3911.0871084850601,-704.56532008813542,-499.71578144989542,13915.93593037852,12978.668169888257,-11195.504338014831,11195.504338014831,-12978.668169888257,24428.379895108894,0.0
385012.02908761695,3842225.878295721,-17500.0,-10475.975635467983,6856.6538254388824,9271.7358741596418,2816.144438060157,1110.5258030594439,-87.278285789988558,12393.44525510275,12044.91262118056,-11725.721709400746,11725.721709400746,-12044.91262118056,21477.36158097551,0.0
390012.02908761695,3842225.878295721,-17500.0,-8920.8280806384355,2984.4791814581381,12187.410586573447,1704.4880044841073,2352.6709043125397,228.32534322210151,11323.281590070652,10125.421480301673,-10972.728380803201,10972.728380803201,-10125.421480301673,19702.400897085841,0.0
395012.02908761695,3842225.878295721,-17500.0,-6853.3734915794794,-270.77090890979815,13473.013386797267,695.06747164097817,3098.5410897118431,450.3771987513295,10554.299441933395,7796.1123092923599,-9401.1293154579325,9401.1293154579325,-7796.1123092923599,18668.692861598869,0.0
400012.02908761695,3842225.878295721,-17500.0,-4611.7039361794496,-2768.5658048082096,13594.291639885723,-147.16622593598115,3454.4978046043725,590.43285367647854,9942.9744340281795,5465.7237745284938,-7432.0064634692653,7432.0064634692653,-5465.7237745284938,17963.043492146651,0.0
405012.02908761695,3842225.878295721,-17500.0,-2446.5349676739643,-4522.530314868648,12967.629537296376,-800.54958964614389,3528.7372470696027,664.17379242234006,9391.902529924766,3375.7263833074676,-5383.4223701017536,5383.4223701017536,-3375.7263833074676,17319.423771620834,0.0
410012.02908761695,3842225.878295721,-17500.0,-513.50102797492843,-5630.5370358382534,11919.000435867496,-1272.297696006412,3415.6255381219171,688.01003896661064,8851.0346315777697,1636.445498073474,-3461.6965156729761,3461.6965156729761,-1636.445498073474,16614.376096064923,0.0
415012.02908761695,3842225.878295721,-17500.0,1111.5298177071461,-6222.5375746887403,10680.186938132141,-1585.4702058981532,3189.6288990901148,676.8627141065524,8303.1317523232501,270.98152991358074,-1779.1267442097901,1779.1267442097901,-270.98152991358074,15815.48549755712,0.0
420012.02908761695,3842225.878295721,-17500.0,2409.7021724219017,-6428.4885362480163,9402.8918609803604,-1769.3524656059835,2905.2123142157898,643.07214566426683,7748.7817495624313,-747.35392864176265,-380.03389997128352,380.03389997128352,747.35392864176265,14935.496555350575,0.0
425012.02908761695,3842225.878295721,-17500.0,3397.7123582563631,-6362.1967599390973,8178.1555638803575,-1853.3828897900955,2599.6759104010498,596.13200641475714,7196.0458099115849,-1468.3695495178554,734.76886286189938,-734.76886286189938,1468.3695495178554,14003.819380097344,0.0
430012.02908761695,3842225.878295721,-17500.0,4111.1248092011174,-6115.5733578183872,7054.6172699613744,-1863.9088211705289,2296.9296952545301,542.91436965905928,6654.6215604521158,-1948.3253236018518,1588.9301538523755,-1588.9301538523755,1948.3253236018518,13051.824124424906,0.0
435012.02908761695,3842225.878295721,-17500.0,4592.9202005267425,-5758.7134329168966,6053.177169498068,-1822.8653746376208,2011.1244030799605,488.11704813495078,6133.0986726057117,-2240.75438667755,2217.3882400766247,-2217.3882400766247,2240.75438667755,12106.467138202308,0.0
440012.02908761695,3842225.878295721,-17500.0,4886.4374310257326,-5342.6914220009021,5177.714138179972,-1747.6051040311511,1749.6763297978737,434.75885633768911,5638.0690069555549,-2392.2295139950852,2658.1096034193265,-2658.1096034193265,2392.2295139950852,11188.318997832039,0.0
275012.02908761695,3847225.878295721,-17500.0,-6833.5900070596908,-495.11445237413119,2895.1801245719412,-1473.1239947479762,230.18444843037292,-204.94996607792848,5058.5321345578095,2065.7156720193761,-5929.8590061702525,5929.8590061702525,-2065.7156720193761,9027.9551581987253,0.0
280012.02908761695,3847225.878295721,-17500.0,-8262.6447390356498,-1473.5235059422444,2682.2844293271114,-1940.0049237708083,-12.950698300441736,-307.15571898106748,5893.5104180670296,1329.7595146791218,-6771.7765036106803,6771.7765036106803,-1329.7595146791218,10668.373412414823,0.0
285012.02908761695,3847225.878295721,-17500.0,-9827.147433664657,-2760.8676365029587,2194.4277915058265,-2507.785987840402,-381.2434899646928,-444.46350276009667,6921.8883473962269,208.3159490794601,-7578.504058735376,7578.504058735376,-208.3159490794601,12725.11570672484,0.0
290012.02908761695,3847225.878295721,-17500.0,-11477.373452012012,-4407.4738563857691,1305.6345106180322,-3183.9660502246188,-918.21263054739404,-626.07048267014682,8184.8707476532018,-1414.0909573287531,-8264.7936726715179,8264.7936726715179,1414.0909573287531,15286.056278808939,0.0
295012.02908761695,3847225.878295721,-17500.0,-13127.175380467917,-6448.9368203028616,-147.85482910312822,-3967.6611834886735,-1676.6958224718835,-862.03591468173011,9726.2471518101174,-3665.5176067103866,-8708.3130784174828,8708.3130784174828,3665.5176067103866,18442.627853361308,0.0
300012.02908761695,3847225.878295721,-17500.0,-14644.31375988023,-8887.5903827739785,-2368.4119759005503,-4843.4407140775784,-2717.0180205326665,-1162.2191057984739,11588.867177934684,-6672.8334709025594,-8744.940420135712,8744.940420135712,6672.8334709025594,22281.177574708468,0.0
305012.02908761695,3847225.878295721,-17500.0,-15844.551606558098,-11665.451317157578,-5588.4872550654145,-5773.3185626828645,-4101.5959336402266,-1534.3239991548473,13809.341937765441,-10535.349295764501,-8171.1408689987275,8171.1408689987275,10535.349295764501,26868.45748303664,0.0
310012.02908761695,3847225.878295721,-17500.0,-16495.59898232709,-14629.019400827507,-10045.040831420594,-6687.7471553668192,-5883.9390120768403,-1980.7951934267626,16412.155570775107,-15281.277971902738,-6760.3715306352678,6760.3715306352678,15281.277971902738,32229.262641649642,0.0
315012.02908761695,3847225.878295721,-17500.0,-16339.78935920259,-17490.77404392984,-15927.271798378897,-7477.9734504803182,-8090.0313647206158,-2494.5550276996028,19405.754340400294,-20804.762492589973,-4302.5292057247516,4302.5292057247516,20804.762492589973,38314.969598434196,0.0
320012.02908761695,3847225.878295721,-17500.0,-15145.683596668796,-19800.241961615779,-23288.791481936521,-7994.3300132662662,-10691.31497768551,-3054.1528353231215,22754.240351103275,-26788.187801685497,-674.99068457342037,674.99068457342037,26788.187801685497,44964.066673580804,0.0
325012.02908761695,3847225.878295721,-17500.0,-12794.878821574117,-20948.788666337357,-31923.377083957919,-8057.2746816949093,-13571.968015189052,-3619.8712147564297,26286.753955086755,-32628.705480881428,4053.3562402975967,-4053.3562402975967,32628.705480881428,51860.327230831608,0.0
330012.02908761695,3847225.878295721,-17500.0,-9396.2932801569332,-20242.901505260455,-41224.369431812927,-7488.5817465789069,-16499.648072696262,-4133.4476160587183,29700.226799352942,-37409.782433936074,9502.439019589845,-9502.439019589845,37409.782433936074,58502.197752906315,0.0
335012.02908761695,3847225.878295721,-17500.0,-5391.8913850903718,-17078.981028007951,-50084.398094418182,-6165.8288230853386,-19117.145700617548,-4524.4085477083572,32611.482147746236,-39980.361241322273,14895.68163857849,-14895.68163857849,39980.361241322273,64206.429259648481,0.0
340012.02908761695,3847225.878295721,-17500.0,-1581.417006485369,-11219.631703219475,-56933.9837573728,-4091.4013718617662,-20977.456648921197,-4724.2511385173229,34591.37342155326,-39203.646499539696,19094.810683299202,-19094.810683299202,39203.646499539696,68175.070816314081,0.0
345012.02908761695,3847225.878295721,-17500.0,1022.725087242549,-3092.9565091989407,-60027.470174183982,-1449.2617441381451,-21637.586307547626,-4685.34894343224,35250.062003092862,-34379.143292599729,20844.421182295046,-20844.421182295046,34379.143292599729,69647.577551705093,0.0
350012.02908761695,3847225.878295721,-17500.0,1546.1927546618963,6063.8408258004438,-58000.788860192348,1390.5089994847704,-20798.888044109473,-4396.5881513056975,34415.060243429776,-25705.748869916923,19234.458910394274,-19234.458910394274,25705.748869916923,68126.18639786345,0.0
355012.02908761695,3847225.878295721,-17500.0,-304.60061564058839,14420.876231664817,-50521.922887034991,3949.0171108840786,-18440.711037882269,-3887.2464911549032,32322.158967180851,-14504.004701075351,14207.935883446327,-14207.935883446327,14504.004701075351,63604.658776732787,0.0
360012.02908761695,3847225.878295721,-17500.0,-3981.9549634095074,20168.389990439118,-38650.919888448909,5783.977715758484,-14870.790473860618,-3217.2359848078868,29255.778695624664,-2926.9607467322221,6780.6742591183847,-6780.6742591183847,2926.9607467322221,56684.30317607685,0.0
365012.02908761695,3847225.878295721,-17500.0,-8265.2872623686344,22241.293355777125,-24576.91912582083,6636.7369603227226,-10645.843283605162,-2460.5023004470318,25616.709143278444,6810.4633970111026,-1275.799532296413,1275.799532296413,-6810.4633970111026,48483.15726476875,0.0
370012.02908761695,3847225.878295721,-17500.0,-11807.14962035431,20698.095043169797,-10804.44534801893,6501.5831713132611,-6393.7016096672869,-1690.4227300460009,21969.789377601104,13253.791166811967,-8158.9091147644749,8158.9091147644749,-13253.791166811967,40347.155052432834,0.0
375012.02908761695,3847225.878295721,-17500.0,-13695.839545389514,16528.245575982677,718.14688435946641,5587.0534135528451,-2630.6693514159806,-970.44757448733208,18810.428194603624,16083.363568744424,-12706.13348007521,12706.13348007521,-16083.363568744424,33469.84381701472,0.0
380012.02908761695,3847225.878295721,-17500.0,-13694.204373103807,11094.012147589874,9043.882919434418,4207.5743041874139,341.7741656471585,-348.19640240112852,16400.256847146615,15912.246078859609,-14633.835039070198,14633.835039070198,-15912.246078859609,28537.10984212839,0.0
385012.02908761695,3847225.878295721,-17500.0,-12115.699830540669,5601.4050332248153,14151.680412880236,2672.2443384402918,2440.6850755698219,148.26819263395308,14722.33757150466,13784.648104081134,-14342.964675302501,14342.964675302501,-13784.648104081134,25527.604285048768,0.0
390012.02908761695,3847225.878295721,-17500.0,-9534.7133623883728,834.93920151919872,16587.233700399345,1215.531579543785,3740.988117393113,510.99214126975522,13571.979899786744,10724.338681746769,-12549.25711179501,12549.25711179501,-10724.338681746769,23861.429709871361,0.0
395012.02908761695,3847225.878295721,-17500.0,-6531.5433061395652,-2853.6612757051748,17094.500325336514,-23.187028767102507,4398.695767383706,748.78361853384547,12708.82033321957,7496.5268203734495,-9973.6272658351463,9973.6272658351463,-7496.5268203734495,22839.989285003543,0.0
400012.02908761695,3847225.878295721,-17500.0,-3554.2292655872229,-5426.8266691166673,16374.312705994778,-987.27975928133571,4589.3245259402802,881.22187763030342,11957.644283136775,4561.8773091351104,-7179.368133200418,7179.368133200418,-4561.8773091351104,21974.738759740034,0.0
405012.02908761695,3847225.878295721,-17500.0,-883.5743393632315,-7021.7934715770743,14977.961072553058,-1677.408436703003,4471.1080516665297,932.32039684830488,11226.91082590356,2132.9703869582991,-4532.3639972763976,4532.3639972763976,-2132.9703869582991,21033.619996229601,0.0
410012.02908761695,3847225.878295721,-17500.0,1343.9956165077956,-7843.4235366861576,13290.111544979705,-2126.3343847270567,4169.5061727870807,925.62544400098773,10485.212015529003,258.51457854571606,-2228.1781279738957,2228.1781279738957,-258.51457854571606,19953.91528519625,0.0
415012.02908761695,3847225.878295721,-17500.0,3094.1002626336381,-8099.4457401060454,11553.970479093865,-2379.8884185892507,3775.2798538245142,881.35292649997587,9733.1377267883545,-1103.2846917907893,-340.92166881464732,340.92166881464732,1103.2846917907893,18754.681938334172,0.0
420012.02908761695,3847225.878295721,-17500.0,4393.866257534467,-7969.367446471545,9908.3456512658267,-2485.0126791607654,3349.2466659270008,815.29849655336034,8983.9068977249117,-2033.6642985400983,1130.3134547242769,-1130.3134547242769,2033.6642985400983,17483.141725842703,0.0
425012.02908761695,3847225.878295721,-17500.0,5301.1677963254497,-7594.5573737974782,8421.8915263257113,-2483.5188689646457,2929.1822596123834,738.90818109989573,8252.9422455116128,-2622.8419659212368,2226.2572560160079,-2226.2572560160079,2622.8419659212368,16188.468438943188,0.0
430012.02908761695,3847225.878295721,-17500.0,5884.4060406782082,-7079.418002298974,7119.5759050072948,-2409.6698541829978,2536.4680938281508,659.93126445278199,7553.332079527544,-2954.3811959211571,3004.1753341297026,-3004.1753341297026,2954.3811959211571,14911.36849611823,0.0
435012.02908761695,3847225.878295721,-17500.0,6210.7502674841307,-6497.207373266966,6001.1808595193133,-2289.9665219367675,2181.5300408825615,583.25338348104481,6894.6323738194142,-3098.7841473801832,3524.0731686507147,-3524.0731686507147,3098.7841473801832,13681.500657903411,0.0
440012.02908761695,3847225.878295721,-17500.0,6340.2438100945183,-5896.9608078734764,5053.338198439028,-2144.0088975345357,1867.8836028532307,511.6873416383811,6284.1671803268173,-3112.1909499213848,3841.470583874187,-3841.470583874187,3112.1909499213848,12518.271636312988,0.0
445012.02908761695,3847225.878295721,-17500.0,6323.5537141723153,-5309.8593990978989,4256.9193353435239,-1985.7418610413486,1594.956609886601,446.62647759839689,5733.8596012033704,-3037.5421343043431,4004.2797257625484,-4004.2797257625484,3037.5421343043431,11432.794235166928,0.0
270012.02908761695,3852225.878295721,-17500.0,-5006.402092600576,1269.5385674127942,3587.1406780361999,-876.02875725545482,672.04279940605204,-73.625750691454257,4606.7226443969339,3663.0712016214229,-5069.9222012036562,5069.9222012036562,-3663.0712016214229,8017.7068768845875,0.0
275012.02908761695,3852225.878295721,-17500.0,-6414.190210032546,671.65258381117098,3762.2813116313405,-1263.9713430824688,575.20015991440675,-144.21486960354554,5292.5196617079819,3448.8450150055332,-6079.5683186204415,6079.5683186204415,-3448.8450150055332,9284.7038632221338,0.0
280012.02908761695,3852225.878295721,-17500.0,-8057.6399918659745,-200.03908916529758,3800.7730223754093,-1760.7447919613903,390.75519790831612,-244.64654478845762,6143.6867277063384,2965.5109066762229,-7178.5314436943572,7178.5314436943572,-2965.5109066762229,10903.848178524682,0.0
285012.02908761695,3852225.878295721,-17500.0,-9934.0194177192188,-1421.7343924701702,3608.686552868789,-2386.9603837742061,79.026622574992189,-384.93747106841357,7206.4822780081522,2099.2976903481322,-8322.978511456462,8322.978511456462,-2099.2976903481322,12978.632563858848,0.0
290012.02908761695,3852225.878295721,-17500.0,-12013.550483782521,-3076.5222524266501,3050.5360801663487,-3161.4586508941702,-413.10906483171703,-577.4073101876171,8536.4981763273136,705.02228862298216,-9434.5225035868989,9434.5225035868989,-705.02228862298216,15631.008642428269,0.0
295012.02908761695,3852225.878295721,-17500.0,-14224.704381618112,-5244.3604577778196,1937.5651191453956,-4096.541293176454,-1154.3757997979656,-836.43468180837374,10197.738572829641,-1393.7147223234088,-10386.994389248921,10386.994389248921,1393.7147223234088,18998.224915181156,0.0
300012.02908761695,3852225.878295721,-17500.0,-16436.616709567432,-7982.776791690515,17.765657487249825,-5190.2389035869401,-2229.5434178740579,-1177.4573723324911,12259.797079225908,-4396.0441767156753,-10993.002713003192,10993.002713003192,4396.0441767156753,23225.225672294884,0.0
305012.02908761695,3852225.878295721,-17500.0,-18441.628980940324,-11294.243101363685,-3026.6543802936449,-6414.9126986900546,-3735.9821875902035,-1614.6978464720578,14792.475650104854,-8500.2325213060285,-10994.956897155374,10994.956897155374,8500.2325213060285,28449.712169186932,0.0
310012.02908761695,3852225.878295721,-17500.0,-19944.931951896593,-15076.9346618297,-7564.0041125887601,-7702.2764752029061,-5772.9457049330758,-2157.0136648184362,17858.199896338188,-13855.799205751975,-10069.567530577873,10069.567530577873,13855.799205751975,34775.914795373152,0.0
315012.02908761695,3852225.878295721,-17500.0,-20574.001703302998,-19059.622988451923,-13963.853970972645,-8926.8827834124677,-8419.1606621162518,-2801.4537889736043,21505.191942011417,-20481.681818951361,-7860.3841528675794,7860.3841528675794,20481.681818951361,42232.695130105523,0.0
320012.02908761695,3852225.878295721,-17500.0,-19926.813076554336,-22731.597997301804,-22492.734417858468,-9893.7739317850555,-11694.508603010738,-3524.8869906245886,25746.644373074556,-28145.843965147131,-4057.7038317802508,4057.7038317802508,28145.843965147131,50713.062504750502,0.0
325012.02908761695,3852225.878295721,-17500.0,-17680.170118365189,-25297.743230811127,-33136.193895279102,-10341.250539478018,-15505.205830595645,-4275.8184738440223,30446.592592022669,-36218.801574597266,1456.6700874836934,-1456.6700874836934,36218.801574597266,59897.657225960604,0.0
330012.02908761695,3852225.878295721,-17500.0,-13768.040033688645,-25716.171775410337,-45350.301588575603,-9974.3691549525156,-19581.622510200294,-4971.0604021200397,35236.428598471975,-43549.440092167191,8401.8693177670575,-8401.8693177670575,43549.440092167191,69176.607462622298,0.0
335012.02908761695,3852225.878295721,-17500.0,-8600.1646958898764,-22898.517999549036,-57803.430619895989,-8543.2827765562197,-23435.078604997314,-5503.8262033579194,39572.585450293991,-48466.508432947419,15881.164854134497,-15881.164854134497,48466.508432947419,77604.747310215564,0.0
340012.02908761695,3852225.878295721,-17500.0,-3214.6681856832629,-16133.874941387367,-68268.295428985177,-5964.0861023303896,-26378.916818382415,-5767.6804848154707,42781.13191131808,-49056.141490365873,22295.805044580717,-22295.805044580717,49056.141490365873,83949.794921542911,0.0
345012.02908761695,3852225.878295721,-17500.0,825.49376613305742,-5677.5700553045417,-73918.591726290193,-2443.596584088737,-27661.45675900226,-5691.6147889770464,44171.199267993914,-43826.71284113772,25604.754835831816,-25604.754835831816,43826.71284113772,86902.946837824027,0.0
350012.02908761695,3852225.878295721,-17500.0,1964.2876956536679,6795.3957269898583,-72227.792681844701,1472.2770827799159,-26716.332207522129,-5268.8854799715764,43304.140511101003,-32637.1060223557,24078.108366052067,-24078.108366052067,32637.1060223557,85477.843022926652,0.0
355012.02908761695,3852225.878295721,-17500.0,-485.69889193664096,18373.177309425522,-62275.452446527401,5009.6181489613728,-23441.183834476156,-4559.282311064615,40433.384634227659,-17351.207835782236,17334.008649873405,-17334.008649873405,17351.207835782236,79494.270640523333,0.0
360012.02908761695,3852225.878295721,-17500.0,-5706.3431648302449,25999.607885411548,-45658.314000372113,7436.5724895446756,-18330.887147901882,-3662.1246536812373,36165.666853369548,-1488.4400258715095,6946.0280606594233,-6946.0280606594233,1488.4400258715095,69885.050575597183,0.0
365012.02908761695,3852225.878295721,-17500.0,-11627.222355452213,27955.268612902706,-26089.333978700295,8354.8667861921313,-12333.112304947732,-2681.7084549865526,31157.380841160593,11267.166973160951,-4093.3889514591174,4093.3889514591174,-11267.166973160951,58555.66083809144,0.0
370012.02908761695,3852225.878295721,-17500.0,-16039.793776821754,24611.842920720377,-7727.2947878972318,7824.581284397188,-6486.9468891572205,-1708.5879910894162,26324.740166351996,18734.750276746716,-12852.50053778236,12852.50053778236,-18734.750276746716,47775.465017404116,0.0
375012.02908761695,3852225.878295721,-17500.0,-17688.824507705649,17903.010354690083,6545.5549579729341,6257.4196563846172,-1571.9448155609123,-817.00586155469318,22399.647617305047,20849.106374543826,-17749.72067047063,17749.72067047063,-20849.106374543826,39363.91279111406,0.0
380012.02908761695,3852225.878295721,-17500.0,-16563.79962302604,10118.865628351496,15767.282527978516,4188.0078257569376,2046.0024900196661,-63.813417593409326,19631.731813947379,19025.853865609628,-18800.121380522658,18800.121380522658,-19025.853865609628,34006.424986513775,0.0
385012.02908761695,3852225.878295721,-17500.0,-13466.124583058649,2980.4405562647607,20456.794782816436,2078.358337993498,4363.742500946938,517.08119415795977,17810.568099955766,15092.429252563192,-17015.835256879305,17015.835256879305,-15092.429252563192,31123.590470413394,0.0
390012.02908761695,3852225.878295721,-17500.0,-9408.1341681603226,-2636.0092081183216,21801.741546342233,228.46751684379851,5593.8586914261568,918.58833347127666,16538.01619356616,10546.726602208575,-13657.539544908443,13657.539544908443,-10546.726602208575,29551.274168127933,0.0
395012.02908761695,3852225.878295721,-17500.0,-5224.2121626160952,-6531.5241904485783,21034.585034770898,-1222.8177544742011,6024.2716571039264,1157.101173938913,15485.907906453789,6316.779977840506,-9769.5629679448193,9769.5629679448193,-6316.779977840506,28355.313416081081,0.0
400012.02908761695,3852225.878295721,-17500.0,-1443.5120762812505,-8893.0291402705498,19136.846781557815,-2253.7962465034047,5928.3573246267333,1263.4467882327588,14477.525922841658,2833.0665777837103,-6033.0757888965591,6033.0757888965591,-2833.0665777837103,27075.848431826245,0.0
405012.02908761695,3852225.878295721,-17500.0,1680.0666545137396,-10056.883547671203,16777.888311984007,-2909.7321053922501,5524.7872634604719,1273.015702669619,13452.353457951151,199.25752260731133,-2803.2531756502908,2803.2531756502908,-199.25752260731133,25586.083282202784,0.0
410012.02908761695,3852225.878295721,-17500.0,4084.0303800589995,-10369.301789367932,14362.770671615735,-3263.8172605497334,4969.8798061009848,1218.5872286241126,12410.409495745655,-1653.922243018319,-207.16840990318769,207.16840990318769,1653.922243018319,23915.273287132255,0.0
415012.02908761695,3852225.878295721,-17500.0,5816.0567333862955,-10123.658024071521,12108.304673253448,-3392.8097673863122,4365.7957749917841,1126.716896943449,11373.967274266437,-2865.0777952277813,1762.4967474525547,-1762.4967474525547,2865.0777952277813,22141.999212547962,0.0
420012.02908761695,3852225.878295721,-17500.0,6974.6279419164412,-9543.4606251217756,10111.150529443865,-3364.668692679681,3773.7186556487877,1016.8981422285087,10368.096889319753,-3584.0799077356451,3179.1833056766964,-3179.1833056766964,3584.0799077356451,20345.457434412387,0.0
425012.02908761695,3852225.878295721,-17500.0,7672.2371418038383,-8787.1874075129799,8397.8153349413151,-3234.0449178179178,3226.5185716599467,902.2980732367738,9413.0165605335278,-3944.9332291963701,4139.8965630901594,-4139.8965630901594,3944.9332291963701,18588.250384017985,0.0
430012.02908761695,3852225.878295721,-17500.0,8015.6051201190057,-7960.9037646368051,6957.5259381890191,-3042.102478025844,2738.8417157653253,791.10101935432635,8522.5720816329722,-4056.4646953504862,4741.8570372527693,-4741.8570372527693,4056.4646953504862,16913.420239866329,0.0
435012.02908761695,3852225.878295721,-17500.0,8096.8911543112545,-7131.7644063236175,5762.2653728356408,-2818.314466303706,2314.3685918748765,687.8959841333243,7706.6053857201778,-4001.9667881333539,5071.5232355417102,-5071.5232355417102,4001.9667881333539,15346.994549557221,0.0
440012.02908761695,3852225.878295721,-17500.0,7991.2324823796325,-6339.5869428307396,4778.1733131739247,-2582.8576681212153,1950.674058526489,594.84758539144104,6976.5119060487832,-3842.6003191921918,5200.7797976615129,-5200.7797976615129,3842.6003191921918,13901.984510250386,0.0
445012.02908761695,3852225.878295721,-17500.0,7757.5166938395196,-5605.7926199147614,3971.5693311378031,-2348.922168596036,1642.3065973401922,512.58522397977526,6325.8988215274994,-3621.8396068608522,5186.8564356373117,-5186.8564356373117,3621.8396068608522,12582.211724441835,0.0
270012.02908761695,3857225.878295721,-17500.0,-4063.0633891780776,2448.6822592501403,4148.9366851359073,-552.14144549132584,987.23241628661549,3.0642673050667231,4912.709965911361,4821.9059077168358,-4733.4597703509799,4733.4597703509799,-4821.9059077168358,8509.1654820686454,0.0
275012.02908761695,3857225.878295721,-17500.0,-5549.5648520051573,2045.017704265055,4542.2417850413776,-926.6954565078255,963.79226907391103,-57.008259036686724,5602.696932456387,4897.2941969943322,-5901.7549247231664,5901.7549247231664,-4897.2941969943322,9720.7094545930358,0.0
280012.02908761695,3857225.878295721,-17500.0,-7353.0359713237749,1369.9836910870295,4861.7521765311212,-1426.815082865045,863.4978095478242,-148.06012522136993,6457.8504115195783,4750.1960459432994,-7240.5146500299397,7240.5146500299397,-4750.1960459432994,11272.991087294949,0.0
285012.02908761695,3857225.878295721,-17500.0,-9500.9637837780901,326.70179438321333,5022.3368404821695,-2083.8071161169123,643.39149927404583,-282.19376645003717,7531.8161647871166,4258.3654390335541,-8728.1306984857074,8728.1306984857074,-4258.3654390335541,13289.613600491355,0.0
290012.02908761695,3857225.878295721,-17500.0,-11998.363540730461,-1201.9433658849691,4891.0508171558749,-2931.2477575155594,242.52371960634648,-475.07204456150367,8893.8800065904907,3254.2958789369895,-10307.83463095733,10307.83463095733,-3254.2958789369895,15928.088915135757,0.0
295012.02908761695,3857225.878295721,-17500.0,-14809.258341175258,-3347.7803334010055,4267.8403281119918,-4000.5930815261136,-423.12263555017233,-746.12039048510678,10630.404012526913,1517.1164408627274,-11868.513631957645,11868.513631957645,-1517.1164408627274,19380.348427231071,0.0
300012.02908761695,3857225.878295721,-17500.0,-17830.899883753031,-6241.5922582784624,2863.3610548288439,-5312.7603135765903,-1465.0515546079237,-1117.9036232091871,12844.32554146043,-1229.4670883545796,-13220.702595518211,13220.702595518211,1229.4670883545796,23868.418265464454,0.0
305012.02908761695,3857225.878295721,-17500.0,-20861.743260421881,-9980.0818135476329,278.65823964909936,-6863.8333681770173,-3023.5230158002373,-1613.8714112497187,15651.672668759667,-5304.6469555962385,-14071.070858630523,14071.070858630523,5304.6469555962385,29632.030072335237,0.0
310012.02908761695,3857225.878295721,-17500.0,-23568.730307012211,-14566.759851270275,-4002.0916476355565,-8603.3090089056568,-5260.9790348453953,-2253.3138860011964,19174.762796054594,-11029.362791407724,-14004.440987948548,14004.440987948548,11029.362791407724,36902.374330939645,0.0
315012.02908761695,3857225.878295721,-17500.0,-25468.021098991238,-19819.062129472226,-10584.061075617856,-10405.121827147195,-8340.0292591289635,-3042.2736235942434,23534.998756272889,-18636.670907508073,-12492.0029936543,12492.0029936543,18636.670907508073,45853.201663656175,0.0
320012.02908761695,3857225.878295721,-17500.0,-25946.532199445144,-25242.633354278289,-20063.398287976852,-12036.51935053023,-12375.815272275468,-3959.9160791777854,28839.27093612068,-28111.593537554611,-8957.6148342849829,8957.6148342849829,28111.593537554611,56518.667423319363,0.0
325012.02908761695,3857225.878295721,-17500.0,-24366.659097297063,-29897.867496533505,-32809.140897020501,-13139.112958694363,-17353.52164991033,-4942.5226106492746,35054.259090291271,-38949.784794508363,-2945.8890600572595,2945.8890600572595,38949.784794508363,68669.869283849534,0.0
330012.02908761695,3857225.878295721,-17500.0,-20301.723225453523,-32332.433360189625,-48582.272753268349,-13249.340885660251,-23012.573769691484,-5872.5648855763338,41795.906130510106,-49867.377827718788,5569.3224169196255,-5569.3224169196255,49867.377827718788,81655.276107983882,0.0
335012.02908761695,3857225.878295721,-17500.0,-13916.349809098034,-30725.490124536518,-66010.543375189911,-11894.76597217681,-28727.610870322336,-6586.4731293736177,48335.226885964687,-58591.9599899143,15752.797436156216,-15752.797436156216,58591.9599899143,94243.44322942631,0.0
340012.02908761695,3857225.878295721,-17500.0,-6388.0243928773671,-23442.550895854256,-82112.236884783619,-8790.0374788234785,-33464.360665083113,-6914.535760874257,53632.612383377287,-62017.977646347092,25521.239949408333,-25521.239949408333,62017.977646347092,104568.67633928536,0.0
345012.02908761695,3857225.878295721,-17500.0,-40.249759424544266,-10098.236329515392,-92360.729235609208,-4096.7354733215734,-35931.20368264748,-6748.927701720133,56458.697479264498,-57113.82233797283,31621.263279372793,-31621.263279372793,57113.82233797283,110354.68261894958,0.0
350012.02908761695,3857225.878295721,-17500.0,2328.3381831174725,7242.6276847581858,-91972.706361654273,1397.7442800726781,-35012.221382442403,-6102.4347407695577,55808.648652787509,-42702.677329451908,30722.978619113932,-30722.978619113932,42702.677329451908,109587.99758296448,0.0
355012.02908761695,3857225.878295721,-17500.0,-898.657837104176,23850.334897373028,-78541.370922626622,6403.7525113312404,-30370.73177554717,-5105.04480834284,51752.316433869186,-21261.568017909569,21538.095859034966,-21538.095859034966,21261.568017909569,101568.56255000546,0.0
360012.02908761695,3857225.878295721,-17500.0,-8529.9810489580614,34251.106770772683,-54445.992045931162,9646.0347067032835,-22823.685683224168,-3929.7789629702525,45557.981542490124,1196.5396544525488,6526.1361639642455,-6526.1361639642455,-1196.5396544525488,87760.923200088437,0.0
365012.02908761695,3857225.878295721,-17500.0,-16855.289867770214,35494.607049277154,-26373.065738280227,10490.345922844172,-14077.38197768297,-2713.9245848122496,38446.892609325965,18161.140241962741,-8957.5421886647091,8957.5421886647091,-18161.140241962741,71619.984127203526,0.0
370012.02908761695,3857225.878295721,-17500.0,-22105.158829641936,28807.076554471194,-1590.5574386707626,9183.9802368359633,-5929.5164499294397,-1543.7535296966576,31951.924365757899,26316.964219969905,-19940.042921541066,19940.042921541066,-26316.964219969905,57182.76119758212,0.0
375012.02908761695,3857225.878295721,-17500.0,-22696.404180327223,18080.430804396805,15696.950571087922,6554.8637576313959,447.24113760172281,-486.18003501994122,27122.990967925718,26502.861825766522,-24454.824309365758,24454.824309365758,-26502.861825766522,47168.034257324536,0.0
380012.02908761695,3857225.878295721,-17500.0,-19357.021438606855,7147.0724208542706,25052.553749333634,3509.3008918778669,4696.9038706665769,394.7009254851032,24012.71822966019,21807.686925493315,-23459.752015473114,23459.752015473114,-21807.686925493315,41731.828788454717,0.0
385012.02908761695,3857225.878295721,-17500.0,-13847.092988247648,-1733.8836488152369,28259.700877478012,703.77251916777152,7046.4389092132196,1052.7292989941093,22009.144964950872,15306.903780961304,-19164.489228078626,19164.489228078626,-15306.903780961304,39077.677731157193,0.0
390012.02908761695,3857225.878295721,-17500.0,-7805.6842118340755,-7865.9349888288525,27602.022546995056,-1527.874781365794,7972.5855344469937,1477.5472744789352,20472.273882422844,9008.7237617017381,-13621.409399277276,13621.409399277276,-9008.7237617017381,37342.931199977793,0.0
395012.02908761695,3857225.878295721,-17500.0,-2289.2375648893053,-11480.853291172243,24950.070906244306,-3101.5540273249949,7966.7342809634611,1694.2873374593821,19037.68758876127,3844.5733548936714,-8182.2701984002597,8182.2701984002597,-3844.5733548936714,35553.275339406151,0.0
400012.02908761695,3857225.878295721,-17500.0,2209.6819013633881,-13163.681530397304,21542.403787018495,-4077.4249850088004,7426.462236533338,1749.0314917732726,17580.502048335125,40.401515196424953,-3526.1777070963572,3526.1777070963572,-40.401515196424953,33437.295082606775,0.0
405012.02908761695,3857225.878295721,-17500.0,5579.7557723619557,-13524.045560637231,18085.531396294056,-4575.8630275785836,6631.4514434311905,1692.4576722379677,16097.894910870909,-2529.4763587160523,124.70248743203251,-124.70248743203251,2529.4763587160523,31041.305149085823,0.0
410012.02908761695,3857225.878295721,-17500.0,7914.4276730891752,-13062.621951771476,14926.101500334324,-4726.1753065573384,5758.8812489780184,1569.0171384016849,14628.180179752688,-4115.7442371264588,2799.5711808337323,-2799.5711808337323,4115.7442371264588,28501.234521538314,0.0
415012.02908761695,3857225.878295721,-17500.0,9390.8728501856385,-12143.732157290273,12196.871414925707,-4641.6757900530829,4910.2947566951643,1412.5227336750368,13212.698618011056,-4978.0802791654587,4638.5538362880725,-4638.5538362880725,4978.0802791654587,25947.91081840052,0.0
420012.02908761695,3857225.878295721,-17500.0,10201.187113228485,-11012.164606089696,9916.1752684448456,-4411.3307630495492,4136.8905092134582,1246.061270311628,11882.68914862953,-5337.8428268210182,5812.338708823444,-5812.338708823444,5337.8428268210182,23478.662827575419,0.0
425012.02908761695,3857225.878295721,-17500.0,10519.395131372414,-9822.0055027844028,8048.1956288501615,-4100.0437636835341,3458.9412888521824,1083.9121941143285,10657.795268556107,-5366.2511442857085,6482.6423236617102,-6482.6423236617102,5366.2511442857085,21155.554398352866,0.0
430012.02908761695,3857225.878295721,-17500.0,10489.343788236922,-8663.8678919876384,6536.5170793021616,-3752.5029942088136,2879.1311971346031,933.93912239904091,9550.204182530586,-5188.0391679141312,6786.4451051218066,-6786.4451051218066,5188.0391679141312,19012.090484899429,0.0
435012.02908761695,3857225.878295721,-17500.0,10223.468884816717,-7586.4282216598804,5321.4237387591756,-3397.9030754737146,2391.0826263474182,799.72571128826689,8567.9126830920432,-4890.304391558444,6832.6388190445741,-6832.6388190445741,4890.304391558444,17061.421726495064,0.0
440012.02908761695,3857225.878295721,-17500.0,9806.2748322027528,-6611.8662967882365,4347.8410936206074,-3054.2312475693798,1984.4490488490294,682.20301254438868,7697.4935275968774,-4531.769051865027,6704.2668263549913,-6704.2668263549913,4531.769051865027,15303.250354033948,0.0
445012.02908761695,3857225.878295721,-17500.0,9299.3856117273735,-5746.3918690075388,3568.3218955213715,-2731.7292369269112,1647.7930056089106,580.78632578099882,6919.556650295789,-4150.7213392566964,6462.8000144686912,-6462.8000144686912,4150.7213392566964,13729.092270813939,0.0
265012.02908761695,3862225.878295721,-17500.0,-1516.911751716455,3693.7462466939814,3988.2151319856957,117.82634243800798,1216.6558774701807,124.17426328067285,4744.8505993922317,5431.0453969178789,-2984.4469537342784,2984.4469537342784,-5431.0453969178789,8329.3989154688443,0.0
270012.02908761695,3862225.878295721,-17500.0,-2664.1963435969174,3713.289936188271,4553.994224345076,-109.21616076602838,1312.4828914611301,102.27837084751147,5331.4305056416524,5905.8362429120152,-4020.9124711162312,4020.9124711162312,-5905.8362429120152,9292.7875641046176,0.0
275012.02908761695,3862225.878295721,-17500.0,-4136.9141556257191,3573.5108166998411,5157.4154201209221,-437.70946856519186,1378.6292464050662,60.469228537179291,6034.9624091539335,6312.1353727612977,-5286.9998637441049,5286.9998637441049,-6312.1353727612977,10467.917090473642,0.0
280012.02908761695,3862225.878295721,-17500.0,-6000.9601622424643,3193.0804462541873,5763.954180870337,-901.73934994501349,1387.5545723200566,-11.072564185925984,6894.5235991449536,6572.7635540494084,-6808.3177889940271,6808.3177889940271,-6572.7635540494084,11942.531610596343,0.0
285012.02908761695,3862225.878295721,-17500.0,-8322.2967627628295,2461.3051439423784,6308.290889308495,-1543.745014969116,1296.4935760928806,-126.07948059271263,7965.5382206600716,6569.7337232368363,-8596.2113781372937,8596.2113781372937,-6569.7337232368363,13844.955732913801,0.0
290012.02908761695,3862225.878295721,-17500.0,-11155.89176878748,1232.4567150570822,6676.0962201423481,-2414.2652510829462,1040.6989065967634,-303.27486469404835,9325.4059989730376,6128.3728882082869,-10632.817646008971,10632.817646008971,-6128.3728882082869,16356.264745836832,0.0
295012.02908761695,3862225.878295721,-17500.0,-14526.271829953146,-676.5853576993278,6677.7764699605677,-3569.2904626241957,524.71872796522212,-567.30890462858463,11079.386078037251,4998.8162580753979,-12847.776148132119,12847.776148132119,-4998.8162580753979,19720.460995101093,0.0
300012.02908761695,3862225.878295721,-17500.0,-18396.22968647939,-3480.0125247647861,6012.9358404872146,-5063.0496259129741,-387.7705009519737,-948.99746564975487,13365.482831439336,2838.2301951970385,-15084.404240534679,15084.404240534679,-2838.2301951970385,24249.265320209433,0.0
305012.02908761695,3862225.878295721,-17500.0,-22620.888795770115,-7398.6781228990949,4226.9646385989554,-6932.9722677160571,-1883.5275157383512,-1483.7803610908911,16356.711710249423,-798.00941652746042,-17055.085500298635,17055.085500298635,798.00941652746042,30317.672284219047,0.0
310012.02908761695,3862225.878295721,-17500.0,-26887.839562925863,-12602.835650195751,667.89517113620502,-9172.6464376406748,-4203.5719687592318,-2206.5437353452003,20259.852527135728,-6439.4397580851119,-18291.185611674919,18291.185611674919,6439.4397580851119,38344.366195333765,0.0
315012.02908761695,3862225.878295721,-17500.0,-30653.238911679593,-19102.204350347645,-5534.3468476332209,-11688.956947812349,-7630.8001647442834,-3140.1443530268225,25314.025106869005,-14628.31224166533,-18104.895863415215,18104.895863415215,14628.31224166533,48745.212773414161,0.0
320012.02908761695,3862225.878295721,-17500.0,-33102.709397200255,-26564.061483654667,-15419.173763888433,-14243.882434712343,-12443.370373939164,-4275.0442777461649,31793.083609494977,-25747.057516607896,-15602.524532519306,15602.524532519306,25747.057516607896,61839.240876015821,0.0
325012.02908761695,3862225.878295721,-17500.0,-33197.046417537451,-34057.842154300393,-29992.464170352185,-16393.639037276891,-18808.772973911466,-5540.4647333022494,39893.246573444812,-39691.13503799864,-9821.5508495580343,9821.5508495580343,39691.13503799864,77678.194680234228,0.0
330012.02908761695,3862225.878295721,-17500.0,-29902.213039321196,-39783.011492483995,-49745.581740084686,-17462.05591827595,-26596.307588040472,-6776.6165443646214,49355.80785142503,-55355.39798834698,-97.525056494261662,97.525056494261662,55355.39798834698,95772.476031382874,0.0
335012.02908761695,3862225.878295721,-17500.0,-22722.003200468818,-40969.486634885296,-73777.931495700497,-16618.205135028973,-35117.929590631808,-7733.2152514540321,59312.596908724372,-70013.40819027496,13240.127006199331,-13240.127006199331,70013.40819027496,114718.94232571738,0.0
340012.02908761695,3862225.878295721,-17500.0,-12559.515461545714,-34360.708850154057,-98591.6659386307,-13147.250235740074,-42896.539441065812,-8129.7894598871662,68237.937569939953,-78966.057667699599,27906.217798026584,-27906.217798026584,78966.057667699599,131845.04933634755,0.0
345012.02908761695,3862225.878295721,-17500.0,-2540.579772493611,-17844.512342063812,-117240.84477717899,-6947.2905553948103,-47710.977938536496,-7787.5666240623323,73961.975473481405,-76345.456144818148,39009.898520788323,-39009.898520788323,76345.456144818148,143216.40104656498,0.0
350012.02908761695,3862225.878295721,-17500.0,2350.5698531698017,6741.028170293057,-120566.14971882325,936.20749736890741,-47264.874225778971,-6762.1492679838248,74255.208071184083,-58171.853755106669,40139.287037724091,-40139.287037724091,58171.853755106669,144610.90865462538,0.0
355012.02908761695,3862225.878295721,-17500.0,-1770.2595243943401,31688.037240592173,-102287.51593950475,8281.4476449873491,-40527.907192592509,-5338.7178827225771,68441.614295661973,-27063.747336903485,27498.20463150202,-27498.20463150202,27063.747336903485,133803.72607096224,0.0
360012.02908761695,3862225.878295721,-17500.0,-13366.019635354472,46445.426363073013,-65677.518442162953,12688.566199012648,-28875.760017351873,-3841.3424953680969,58935.502181834781,6184.7758444534411,4838.4439819178606,-4838.4439819178606,-6184.7758444534411,113054.95608473565,0.0
365012.02908761695,3862225.878295721,-17500.0,-25286.457036049338,45494.505311030152,-23756.137501608478,13087.299116516841,-15634.498046415172,-2434.704594418341,48416.686776893206,29093.574984067625,-17497.158840452354,17497.158840452354,-29093.574984067625,89140.163825545693,0.0
370012.02908761695,3862225.878295721,-17500.0,-30778.961218192271,32466.522038622534,9938.9129898258398,10257.194008672415,-4106.0069469557548,-1132.9416273978416,39558.141072387225,36654.208885860819,-30640.336732431402,30640.336732431402,-36654.208885860819,69700.372932462997,0.0
375012.02908761695,3862225.878295721,-17500.0,-28429.828734419265,15483.303376363549,29718.334838186489,5917.0935890503306,4009.4773502691351,52.54773599894903,33705.02727998099,32501.207100222633,-32888.290126491091,32888.290126491091,-32501.207100222633,58384.23225628621,0.0
380012.02908761695,3862225.878295721,-17500.0,-20999.852188574703,731.72083768068524,37337.583086024853,1571.9565295807429,8657.2308133964689,1048.5128824422673,30213.675965085371,23134.058144863095,-27759.501773674991,27759.501773674991,-23134.058144863095,53263.533591910316,0.0
385012.02908761695,3862225.878295721,-17500.0,-11943.461752159095,-9438.6578158595312,37256.249233030823,-1952.8195969991161,10629.289543016976,1774.4692369647801,27803.309857120948,13343.011134015936,-19597.132295635525,19597.132295635525,-13343.011134015936,50512.628494928933,0.0
390012.02908761695,3862225.878295721,-17500.0,-3560.0607668106595,-15208.076254414864,33392.333991039093,-4411.3044828205511,10867.923972551986,2203.7233724306329,25658.075491726282,5348.2770401573071,-11342.311005247204,11342.311005247204,-5348.2770401573071,47877.823105814998,0.0
395012.02908761695,3862225.878295721,-17500.0,3138.302926662152,-17686.915774121477,28240.523613915462,-5884.737653068195,10141.62824960205,2370.4133046524576,23497.525670402872,-335.39554716117959,-4387.3726740463626,4387.3726740463626,335.39554716117959,44731.600953426547,0.0
400012.02908761695,3862225.878295721,-17500.0,7966.7648606367611,-18034.182168929379,23107.481798208362,-6583.2691314271397,8975.3241038835167,2341.9404348613843,21308.018416557185,-3970.357657065485,877.4650172738593,-877.4650172738593,3970.357657065485,41151.265337103861,0.0
405012.02908761695,3862225.878295721,-17500.0,11136.099535894931,-17152.409018900118,18557.390833958201,-6733.8840445052747,7686.8806769725416,2189.833006385757,19155.859854892577,-6046.5953990609169,4556.1957302144519,-4556.1957302144519,6046.5953990609169,37382.074465562218,0.0
410012.02908761695,3862225.878295721,-17500.0,12988.222234282584,-15655.395502690311,14757.058625812186,-6530.8443318221471,6448.215030804894,1973.1569161907103,17108.720111369315,-7037.595824733834,6935.5647211678415,-6935.5647211678415,7037.595824733834,33643.910799407502,0.0
415012.02908761695,3862225.878295721,-17500.0,13865.566339576357,-13925.860837790262,11686.294369592904,-6121.5908299641214,5339.163754987555,1733.6587804922533,15213.304624079536,-7320.8514520087801,8329.3307255985947,-8329.3307255985947,7320.8514520087801,30086.942569029805,0.0
420012.02908761695,3862225.878295721,-17500.0,14059.225392090473,-12185.244306127206,9251.2466354172338,-5609.391768650672,4386.3185079124678,1497.4161255680747,13495.249966105837,-7170.1550247569139,9013.7546907539581,-9013.7546907539581,7170.1550247569139,26796.912775084522,0.0
425012.02908761695,3862225.878295721,-17500.0,13796.590807295463,-10550.798622918664,7340.0252456334219,-5062.0152710554221,3588.1276516114776,1278.740351289345,11966.214125003937,-6772.7822123193782,9208.9340356941811,-9208.9340356941811,6772.7822123193782,23812.087842539291,0.0
430012.02908761695,3862225.878295721,-17500.0,13246.224025719199,-9076.1771581482662,5847.2196075621441,-4521.1952984148102,2929.9414225779424,1084.0841792853873,10624.238183694451,-6251.3993275287385,9080.4176739091145,-9080.4176739091145,6251.3993275287385,21139.618066153147,0.0
435012.02908761695,3862225.878295721,-17500.0,12528.407027164023,-7778.1159945086847,4682.7261133932025,-4010.6861547469434,2392.4084535599245,915.10692929591698,9445.7410236658325,-5683.2570135659371,8748.0096166817148,-8748.0096166817148,5683.2570135659371,18767.901625750306,0.0
440012.02908761695,3862225.878295721,-17500.0,11726.338858864809,-6653.2108085950285,3773.3025413307137,-3542.4256656948328,1955.8422722861133,770.80720872497318,8407.0448013759633,-5114.9521091475199,8295.9362711513386,-8295.9362711513386,5114.9521091475199,16675.21086156624,0.0
445012.02908761695,3862225.878295721,-17500.0,10895.878304026848,-5688.0482680097666,3061.0778247403255,-3120.9260664036769,1602.2511177844713,648.88651468307194,7492.0872278076185,-4573.0061761526813,7781.9532850780197,-7781.9532850780197,4573.0061761526813,14835.283848499048,0.0
450012.02908761695,3862225.878295721,-17500.0,10073.2815688598,-4865.0882163308006,2501.064624196852,-2746.2545148946015,1316.0890712867647,546.56224282714288,6687.2434260159089,-4071.1306617339292,7244.6805382933362,-7244.6805382933362,4071.1306617339292,13220.730994800284,0.0
265012.02908761695,3867225.878295721,-17500.0,221.9777366925486,4699.2454187313497,4063.4722715984217,608.14122367722553,1452.3116333941334,224.02300784855936,5255.5006747656516,6074.9443118732743,-1873.3304865468622,1873.3304865468622,-6074.9443118732743,9403.9930108737863,0.0
270012.02908761695,3867225.878295721,-17500.0,-759.76424338187621,4983.3376739460928,4747.1616711106262,461.83558261717462,1625.7201476359005,225.0205389760836,5889.5224179178913,6811.2085654619596,-2865.0771602502564,2865.0771602502564,-6811.2085654619596,10437.558847078237,0.0
275012.02908761695,3867225.878295721,-17500.0,-2090.588803080444,5166.751420656421,5527.8237484444026,220.65493753886255,1792.8048585758611,210.61381149761445,6633.4707468438191,7562.8441746721346,-4132.0023185692735,4132.0023185692735,-7562.8441746721346,11648.120308093261,0.0
280012.02908761695,3867225.878295721,-17500.0,-3864.1652524573728,5173.2220388923497,6394.5661060218426,-154.34643714832163,1931.3782978249621,171.09226971376984,7520.4737319482847,8273.2830784757534,-5728.755644667156,5728.755644667156,-8273.2830784757534,13102.559411061673,0.0
285012.02908761695,3867225.878295721,-17500.0,-6188.4394556105044,4890.675518823904,7312.3431460632773,-714.99153828063163,2003.637258316196,92.111846054267232,8599.8016415586317,8845.2445657947319,-7707.4802171738556,7707.4802171738556,-8845.2445657947319,14908.304543022768,0.0
290012.02908761695,3867225.878295721,-17500.0,-9179.1415556598204,4159.0187746817755,8203.0178163315995,-1528.2873377055603,1947.5131782931285,-47.024607894154038,9945.4516426921946,9119.6379285303738,-10105.066567707257,10105.066567707257,-9119.6379285303738,17235.916946723999,0.0
295012.02908761695,3867225.878295721,-17500.0,-12944.406899681109,2757.3554052564109,8915.030362473437,-2677.2286424483618,1664.18573364961,-275.31031192426178,11667.908261217704,8846.7464113191636,-12920.032616061617,12920.032616061617,-8846.7464113191636,20347.528407954444,0.0
300012.02908761695,3867225.878295721,-17500.0,-17554.62508896341,394.95938722599004,9176.9078385715566,-4257.6915797747261,1001.0031933766414,-631.73045516896809,13928.596887613701,7649.9867387631912,-16073.744334186236,16073.744334186236,-7649.9867387631912,24626.045439889283,0.0
305012.02908761695,3867225.878295721,-17500.0,-22989.889010630763,-3284.393245271081,8530.247280112555,-6367.0541000703097,-269.84381436882785,-1165.5476090950258,16955.206071113938,4986.9104846886621,-19350.288824182811,19350.288824182811,-4986.9104846886621,30595.962997208873,0.0
310012.02908761695,3867225.878295721,-17500.0,-29057.638337793185,-8666.2907566270751,6242.0366358238807,-9077.4835291518684,-2473.421528956434,-1932.756157000792,21055.86590985972,121.76564444677388,-22312.123681414945,22312.123681414945,-121.76564444677388,38925.520062887183,0.0
315012.02908761695,3867225.878295721,-17500.0,-35278.59172268353,-16066.374475440471,1209.1457802106434,-12384.02412330518,-6044.3612036432442,-2984.349773707755,26635.685703081559,-7857.6574977350283,-24198.779133789216,24198.779133789216,7857.6574977350283,50398.506544790675,0.0
320012.02908761695,3867225.878295721,-17500.0,-40756.945599429848,-25522.166331073407,-8101.8706643269743,-16117.705131759554,-11505.331084852238,-4340.1654101324521,34234.007818649632,-19915.737487021852,-23841.079527358615,23841.079527358615,19915.737487021852,65832.706319490491,0.0
325012.02908761695,3867225.878295721,-17500.0,-44090.162176090576,-36424.110368994086,-23576.253405780051,-19823.24525044224,-19366.506664661552,-5943.1880149033504,44484.979848774114,-36731.5871195414,-19673.12477910662,19673.12477910662,36731.5871195414,85893.444973161895,0.0
330012.02908761695,3867225.878295721,-17500.0,-43447.974886829841,-46962.918900627992,-47025.159126478196,-22631.241335757128,-29878.257677654852,-7600.7271470474016,57575.10172221985,-58000.938004512369,-10009.743395930986,10009.743395930986,58000.938004512369,110712.46985322388,0.0
335012.02908761695,3867225.878295721,-17500.0,-37069.571398878441,-53504.81377530349,-79055.458915492287,-23218.116626474974,-42570.570064375308,-8949.3358064809945,72746.798283619617,-81247.096646756952,6125.0396609966483,-6125.0396609966483,81247.096646756952,139199.54693210014,0.0
340012.02908761695,3867225.878295721,-17500.0,-24548.687735275966,-50413.053828534779,-116815.35948323591,-20044.504993230708,-55605.540319218053,-9519.8664822049377,88018.890724636221,-100301.52716930702,27282.054393203376,-27282.054393203376,100301.52716930702,168021.92230129437,0.0
345012.02908761695,3867225.878295721,-17500.0,-9042.2520197682443,-31701.297441593135,-150834.15087933099,-12140.853994779625,-65287.787833516304,-8964.414985532243,99721.216293396399,-104712.78890625694,47157.304384652656,-47157.304384652656,104712.78890625694,190684.5269230878,0.0
350012.02908761695,3867225.878295721,-17500.0,1136.4631015747213,3503.3923581319623,-163923.05871446515,-500.16103939991092,-66707.159342066792,-7354.942493376102,102963.24638664596,-83526.742187361597,53851.229730666542,-53851.229730666542,83526.742187361597,198247.99984810385,0.0
355012.02908761695,3867225.878295721,-17500.0,-3539.2633273159727,43323.997219121913,-139402.95882318346,10956.212629375112,-56661.036668159119,-5254.8122041196057,94731.330994840086,-36588.032714321569,36599.628701492009,-36599.628701492009,36588.032714321569,183987.08452262421,0.0
360012.02908761695,3867225.878295721,-17500.0,-22141.192728799342,65560.596244982036,-80139.134736704757,17162.638099315631,-37439.511259384606,-3330.4095538788379,79205.023373055708,15831.987295813757,277.18358789299509,-277.18358789299509,-15831.987295813757,150970.15712421518,0.0
365012.02908761695,3867225.878295721,-17500.0,-39466.754724959588,58528.141505225009,-14234.807342768023,16119.51723656039,-16300.992274547638,-1812.4711581352012,62843.547687550446,47011.188715850665,-32988.717115527768,32988.717115527768,-47011.188715850665,113831.97677870249,0.0
370012.02908761695,3867225.878295721,-17500.0,-42764.303081925456,33185.037807190114,31069.193032522795,10230.53190040747,210.40824120820304,-500.02736781858061,50605.697922875588,50049.527044789684,-46503.001674181382,46503.001674181382,-50049.527044789684,87948.844676757319,0.0
375012.02908761695,3867225.878295721,-17500.0,-33341.929770112307,7042.1557210190831,50405.432427804997,3210.8773728518058,10016.947987427446,760.70315251346915,43551.557920654035,37013.808034756301,-42058.930809815873,42058.930809815873,-37013.808034756301,76166.446084525567,0.0
380012.02908761695,3867225.878295721,-17500.0,-18982.312957566955,-11175.282736515035,52378.421027100921,-2629.3600115038257,14313.567165494655,1874.1587406220096,39283.94181291556,20828.606028744325,-29484.772593300841,29484.772593300841,-20828.606028744325,71056.665329520561,0.0
385012.02908761695,3867225.878295721,-17500.0,-5445.1809043643325,-20927.42795024666,46358.655448258134,-6594.1632479745258,15131.529300590491,2674.1325792264947,35783.293970942977,7660.593595603721,-16154.918441196365,16154.918441196365,-7660.593595603721,66784.424463189906,0.0
390012.02908761695,3867225.878295721,-17500.0,4977.7656807439553,-24621.196731752305,38038.071903994132,-8836.5818450026727,14122.063707036799,3093.8525945843621,32347.488892524016,-1210.3036822756783,-5253.4880014966329,5253.4880014966329,1210.3036822756783,61725.029698459985,0.0
395012.02908761695,3867225.878295721,-17500.0,12050.179996923052,-24720.600592107079,30031.108481275973,-9779.0093816560475,12341.716269335229,3180.0692902941864,28925.432237808152,-6449.5015315456876,2558.8967382960127,-2558.8967382960127,6449.5015315456876,56023.662100515859,0.0
400012.02908761695,3867225.878295721,-17500.0,16331.086718107259,-22973.338103166418,23253.861071398103,-9848.9919594147741,10381.553182854799,3033.0321760130992,25628.923154131116,-9119.8050283936027,7652.8337478806652,-7652.8337478806652,9119.8050283936027,50144.622327884164,0.0
405012.02908761695,3867225.878295721,-17500.0,18540.837678415694,-20448.355070040936,17851.547622600781,-9390.586032791789,8534.1941084637801,2753.5734826132639,22561.523182826553,-10139.553927343075,10667.330093904811,-10667.330093904811,10139.553927343075,44455.407184305863,0.0
410012.02908761695,3867225.878295721,-17500.0,19319.579269618363,-17741.929950236819,13675.259008510571,-8650.6454388274597,6919.93640520594,2418.8753568882285,19783.900298032942,-10173.127082686655,12207.956806904518,-12207.956806904518,10173.127082686655,39173.778890893984,0.0
415012.02908761695,3867225.878295721,-17500.0,19164.57136985302,-15158.225616442851,10496.764935068664,-7792.6163526614837,5567.7850991175037,2078.8054511111668,17319.916638497121,-9661.7916243011896,12757.960665118284,-12757.960665118284,9661.7916243011896,34401.291643677549,0.0
420012.02908761695,3867225.878295721,-17500.0,18435.920949471005,-12832.692446448851,8094.6534029525537,-6917.2596299468787,4463.1564771178064,1761.1623828305692,15168.094086463841,-8883.1650516883801,12672.898175899574,-12672.898175899574,8883.1650516883801,30164.382539190592,0.0
425012.02908761695,3867225.878295721,-17500.0,17382.811841899431,-10808.556189586403,6282.5885984402785,-6081.9020832615606,3574.0743768147463,1478.7122915461282,13303.639556353841,-8004.2600552455478,12202.077489342562,-12202.077489342562,8004.2600552455478,26445.823216182042,0.0
430012.02908761695,3867225.878295721,-17500.0,16171.661997385434,-9081.7973643531004,4913.5733145274271,-5315.5603890798984,2864.5527077424404,1235.1069937632806,11687.852900427946,-7120.8245458582242,11514.482623553082,-11514.482623553082,7120.8245458582242,23205.771670380705,0.0
435012.02908761695,3867225.878295721,-17500.0,14909.89339813661,-7626.5414811517066,3875.4488638246717,-4629.7401365778514,2300.7754809880835,1029.0296076213065,10286.661719095755,-6284.1959102762285,10721.398789368575,-10721.398789368575,6284.1959102762285,20394.76191811309,0.0
440012.02908761695,3867225.878295721,-17500.0,13664.236637230706,-6408.8873702866795,3084.1668362691507,-4025.7250876405578,1853.4823480313398,856.81332550420109,9072.148179325035,-5518.8668557356432,9894.034787198676,-9894.034787198676,5518.8668557356432,17961.392655712203,0.0
445012.02908761695,3867225.878295721,-17500.0,12473.999266781624,-5394.0234915642777,2477.3143178505247,-3499.2447022504721,1498.4570581233479,713.95928167843294,8019.7522675811315,-4833.6068216193844,9076.3801474146931,-9076.3801474146931,4833.6068216193844,15856.46761129183,0.0
450012.02908761695,3867225.878295721,-17500.0,11360.417457318143,-4549.6122899030688,2008.7239315712243,-3043.358297476113,1216.1728891407224,595.95187304559863,7107.5052295725054,-4228.360492902616,8294.2918972669795,-8294.2918972669795,4228.360492902616,14035.032690967348,0.0
260012.02908761695,3872225.878295721,-17500.0,2801.7080221183573,5038.2348740058806,3312.394203072834,1174.1554095072902,1425.8444787929791,306.09229641491635,5255.8747964649001,5604.8184088918406,229.27675789117302,-229.27675789117302,-5604.8184088918406,9703.0833675163158,0.0
265012.02908761695,3872225.878295721,-17500.0,2358.4863144402948,5588.4045724222715,3935.0886442371507,1191.6330781436286,1649.1709455895764,339.71312032383059,5880.8736705992669,6457.2633317303371,-383.39355314448358,383.39355314448358,-6457.2633317303371,10763.548775106587,0.0
270012.02908761695,3872225.878295721,-17500.0,1666.4040601499855,6151.6967318974021,4685.7924910604861,1161.0756910666528,1898.9956405065145,370.54518357317056,6598.237482642895,7422.9132930465876,-1223.8918417838049,1223.8918417838049,-7422.9132930465876,11962.508920690738,0.0
275012.02908761695,3872225.878295721,-17500.0,636.83040406393764,6693.2592150932915,5584.3433358611146,1054.9806541562116,2169.9028691893031,393.49852732359716,7426.4512118033799,8495.4051355391839,-2359.2122144205237,2359.2122144205237,-8495.4051355391839,13326.8348420697,0.0
280012.02908761695,3872225.878295721,-17500.0,-844.89747475800675,7153.7971989113948,6646.0357180039109,833.66173528847162,2448.4499895284307,400.22340550446677,8391.0362396224318,9649.1612712436963,-3870.5965262743271,3870.5965262743271,-9649.1612712436963,14897.564552090527,0.0
285012.02908761695,3872225.878295721,-17500.0,-2923.6606065682035,7436.8821990139786,7872.9823998032443,440.74663509380593,2707.2177488345292,377.4468510398674,9529.3745749849368,10824.807589697204,-5851.984346238758,5851.984346238758,-10824.807589697204,16742.62342173791,0.0
290012.02908761695,3872225.878295721,-17500.0,-5776.05850343562,7391.2104843104435,9237.8415141801488,-202.26429699751768,2895.1552862433723,304.65055591514374,10899.294757610733,11905.972217568436,-8403.2581814891819,8403.2581814891819,-11905.972217568436,18980.398856509328,0.0
295012.02908761695,3872225.878295721,-17500.0,-9605.2611816559875,6787.2564141648172,10654.514811704741,-1201.7662696083714,2922.2542592478367,151.00582050411901,12593.827057416416,12683.608632906016,-11613.513198226159,11613.513198226159,-12683.608632906016,21820.528645879745,0.0
300012.02908761695,3872225.878295721,-17500.0,-14622.110266625465,5289.7518236234246,11927.567582542752,-2696.3244568961868,2635.9712509659198,-128.27728249412129,14765.126539231465,12803.706777946431,-15526.611854234783,15526.611854234783,-12803.706777946431,25627.132985238113,0.0
305012.02908761695,3872225.878295721,-17500.0,-21001.024178675128,2432.3384766459881,12668.981431011429,-4855.2408197269697,1786.6014763919172,-595.40254534638461,17659.974002100054,11696.107865943191,-20077.752557843749,20077.752557843749,-11696.107865943191,31000.742140946568,0.0
310012.02908761695,3872225.878295721,-17500.0,-28794.487391267881,-2388.8846715939117,12169.445851326971,-7862.8682918281838,-19.745630795138386,-1331.0098314917718,21667.137927957334,8489.4019552004575,-24987.273069545026,24987.273069545026,-8489.4019552004575,38857.044894435407,0.0
315012.02908761695,3872225.878295721,-17500.0,-37787.767822316957,-9867.2548096606206,9216.9251785996985,-11873.276072187433,-3375.9670439615502,-2427.6063035830184,27378.823235885066,1935.3156747991834,-29600.825997093627,29600.825997093627,-1935.3156747991834,50466.744664498074,0.0
320012.02908761695,3872225.878295721,-17500.0,-47282.739029487842,-20617.565596137443,1878.5693948596841,-16911.635750019424,-9115.9326600167424,-3965.4449008035695,35696.13774407575,-9595.9706333546128,-32682.227361723802,32682.227361723802,9595.9706333546128,67425.887826556092,0.0
325012.02908761695,3872225.878295721,-17500.0,-55827.004428328393,-34783.779890634265,-12677.045895039088,-22694.801908819125,-18288.078726278414,-5956.2906795304671,47965.246409866973,-27919.563485141953,-32210.957970811367,32210.957970811367,27919.563485141953,91516.913097692101,0.0
330012.02908761695,3872225.878295721,-17500.0,-60969.120018673842,-51275.100033074399,-38101.964537624808,-28358.337488030775,-31942.322504505188,-8246.5595696926157,65422.737160279386,-54390.568026243047,-25335.728260670854,25335.728260670854,54390.568026243047,124329.7617602119,0.0
335012.02908761695,3872225.878295721,-17500.0,-59281.860698873112,-66465.527183042883,-78001.785293152614,-32135.670192391575,-50520.641361983726,-10410.942833660738,88117.36896340306,-88355.855112996302,-8862.2863781103952,8862.2863781103952,88355.855112996302,166318.28073087567,0.0
340012.02908761695,3872225.878295721,-17500.0,-47357.625461319112,-72432.027322625101,-133050.90981675964,-31193.615209292344,-72562.625057914294,-11749.570774551014,114223.42695127428,-124017.34982735658,18810.212020011561,-18810.212020011561,124017.34982735658,214748.61582644607,0.0
345012.02908761695,3872225.878295721,-17500.0,-25401.412640551454,-56355.781796740979,-194082.18663512566,-22272.176051037135,-92653.740839831051,-11532.799498517592,138278.25242720969,-145780.14040865676,52678.424548412346,-52678.424548412346,145780.14040865676,260298.15466821159,0.0
350012.02908761695,3872225.878295721,-17500.0,-4371.0971116800993,-7348.5876964518229,-232050.85384109532,-4572.6104500330266,-100235.27539411599,-9465.5665380805167,149952.82801707785,-127676.58461781028,73552.504680930972,-73552.504680930972,127676.58461781028,284728.25730126881,0.0
355012.02908761695,3872225.878295721,-17500.0,-7141.1258327638861,61115.360999453587,-202527.83340410277,15222.500882369561,-84898.45991932397,-6151.2821991280234,139102.26327149611,-54380.089749348488,51931.811718456353,-51931.811718456353,54380.089749348488,268130.61875551363,0.0
360012.02908761695,3872225.878295721,-17500.0,-39426.290416984884,97961.071869444713,-97844.790768241626,24593.025830441326,-49924.798437803292,-3057.0450461168957,112331.91579788187,36105.138570395349,-11460.449517520758,11460.449517520758,-36105.138570395349,211993.16504712342,0.0
365012.02908761695,3872225.878295721,-17500.0,-64315.341779485127,73614.341644098502,12489.323551335603,19187.067890217677,-13772.07283968224,-1119.4457878640339,85518.885771930698,77200.41986666272,-62290.248266761759,62290.248266761759,-77200.41986666272,151557.2262398054,0.0
370012.02908761695,3872225.878295721,-17500.0,-56976.581401611773,24274.247593436925,68816.996329658083,6984.2943347832916,9592.0335783364008,191.18402591849954,68401.207337822125,64454.172158423724,-68059.029674523365,68059.029674523365,-64454.172158423724,118705.17921990593,0.0
375012.02908761695,3872225.878295721,-17500.0,-32288.002601909982,-12612.98238775561,78475.053927055123,-3822.2416704628863,19752.393566368581,1526.719701624645,59257.339593150333,35234.214206648743,-47650.535514609306,47650.535514609306,-35234.214206648743,106574.05810605193,0.0
380012.02908761695,3872225.878295721,-17500.0,-8153.2807027224108,-30637.802681789988,68025.257742736794,-10663.728745113513,21873.66829223435,2810.2597082225984,52642.589537468724,11352.458667173196,-23865.867891111367,23865.867891111367,-11352.458667173196,98390.674043652471,0.0
385012.02908761695,3872225.878295721,-17500.0,9135.7541103441581,-36082.093193171233,53196.774634764319,-14069.643460990694,20262.385995208137,3719.355641650794,46498.420287882633,-3340.4495591894947,-5537.150509254242,5537.150509254242,3340.4495591894947,89110.452550412287,0.0
390012.02908761695,3872225.878295721,-17500.0,19681.758247911461,-35119.169133099283,39834.679287807063,-15165.459580541856,17321.723553221935,4123.3776629061358,40642.267831573015,-10974.28506401772,6419.001767072954,-6419.001767072954,10974.28506401772,79069.072231397571,0.0
395012.02908761695,3872225.878295721,-17500.0,25237.19593900082,-31466.415719788671,29311.005722328486,-14876.112703022702,14194.423634526704,4097.6614825181714,35241.841698370721,-14189.572242875374,13393.518647238352,-13393.518647238352,14189.572242875374,69197.842557636061,0.0
400012.02908761695,3872225.878295721,-17500.0,27486.063621904119,-27027.947062196552,21463.404926008545,-13838.431759673058,11359.140643544535,3795.4756782333625,30414.598854217838,-14898.475790025921,16957.283933967519,-16957.283933967519,14898.475790025921,60066.318563449291,0.0
405012.02908761695,3872225.878295721,-17500.0,27681.982202486735,-22687.436752968802,15748.07870018908,-12461.022963999983,8971.000840302022,3358.023808602838,26194.651009336463,-14296.818232898911,18337.306034569767,-18337.306034569767,14296.818232898911,51915.51251698297,0.0
410012.02908761695,3872225.878295721,-17500.0,26678.45497476231,-18804.829235053672,11623.503172872832,-10991.200228126208,7037.5887531118879,2883.6521010367651,22560.694995007412,-13084.844960217553,18388.250714541668,-18388.250714541668,13084.844960217553,44793.769975007999,0.0
415012.02908761695,3872225.878295721,-17500.0,25031.085101609595,-15484.985352698272,8651.3553213768391,-9568.1549897758578,5507.0839966821222,2429.4036383510156,19458.858951818926,-11654.291741543682,17674.901312651476,-17674.901312651476,11654.291741543682,38651.120604420707,0.0
420012.02908761695,3872225.878295721,-17500.0,23089.945600359002,-12716.012645377594,6503.4626118286287,-8262.0200719450313,4310.6668427786535,2022.6635026251993,16819.888325458876,-10213.630058949464,16558.377952937644,-16558.377952937644,10213.630058949464,33393.548515751376,0.0
425012.02908761695,3872225.878295721,-17500.0,21068.410685959632,-10438.619497176031,4942.6463770676864,-7101.0644706474841,3381.4046137485002,1672.6197560063679,14575.845840936759,-8865.6851352140675,15263.173090208178,-15263.173090208178,8865.6851352140675,28912.564735394964,0.0
430012.02908761695,3872225.878295721,-17500.0,19091.082898284287,-8579.7452752550853,3800.273445996766,-6089.6670377592573,2661.3955871041644,1378.5879277852453,12667.27559612814,-7654.0646944237742,13924.547229497355,-13924.547229497355,7654.0646944237742,25100.60251344358,0.0
435012.02908761695,3872225.878295721,-17500.0,17226.096225628393,-7067.9758559580714,2957.250730241954,-5219.6455722156679,2103.3972884726986,1135.2464628867701,11042.959317536313,-6590.3538174693749,12620.624383218987,-12620.624383218987,6590.3538174693749,21858.484324482113,0.0
440012.02908761695,3872225.878295721,-17500.0,15506.390897985846,-5839.7694585172658,2329.5625027378674,-4477.0528929176262,1670.0885538970776,935.61771118393835,9658.789454671045,-5669.7296096146256,11393.565686297336,-11393.565686297336,5669.7296096146256,19098.37629454094,0.0
445012.02908761695,3872225.878295721,-17500.0,13943.560684387296,-4841.2588641025959,1857.8136140063848,-3846.0783254925905,1332.5323489735949,772.62381929787944,8477.0444231047113,-4879.774119495909,10263.350722841999,-10263.350722841999,4879.774119495909,16744.416786809154,0.0
450012.02908761695,3872225.878295721,-17500.0,12536.681261883994,-4027.9940507186066,1499.8324545623859,-3311.1352154669894,1068.5233558049922,639.80455725087847,7465.7224669185252,-4205.2923902652465,9236.5914989361918,-9236.5914989361918,4205.2923902652465,14732.072542633923,0.0
260012.02908761695,3877225.878295721,-17500.0,4931.1420930390559,5519.8446846539046,2990.7369955069685,1716.2816421594523,1514.4944250786114,406.90809820567716,5875.4179057240708,5542.8979989615136,1838.1952334471441,-1838.1952334471441,-5542.8979989615136,11071.541113190198,0.0
265012.02908761695,3877225.878295721,-17500.0,4852.087506680934,6264.4898489763254,3597.7743110428032,1855.9042399802845,1784.1885929239957,468.59123044697503,6607.5334756236171,6499.3712544761747,1471.6019925115429,-1471.6019925115429,-6499.3712544761747,12365.463664063358,0.0
270012.02908761695,3877225.878295721,-17500.0,4581.2557442811431,7090.7140466831324,4351.0708106958382,1976.1816351883631,2100.4341795105429,535.83119185256328,7448.0660859185209,7628.0850444704738,903.47336055638652,-903.47336055638652,-7628.0850444704738,13830.158314341181,0.0
275012.02908761695,3877225.878295721,-17500.0,4030.7437491582514,7986.1692983257008,5285.4187370187046,2055.2429126610186,2466.0597999326519,605.95507794412492,8414.4694810980109,8949.323750322661,59.186639594759981,-59.186639594759981,-8949.323750322661,15487.204613400743,0.0
280012.02908761695,3877225.878295721,-17500.0,3079.2141187580328,8919.913386505079,6440.0019380519961,2058.8377009585629,2878.9535410884232,673.55109045719541,9527.8473251918804,10474.809292847251,-1159.3831601657994,1159.3831601657994,-10474.809292847251,17362.118400559513,0.0
285012.02908761695,3877225.878295721,-17500.0,1561.4607705258159,9829.5254106050797,7854.274450818958,1934.3885371080464,3326.884003617653,728.71960727738224,10815.138848517659,12196.217815292344,-2878.3914926301195,2878.3914926301195,-12196.217815292344,19489.022674196476,0.0
290012.02908761695,3877225.878295721,-17500.0,-743.09746435142483,10600.980235277688,9557.7625109420296,1602.6765461666,3778.2993992736997,754.40769116153774,12313.905990682657,14064.59404073103,-5254.3254661396932,5254.3254661396932,-14064.59404073103,21922.576222583168,0.0
295012.02908761695,3877225.878295721,-17500.0,-4120.5446448855319,11038.273493000841,11547.977142989657,946.70557147718512,4166.3111994305391,722.46029195546794,14082.764708978453,15954.748038225831,-8469.9391894719065,8469.9391894719065,-15954.748038225831,24766.271215733257,0.0
300012.02908761695,3877225.878295721,-17500.0,-8925.3416982493636,10819.969182129826,13746.076578491949,-202.08003310684853,4361.3937606888712,588.00383239548989,16223.560968853668,17606.002336967889,-12715.697496307765,12715.697496307765,-17606.002336967889,28235.064885021391,0.0
305012.02908761695,3877225.878295721,-17500.0,-15564.097245333343,9442.4497244195136,15912.94307026846,-2078.2577711314952,4126.0444797705186,281.93986508721241,18926.353909189856,18528.342200290223,-18142.290865192772,18142.290865192772,-18528.342200290223,32781.463905675831,0.0
310012.02908761695,3877225.878295721,-17500.0,-24439.174625602554,6158.1700217002999,17499.371086689123,-4991.2673127693952,3042.332558680584,-297.92464219593967,22554.235694922598,17864.154251559019,-24761.279465889718,24761.279465889718,-17864.154251559019,39312.433601167941,0.0
315012.02908761695,3877225.878295721,-17500.0,-35820.24172626948,-62.587713991715646,17396.96839353452,-9313.1748803655937,403.29339416185371,-1294.2938452248366,27789.658904369975,14207.372830139988,-32263.486227420035,32263.486227420035,-14207.372830139988,49471.641113439902,0.0
320012.02908761695,3877225.878295721,-17500.0,-49605.772504957567,-10480.156150551686,13561.689160592463,-15413.533550036731,-4931.7534498928017,-2887.816752342872,35883.700222848078,5415.3119446966994,-39727.30278515711,39727.30278515711,-5415.3119446966994,65854.685243053056,0.0
325012.02908761695,3877225.878295721,-17500.0,-64942.883241764401,-26320.617424998214,2517.2947944201114,-23485.890521538051,-14684.766212880999,-5265.1571632277091,49108.075392452185,-11484.536374671774,-45213.193278174687,45213.193278174687,11484.536374671774,92013.311680295024,0.0
330012.02908761695,3877225.878295721,-17500.0,-79678.502481516072,-48089.594838900164,-21168.962867660914,-33184.757464384071,-31192.468948583715,-8528.8858784823806,70646.648211810418,-40074.927125811475,-45283.415567181233,45283.415567181233,40074.927125811475,132223.76864233575,0.0
335012.02908761695,3877225.878295721,-17500.0,-89575.790265409305,-74036.104847520575,-65121.465709237207,-42956.684753440124,-57019.233002225614,-12543.628256974505,102780.70395421817,-83501.255333425899,-34562.230043828007,34562.230043828007,83501.255333425899,190739.72327928746,0.0
340012.02908761695,3877225.878295721,-17500.0,-87460.772287786065,-96694.352002426676,-137752.81919094684,-48870.693613151139,-93360.909093597627,-16793.611950504146,145808.15501659361,-140964.51643590938,-6054.3229642127262,6054.3229642127262,140964.51643590938,269147.42971945414,0.0
345012.02908761695,3877225.878295721,-17500.0,-64923.347390431511,-96321.542055248079,-239848.01321065449,-43108.576464770471,-135282.44212423492,-20246.637217405412,194206.03771059425,-197567.70983089763,43910.576873278871,-43910.576873278871,197567.70983089763,358778.88687688328,0.0
350012.02908761695,3877225.878295721,-17500.0,-25843.163940768405,-38307.761798891588,-337229.49521878402,-16392.928933480845,-162133.45079660779,-20711.635893636019,228827.94371985027,-205842.62746729158,96350.434155102965,-96350.434155102965,205842.62746729158,427382.81830245804,0.0
355012.02908761695,3877225.878295721,-17500.0,-15538.164586956216,87228.376930643542,-321911.51277253526,23399.670154368698,-138809.56672082056,-15138.364932443259,218688.24322539213,-94189.363354316971,80917.754329893476,-80917.754329893476,94189.363354316971,419833.97508121136,0.0
360012.02908761695,3877225.878295721,-17500.0,-78237.981351281778,158798.68015020431,-112985.9521668637,38975.022451495337,-65998.829666841499,-6016.8596040157536,172216.31731564068,84541.884408452883,-44062.910774581323,44062.910774581323,-84541.884408452883,319700.80616535729,0.0
365012.02908761695,3877225.878295721,-17500.0,-107636.07629790773,79844.089710872693,83802.209874477325,19577.491619995748,-283.27609673115569,-666.45592755425218,126069.34827892175,126013.09291568269,-118516.68869420413,118516.68869420413,-126013.09291568269,218834.06397152628,0.0
370012.02908761695,3877225.878295721,-17500.0,-62484.748104900689,-11051.475836670119,130473.81896609534,-5266.3209050289006,29043.286357838671,1085.8833464052016,100367.85895372255,68171.824099096368,-87224.596227910559,87224.596227910559,-68171.824099096368,178851.56148629915,0.0
375012.02908761695,3877225.878295721,-17500.0,-11583.721266799141,-49945.879391989758,109005.35270247229,-19419.556337915408,34382.044003408773,2424.1754729504082,84788.353415713544,17344.284720756488,-37096.967234594922,37096.967234594922,-17344.284720756488,158777.36487010127,0.0
380012.02908761695,3877225.878295721,-17500.0,20009.449161913351,-57165.962249356453,78456.706391727173,-24585.822669326375,30786.275985817188,3874.6021570270027,71714.208782150905,-9052.6423852861735,-2856.08727100031,2856.08727100031,9052.6423852861735,138130.61512463231,0.0
385012.02908761695,3877225.878295721,-17500.0,35617.06669574626,-52286.912512219096,54081.055283013338,-25075.760546858841,25122.536010179079,4895.9441948000222,60236.391011767773,-19888.448414561783,15849.463871783249,-15849.463871783249,19888.448414561783,117615.94749630749,0.0
390012.02908761695,3877225.878295721,-17500.0,41701.951353102238,-44132.178277442385,36948.373264133181,-23459.878713696646,19703.65338737658,5255.9165565624344,50439.136007125839,-22886.042307181215,24721.217761782067,-24721.217761782067,22886.042307181215,99178.66686616365,0.0
395012.02908761695,3877225.878295721,-17500.0,42631.304405847593,-35979.458162278577,25345.936132141545,-21000.528473406066,15160.395401403208,5076.0461439355904,42249.837802734473,-22288.56348971996,28009.233533310693,-28009.233533310693,22288.56348971996,83403.647962342686,0.0
400012.02908761695,3877225.878295721,-17500.0,40914.248627926136,-28871.711146774524,17555.094802477113,-18320.002374111275,11557.720164001377,4581.7576213396114,35471.437758780608,-20212.54377950108,28269.203673685683,-28269.203673685683,20212.54377950108,70180.773611145487,0.0
405012.02908761695,3877225.878295721,-17500.0,37946.078896392326,-23012.006512379343,12310.377435106568,-15729.324645852717,8780.5012825299636,3961.4900546394729,29879.561260898106,-17679.725738869529,26966.262778307449,-26966.262778307449,17679.725738869529,59187.047529524774,0.0
410012.02908761695,3877225.878295721,-17500.0,34497.887392968631,-18307.27838022777,8753.5876390323065,-13374.474876003605,6671.5415158734986,3333.8461704300616,25266.943365794963,-15164.965030325449,24930.760472768361,-24930.760472768361,15164.965030325449,50072.921571021208,0.0
415012.02908761695,3877225.878295721,-17500.0,30989.681325090474,-14578.39684966094,6317.9534035267334,-11309.685361774227,5081.8571736007625,2759.6972897517276,21456.177558654512,-12870.858425987764,22628.048287141453,-22628.048287141453,12870.858425987764,42519.823635398803,0.0
420012.02908761695,3877225.878295721,-17500.0,27641.136188901484,-11639.989238850272,4631.6919367289483,-9539.1646841649836,3886.6743254074536,2262.8361117434797,18300.201521762963,-10865.859975688903,20312.458971878099,-20312.458971878099,10865.859975688903,36253.631649142357,0.0
425012.02908761695,3877225.878295721,-17500.0,24556.963582875585,-9328.2821776285509,3450.5568750165144,-8041.9537444215521,2987.5559591929905,1846.6036907525611,15678.761829146169,-9154.5132659122683,18115.979319044149,-18115.979319044149,9154.5132659122683,31044.368817047533,0.0
430012.02908761695,3877225.878295721,-17500.0,21776.470749745957,-7507.9682465255582,2613.1870377621972,-6786.4627383633315,2309.326237995514,1504.579977234903,13494.026594030451,-7713.2169284225802,16100.063799984147,-16100.063799984147,7713.2169284225802,26701.703278203033,0.0
435012.02908761695,3877225.878295721,-17500.0,19302.771068897735,-6070.9968372305766,2012.1685556693608,-5738.5646752606781,1795.6181984002701,1226.6582119328809,11666.586479635342,-6508.2262671227218,14286.212629725895,-14286.212629725895,6508.2262671227218,23069.482534874358,0.0
440012.02908761695,3877225.878295721,-17500.0,17119.986573409216,-4932.6297415589934,1575.3655514261502,-4865.733506141476,1404.5766044758543,1002.1634452243161,10132.044764650829,-5504.3779229068514,12674.016846315391,-12674.016846315391,5504.3779229068514,20020.267614479228,0.0
445012.02908761695,3877225.878295721,-17500.0,15203.295415370692,-4027.046740130038,1253.8772173057905,-4138.886083037507,1105.2580099243437,821.27397023692981,8838.1949776626734,-4669.0219890769531,11251.754858416578,-11251.754858416578,4669.0219890769531,17450.3642773797,0.0
450012.02908761695,3877225.878295721,-17500.0,13524.727145644416,-3303.3621321805044,1014.2341244691457,-3532.9680843131605,874.80864913674372,675.54222197945001,7742.7213911968593,-3973.5220913415401,10002.568784127734,-10002.568784127734,3973.5220913415401,15275.549601281951,0.0
255012.02908761695,3882225.878295721,-17500.0,6825.1053852550931,4977.4331363226484,2103.3572058041777,2038.4712630346489,1288.495854587424,434.24883000662425,5796.4570058018326,4354.6164044010948,3609.5851012678927,-3609.5851012678927,-4354.6164044010948,11168.402747360209,0.0
260012.02908761695,3882225.878295721,-17500.0,7246.3975559743712,5739.7105067938583,2531.5200877373895,2296.0408089839088,1535.4358480894168,513.12467544504329,6543.8127068483354,5161.5536384093602,3669.177000124294,-3669.177000124294,-5161.5536384093602,12551.549970342858,0.0
265012.02908761695,3882225.878295721,-17500.0,7617.340900597027,6630.2128952323683,3072.0785708288063,2578.2264472951547,1835.0234683131121,606.2696323748047,7408.0280709681238,6142.1557415349162,3636.210752805388,-3636.210752805388,-6142.1557415349162,14137.546788054266,0.0
270012.02908761695,3882225.878295721,-17500.0,7890.1496657244525,7665.6407443983426,3758.5133397068748,2879.974986856977,2197.7104663710229,715.24680667761663,8408.304217348219,7334.7155594106152,3461.9886047126492,-3461.9886047126492,-7334.7155594106152,15955.070234957821,0.0
275012.02908761695,3882225.878295721,-17500.0,7992.8841921689336,8859.4560858214518,4634.2548962913024,3190.1471738595665,2634.5177262253765,840.88335047143642,9566.281265409325,8783.4430953845003,3077.1496264023435,-3077.1496264023435,-8783.4430953845003,18034.23526428382,0.0
280012.02908761695,3882225.878295721,-17500.0,7818.6275945966026,10216.350017022412,5754.6917605783074,3487.5485796082171,3155.4127444980127,982.39776225538321,10905.876918197342,10536.417479159176,2383.792348670449,-2383.792348670449,-10536.417479159176,20405.014746079647,0.0
285012.02908761695,3882225.878295721,-17500.0,7210.3517248905737,11722.163776172463,7188.2403102569988,3734.6853673684541,3765.7970578583509,1135.903557454533,12452.961112726909,12639.850813010689,1245.3615779647262,-1245.3615779647262,-12639.850813010689,23095.016181425057,0.0
290012.02908761695,3882225.878295721,-17500.0,5940.4515476204215,13326.13939774244,9014.3357324073895,3868.0766900141912,4459.4179503430105,1291.9101145185234,14235.205304599502,15125.070432104041,-525.31215479620914,525.31215479620914,-15125.070432104041,26127.572225170399,0.0
295012.02908761695,3882225.878295721,-17500.0,3684.523729284926,14910.608692623977,11313.627080450005,3783.4359728850245,5204.6089133693758,1431.2247357704468,16283.366951908429,17981.7128686949,-3177.900484072773,3177.900484072773,-17981.7128686949,29523.837912089355,0.0
300012.02908761695,3882225.878295721,-17500.0,-8.7744534984191773,16241.102386361235,14140.426226923166,3313.5379724791214,5918.2385656560082,1518.2957032206941,18637.928872661934,21105.784590638184,-7030.7982157102579,7030.7982157102579,-21105.784590638184,33320.571214730517,0.0
305012.02908761695,3882225.878295721,-17500.0,-5744.4735773595394,16888.586290447158,17457.6954554527,2196.4690311845593,6417.3768420505039,1490.3860386518252,21372.1217776052,24204.303178910668,-12458.692425009554,12458.692425009554,-24204.303178910668,37636.605208684494,0.0
310012.02908761695,3882225.878295721,-17500.0,-14286.110292331781,16118.851492295129,20998.353015325276,33.46427405690585,6331.5506655727713,1239.8066327225226,24660.060059651441,26630.823730736403,-19835.351405345347,19835.351405345347,-26630.823730736403,42871.259400329378,0.0
315012.02908761695,3882225.878295721,-17500.0,-26502.085470639511,12760.931636744777,23994.182457254406,-3758.1865937132243,4948.5266680693676,584.71739481508189,28958.369448823985,27126.021542401839,-29387.403554632612,29387.403554632612,-27126.021542401839,50201.0486543847,0.0
320012.02908761695,3882225.878295721,-17500.0,-43201.032954472161,5109.8501903690185,24697.002051678894,-9975.0286560932236,957.65036134261823,-777.24280181205779,35446.742455789623,23462.97083146932,-40903.982134302947,40903.982134302947,-23462.97083146932,62522.121839809261,0.0
325012.02908761695,3882225.878295721,-17500.0,-64816.610307717521,-9012.196006872,19635.079170466954,-19585.059344042635,-7939.3415509714823,-3335.0941383569752,47021.896570679877,12065.532095328319,-53272.31499453407,53272.31499453407,-12065.532095328319,85459.516064257186,0.0
330012.02908761695,3882225.878295721,-17500.0,-90942.453176271127,-31879.90699616,2596.2787122831528,-33509.990321747166,-25534.944983374648,-7844.1241542319431,69565.041204296242,-12275.190270018764,-63858.073356455105,63858.073356455105,12275.190270018764,127498.07191110244,0.0
335012.02908761695,3882225.878295721,-17500.0,-119468.90601150379,-65027.664617328715,-36834.27015007809,-52019.915113635761,-57615.703013384889,-15430.959910689437,109827.57004853264,-56594.361921031727,-67506.323321791089,67506.323321791089,56594.361921031727,199544.36445120579,0.0
340012.02908761695,3882225.878295721,-17500.0,-143702.78030236921,-106668.2756884071,-115887.3649878938,-72848.098888969718,-111894.37104105354,-27826.672767137024,173854.59996192312,-129393.51328215635,-53907.577116078079,53907.577116078079,129393.51328215635,313996.46181567159,0.0
345012.02908761695,3882225.878295721,-17500.0,-146107.16849163186,-140151.07815150556,-258895.96171653282,-84391.460346456704,-193405.16290495827,-47141.272515385775,263256.40781979362,-232100.70871414614,-4442.2999617253954,4442.2999617253954,232100.70871414614,475591.42695730308,0.0
350012.02908761695,3882225.878295721,-17500.0,-105052.9426212383,-105916.35073264907,-465798.3989998654,-51850.908156975085,-276128.65820661886,-69029.53230567,353168.79959111818,-318436.06513886189,88863.619437652262,-88863.619437652262,318436.06513886189,644120.8968197119,0.0
355012.02908761695,3882225.878295721,-17500.0,-51059.014891728773,105752.32646608268,-577008.5647759838,44605.727214444283,-242386.61623200451,-64727.853524570994,362928.44136310072,-208727.25411916617,135957.49321207829,-135957.49321207829,208727.25411916617,696702.33112269361,0.0
360012.02908761695,3882225.878295721,-17500.0,-189982.83975239695,290840.19446570106,-79702.594625312588,67569.55243578933,-65141.62509800175,-19654.248997703577,306322.47637414472,228103.71298184065,-156533.93827921833,156533.93827921833,-228103.71298184065,550073.60045186314,0.0
365012.02908761695,3882225.878295721,-17500.0,-155248.28820468156,13129.411496608056,259858.62893600299,2142.999027572755,45881.484036951013,4378.9009436566812,211966.32347297567,169453.88333540078,-201534.80735676724,201534.80735676724,-169453.88333540078,371992.60100139142,0.0
370012.02908761695,3882225.878295721,-17500.0,-11089.404236517992,-99019.911116810748,200990.78130780466,-41031.820922267791,64245.018770267328,5058.7404712334292,158587.85451518037,24876.758082718039,-59935.251169176045,59935.251169176045,-24876.758082718039,297761.63762296608,0.0
375012.02908761695,3882225.878295721,-17500.0,54104.846735552463,-101438.79079313514,123569.69286953392,-49736.702388131445,52373.903628902233,4504.6111474072077,124108.42339380026,-26681.604403958303,13579.59521437249,-13579.59521437249,26681.604403958303,239271.39783560112,0.0
380012.02908761695,3882225.878295721,-17500.0,73558.253095410328,-82135.724664061549,74565.755099766349,-45855.202862624232,38627.964964489278,5403.3437703066647,97464.383637267878,-38937.687176190244,41080.490759532549,-41080.490759532549,38937.687176190244,189045.13390202858,0.0
385012.02908761695,3882225.878295721,-17500.0,74847.19374607905,-62867.707267549944,45714.344948126418,-39392.39777270372,27949.484791824761,6269.014139366478,76830.176964243903,-38184.792782183846,48679.952762351044,-48679.952762351044,38184.792782183846,149698.56986091362,0.0
390012.02908761695,3882225.878295721,-17500.0,69638.335194045605,-47467.156083566988,28640.919132118401,-33092.348557776553,20194.299702224194,6452.2206876318915,61210.224139870552,-33605.033644880321,48230.008176715251,-48230.008176715251,33605.033644880321,119795.40185248925,0.0
395012.02908761695,3882225.878295721,-17500.0,62454.748357203069,-35818.364324598027,18341.60184300015,-27540.219449317308,14631.693102962514,6044.7933985900681,49370.734609144929,-28341.589533751088,44667.068174986402,-44667.068174986402,28341.589533751088,96985.298708947725,0.0
400012.02908761695,3882225.878295721,-17500.0,55048.895462468106,-27135.677375119954,11999.820112145428,-22804.227874424447,10647.988254054499,5322.3288513926127,40275.241917235755,-23452.299544935409,40081.452080243311,-40081.452080243311,23452.299544935409,79338.162007521489,0.0
405012.02908761695,3882225.878295721,-17500.0,48100.78734101609,-20675.889575637593,8018.5176538053147,-18832.5897118268,7791.5703005185778,4506.6524196300816,33179.663991104673,-19244.173948617317,35383.673389312782,-35383.673389312782,19244.173948617317,65485.01590715479,0.0
410012.02908761695,3882225.878295721,-17500.0,41853.726315137654,-15856.126349367816,5473.5576652031086,-15540.553876741595,5737.6793091970385,3726.0994271742975,27568.91574754184,-15746.068900396629,30967.569643185143,-30967.569643185143,15746.068900396629,54476.441431816878,0.0
415012.02908761695,3882225.878295721,-17500.0,36362.083055982308,-12242.379481329479,3818.7772882934537,-12834.037580082046,4254.5979511002533,3038.3682554559891,23082.488892528447,-12887.941104150432,26987.177088517932,-26987.177088517932,12887.941104150432,45641.459413775781,0.0
420012.02908761695,3882225.878295721,-17500.0,31596.131961189123,-9516.8566956218056,2725.0523571253079,-10620.447325968644,3177.8831150156821,2459.6268215649343,19461.619631695889,-10572.234010221293,23481.451928292197,-23481.451928292197,10572.234010221293,38492.376148652671,0.0
425012.02908761695,3882225.878295721,-17500.0,27490.443048307858,-7447.9997803928763,1990.5194345894736,-8814.8648821349325,2391.2516915473752,1985.3400478817009,16515.855459804639,-8702.3285699415737,20434.572672083246,-20434.572672083246,8702.3285699415737,32665.824494584584,0.0
430012.02908761695,3882225.878295721,-17500.0,23967.613480543961,-5867.060116857283,1489.3501931872163,-7343.0457968112296,1812.573030027706,1602.4956406637814,14102.113587597654,-7192.8833171087208,17806.502958689405,-17806.502958689405,7192.8833171087208,27885.950227382877,0.0
435012.02908761695,3882225.878295721,-17500.0,20950.098089646654,-4650.7535241051801,1141.9289992968809,-6142.193183438907,1383.7809024132,1295.9576146595607,12111.217494667577,-5972.4490882124364,15548.757182967718,-15548.757182967718,5972.4490882124364,23940.529395984835,0.0
440012.02908761695,3882225.878295721,-17500.0,18365.841218905,-3708.6463662237393,897.16991042015809,-5160.3764639850942,1063.7007490235744,1051.3957013347228,10458.872518612987,-4982.8738121867054,13612.386952171641,-13612.386952171641,4982.8738121867054,20664.683652051765,0.0
445012.02908761695,3882225.878295721,-17500.0,16150.573476205382,-2974.0674051792562,721.85500357516821,-4355.2853426866659,823.00530320637961,856.39948944893388,9079.3799387847102,-4177.5552670532252,11951.776013129476,-11951.776013129476,4177.5552670532252,17929.316276963789,0.0
450012.02908761695,3882225.878295721,-17500.0,14248.388236948826,-2397.5920607672524,594.11401613853059,-3692.7807651145226,640.69178017486342,700.71303741141264,7921.1508614098921,-3519.4632747482906,10526.218514116224,-10526.218514116224,3519.4632747482906,15632.713323636559,0.0
455012.02908761695,3882225.878295721,-17500.0,12611.385043153308,-1942.3590022675446,499.37416617771504,-3145.4684632230583,501.62471352038006,576.07971460857379,6943.3982787312934,-2979.2875082146679,9300.2875759557173,-9300.2875759557173,2979.2875082146679,13694.258135741456,0.0
255012.02908761695,3887225.878295721,-17500.0,8809.1741220809199,4837.6323399217536,1640.3496466931394,2510.5052605620967,1228.280007775734,516.62861842716165,6363.7954974302302,3714.8632477161018,5250.3211553041956,-5250.3211553041956,-3714.8632477161018,12423.869663290585,0.0
260012.02908761695,3887225.878295721,-17500.0,9641.3197668013909,5640.5053059886641,1976.6026347133818,2888.0485711952742,1476.6019146220101,620.30326312967384,7230.5266330437034,4449.509462248453,5638.4596329087426,-5638.4596329087426,-4449.509462248453,14070.981534424096,0.0
265012.02908761695,3887225.878295721,-17500.0,10522.790655242992,6601.9445657133183,2407.3603427328221,3325.6326831725492,1783.3142623222966,746.70811484565957,8243.7249870548767,5359.7288968423018,6009.378931477544,-6009.378931477544,-5359.7288968423018,15986.620220013538,0.0
270012.02908761695,3887225.878295721,-17500.0,11431.827065869258,7754.4582527633347,2964.4761457530726,3829.7956691924364,2162.8543466226747,900.55922032095134,9430.495439465114,6492.5101658761032,6331.9275743792223,-6331.9275743792223,-6492.5101658761032,18217.090418506352,0.0
275012.02908761695,3887225.878295721,-17500.0,12328.709803913574,9135.1408092529582,3691.6153644667661,4404.94596658721,2632.6104446367481,1087.0684415392054,10822.236087805904,7907.4127972288807,6557.1473643814206,-6557.1473643814206,-7907.4127972288807,20814.267600731877,0.0
280012.02908761695,3887225.878295721,-17500.0,13145.33806537831,10783.886618101753,4648.5737834909987,5050.6390466173043,3212.6746573356063,1311.5470023049302,12454.434695369126,9678.8144976577914,6609.3989085131398,-6609.3989085131398,-9678.8144976577914,23833.841747354141,0.0
285012.02908761695,3887225.878295721,-17500.0,13769.18095614159,12738.621038304831,5916.6811382596716,5756.767008479078,3924.4714218604372,1578.548129202959,14365.573766413761,11897.030216718185,6373.3901273026186,-6373.3901273026186,-11897.030216718185,27331.104348764115,0.0
290012.02908761695,3887225.878295721,-17500.0,14018.879521382869,15024.668241874086,7604.6839032549351,6495.2237423967717,4786.9426918295767,1890.1973873901227,16594.41903916491,14665.960902782886,5675.6990954148187,-5675.6990954148187,-14665.960902782886,31352.532890798957,0.0
295012.02908761695,3887225.878295721,-17500.0,13607.826108173744,17632.977064787516,9852.8047888781966,7205.5804577544823,5807.6240897853395,2243.0923015564513,19174.570325881323,18092.168894918719,4259.5725937246643,-4259.5725937246643,-18092.168894918719,35920.674329387526,0.0
300012.02908761695,3887225.878295721,-17500.0,12091.784652777142,20477.899613039503,12828.338106796524,7770.6196488525948,6963.2489864421968,2622.588431780166,22124.952900456246,22254.676460761948,1753.5669770954482,-1753.5669770954482,-22254.676460761948,41010.047225696668,0.0
305012.02908761695,3887225.878295721,-17500.0,8798.982504943664,23319.486195754536,16695.945001594104,7974.9066604977188,8159.106815475343,2991.9589310386709,25436.257800746833,27134.336436064128,-2359.5439737999131,2359.5439737999131,-27134.336436064128,46517.170775463135,0.0
310012.02908761695,3887225.878295721,-17500.0,2750.8507753236763,25630.247099158591,21523.77754575717,7435.9651461044186,9145.7365982125357,3270.5120389393383,29061.415192907505,32464.597170470181,-8752.1751216095017,8752.1751216095017,-32464.597170470181,52253.996883830332,0.0
315012.02908761695,3887225.878295721,-17500.0,-7392.940384502378,26393.807085259796,27045.269134755301,5495.2418949258017,9351.8118627183885,3286.4234596327237,32952.826072945099,37446.779064844573,-18187.323517858342,18187.323517858342,-37446.779064844573,58095.802607167876,0.0
320012.02908761695,3887225.878295721,-17500.0,-23290.021880023232,23876.259233198496,32141.962658940483,1062.2357563463804,7560.9707662300034,2671.6632530246488,37321.798796546391,40283.921756827331,-31287.584718418992,31287.584718418992,-40283.921756827331,64751.24255237967,0.0
325012.02908761695,3887225.878295721,-17500.0,-46697.995726034911,15560.339323447239,33914.915026863026,-7567.3551252120769,1328.2395877629442,632.36242544423237,43780.206163290612,37614.758378672261,-48070.053492431522,48070.053492431522,-37614.758378672261,76332.338997290572,0.0
330012.02908761695,3887225.878295721,-17500.0,-79275.350863751344,-1412.2809012241387,26455.991814701374,-22867.809923262153,-13967.945576911563,-4529.9098212076033,59125.925113122394,24224.915197785587,-67477.384263287822,67477.384263287822,-24224.915197785587,104991.26752126297,0.0
335012.02908761695,3887225.878295721,-17500.0,-123170.54010944761,-29539.041518677626,-285.41422213290411,-48266.771648742993,-46581.408116386716,-16435.925803484621,97252.000750313135,-6858.4150559955815,-87566.240140993992,87566.240140993992,6858.4150559955815,171735.63096771724,0.0
340012.02908761695,3887225.878295721,-17500.0,-181077.50291916201,-72240.324306634531,-64094.128725049501,-88335.614196432172,-111336.40831165388,-43210.773981814506,173274.42467788581,-67310.790023635782,-104204.10229460892,104204.10229460892,67310.790023635782,304659.07612758165,0.0
345012.02908761695,3887225.878295721,-17500.0,-240768.71325606757,-129598.21432724029,-210040.2643188948,-142356.93120363235,-236109.24205195729,-103801.73398639997,307446.64667717763,-182445.37024424347,-93812.187287168577,93812.187287168577,182445.37024424347,542145.46918553102,0.0
350012.02908761695,3887225.878295721,-17500.0,-259963.02739791985,-123201.17736205031,-511918.76990527782,-149317.25512543341,-439793.05360461131,-221569.52994303853,494918.37519980106,-332132.84980353038,-11585.000113627641,11585.000113627641,332132.84980353038,875959.77494935435,0.0
355012.02908761695,3887225.878295721,-17500.0,-405412.8828967507,86118.062317893171,-932730.0417250389,126040.12293353528,-417684.05676919164,-307385.9033584334,542466.24473479763,-367304.19602356933,-2825.1983058996557,2825.1983058996557,367304.19602356933,965738.67926462472,0.0
360012.02908761695,3887225.878295721,-17500.0,-776082.78772295499,490031.95990298735,725916.41725677345,93985.231332441559,44498.725589845213,-9786.0478711860924,902733.4247567897,901453.76722155418,-882416.05565015972,882416.05565015972,-901453.76722155418,1563671.722988415,0.0
365012.02908761695,3887225.878295721,-17500.0,94139.349552837055,-285003.82698493131,452718.19595857104,-86569.946019650961,149189.75568932533,53168.980781942781,361335.17521498981,-12441.753944031827,-37987.440608340068,37987.440608340068,12441.753944031827,691292.86719537445,0.0
370012.02908761695,3887225.878295721,-17500.0,190062.51134317715,-198906.93819293287,198790.47846080671,-122355.93242073072,104933.82407611251,21672.95573902996,247925.68560074296,-86051.879958932535,102040.71328575116,-102040.71328575116,86051.879958932535,475961.21001195506,0.0
375012.02908761695,3887225.878295721,-17500.0,175522.07038598304,-129879.11712993965,98578.069094721024,-96867.089826998723,64227.586543431775,10176.972648767689,175645.5309787594,-79156.331387478494,114202.29555351449,-114202.29555351449,79156.331387478494,334167.72788562073,0.0
380012.02908761695,3887225.878295721,-17500.0,146070.34566915571,-86196.957769425295,52422.4801199496,-72273.702157264546,40454.763683063335,8024.7774368776063,125845.81664926124,-63152.793840394297,101560.49314007215,-101560.49314007215,63152.793840394297,240351.41603001897,0.0
385012.02908761695,3887225.878295721,-17500.0,119333.27275853815,-58724.189197135041,29199.031518010182,-54750.130757485334,26445.891134414363,7932.4170571167006,92860.906181518367,-48970.518640246431,85724.976869881139,-85724.976869881139,48970.518640246431,178689.05285710504,0.0
390012.02908761695,3887225.878295721,-17500.0,97805.111526676876,-40961.997651183636,16821.625507312154,-42403.736721543864,17767.811455495525,7641.5771957556653,70643.207653569829,-37864.190006461475,71532.277579383139,-71532.277579383139,37864.190006461475,136970.8085661979,0.0
395012.02908761695,3887225.878295721,-17500.0,80796.882839191516,-29126.914602106546,9959.8128504697797,-33380.266011917964,12171.548679622258,6900.715686986895,55143.127066600588,-29395.212577811104,59685.586467992558,-59685.586467992558,29395.212577811104,107592.95409779552,0.0
400012.02908761695,3887225.878295721,-17500.0,67273.64036232348,-21038.265948081778,6044.9660519314466,-26560.783894993165,8462.7017972630383,5926.032096287282,43925.215429544827,-22960.501126717798,49957.940344408584,-49957.940344408584,22960.501126717798,86112.429197607009,0.0
405012.02908761695,3887225.878295721,-17500.0,56403.425763525163,-15396.351357326985,3761.0060353238414,-21295.334355512918,5957.4030084220849,4924.4831303182,35547.793752083824,-18057.544891414072,41984.896435764953,-41984.896435764953,18057.544891414072,69924.376560110832,0.0
410012.02908761695,3887225.878295721,-17500.0,47579.989044681897,-11395.283683620297,2403.8439878811341,-17179.28006845458,4240.1222591130827,4011.644672077819,29135.621481652768,-14303.269529370347,35437.147631079279,-35437.147631079279,14303.269529370347,57443.113079984985,0.0
415012.02908761695,3887225.878295721,-17500.0,40361.730210742848,-8517.9704352037224,1584.5796489655222,-13937.716421282346,3048.3202713025457,3232.126042796574,24133.874105990159,-11411.842757157357,30044.373784939176,-30044.373784939176,11411.842757157357,47653.108060167906,0.0
420012.02908761695,3887225.878295721,-17500.0,34419.112779321411,-6423.4624048629621,1082.9627808683892,-11371.289059642286,2211.8970655206522,2590.6808083162055,20174.159747787504,-9170.9376769259106,25588.692602399926,-25588.692602399926,9170.9376769259106,39870.908120715503,0.0
425012.02908761695,3887225.878295721,-17500.0,29500.036154605019,-4882.1132899156692,771.6811693783111,-9329.9796327520435,1618.7235614438944,2073.9127218945978,17001.600485058138,-7422.7692819891818,21894.699902051365,-21894.699902051365,7422.7692819891818,33617.17812569128,0.0
430012.02908761695,3887225.878295721,-17500.0,25407.977131926666,-3736.5493532367318,575.8611669830409,-7698.882540810122,1193.8839193108918,1662.3854741208702,14433.901033865335,-6049.80055188203,18821.001734516765,-18821.001734516765,6049.80055188203,28544.941365332925,0.0
435012.02908761695,3887225.878295721,-17500.0,21987.800970334298,-2877.3644566760668,450.81623214541833,-6389.3262072721527,886.74872577305428,1336.4868492243484,12337.312963537508,-4964.1836281444112,16253.530884431755,-16253.530884431755,4964.1836281444112,24397.101594211123,0.0
440012.02908761695,3887225.878295721,-17500.0,19115.99200469772,-2227.5272785745869,369.53446061511505,-5332.6514454141425,662.73461132480531,1078.8345658323005,10611.753452485656,-4099.9722657337988,14100.198191980715,-14100.198191980715,4099.9722657337988,20979.769110341625,0.0
445012.02908761695,3887225.878295721,-17500.0,16693.669538102455,-1732.1947594528888,315.51381379210557,-4475.6002268034099,497.98232126377337,874.96437048764642,9181.2009963746204,-3407.4314720961584,12286.636224925263,-12286.636224925263,3407.4314720961584,18144.769188912956,0.0
450012.02908761695,3887225.878295721,-17500.0,14641.310925775388,-1351.9087355130287,278.58056175983802,-3776.7772598865999,375.86869262465245,713.2439501381441,7987.1924879993676,-2848.8468375511425,10752.71965852643,-10752.71965852643,2848.8468375511425,15777.608996497816,0.0
455012.02908761695,3887225.878295721,-17500.0,12894.708394096117,-1058.0036083038638,252.416778860764,-3203.9270370489603,284.70199912324483,584.49571382120826,6984.2996180305581,-2395.4546743874371,9449.756664947854,-9449.756664947854,2395.4546743874371,13788.992020278865,0.0
250012.02908761695,3892225.878295721,-17500.0,9624.8818809600652,3782.3508716683114,980.50695398021548,2547.4904475862609,917.4090329253944,492.1150332549974,6072.7938528247651,2365.6290531692266,6225.8910189156322,-6225.8910189156322,-2365.6290531692266,12004.089407881935,0.0
255012.02908761695,3892225.878295721,-17500.0,10731.546362514904,4418.2155847723034,1158.4303485488508,2964.1870311403381,1102.0665805386614,595.22973537042037,6912.5056437043468,2838.0691461841366,6893.5742896818829,-6893.5742896818829,-2838.0691461841366,13635.178155336605,0.0
260012.02908761695,3892225.878295721,-17500.0,11984.111588445205,5188.2720303581236,1385.623339932557,3461.6522436509763,1331.5527334354854,723.22806574272306,7900.9754331330723,3428.196148344924,7633.9357767362335,-7633.9357767362335,-3428.196148344924,15550.235238708445,0.0
265012.02908761695,3892225.878295721,-17500.0,13397.738806163081,6125.4797626559312,1679.641155300742,4056.7666017579527,1618.1629354492445,882.58489514166104,9069.0712276522518,4170.6245927018754,8447.803789918129,-8447.803789918129,-4170.6245927018754,17806.768963944665,0.0
270012.02908761695,3892225.878295721,-17500.0,14984.851792445339,7271.4418364291223,2065.3870180653148,4769.5728111583221,1977.6916626159186,1081.4126788320784,10454.436993557445,5111.4287939226733,9330.3623671484675,-9330.3623671484675,-5111.4287939226733,20474.253682442541,0.0
275012.02908761695,3892225.878295721,-17500.0,16751.236420544486,8678.3989928158426,2578.5362702681077,5623.3618205754947,2430.2743637291815,1329.7575873760793,12102.719558882147,6312.158135243063,10266.862164701895,-10266.862164701895,-6312.158135243063,23635.832241641336,0.0
280012.02908761695,3892225.878295721,-17500.0,18689.237529038248,10411.206628824093,3270.6323792896237,6644.2412305586104,3001.2065454821991,1639.8422943500475,14068.686948751169,7855.127775561099,11225.636757408263,-11225.636757408263,-7855.127775561099,27389.351701829524,0.0
285012.02908761695,3892225.878295721,-17500.0,20765.988861717233,12548.604046586403,4216.6235636290958,7859.6010984655386,3721.4201541847606,2026.1441587531003,16416.782938842149,9850.1040116889308,12146.741927168052,-12146.741927168052,-9850.1040116889308,31846.507161208661,0.0
290012.02908761695,3892225.878295721,-17500.0,22903.302739709179,15182.105271908073,5525.748070733438,9294.3921777397027,4626.8660250374005,2505.115448050296,19220.167069061281,12441.941419207482,12923.660917486353,-12923.660917486353,-12441.941419207482,37127.680283230024,0.0
295012.02908761695,3892225.878295721,-17500.0,24943.557418408334,18408.721122679697,7356.4194803475266,10963.067630491616,5755.1082210699515,3094.193882077423,22556.14196696099,15817.143831194391,13374.210630659172,-13374.210630659172,-15817.143831194391,43347.522940319162,0.0
300012.02908761695,3892225.878295721,-17500.0,26592.732074078685,22309.199492356431,9933.8927195813158,12852.93871242657,7135.3517424078809,3809.3737725802857,26493.460253565183,20203.005648316284,13195.678938827654,-13195.678938827654,-20203.005648316284,50581.508659804611,0.0
305012.02908761695,3892225.878295721,-17500.0,27328.613584227929,26894.38508619666,13562.546154445776,14890.463987401439,8763.4050582823802,4659.4905288698137,31061.963299338651,25842.194843200414,11900.459101271636,-11900.459101271636,-25842.194843200414,58794.748757410147,0.0
310012.02908761695,3892225.878295721,-17500.0,26264.581144154941,31986.317111823446,18603.169883387814,16873.918360364092,10542.251748373852,5631.6542301933196,36185.362672343035,32900.739444057894,8739.4137729878676,-8739.4137729878676,-32900.739444057894,67700.188938817941,0.0
315012.02908761695,3892225.878295721,-17500.0,21986.749132263794,36982.269780805218,25326.979123018889,18343.217603840534,12144.29602681655,6650.6111730257917,41543.887717878926,41217.590583557612,2661.9228162339823,-2661.9228162339823,-41217.590583557612,76501.75161665841,0.0
320012.02908761695,3892225.878295721,-17500.0,12480.995854242536,40473.363454691716,33424.42161318328,18348.332746984339,12700.501987858897,7461.8108527333197,46334.473883034858,49740.421370781754,-7526.1707929085387,7526.1707929085387,-49740.421370781754,83529.095967027271,0.0
325012.02908761695,3892225.878295721,-17500.0,-4521.8528606751352,39933.919204876642,40754.207021789392,15110.777505346332,10144.455842319034,7308.2957639802953,49046.939002800646,55568.780686592116,-22464.02019536051,22464.02019536051,-55568.780686592116,86209.871534859354,0.0
330012.02908761695,3892225.878295721,-17500.0,-30441.871662583693,32550.705082206852,41133.961206948363,5720.5036784402801,43.878022490257379,4112.3257230220315,48718.380540037484,53357.048505799568,-40843.589252130958,40843.589252130958,-53357.048505799568,84384.064951931519,0.0
335012.02908761695,3892225.878295721,-17500.0,-65609.183446169249,19207.418058217558,23323.445151934939,-13960.644468011067,-25792.249761428735,-7452.528631712863,56982.791499132552,38135.43520898158,-59528.966662676568,59528.966662676568,-38135.43520898158,99027.16140533259,0.0
340012.02908761695,3892225.878295721,-17500.0,-117229.48774519817,7390.4400501817854,-22988.310472180965,-50979.350061189201,-80380.132259438324,-41024.665197036949,105332.10217216166,12075.830561970281,-81890.93824064263,81890.93824064263,-12075.830561970281,186682.55804735783,0.0
345012.02908761695,3892225.878295721,-17500.0,-202824.75076602108,-19970.52650060715,-121561.98632648689,-124158.61105608771,-191467.82836041649,-137408.79633190884,233034.64331034711,-48704.910137079387,-111138.32420901157,111138.32420901157,48704.910137079387,403719.3808309692,0.0
350012.02908761695,3892225.878295721,-17500.0,-87625.304123795824,-67535.004433199661,-544115.33148623258,-222370.96577773438,-451229.21881398163,-422652.39666543214,533735.67779597233,-323029.10631953954,114841.2339609387,-114841.2339609387,323029.10631953954,969815.78902662836,0.0
355012.02908761695,3892225.878295721,-17500.0,493076.60168860131,366816.90550841758,-1147935.4080955999,-384539.62038957526,-132503.21493015782,-53765.134761744237,999018.81934345933,-354904.64672578394,675301.73308613256,-675301.73308613256,354904.64672578394,1730470.9865705997,0.0
360012.02908761695,3892225.878295721,-17500.0,182459.44535641046,-830204.94316162914,1294285.0709461337,-526260.55933746649,148443.54187438416,269114.10468326975,1159868.2177612854,-25812.21311711114,-181037.96238012519,181037.96238012519,25812.21311711114,2027806.2304248589,0.0
365012.02908761695,3892225.878295721,-17500.0,622099.58104108204,-212156.45196419122,315217.74832852581,-351461.87945245573,212783.3431732663,185651.37205113479,493603.95014218008,-88329.582511225744,377646.5792193698,-377646.5792193698,88329.582511225744,890035.48466981819,0.0
370012.02908761695,3892225.878295721,-17500.0,420945.42180942441,-140176.76536206578,114862.32254661003,-231715.44438675977,101709.35919534961,54318.851112587756,329425.82107162103,-108884.95055267247,287307.3562885453,-287307.3562885453,108884.95055267247,605758.04439745459,0.0
375012.02908761695,3892225.878295721,-17500.0,287254.04437659681,-86821.851668834424,51655.521463831625,-144160.11664164669,54523.594612954024,19825.307707999073,213850.78653427481,-81205.654915569059,203737.24251524132,-203737.24251524132,81205.654915569059,397363.76839346939,0.0
380012.02908761695,3892225.878295721,-17500.0,204730.63494919275,-54942.861781556625,24987.196223844672,-94836.859026821199,31614.156800282039,11722.499790450813,144605.3637955419,-58405.143286631363,148175.4322533597,-148175.4322533597,58405.143286631363,271853.83295055607,0.0
385012.02908761695,3892225.878295721,-17500.0,152155.48906908918,-35736.443330026799,12392.094963053914,-66460.031947004129,19273.202278133205,9725.0649681163013,102587.76309076621,-42426.221413889194,111438.99963618844,-111438.99963618844,42426.221413889194,195218.15798818643,0.0
390012.02908761695,3892225.878295721,-17500.0,117065.261617079,-23773.704920040676,6150.0599342372698,-48868.569399013431,12144.976270409799,8642.4222975507728,75925.13446508901,-31314.546680623869,86312.809715454379,-86312.809715454379,31314.546680623869,146063.1119356369,0.0
395012.02908761695,3892225.878295721,-17500.0,92498.099639861786,-16093.715132550695,2995.5910053340822,-37105.441001621759,7833.5530636126105,7494.9952256521356,58113.928221184455,-23471.59316511724,68419.518233253912,-68419.518233253912,23471.59316511724,112782.06258980703,0.0
400012.02908761695,3892225.878295721,-17500.0,74561.393711814162,-11041.198722551781,1398.2375086857489,-28769.874216483793,5141.5489234064871,6286.1801069461535,45634.647254870586,-17839.000406253155,55205.917269509053,-55205.917269509053,17839.000406253155,89147.461386198192,0.0
405012.02908761695,3892225.878295721,-17500.0,61020.744061825892,-7651.2476047994669,601.28978172434972,-22629.859443957965,3420.6442517550345,5143.3356912551662,36540.429568622792,-13728.704664723246,45160.469221042673,-45160.469221042673,13728.704664723246,71720.091381435486,0.0
410012.02908761695,3892225.878295721,-17500.0,50536.585574340228,-5339.7909504857735,218.8977840993881,-17994.039878423086,2299.8510166239648,4143.8957743217607,29707.824099877522,-10686.385798794649,37352.601009003491,-37352.601009003491,10686.385798794649,58502.503792996664,0.0
415012.02908761695,3892225.878295721,-17500.0,42263.420734744715,-3742.2945060356546,50.528014711438239,-14436.841989458255,1558.5340871243197,3311.1143453098957,24453.758467214491,-8405.7812013193525,31181.201556572596,-31181.201556572596,8405.7812013193525,48264.785961734211,0.0
420012.02908761695,3892225.878295721,-17500.0,35639.647290711117,-2625.537115377309,-9.2186196731639143,-11675.724915357112,1061.7041894579718,2636.9455494168469,20340.425730948071,-6676.3595658282266,26239.278743923707,-26239.278743923707,6676.3595658282266,40206.227298184342,0.0
425012.02908761695,3892225.878295721,-17500.0,30275.250167887571,-1837.2468706518582,-15.971965824254632,-9513.0083095681493,724.92513442288714,2100.1433639540601,17073.823681316302,-5350.9312750168447,22240.005012178139,-22240.005012178139,5350.9312750168447,33780.635307293749,0.0
430012.02908761695,3892225.878295721,-17500.0,25889.433757150586,-1276.2704622155168,1.0269768079752772,-7805.6867341364168,494.40033004246499,1676.4248046523271,14448.804664008285,-4325.0595292994467,18974.699065048702,-18974.699065048702,4325.0595292994467,28601.561375762798,0.0
435012.02908761695,3892225.878295721,-17500.0,22274.378155698127,-874.40112132518618,26.646316811573307,-6448.1456492809011,335.30502827854338,1343.1804742926324,12317.860554606044,-3523.6830391576786,16287.836328606691,-16287.836328606691,3523.6830391576786,24387.941745099342,0.0
440012.02908761695,3892225.878295721,-17500.0,19273.021031650063,-585.03043029634182,53.322277175812552,-5361.3314348107479,224.77221302148257,1081.1741695416347,10572.433706421662,-2892.2214816261785,14061.377584352509,-14061.377584352509,2892.2214816261785,20931.036040003364,0.0
445012.02908761695,3892225.878295721,-17500.0,16764.743517512667,-375.92524173395088,77.534905649874375,-4485.5055290312885,147.59163519855872,874.79236307932945,9131.1695599333725,-2390.5622517937418,12204.466696018982,-12204.466696018982,2390.5622517937418,18073.271369266182,0.0
450012.02908761695,3892225.878295721,-17500.0,14655.747984477912,-224.54968202105644,97.894881710054307,-3775.1841060417396,93.525292521888218,711.68935625775998,7932.2117251043192,-1988.933450436326,10646.388634231513,-10646.388634231513,1988.933450436326,15694.134399406625,0.0
455012.02908761695,3892225.878295721,-17500.0,12872.354548739271,-114.99030391471518,114.10534064032892,-3195.5091477743867,55.606818814497686,582.24549157308991,6927.9638174230458,-1665.0327220458694,9331.5988999142628,-9331.5988999142628,1665.0327220458694,13700.445618751361,0.0
250012.02908761695,3897225.878295721,-17500.0,11064.785151522783,3181.4711873564579,618.49551547788678,2874.0589536642465,759.08283798800301,546.57359585422284,6488.5499732099588,1466.9942322636712,7499.7638574727225,-7499.7638574727225,-1466.9942322636712,12913.403840442872,0.0
255012.02908761695,3897225.878295721,-17500.0,12482.122460537941,3722.1839540484643,711.30133608430765,3375.2568986001274,911.46346815421316,666.1410692406771,7418.292862275729,1770.6098881938215,8439.7285447576251,-8439.7285447576251,-1770.6098881938215,14741.749466594663,0.0
260012.02908761695,3897225.878295721,-17500.0,14129.064105413403,4381.2685705340382,829.58238650977228,3983.6011005352939,1101.2711378138606,816.35493771837696,8521.88970699315,2154.1624772265109,9524.6243696313304,-9524.6243696313304,-2154.1624772265109,16908.118688168539,0.0
265012.02908761695,3897225.878295721,-17500.0,16047.783625923064,5190.079218888729,983.36925700312202,4725.6071369354722,1339.0963390643572,1005.9584903732198,9838.5387906759279,2643.0888697244122,10778.047518199117,-10778.047518199117,-2643.0888697244122,19487.975506170402,0.0
270012.02908761695,3897225.878295721,-17500.0,18287.833122804877,6189.5406479403919,1187.5303015002335,5634.981220319587,1638.7599509464917,1246.3069309031055,11417.61644740012,3272.2896126905571,12226.155872390631,-12226.155872390631,-3272.2896126905571,22575.774538184509,0.0
275012.02908761695,3897225.878295721,-17500.0,20906.506001980633,7433.3418132125189,1464.4504750131873,6754.6064510059905,2018.2615037854582,1552.107499588808,13321.479351755897,4090.1454758941954,13896.618496500916,-13896.618496500916,-4090.1454758941954,26289.825961416645,0.0
280012.02908761695,3897225.878295721,-17500.0,23968.232072786886,8992.1708826775011,1848.3575739296655,8139.0154288578478,2500.900799117087,1942.3192937936658,15629.05051815058,5164.4064349303017,15816.163059183324,-15816.163059183324,-5164.4064349303017,30778.091195253739,0.0
285012.02908761695,3897225.878295721,-17500.0,27541.782590963769,10959.184640585245,2392.4002728378236,9857.3586252312798,3116.4714180562573,2441.2169529593666,18440.259146782828,6590.8685048440757,18005.426947110591,-18005.426947110591,-6590.8685048440757,36224.536272489546,0.0
290012.02908761695,3897225.878295721,-17500.0,31692.940519796794,13456.628912501872,3180.320435189511,11996.762588425272,3902.2177574740167,3079.6338290639042,21881.219529465943,8506.0683067921182,20468.786082145285,-20468.786082145285,-8506.0683067921182,42854.893699384862,0.0
295012.02908761695,3897225.878295721,-17500.0,36467.827018722797,16642.532988064904,4345.7173443350894,14665.547611600488,4902.7704416195702,3896.4586081681332,26109.206806256418,11105.3452085588,23174.779552329688,-23174.779552329688,-11105.3452085588,50938.501634532338,0.0
300012.02908761695,3897225.878295721,-17500.0,41857.311502065066,20713.418930347332,6103.3286164622241,17994.64225681145,6167.1706433605705,4940.6325438499198,31314.099647445983,14666.536020502137,26019.194198357574,-26019.194198357574,-14666.536020502137,60777.716082949824,0.0
305012.02908761695,3897225.878295721,-17500.0,47724.186181306162,25890.316331023045,8796.920456410191,22132.459821109129,7738.2871543043584,6274.1649708986142,37706.319719750893,19573.619056073498,28757.614067737108,-28757.614067737108,-19573.619056073498,72663.651998833302,0.0
310012.02908761695,3897225.878295721,-17500.0,53661.88713021118,32352.042920073527,12959.995925665293,27220.589801050584,9622.3179291414781,7976.3020530647791,45464.17984961906,26312.444636649823,30890.839653096489,-30890.839653096489,-26312.444636649823,86746.409122731289,0.0
315012.02908761695,3897225.878295721,-17500.0,58750.414593193957,40021.42140472374,19339.303487744433,33319.713536926924,11703.714257425738,10144.506391819226,54571.78379165315,35337.941798322296,31507.821760785417,-31507.821760785417,-35337.941798322296,102697.8109246316,0.0
320012.02908761695,3897225.878295721,-17500.0,61260.873986403705,47994.577499421015,28645.700922377335,40225.766264391372,13504.565659846827,12867.272590885363,64388.158042809955,46505.979785553507,29231.303477483911,-29231.303477483911,-46505.979785553507,118908.4504525135,0.0
325012.02908761695,3897225.878295721,-17500.0,58837.396014244834,53339.080913020174,40194.848957536495,47125.368698909981,13506.759239887357,16076.040085149021,72664.008855521417,57326.826869541022,22968.979798664514,-22968.979798664514,-57326.826869541022,130857.81959819651,0.0
330012.02908761695,3897225.878295721,-17500.0,51231.880372913925,49944.347548797392,47317.785098600652,52406.120117019134,7424.3442420429974,19025.954693385742,74170.817620385074,59214.263780830413,15590.880464796206,-15590.880464796206,-59214.263780830413,129670.21718513907,0.0
335012.02908761695,3897225.878295721,-17500.0,49287.490864779378,33465.425918990812,28357.658568534731,55707.377445066792,-14723.400823107782,19096.616367501876,68160.56303476778,35669.352294065939,22760.201133958442,-22760.201133958442,-35669.352294065939,118480.93660748885,0.0
340012.02908761695,3897225.878295721,-17500.0,81914.188641727262,25443.099826503625,-48993.518748573653,66685.448635124136,-67037.395451758552,11506.409181034203,116909.65592060058,-16173.509619732053,73150.815695674086,-73150.815695674086,16173.509619732053,204063.96203970702,0.0
345012.02908761695,3897225.878295721,-17500.0,132239.64605943079,80123.531135001307,-155992.44811467445,110283.7935314622,-153232.26228079639,2860.7804883340032,241545.35074822928,-33440.928369412883,137097.437105196,-137097.437105196,33440.928369412883,434410.81280948187,0.0
350012.02908761695,3897225.878295721,-17500.0,-236836.9835093366,-232107.37706527117,-409237.06032809388,148527.91383379872,-266207.23571390996,-75595.063466389547,412694.76741425844,-382867.81622519135,-1890.4939014683769,1890.4939014683769,382867.81622519135,723823.7815485216,0.0
355012.02908761695,3897225.878295721,-17500.0,169301.50568265855,-1177572.9292058311,1185469.1850197432,531911.43690397707,450719.70133881166,685341.11658022087,1436435.9893737724,-407628.94490418612,-69542.771883153822,69542.771883153822,407628.94490418612,2528394.5394539661,0.0
360012.02908761695,3897225.878295721,-17500.0,534046.96416085609,-429107.49759355502,166785.31329422933,-578966.25024277891,105845.27008744361,564420.41881380614,741934.61830749805,-331878.80902571866,388369.65508476685,-388369.65508476685,331878.80902571866,1318549.8951031058,0.0
365012.02908761695,3897225.878295721,-17500.0,503763.04156139033,-14768.311949975578,207819.16182998515,-448464.03157848737,55432.431241544371,227146.93183441277,472949.69523036957,42014.157595268422,291575.713051809,-291575.713051809,-42014.157595268422,833947.80572566169,0.0
370012.02908761695,3897225.878295721,-17500.0,413279.25003300468,8938.2775977576639,81701.176245680341,-265434.9589763413,37986.163095833137,73342.215802865743,319667.30994461681,2454.1307606899645,268046.27488083713,-268046.27488083713,-2454.1307606899645,573342.14545808395,0.0
375012.02908761695,3897225.878295721,-17500.0,297408.1137029528,348.20343982868144,31639.51399177577,-158742.59593606484,23562.614814143733,27421.176389333403,211310.11327134058,-18623.603473564785,203637.61691335292,-203637.61691335292,18623.603473564785,386051.07709134306,0.0
380012.02908761695,3897225.878295721,-17500.0,213152.3354909542,-2027.7787608050153,12545.143988443353,-101471.72376261518,13844.824708214546,14810.859337091579,143638.56342050669,-20943.202049637432,149938.74580580922,-149938.74580580922,20943.202049637432,266965.85043692571,0.0
385012.02908761695,3897225.878295721,-17500.0,157110.04268625088,-1522.8456424968122,4698.9808794217788,-69438.32095359877,7883.7290933286831,10978.802983933492,101829.30477157836,-17986.873321335886,112137.63669901495,-112137.63669901495,17986.873321335886,192275.61351406845,0.0
390012.02908761695,3897225.878295721,-17500.0,119517.28138624466,-473.83053427173365,1370.6965707661295,-50109.081295156808,4374.6884578608924,9123.3364067625225,75162.957159739031,-14323.636594898911,85979.865316984418,-85979.865316984418,14323.636594898911,143852.7661751066,0.0
395012.02908761695,3897225.878295721,-17500.0,93432.040161165147,398.13712230338109,-5.1614830620206078,-37516.535453237186,2345.8370356543451,7646.6575252460998,57364.930034062672,-11147.371625522632,67481.400915292761,-67481.400915292761,11147.371625522632,110966.44592197894,0.0
400012.02908761695,3897225.878295721,-17500.0,74642.444631966864,972.48352221159416,-509.72484995054299,-28793.131163993541,1182.9764304706341,6300.3685545765002,44934.62917771982,-8641.238422075945,53998.516579263523,-53998.516579263523,8641.238422075945,87616.216166194921,0.0
405012.02908761695,3897225.878295721,-17500.0,60653.148414415402,1297.0399649941064,-627.28540977889293,-22482.474527260751,521.41194742816162,5104.3510702420199,35909.087035964876,-6723.3491155917727,43888.396729812062,-43888.396729812062,6723.3491155917727,70421.25807082848,0.0
410012.02908761695,3897225.878295721,-17500.0,49955.291129808917,1446.2533031608868,-581.45327203431964,-17782.68775205225,149.58790258752802,4088.6613927870744,29150.416096546582,-5266.8915378851143,36125.769242039161,-36125.769242039161,5266.8915378851143,57400.123180267859,0.0
415012.02908761695,3897225.878295721,-17500.0,41601.088634065098,1482.6326662767569,-476.10093359852431,-14212.943559249068,-54.500322287400365,3255.2747744260541,23967.320782580977,-4158.9650723883497,30051.596108888738,-30051.596108888738,4158.9650723883497,47328.997952130077,0.0
420012.02908761695,3897225.878295721,-17500.0,34968.826492752771,1450.8820915677297,-358.51768841906983,-11462.856095404934,-161.38185151624333,2586.5355419985017,19918.323685748241,-3311.2835810683428,25226.076538391018,-25226.076538391018,3311.2835810683428,39411.143027713806,0.0
425012.02908761695,3897225.878295721,-17500.0,29633.71826316166,1380.7713395527819,-248.95637587886154,-9320.7626116126012,-212.06004462890402,2056.9180975669997,16708.396720804907,-2657.8522103657942,21344.918338583142,-21344.918338583142,2657.8522103657942,33103.926472122228,0.0
430012.02908761695,3897225.878295721,-17500.0,25295.095323631045,1291.323653048803,-154.8116202717448,-7636.7495676519102,-230.52485554913716,1640.3144173938317,14132.647004541392,-2150.0711436583169,18190.821284220969,-18190.821284220969,2150.0711436583169,28024.208421794759,0.0
435012.02908761695,3897225.878295721,-17500.0,21733.973325171664,1194.3176444387946,-77.526559748819537,-6301.9297944633054,-230.88445642792118,1313.4188146865363,12044.307326473032,-1752.2425616850196,15604.568781055834,-15604.568781055834,1752.2425616850196,23893.926332799918,0.0
440012.02908761695,3897225.878295721,-17500.0,18787.168793828219,1096.8082773533977,-15.965828852774404,-5235.8334722163145,-221.45670665991764,1056.8055698904559,10335.626592134187,-1438.0597713644011,13467.05894690604,-13467.05894690604,1438.0597713644011,20506.954818783408,0.0
445012.02908761695,3897225.878295721,-17500.0,16330.879104617554,1002.8384711767333,31.954273941984475,-4378.246571453059,-207.13775211010625,854.88882449642779,8925.9865192270572,-1188.0209201490552,11687.726111253094,-11687.726111253094,1188.0209201490552,17707.967861802834,0.0
450012.02908761695,3897225.878295721,-17500.0,14269.804790490454,914.56133020098935,68.501828395234526,-3683.6671775660707,-190.78723305233763,695.43240900291073,7754.17863285167,-987.56341421498109,10196.773330406651,-10196.773330406651,987.56341421498109,15378.344997850731,0.0
455012.02908761695,3897225.878295721,-17500.0,12529.706868024437,832.96405087228641,95.794242186663425,-3117.4242885790068,-174.0466363884893,568.94558998939192,6773.1863870602001,-825.72883155539421,8939.8062236030582,-8939.8062236030582,825.72883155539421,13426.477552866838,0.0
250012.02908761695,3902225.878295721,-17500.0,12276.439739195323,2387.7475613338156,329.47716200217008,3148.6146839093026,557.52596282649802,592.36513525893963,6873.8498499889356,476.36161452116903,8609.6776981479943,-8609.6776981479943,-476.36161452116903,13690.732495366177,0.0
255012.02908761695,3902225.878295721,-17500.0,13954.251330346557,2779.1806725052174,352.7264859986534,3720.4616578331515,663.86369345951539,725.65917046943287,7877.5293529109531,580.86891464087967,9787.7000320437728,-9787.7000320437728,-580.86891464087967,15687.169572279186,0.0
260012.02908761695,3902225.878295721,-17500.0,15932.756103752727,3254.7837243961776,381.10374367469632,4421.5901568986737,795.04456131399263,894.38195977786108,9078.4244842911485,715.70639399978973,11175.148328307754,-11175.148328307754,-715.70639399978973,18068.302041502586,0.0
265012.02908761695,3902225.878295721,-17500.0,18277.861822425042,3836.9721104061387,417.66793832818183,5286.7181621872569,957.70003690503256,1109.1475704007157,10523.636413596925,891.72805966989017,12816.854878430047,-12816.854878430047,-891.72805966989017,20925.618489133161,0.0
270012.02908761695,3902225.878295721,-17500.0,21072.326784449295,4555.3092348465116,467.6217724765246,6361.2819628932548,1160.3112069031915,1383.9736891241046,12273.577576232539,1124.4380069874605,14768.493233754161,-14768.493233754161,-1124.4380069874605,24376.251273237271,0.0
275012.02908761695,3902225.878295721,-17500.0,24420.579098928065,5449.1946766081837,539.87543225293962,7705.1696167334549,1413.6490355514859,1737.3677341312593,14406.857361208064,1436.355859449478,17099.279502445632,-17099.279502445632,-1436.355859449478,28571.145089934667,0.0
280012.02908761695,3902225.878295721,-17500.0,28455.003176250349,6571.7323278579033,649.82815274168593,9397.9447372727354,1731.2105835068503,2193.7218834772011,17026.851228850013,1860.7964747778715,19895.200775757778,-19895.200775757778,-1860.7964747778715,33706.104699502597,0.0
285012.02908761695,3902225.878295721,-17500.0,33343.981598268372,7995.3829504646055,824.40437505374393,11546.247910244292,2129.5181347972621,2785.0834507440859,20270.921885215092,2448.0738796966889,23262.559752744935,-23262.559752744935,-2448.0738796966889,40036.698428443247,0.0
290012.02908761695,3902225.878295721,-17500.0,39301.838999509237,9820.2976966792376,1111.3402146893447,14294.508874356317,2627.9914434846737,3553.4272240563691,24323.620248172814,3275.9071762289059,27331.166088854516,-27331.166088854516,-3275.9071762289059,47898.289895814109,0.0
295012.02908761695,3902225.878295721,-17500.0,46599.860244799427,12186.546981281926,1596.6738803738347,17840.7533664072,3247.8130557609006,4553.7602216122432,29435.432180206142,4467.2353502611768,32255.102988855408,-32255.102988855408,-4467.2353502611768,57732.234737880266,0.0
300012.02908761695,3902225.878295721,-17500.0,55574.563865482851,15291.313363303319,2438.3428790512785,22460.309492078246,4008.673836294839,5859.0608276198363,35948.423748460184,6221.0078211538857,38205.531737825382,-38205.531737825382,-6221.0078211538857,70117.565313525993,0.0
305012.02908761695,3902225.878295721,-17500.0,66620.499179908205,19409.125092742623,3931.7018360471834,28541.26608947475,4921.1102320288919,7569.9811903813497,44327.411487896185,8864.375236569238,45341.300955021201,-45341.300955021201,-8864.375236569238,85800.05262393938,0.0
310012.02908761695,3902225.878295721,-17500.0,80130.233712587346,24898.365811009866,6637.1477335180007,36634.775606488227,5968.8625971532247,9837.2082170741833,55183.357346062992,12933.14063486072,53722.522983437266,-53722.522983437266,-12933.14063486072,105684.81407974369,0.0
315012.02908761695,3902225.878295721,-17500.0,96281.724047645504,32115.584187319968,11617.005320040824,47513.018423081368,7062.9148801121282,12916.161237896271,69232.231354720061,19252.902008426216,63089.862895046754,-63089.862895046754,-19252.902008426216,130675.77064957599,0.0
320012.02908761695,3902225.878295721,-17500.0,114445.49845280222,40927.786484994285,20788.189694707453,62181.648285522271,7891.5066456508193,17298.838319562008,86991.754554496845,28794.908468651043,72385.630795308141,-72385.630795308141,-28794.908468651043,161004.41365859448,0.0
325012.02908761695,3902225.878295721,-17500.0,131923.95306614487,48744.12371554834,36901.650982566411,81636.830447660526,7322.7379268064124,24005.070119181859,107638.43221379672,41182.081757006381,79123.539817494922,-79123.539817494922,-41182.081757006381,194174.08429839127,0.0
330012.02908761695,3902225.878295721,-17500.0,143232.85834124204,44245.86138806471,59758.610644052555,105847.10230311666,846.32879177892687,35047.583466750453,126361.52492126003,47526.789303568323,81019.079809498638,-81019.079809498638,-47526.789303568323,221646.98071777407,0.0
335012.02908761695,3902225.878295721,-17500.0,151000.37348046634,-3603.3390457847613,65037.935876436502,132795.61701862179,-29154.539331841926,53372.881693020143,144780.98422865983,8571.3410709692107,92540.003670919468,-92540.003670919468,-8571.3410709692107,253024.33085808199,0.0
340012.02908761695,3902225.878295721,-17500.0,211335.4954277869,-122890.9834322673,-39684.964132991605,172873.88028178673,-132283.62922756592,82710.640599732724,263620.78835378942,-155681.6279511411,189404.56154249789,-189404.56154249789,155681.6279511411,484487.09661920625,0.0
345012.02908761695,3902225.878295721,-17500.0,458093.76744245121,-303603.7203822906,-317424.7954850372,252144.01374838583,-365372.95350267016,121402.12874656163,661990.04531724541,-487940.29840395733,488968.7721447951,-488968.7721447951,487940.29840395733,1149533.5309475916,0.0
350012.02908761695,3902225.878295721,-17500.0,3418689.7959801625,-339482.42800149799,30591.66947267843,809849.52100072789,-1568497.4960709526,984900.17476117471,2497746.8839239301,-722588.09894108865,2544719.9849935444,-2544719.9849935444,722588.09894108865,4341715.0599198248,0.0
355012.02908761695,3902225.878295721,-17500.0,152308.69235413632,-150962.87862776199,-2772.4316175384229,-154084.9656374534,505784.74143239268,-251092.39933965652,583829.8136666849,-152991.47507215076,139232.05382506963,-139232.05382506963,152991.47507215076,1015516.2318523086,0.0
360012.02908761695,3902225.878295721,-17500.0,169470.14480569019,-27781.037875234317,173762.35528405596,-205473.99194651129,61993.752925478781,162927.736362603,216286.32701273495,50923.033273096698,66264.257032368143,-66264.257032368143,-50923.033273096698,374957.36567513441,0.0
365012.02908761695,3902225.878295721,-17500.0,224016.51221469734,70642.267923809311,167148.03694030119,-258456.97916247856,-19340.128027533996,132950.78315954393,272038.58517828933,126004.32364009158,90777.589959159464,-90777.589959159464,-126004.32364009158,472060.7622639981,0.0
370012.02908761695,3902225.878295721,-17500.0,246477.74167151703,83314.446449769646,91824.319157198726,-194144.26877551907,-12422.623597032798,59291.69437694786,229484.56458430144,91856.329194081001,132117.12134245998,-132117.12134245998,-91856.329194081001,405425.92606302642,0.0
375012.02908761695,3902225.878295721,-17500.0,213136.99527589008,61253.85753881163,42350.569310569597,-130011.31803999229,-6075.9752702809301,26487.228388417916,169843.69865482964,49516.070236842221,129274.15815752877,-129274.15815752877,-49516.070236842221,306927.64334820374,0.0
380012.02908761695,3902225.878295721,-17500.0,169000.45758736186,41689.561957729071,19010.022800786388,-87810.308698709676,-4154.3011481738286,14998.461173761063,122956.39343986165,25275.047755715234,108810.60713929008,-108810.60713929008,-25275.047755715234,226964.10145840963,0.0
385012.02908761695,3902225.878295721,-17500.0,131795.55656959239,29006.071712433215,8585.1047314309362,-61778.020978031745,-3675.5149250429386,10823.323431351231,90434.471602355872,13254.02249199582,87636.328369614057,-87636.328369614057,-13254.02249199582,170071.18972395739,0.0
390012.02908761695,3902225.878295721,-17500.0,103648.04637620597,21042.613696584915,3883.9426771134613,-45262.406031127255,-3401.4839472867825,8735.3495576564237,68281.318942482016,7321.1091779496455,70223.257601808524,-70223.257601808524,-7321.1091779496455,130390.02081581559,0.0
395012.02908761695,3902225.878295721,-17500.0,82745.305747957362,15853.243394096848,1732.7710791487875,-34213.685395891662,-3063.3960805201091,7210.2158402663499,52887.865350448519,4271.4221914040027,56705.764682532725,-56705.764682532725,-4271.4221914040027,102191.72892681937,0.0
400012.02908761695,3902225.878295721,-17500.0,67055.803507890014,12297.167287769629,749.30655689082346,-26442.832402130181,-2671.7437086347668,5906.3979154436183,41852.770054935172,2616.9135557794216,46286.157272969118,-46286.157272969118,-2616.9135557794216,81571.712231244281,0.0
405012.02908761695,3902225.878295721,-17500.0,55058.698023668163,9749.0537645909371,313.02484063000361,-20765.112308451215,-2276.8787584597917,4780.677303611873,33696.252716486568,1670.1382916961666,38182.028069027569,-38182.028069027569,-1670.1382916961666,66081.149772570017,0.0
410012.02908761695,3902225.878295721,-17500.0,45713.640189932587,7858.6061874896141,135.50095136802753,-16504.811979785471,-1913.0723252321545,3834.4901160010349,27509.411466760484,1102.3423065482148,31797.544075047786,-31797.544075047786,-1102.3423065482148,54184.271891034332,0.0
415012.02908761695,3902225.878295721,-17500.0,38316.619033353789,6419.1077163098498,78.932725684068075,-13248.584352690752,-1595.3741310704359,3059.9628126140587,22718.401835042267,748.29984357361536,26704.746403137895,-26704.746403137895,-748.29984357361536,44887.024302478523,0.0
420012.02908761695,3902225.878295721,-17500.0,32382.773055311751,5301.2500586526785,76.421415487408368,-10726.294983187159,-1326.5267948661556,2437.81809582816,18946.792198929274,520.45259893966795,22597.309295430427,-22597.309295430427,-520.45259893966795,37519.827129217061,0.0
425012.02908761695,3902225.878295721,-17500.0,27569.391723817687,4419.7630577156715,95.429855268485511,-8752.0537926540546,-1103.077726366027,1943.9085361446644,15938.086388253891,370.0055857291627,19252.817088966945,-19252.817088966945,-370.0055857291627,31614.854357306849,0.0
430012.02908761695,3902225.878295721,-17500.0,23627.831459360819,3715.9482591589626,120.40969662031651,-7193.1987103823121,-919.14862850258385,1554.2568449974938,13511.566844193965,268.53686589457902,16506.728422310145,-16506.728422310145,-268.53686589457902,26835.31974796057,0.0
435012.02908761695,3902225.878295721,-17500.0,20373.529185526408,3148.029907075741,144.29048972255737,-5952.6999959906261,-768.41371591042241,1247.5851277060642,11536.323418575555,198.85832757948901,14235.136378801468,-14235.136378801468,-198.85832757948901,22933.079039177665,0.0
440012.02908761695,3902225.878295721,-17500.0,17666.89363554195,2685.5148723331095,164.21906874432679,-4958.3955488577612,-645.00638064257953,1006.1409149060561,9915.3351266980007,150.24811159845012,12343.311164820696,-12343.311164820696,-150.24811159845012,19722.010410726263,0.0
445012.02908761695,3902225.878295721,-17500.0,15400.721487843357,2305.7066628563339,179.40043267314127,-4155.9678632081204,-543.85222233266563,815.63393364812782,8575.2521419383847,115.8464343264659,10757.906979881072,-10757.906979881072,-115.8464343264659,17060.523888574484,0.0
450012.02908761695,3902225.878295721,-17500.0,13491.650706273816,1991.4485992643013,189.99330415600221,-3504.1489193691555,-460.7226460180421,664.80032104299073,7459.6474338216412,91.170296850179511,9421.5348495803646,-9421.5348495803646,-91.170296850179511,14839.655948282421,0.0
250012.02908761695,3907225.878295721,-17500.0,13191.985385070775,1443.9969173358497,147.58923884475166,3356.8817451669001,322.38717285331228,627.296804695844,7204.2362590147895,-542.61154550684114,9487.7510350376615,-9487.7510350376615,542.61154550684114,14300.421027287966,0.0
255012.02908761695,3907225.878295721,-17500.0,15057.143189680068,1644.2666387109962,128.74452930247944,3980.1186044390674,372.09846719289976,770.67563796807951,8271.3503533147868,-647.65727238877571,10846.873435832484,-10846.873435832484,647.65727238877571,16423.653706480156,0.0
260012.02908761695,3907225.878295721,-17500.0,17272.192705509089,1880.125281241144,103.04237631560741,4748.1304966078669,430.09130893018232,952.85156246033068,9551.0042414004893,-776.5546353826885,12463.067738633012,-12463.067738633012,776.5546353826885,18965.895061168161,0.0
265012.02908761695,3907225.878295721,-17500.0,19919.091099406978,2159.1304925180666,69.475063784308759,5701.1754162957022,497.29480755341706,1185.6823767600331,11096.64294400683,-935.3783733971386,14396.617531083179,-14396.617531083179,935.3783733971386,22030.309397705107,0.0
270012.02908761695,3907225.878295721,-17500.0,23103.057777348018,2490.6951371385835,27.576766114579279,6892.5359127589845,574.23007420526631,1484.9048256097842,12977.86852404367,-1131.7626902034517,16724.716919310675,-16724.716919310675,1131.7626902034517,25750.614444468039,0.0
275012.02908761695,3907225.878295721,-17500.0,26960.532054607374,2886.6541611800421,-21.726725036314438,8393.3671910517132,660.44163319031497,1871.3837423439691,15286.299955626137,-1375.1418146695814,19547.048370844313,-19547.048370844313,1375.1418146695814,30301.789784876652,0.0
280012.02908761695,3907225.878295721,-17500.0,31670.486980964233,3362.1068161669778,-74.398187302507282,10299.670426320565,753.42205580672157,2372.6919643612964,18144.222361945933,-1676.7867720949198,22993.535253642876,-22993.535253642876,1676.7867720949198,35915.278677476388,0.0
285012.02908761695,3907225.878295721,-17500.0,37470.799631261601,3936.7968081693798,-119.82967291682006,12742.538296399347,846.62266733507749,3025.0434177774364,21717.553869243209,-2049.2022036135568,27235.208884116877,-27235.208884116877,2049.2022036135568,42900.934063658126,0.0
290012.02908761695,3907225.878295721,-17500.0,44682.458517620282,4637.6030739364887,-133.85937510155139,15903.669403209737,925.82835327154464,3875.5963270922775,26235.653207471965,-2503.8577637952385,32499.586659105313,-32499.586659105313,2503.8577637952385,51679.422460551352,0.0
295012.02908761695,3907225.878295721,-17500.0,53745.923204577455,5503.4226418542676,-64.448733572561693,20039.729848552408,962.64907591798931,4985.2445867053739,32022.233200739349,-3044.7830420460778,39092.33027056462,-39092.33027056462,3044.7830420460778,62831.083344764666,0.0
300012.02908761695,3907225.878295721,-17500.0,65275.912344626027,6595.3291140157171,198.38092828971557,25522.235845678744,903.06620022159802,6432.626138627721,39544.58455428161,-3652.0842939141148,47426.685933593028,-47426.685933593028,3652.0842939141148,77170.829150617472,0.0
305012.02908761695,3907225.878295721,-17500.0,80141.484088495359,8018.106387774239,887.78126907721389,32905.591328560011,647.78100607913188,8322.4559421606009,49492.474448599685,-4241.0571328679071,58058.610897427556,-58058.610897427556,4241.0571328679071,95862.719937746151,0.0
310012.02908761695,3907225.878295721,-17500.0,99569.003699513094,9964.6871264762231,2507.6595509930885,43046.646010664554,19.591077513535126,10809.208056778914,62901.00748219934,-4562.2099349273267,71708.881818667491,-71708.881818667491,4562.2099349273267,120586.01949374007,0.0
315012.02908761695,3907225.878295721,-17500.0,125209.85667335508,12796.062435279442,6183.4613291377918,57314.068298415674,-1289.6725881749016,14171.820009595256,81317.643453899975,-3960.3224769477238,89188.3008566793,-89188.3008566793,3960.3224769477238,153724.38260418293,0.0
320012.02908761695,3907225.878295721,-17500.0,158866.23901328878,17109.137442999549,14536.154594013755,77920.181005068182,-3813.6031472072727,19048.416489142448,106907.76591259953,-822.04646074728225,110902.57891750496,-110902.57891750496,822.04646074728225,198334.9210760697,0.0
325012.02908761695,3907225.878295721,-17500.0,200577.67231489124,23240.673693851644,33874.555958754958,108199.82774858861,-8571.8282162996202,27129.327835884193,141868.49962949133,8423.313156556258,134799.81248008163,-134799.81248008163,-8423.313156556258,256753.38612471512,0.0
330012.02908761695,3907225.878295721,-17500.0,240635.35667380001,26403.770919325325,78583.05758405682,151263.95263681811,-18396.833864197688,42781.257961889212,184511.73278511586,28641.118407897309,149749.77621066643,-149749.77621066643,-28641.118407897309,324181.48988441925,0.0
335012.02908761695,3907225.878295721,-17500.0,240223.37926166761,-12005.987928356662,164560.40612835513,199489.61335911404,-46882.80285120487,73586.69700190115,221562.05996775901,41188.694928975987,127539.42141890666,-127539.42141890666,-41188.694928975987,383795.75678678218,0.0
340012.02908761695,3907225.878295721,-17500.0,170418.65879186447,-231608.76042734482,157256.91636169871,208797.33825013824,-176655.20775409855,115539.70685945771,320054.81416965905,-137572.41119886661,110811.73353104114,-110811.73353104114,137572.41119886661,622736.42464517744,0.0
345012.02908761695,3907225.878295721,-17500.0,190518.23574762329,-539674.74285165698,-571199.7500033105,371294.51670490071,-499062.28205229994,133005.20027473287,919658.39274760301,-788455.60999061761,414628.97176623309,-414628.97176623309,788455.60999061761,1604440.1354535052,1.0
350012.02908761695,3907225.878295721,-17500.0,532161.28203242691,-250453.13583734733,-692910.55359168968,191573.97001224139,522054.61582579184,768112.26106129913,942961.91046510718,-664468.00406561268,671663.64009263588,-671663.64009263588,664468.00406561268,1720882.3054951844,0.0
355012.02908761695,3907225.878295721,-17500.0,394759.81204473402,-289357.80231086566,-522537.59164355928,-206315.41972253859,421631.92651100003,-114504.06632446122,717771.1190843645,-576657.27372224489,508532.67655281653,-508532.67655281653,576657.27372224489,1243318.2239817521,0.0
360012.02908761695,3907225.878295721,-17500.0,29107.683240943355,-144840.51876606877,-13510.076816269822,-60658.368828774321,142209.97898485622,-6099.5678374028139,208190.84470120107,-134177.85832921235,48591.997911538449,-48591.997911538449,134177.85832921235,369054.25745661207,0.0
365012.02908761695,3907225.878295721,-17500.0,36593.566802386558,17276.789339344978,102372.76693003437,-95347.425394470876,6454.3445692539535,42175.937137629917,97121.793062678757,66657.588003142955,-12257.183764740155,12257.183764740155,-66657.588003142955,179679.42231004403,0.0
370012.02908761695,3907225.878295721,-17500.0,86319.590979433618,71830.687981040042,87630.0774316772,-98665.628611729335,-19066.623761647948,30487.277353705165,127017.26226097329,98824.055511238665,20259.475013072406,-20259.475013072406,-98824.055511238665,221283.53429634907,0.0
375012.02908761695,3907225.878295721,-17500.0,104450.34373485834,72435.243988393035,55115.732297849441,-80165.19522415362,-18264.791635778605,17804.357374667794,113835.74749603021,79116.25922722189,44761.702611880974,-44761.702611880974,-79116.25922722189,204175.32147584323,0.0
380012.02908761695,3907225.878295721,-17500.0,100221.61513325034,58767.399311294343,32049.542275824777,-60903.622540191551,-14511.491164542795,11647.841042933273,91847.763733591783,55272.037710545002,51986.088398910186,-51986.088398910186,-55272.037710545002,169040.86104308604,0.0
385012.02908761695,3907225.878295721,-17500.0,88075.691537954379,45056.283613147891,18593.866141757218,-46164.744589195441,-11405.235010411494,8912.2467206159708,72330.028685055586,37689.174702404162,50090.922416001988,-50090.922416001988,-37689.174702404162,135897.57014069805,0.0
390012.02908761695,3907225.878295721,-17500.0,74987.600960910087,34299.529217319912,11074.651383160521,-35550.01163636116,-9026.2387950202374,7364.1943626207785,57151.84453109969,26011.137876677021,44959.763888537636,-44959.763888537636,-26011.137876677021,109091.6171090756,0.0
395012.02908761695,3907225.878295721,-17500.0,63269.681185673639,26338.579874213312,6844.5318514017799,-27835.819901093768,-7165.2391284950609,6169.0517499457901,45685.792696913872,18351.538433914855,39227.080064309092,-39227.080064309092,-18351.538433914855,88215.932516378278,0.0
400012.02908761695,3907225.878295721,-17500.0,53375.45385352493,20485.086731882948,4408.0661049459386,-22086.544433324765,-5690.7318663051628,5118.7215346568137,36984.120414636374,13244.891335690287,33854.478604244396,-33854.478604244396,-13244.891335690287,71993.243515302893,0.0
405012.02908761695,3907225.878295721,-17500.0,45172.659616768717,16140.23233002344,2964.1879575725407,-17702.621349821322,-4522.498316862293,4192.351234773123,30284.190628421515,9758.6431149304753,29120.071223271814,-29120.071223271814,-9758.6431149304753,59281.1373879327,0.0
410012.02908761695,3907225.878295721,-17500.0,38397.51260561229,12871.418469144441,2083.0045046267583,-14303.693613532198,-3601.0240703958057,3398.9737862824554,25045.24404015626,7322.0668689161248,25050.621896992026,-25050.621896992026,-7322.0668689161248,49217.840392352504,0.0
415012.02908761695,3907225.878295721,-17500.0,32792.675546643244,10378.593658644624,1529.1523556073359,-11637.808502348968,-2877.033628062658,2738.7060188947821,20892.564234875725,5582.8367445919657,21589.099665669295,-21589.099665669295,-5582.8367445919657,41174.620096300161,0.0
420012.02908761695,3907225.878295721,-17500.0,28139.889304309279,8453.5362452622521,1170.5242613076468,-9529.2094588897908,-2309.2049501933884,2200.6478404140721,17563.26158527852,4318.2331275711031,18656.58701944369,-18656.58701944369,-4318.2331275711031,34690.454493371093,0.0
425012.02908761695,3907225.878295721,-17500.0,24261.592858524091,6949.8686716253223,931.10421223145829,-7850.1488310688819,-1863.6223214560398,1768.1319519451124,14868.532411629743,3383.6915818027219,16174.495233832531,-16174.495233832531,-3383.6915818027219,29422.437830221006,0.0
430012.02908761695,3907225.878295721,-17500.0,21014.935208320763,5763.0479333400754,766.12659153116215,-6505.1779468520526,-1513.1181101923537,1423.207794805196,12669.44484102495,2683.0175010431931,14071.925673055423,-14071.925673055423,-2683.0175010431931,25111.743440649781,0.0
435012.02908761695,3907225.878295721,-17500.0,18285.185067867482,4817.285962109042,648.66385792204198,-5421.7874701191158,-1236.3429430682559,1149.1792461897073,10861.689641600118,2150.7931587732637,12287.564269916102,-12287.564269916102,-2150.7931587732637,21560.652764605846,0.0
440012.02908761695,3907225.878295721,-17500.0,15980.026088517692,4056.8877767492077,562.200104606683,-4544.329659512493,-1016.7300379244759,931.66280084022173,9365.720854443427,1741.6775058163275,10769.47246818953,-10769.47246818953,-1741.6775058163275,18616.62108354882,0.0
445012.02908761695,3907225.878295721,-17500.0,14024.955697120089,3440.423090734334,496.41958152832552,-3829.8070605735716,-841.51738684359373,758.80018878937017,8120.1774361618372,1423.7188034198721,9474.1335682318513,-9474.1335682318513,-1423.7188034198721,16160.96412727554,0.0
450012.02908761695,3907225.878295721,-17500.0,12359.667373974211,2936.7378300480218,444.76687985133555,-3244.8310076915632,-700.90786802188757,621.0687858009685,7077.3848528900317,1174.0696047953656,8365.3158476205226,-8365.3158476205226,-1174.0696047953656,14100.680978295961,0.0
250012.02908761695,3912225.878295721,-17500.0,13763.481030283348,407.27706353307224,96.070450022264339,3488.7500769631556,66.259742509200564,649.81622995919156,7434.9225277887444,-1522.8208363789308,10082.293371272082,-10082.293371272082,1522.8208363789308,14716.025333124084,0.0
255012.02908761695,3912225.878295721,-17500.0,15727.020614334806,392.52947148861966,70.564624992363406,4140.3861400228434,53.245927016025327,799.01223148243207,8543.3031011583753,-1826.2280245542988,11548.505713388226,-11548.505713388226,1826.2280245542988,16915.953354148773,0.0
260012.02908761695,3912225.878295721,-17500.0,18061.40082293412,357.18880606251628,37.869082900262413,4944.0248362758975,29.847187675966094,988.67522765021283,9873.2800827045776,-2203.8959213203698,13295.777895658946,-13295.777895658946,2203.8959213203698,19553.271153924292,0.0
265012.02908761695,3912225.878295721,-17500.0,20853.886328974677,291.00138296625937,-2.5770034558038386,5941.9800122630913,-9.5495599899818462,1231.1389894527349,11480.820693093305,-2677.3936990685334,15390.821767910315,-15390.821767910315,2677.3936990685334,22736.729402330533,0.0
270012.02908761695,3912225.878295721,-17500.0,24216.609441230805,178.88190234917832,-50.383294775994536,7190.1950753033898,-73.601668452066448,1542.7025155251292,13439.169389146613,-3275.4799478593359,17919.301971011948,-17919.301971011948,3275.4799478593359,26607.788719592812,0.0
275012.02908761695,3912225.878295721,-17500.0,28295.17121381485,-1.4439167156705963,-103.06759825794273,8763.2487235550834,-175.77736074032103,1944.8219863715815,15845.309451960542,-4036.7344142211969,20992.223248013128,-20992.223248013128,4036.7344142211969,31352.410525544721,0.0
280012.02908761695,3912225.878295721,-17500.0,33281.011314933152,-283.00231566165473,-153.85030455366433,10761.502396002325,-337.23809486631262,2465.5146867343105,18829.458860150236,-5013.1815491818579,24754.948521476748,-24754.948521476748,5013.1815491818579,37218.062811551179,0.0
285012.02908761695,3912225.878295721,-17500.0,39429.683319517193,-714.92263920111463,-187.39854739974672,13321.527484592561,-591.58615143646477,3140.8458873831428,22569.426789352998,-6275.1756736912212,29400.193022090541,-29400.193022090541,6275.1756736912212,44538.832535820569,0.0
290012.02908761695,3912225.878295721,-17500.0,47088.857369298945,-1370.4020093100562,-171.57683418941068,16631.815756015221,-992.76769092913651,4016.1932778146725,27313.06442087972,-7917.7507200669588,35187.307412040624,-35187.307412040624,7917.7507200669588,53773.719230377501,0.0
295012.02908761695,3912225.878295721,-17500.0,56742.940484429266,-2358.2680563879576,-41.242313006551392,20957.491720576585,-1628.339702551543,5146.7393377864491,33414.620689104013,-10068.134610132995,42471.794401576961,-42471.794401576961,10068.134610132995,65567.151867877939,0.0
300012.02908761695,3912225.878295721,-17500.0,69087.34634308274,-3838.7776685124545,334.1730954442213,26681.377737613191,-2641.8454437620317,6596.591710060502,41395.861601357108,-12892.43230492876,51752.091545537463,-51752.091545537463,12892.43230492876,80848.562167221826,0.0
305012.02908761695,3912225.878295721,-17500.0,85157.591353552023,-6042.0886324321427,1217.3057268164785,34376.662597902701,-4270.5775915841887,8437.1524263979245,52052.605269205102,-16594.200104564283,63746.134263976011,-63746.134263976011,16594.200104564283,101002.7749195693,0.0
310012.02908761695,3912225.878295721,-17500.0,106563.25383681916,-9278.8805962243296,3145.109301720925,44943.87079451789,-6908.867826044976,10751.753861757565,66646.167504817975,-21381.292696953969,79519.669807379381,-79519.669807379381,21381.292696953969,128171.18786709203,0.0
315012.02908761695,3912225.878295721,-17500.0,135926.83794325465,-13900.19639279042,7249.7284012166674,59882.716369718102,-11212.415677050136,13678.210752565612,87252.811330858924,-27324.636307860223,100700.3461990568,-100700.3461990568,27324.636307860223,165790.66835135585,0.0
320012.02908761695,3912225.878295721,-17500.0,177723.89294308319,-20045.388358403852,16045.910093647488,81846.032478659981,-18264.604235968713,17606.626990830668,117392.68502821526,-33848.734691963589,129804.40003886085,-129804.40003886085,33848.734691963589,219527.74676623673,0.0
325012.02908761695,3912225.878295721,-17500.0,239846.65843461201,-26577.782634613664,35640.877557102205,115738.48115246563,-29820.51475136013,23920.045814918001,163065.35997976779,-37885.844539737664,170508.38716165611,-170508.38716165611,37885.844539737664,298670.30884712038,0.0
330012.02908761695,3912225.878295721,-17500.0,335690.82375940704,-27223.209590256407,83333.284080987956,170785.40132117088,-48513.497479960039,37362.406553362118,234010.15624924138,-26886.7616070808,226107.1198167543,-226107.1198167543,26886.7616070808,417355.59731556731,0.0
335012.02908761695,3912225.878295721,-17500.0,474612.81462984212,-6384.0910531765157,218513.38738893686,268299.64798180945,-75704.536575222097,73650.523765567137,344159.32351884618,42221.785655705113,281825.55257428833,-281825.55257428833,-42221.785655705113,597445.70133538183,0.0
340012.02908761695,3912225.878295721,-17500.0,532117.87431515194,-138841.05365745028,520983.60112237127,509317.38136216608,-78621.325377027795,204396.38050991076,563880.78738296416,77518.793623659745,249756.74754546536,-249756.74754546536,-77518.793623659745,979011.46404186287,0.0
345012.02908761695,3912225.878295721,-17500.0,2586243.2854904733,-1087180.2314292993,-2721909.4734721272,2198950.0009693736,-1262530.2192515219,1117052.0146055615,3835524.7535568699,-2751505.1975066233,3005648.714978463,-3005648.714978463,2751505.1975066233,6735747.215834829,0.0
350012.02908761695,3912225.878295721,-17500.0,798607.52269670018,130648.37709071832,-311028.03370811197,-341967.53450779,438496.11429416935,-186829.02884009643,832866.33186888625,-158962.5787187602,666437.33641417418,-666437.33641417418,158962.5787187602,1444911.6703144733,0.0
355012.02908761695,3912225.878295721,-17500.0,221916.92137429435,-15738.470882194017,-355909.52895890141,-100837.24938251456,293016.67299676128,-104898.79418772855,411385.43605939421,-234184.16524082341,285248.47979305801,-285248.47979305801,234184.16524082341,735304.71014074585,0.0
360012.02908761695,3912225.878295721,-17500.0,17617.288716798132,-65976.660329503633,-123689.35339684984,-5821.6181932416584,138536.00105796583,-46476.030328007604,164037.17193821259,-125977.12507243028,66099.656501373349,-66099.656501373349,125977.12507243028,292840.93389200128,0.0
365012.02908761695,3912225.878295721,-17500.0,-34796.762710873751,-12596.850497441581,22323.519751125245,-11052.071643197245,36111.640518987704,-5560.6331675686615,44429.648530197534,5605.4207993677919,-30746.128506434216,30746.128506434216,-5605.4207993677919,84865.425791094938,0.0
370012.02908761695,3912225.878295721,-17500.0,-11328.011594979052,35648.74859744704,60291.487251450671,-28143.528464139639,-4226.7755245445123,5695.7327133899689,58970.690859735318,64580.041882410595,-34620.373870296615,34620.373870296615,-64580.041882410595,102187.08214039316,0.0
375012.02908761695,3912225.878295721,-17500.0,18094.608567145293,52896.066389052328,54386.104883139436,-33511.188066050701,-14786.17375589079,6729.3573802890169,67060.442320102447,72414.358539443943,-14032.902619978795,14032.902619978795,-72414.358539443943,119488.81583265527,0.0
380012.02908761695,3912225.878295721,-17500.0,35115.339597987331,52214.071514819298,39850.907546993454,-31747.694133705994,-15539.663406333766,6230.8687044827866,62038.435059279065,61797.743454105032,3416.611707566859,-3416.611707566859,-61797.743454105032,113669.00234636146,0.0
385012.02908761695,3912225.878295721,-17500.0,41630.787258158933,45209.249738455452,27427.410633041374,-27752.135483472633,-13683.1386755288,5753.2149320754452,53436.593747844199,48255.325385528631,13530.516103604969,-13530.516103604969,-48255.325385528631,99916.015437408438,0.0
390012.02908761695,3912225.878295721,-17500.0,42195.015518389897,37230.461927793018,18657.462292564232,-23558.797519160187,-11376.016218562743,5258.7019911927791,44923.779356467792,36614.138513337144,18228.38391548815,-18228.38391548815,-36614.138513337144,85208.750524565839,0.0
395012.02908761695,3912225.878295721,-17500.0,39919.695541025743,30103.477061820009,12807.927931961674,-19773.470081587318,-9230.6474098116596,4676.0539255713775,37529.157524352238,27639.828618294036,19729.87499493637,-19729.87499493637,-27639.828618294036,71894.976887685232,0.0
400012.02908761695,3912225.878295721,-17500.0,36493.749963275695,24229.778778218399,8951.0323949272351,-16515.89562757489,-7403.8751247306127,4038.4794623661232,31368.814661279801,20958.859808509271,19514.479808452972,-19514.479808452972,-20958.859808509271,60514.978228377331,0.0
405012.02908761695,3912225.878295721,-17500.0,32760.47779794153,19534.364551319824,6391.5545213990072,-13766.683212610558,-5908.965115346432,3407.0502135438028,26302.493353843915,16025.026060590193,18443.376281037868,-18443.376281037868,-16025.026060590193,51000.118111078729,0.0
410012.02908761695,3912225.878295721,-17500.0,29121.180559817694,15820.793967778731,4669.2351569268703,-11470.709384920874,-4711.3009508929799,2827.2854490397904,22146.915656935762,12371.634959523915,16995.887995060868,-16995.887995060868,-12371.634959523915,43110.820254859049,0.0
415012.02908761695,3912225.878295721,-17500.0,25753.788431356308,12889.369369297385,3490.3402876386726,-9565.9815077488147,-3762.8410256213656,2321.6029310839731,18734.573559979748,9647.2595596611063,15433.098606738447,-15433.098606738447,-9647.2595596611063,36584.910091108773,0.0
420012.02908761695,3912225.878295721,-17500.0,22723.835863738761,10570.053489622836,2668.5353745816606,-7992.4888262349668,-3015.9597378193507,1895.1192777430856,15925.097909398557,7597.7818189094432,13893.37464734913,-13893.37464734913,-7597.7818189094432,31183.811618335869,0.0
425012.02908761695,3912225.878295721,-17500.0,20040.748147017031,8726.9409147105234,2084.86870622985,-6695.5973420086812,-2428.8027829610287,1543.0728331818784,13604.050811969308,6041.5449475691012,12446.079705459182,-12446.079705459182,-6041.5449475691012,26704.014379848297,0.0
430012.02908761695,3912225.878295721,-17500.0,17686.869967269555,7254.1888864618477,1662.5277246984522,-5627.4037752944141,-1966.7366189518373,1256.2874583199944,11679.02901839719,4848.6602973371191,11121.816715585668,-11121.816715585668,-4848.6602973371191,22976.754693803239,0.0
435012.02908761695,3912225.878295721,-17500.0,15632.686641043336,6070.233769794334,1351.2349035177376,-4747.0138101690163,-1602.0620977018659,1024.4278846830578,10075.703210922786,3925.7803425906586,9929.659943980545,-9929.659943980545,-3925.7803425906586,19864.022465808477,0.0
440012.02908761695,3912225.878295721,-17500.0,13844.861297205152,5112.431076111412,1117.6075419484132,-4020.1979517286086,-1313.0629303764147,837.66580227578572,8734.3836983051115,3205.3361459679186,8867.0982903524528,-8867.0982903524528,-3205.3361459679186,17253.796020018708,0.0
445012.02908761695,3912225.878295721,-17500.0,12290.342981422329,4332.6314907795449,939.1591449962649,-3418.6941187667417,-1082.9022344475138,687.38172506179933,7607.1306328548935,2638.0177289841072,7925.7550378697651,-7925.7550378697651,-2638.0177289841072,15055.43972200532,0.0
450012.02908761695,3912225.878295721,-17500.0,10938.375949861029,3693.7293345256671,800.52555924490412,-2919.3901605471347,-898.60223787725192,566.34832459835297,6655.4113423318095,2187.5396257557486,7094.6818067322611,-7094.6818067322611,-2187.5396257557486,13195.710937798527,0.0
250012.02908761695,3917225.878295721,-17500.0,13968.158018412352,-657.27505718029715,183.96446632172217,3539.3096647714506,-196.58699880029249,659.15867449202494,7554.4811196906749,-2401.390587508939,10363.704774387083,-10363.704774387083,2401.390587508939,14922.189585741889,0.0
255012.02908761695,3917225.878295721,-17500.0,15934.822190923862,-889.74725993012032,189.70143364796851,4194.8171605209,-273.24222278757833,809.64434126485833,8675.7491368442461,-2871.9585318062891,11854.357149052526,-11854.357149052526,2871.9585318062891,17144.109438931584,0.0
260012.02908761695,3917225.878295721,-17500.0,18262.931830530033,-1198.3693677765741,200.36555814943154,5000.7410882870272,-378.84343402871195,1000.4787723023182,10018.883941599397,-3455.7789889844134,13623.356546443021,-13623.356546443021,3455.7789889844134,19804.177647839901,0.0
265012.02908761695,3917225.878295721,-17500.0,21033.47321474152,-1610.3938063268117,220.65767302965912,5997.752371173282,-525.29525139829707,1243.6799281048682,11638.945176542195,-4185.0324340187453,15733.534340368669,-15733.534340368669,4185.0324340187453,23009.887054770395,0.0
270012.02908761695,3917225.878295721,-17500.0,24348.670344614351,-2163.9774443397214,258.79066527851307,7238.9672360616287,-729.94442571191257,1554.9340123821589,13607.588766581339,-5102.3149540967534,18264.027741909271,-18264.027741909271,5102.3149540967534,26900.430199706083,0.0
275012.02908761695,3917225.878295721,-17500.0,28338.447964127692,-2913.0399206065808,329.01710746077879,8794.1197819313948,-1018.3392180788115,1954.5366338434576,16019.109196311969,-6264.3271921563401,21314.986133338294,-21314.986133338294,6264.3271921563401,31657.838383375492,0.0
280012.02908761695,3917225.878295721,-17500.0,33169.309600074441,-3934.5091377539816,456.0420471740141,10755.256820227434,-1428.5249733143639,2468.3244397374892,18999.215079863574,-7746.9159133862886,25013.802191092171,-25013.802191092171,7746.9159133862886,37522.907765599048,0.0
285012.02908761695,3917225.878295721,-17500.0,39056.915596926148,-5339.2319903071211,682.82833738777094,13244.617857023206,-2017.8047379051184,3128.2749284738939,22718.151003331979,-9651.920438895153,29523.50703228476,-29523.50703228476,9651.920438895153,44818.584430047238,0.0
290012.02908761695,3917225.878295721,-17500.0,46284.684605064525,-7288.5478971596813,1084.5845976843341,16425.810427684261,-2873.4777601144615,3972.0794728359547,27411.015126909853,-12116.342334549749,35054.415908613351,-35054.415908613351,12116.342334549749,53985.48665598379,0.0
295012.02908761695,3917225.878295721,-17500.0,55232.912890133135,-10019.747759286003,1794.2469508313959,20520.348979019942,-4130.0691202598746,5040.3810652587654,33410.526930330721,-15324.348205757218,41881.060450760233,-41881.060450760233,15324.348205757218,65638.189664873411,0.0
300012.02908761695,3917225.878295721,-17500.0,66427.707447371038,-13885.6511894247,3049.6931033641945,25833.79856717242,-5997.2178280590924,6369.5744229229049,41202.325906872626,-19522.360073458873,50368.661820049179,-50368.661820049179,19522.360073458873,80659.011061356956,0.0
305012.02908761695,3917225.878295721,-17500.0,80630.043895221097,-19417.295017222525,5283.0188056060315,32800.791233010816,-8805.3088679967295,7977.7992168395695,51522.816001132021,-25036.841483272176,61018.774975372624,-61018.774975372624,25036.841483272176,100363.15305299226,0.0
310012.02908761695,3917225.878295721,-17500.0,99012.999346134791,-27426.611726992342,9293.4354067853565,42069.825803027015,-13081.469784562651,9845.0358364862077,65540.91377296389,-32293.650392848522,74558.423085640359,-74558.423085640359,32293.650392848522,126807.16637246296,0.0
315012.02908761695,3917225.878295721,-17500.0,123551.80777056664,-39186.523230589279,16593.360630302515,54674.066717258545,-19681.317327199315,11905.46170204854,85212.989923678368,-41840.267985841041,92140.805091297938,-92140.805091297938,41840.267985841041,163401.56204532061,0.0
320012.02908761695,3917225.878295721,-17500.0,158001.02537644614,-56794.132528086368,30140.602114254878,72380.542487827348,-30040.731360426129,14133.803522553562,114022.36623315772,-54398.026496726292,115878.63290126651,-115878.63290126651,54398.026496726292,216222.17130606089,0.0
325012.02908761695,3917225.878295721,-17500.0,210836.93483011218,-84106.074638144928,56076.650135048054,98330.398004339615,-46765.542477099196,16995.954242992462,158713.2190377638,-71125.906423169683,150572.99954886761,-150572.99954886761,71125.906423169683,297178.95435302891,0.0
330012.02908761695,3917225.878295721,-17500.0,306730.73528381699,-130090.4518565232,109118.06350840637,137632.4833480331,-75565.674130320403,22990.813597287284,234619.06443360972,-95094.72897962181,210827.47397355663,-210827.47397355663,95094.72897962181,433840.63770205498,0.0
335012.02908761695,3917225.878295721,-17500.0,544640.0460910307,-224405.14267596937,241914.71150894687,191758.22723903225,-135684.70074608931,45534.97321577173,389743.66106889781,-136244.01987530536,355938.54639390408,-355938.54639390408,136244.01987530536,711529.63617784518,0.0
340012.02908761695,3917225.878295721,-17500.0,1256951.2894932935,-401686.34362543072,1026524.6962998545,62628.611135841027,-352712.78949134942,379381.01544121583,703142.57602303859,43720.90651996521,637458.34408965474,-637458.34408965474,-43720.90651996521,1220676.9403036756,0.0
345012.02908761695,3917225.878295721,-17500.0,-651390.84305056138,265030.64590913552,-2863334.1642354666,649353.97266158788,754455.15555832733,-453578.42775810265,1683244.4765637505,-1242715.2385174548,462832.51755099109,-462832.51755099109,1242715.2385174548,2924497.5772130131,0.0
350012.02908761695,3917225.878295721,-17500.0,-298288.93003472121,71869.386187125536,-518303.14193229936,141077.17200386428,395315.83827888436,-163841.603552338,461341.79993589153,-185209.81107906616,-47631.603974270402,47631.603974270402,185209.81107906616,800056.51487248624,0.0
355012.02908761695,3917225.878295721,-17500.0,-117691.24386400056,23233.696068343816,-259995.20248133715,35777.924392918132,214143.28542142297,-87368.964990439155,235808.68140739098,-107331.53747747373,814.52747799977806,-814.52747799977806,107331.53747747373,410507.5774527,0.0
360012.02908761695,3917225.878295721,-17500.0,-89632.412127264746,-35718.894712638823,-124372.73043304928,42796.678607373011,125283.01896768286,-51688.19504575152,141052.6530338458,-87543.93616804402,-15856.833367922249,15856.833367922249,87543.93616804402,245712.3062610178,0.0
365012.02908761695,3917225.878295721,-17500.0,-86605.707724685155,-28358.508386655554,-19934.762086715178,31688.165220321098,54228.922001161591,-23802.305675509058,78306.91725546401,-24732.459764601801,-50865.268228574532,50865.268228574532,24732.459764601801,135828.87204263592,0.0
370012.02908761695,3917225.878295721,-17500.0,-64815.601648497446,1917.305100458163,29981.15794893678,12992.367192979327,13880.079013264369,-8934.0294025241874,51236.41098532889,25666.740074863177,-57231.521535132444,57231.521535132444,-25666.740074863177,88922.362481814649,0.0
375012.02908761695,3917225.878295721,-17500.0,-36142.183449389871,23842.88126961805,42308.742799624553,-653.21414668709247,-3910.0905493074233,-2206.0384795991017,46056.456370032247,47593.87937904596,-44298.608185630583,44298.608185630583,-47593.87937904596,79978.017046717127,0.0
380012.02908761695,3917225.878295721,-17500.0,-12462.742630533874,33168.314560134822,38656.72617190102,-7980.2759866134702,-10157.818299993673,873.26230954754146,43407.221572582348,50674.635300000511,-27441.253236108554,27441.253236108554,-50674.635300000511,76878.665015179271,0.0
385012.02908761695,3917225.878295721,-17500.0,3369.3806474701128,34373.910832417438,30824.824196929541,-11117.890909067153,-11380.289508370079,2316.1039673907212,39405.808327236868,45517.59283910448,-13516.055604600777,13516.055604600777,-45517.59283910448,71329.388411228385,0.0
390012.02908761695,3917225.878295721,-17500.0,12668.37871457162,31730.185507418373,23317.848620955516,-11939.538665668677,-10626.900163293409,2902.3421400584111,34767.755372881453,38055.424309221831,-3807.5099833140121,3807.5099833140121,-38055.424309221831,64028.545049540138,0.0
395012.02908761695,3917225.878295721,-17500.0,17486.726808945012,27735.916750411594,17318.392534339117,-11578.394035226975,-9221.197596923028,2998.2610015577575,30190.492126780126,30808.777015962329,2362.9443787579476,-2362.9443787579476,-30808.777015962329,56325.992109546736,0.0
400012.02908761695,3917225.878295721,-17500.0,19490.605534123966,23595.650396475539,12835.474443496969,-10661.588581934864,-7720.4727344810472,2824.5313195632275,26005.971154415151,24604.784800429283,6004.2195384758543,-6004.2195384758543,-24604.784800429283,49002.281118287494,0.0
405012.02908761695,3917225.878295721,-17500.0,19818.759435204847,19808.959115294158,9571.1857877965904,-9530.3598938409705,-6345.4009603095919,2523.5308989796076,22325.138626617627,19568.22906813318,7961.3132036467077,-7961.3132036467077,-19568.22906813318,42395.3272243471,0.0
410012.02908761695,3917225.878295721,-17500.0,19198.530533251091,16535.631986703669,7211.5728044589805,-8367.5400225848516,-5167.2811060959311,2182.4004719736058,19153.080377424474,15576.183277826698,8841.4714975084971,-8841.4714975084971,-15576.183277826698,36601.846153958104,0.0
415012.02908761695,3917225.878295721,-17500.0,18079.611968199079,13784.892693813046,5502.6857143404241,-7266.5370693283303,-4192.245954828044,1849.4799330567857,16449.73418294777,12443.901812043681,9054.8563207715342,-9054.8563207715342,-12443.901812043681,31601.793418945133,0.0
420012.02908761695,3917225.878295721,-17500.0,16733.984641348172,11506.377418902654,4256.6873681678153,-6269.8684977388175,-3400.2875684606747,1548.0407925851091,14159.16676415813,9993.3532375772993,8870.2271411062247,-8870.2271411062247,-9993.3532375772993,27324.459474003404,0.0
425012.02908761695,3917225.878295721,-17500.0,15322.301310260762,9631.886511641751,3339.6095313944866,-5391.5346996983953,-2763.3518986470676,1286.5423174718285,12223.242178422432,8074.0517071749709,8460.417709620735,-8460.417709620735,-8074.0517071749709,23681.960488920417,0.0
430012.02908761695,3917225.878295721,-17500.0,13936.280785650197,8093.495001128621,2657.2512140532872,-4630.240967654775,-2253.3765153535378,1065.4631734698107,10587.709599121401,6565.695880052469,7934.8606552521078,-7934.8606552521078,-6565.695880052469,20585.641040296177,0.0
435012.02908761695,3917225.878295721,-17500.0,12625.335998463188,6830.5570871127529,2143.5979073766966,-3977.1431002291019,-1845.4659258468207,881.46297937824488,9204.5392744265337,5374.6346679334974,7361.635280171341,-7361.635280171341,-5374.6346679334974,17953.521973916522,0.0
440012.02908761695,3917225.878295721,-17500.0,11413.243133043665,5791.6674104977747,1752.280360436549,-3420.2924051147975,-1518.7837439765276,729.73945251103601,8032.4553560154636,4428.8891882740736,6782.0976498486434,-6782.0976498486434,-4428.8891882740736,15713.18134627242,0.0
445012.02908761695,3917225.878295721,-17500.0,10308.519946532371,4934.4308443022937,1450.545996003859,-2947.076444520731,-1256.4337686447186,605.2640743291206,7036.6019364460917,3673.4282211274099,6220.4669174994106,-6220.4669174994106,-3673.4282211274099,13802.288531418402,0.0
450012.02908761695,3917225.878295721,-17500.0,9310.8778856785921,4224.4115910351347,1215.0910140500303,-2545.4798791363123,-1044.9599774200119,503.37041972159398,6187.8622824767399,3066.2261682415128,5690.0769690779407,-5690.0769690779407,-3066.2261682415128,12168.049839598985,0.0
250012.02908761695,3922225.878295721,-17500.0,13810.351584321286,-1683.8057028861065,405.03943259692392,3509.2332626664825,-451.70564039463926,655.39944305026449,7560.9215080759323,-3126.7236857179773,10327.36771184094,-10327.36771184094,3126.7236857179773,14915.454840429453,0.0
255012.02908761695,3922225.878295721,-17500.0,15688.906807723841,-2115.7515707480652,476.46086137471968,4144.9021899634317,-587.77076679723825,802.77498025384955,8666.2011479311568,-3717.9934985010186,11760.794068718536,-11760.794068718536,3717.9934985010186,17104.596947112153,0.0
260012.02908761695,3922225.878295721,-17500.0,17891.712532934529,-2670.8353254460058,575.46415590728463,4921.1908841034392,-769.10152080661555,988.70446229876859,9984.6374470529354,-4444.7719619594736,13444.483319972742,-13444.483319972742,4444.7719619594736,19715.386078620708,0.0
265012.02908761695,3922225.878295721,-17500.0,20483.48347394729,-3388.9675352351665,715.69542742512203,5873.8604594097642,-1012.6291375155981,1224.1896404138054,11567.027064537315,-5342.8227312040935,15428.106318565966,-15428.106318565966,5342.8227312040935,22847.548469289806,0.0
270012.02908761695,3922225.878295721,-17500.0,23542.368593356787,-4324.6052736483362,918.2941660014817,7048.4687911401379,-1342.34472934061,1523.3011038760096,13478.556871906219,-6458.1571656687693,17771.062732227434,-17771.062732227434,6458.1571656687693,26628.595389780592,0.0
275012.02908761695,3922225.878295721,-17500.0,27162.24821134271,-5552.5980010411722,1216.3823620519192,8502.9838036513247,-1792.5209008181403,1903.7447703679206,15803.589359772679,-7849.9135994106937,20543.586257903207,-20543.586257903207,7849.9135994106937,31222.777532313288,0.0
280012.02908761695,3922225.878295721,-17500.0,31454.945453836852,-7176.5526738734734,1662.4858296746875,10310.904763845749,-2412.4959664892776,2387.1764819440368,18652.360440834804,-9593.7845183905574,23827.18741489033,-23827.18741489033,9593.7845183905574,36843.437900879842,0.0
285012.02908761695,3922225.878295721,-17500.0,36551.930948179426,-9340.8730570189546,2340.9884882924266,12564.836737656755,-3273.7965442918471,2998.7796153489894,22170.59000259345,-11785.780807139246,27713.590384982144,-27713.590384982144,11785.780807139246,43770.446026244252,0.0
290012.02908761695,3922225.878295721,-17500.0,42604.768880191426,-12248.129965731852,3389.3317695945207,15380.318735953162,-4480.7211860050393,3765.1424831630466,26553.688941101685,-14545.635417437383,32300.609740129345,-32300.609740129345,14545.635417437383,52375.542224737168,0.0
295012.02908761695,3922225.878295721,-17500.0,49783.006006143252,-16184.274111177756,5034.7318103195894,18899.548634158444,-6185.9837215143998,4708.6994917110515,32068.559307886171,-18018.157872995944,37682.113821073173,-37682.113821073173,18018.157872995944,63160.699087468078,0.0
300012.02908761695,3922225.878295721,-17500.0,58267.194736851518,-21555.577660678402,7658.9652640576933,23294.518202412717,-8613.5764638732326,5835.9472517553731,39088.481532922277,-22368.789453254059,43926.757070259795,-43926.757070259795,22368.789453254059,76819.200836411779,0.0
305012.02908761695,3922225.878295721,-17500.0,68232.111998381239,-28944.017138882977,11915.465650619451,28769.035897436261,-12091.613740043147,7115.962343696302,48151.293868321685,-27765.412338379159,51034.769363655869,-51034.769363655869,27765.412338379159,94338.506722122416,0.0
310012.02908761695,3922225.878295721,-17500.0,79806.709110821743,-39194.738438360284,18948.257324077302,35558.278978140435,-17098.600226894589,8447.9684762603065,60059.724603587827,-34329.691916499811,58848.457501963116,-58848.457501963116,34329.691916499811,117183.53598920173,0.0
315012.02908761695,3922225.878295721,-17500.0,92963.724348137228,-53568.395717445041,30824.862436899635,43915.263273266763,-24327.86843646624,9629.5266861431919,76057.024091762185,-42019.35763017054,66849.291501404776,-66849.291501404776,42019.35763017054,147639.56146940804,0.0
320012.02908761695,3922225.878295721,-17500.0,107147.25207650865,-74042.826830229387,51481.551410659689,54010.803783934454,-34776.997376394276,10377.379068573184,98129.861278864366,-50326.466519258858,73612.752844903371,-73612.752844903371,50326.466519258858,189481.28086702144,0.0
325012.02908761695,3922225.878295721,-17500.0,119759.6661455944,-103929.13640673079,89162.101877579276,65314.888542542983,-49832.48000588749,10527.554434452992,129500.03935615414,-57281.194775801188,74965.19698138797,-74965.19698138797,57281.194775801188,249353.8790136028,0.0
330012.02908761695,3922225.878295721,-17500.0,118787.85354595025,-148236.56836727809,164277.68975325991,73181.350655020564,-70684.745812140551,10456.953844079077,175479.06252486201,-54514.25455761623,55941.197455125053,-55941.197455125053,54514.25455761623,340162.65908913844,0.0
335012.02908761695,3922225.878295721,-17500.0,36808.175754359734,-195026.53554781977,337450.52316965826,52753.043750704754,-88908.488777027131,11327.991353907164,258803.55948323844,9846.1645762657172,-55389.501846902829,55389.501846902829,-9846.1645762657172,494837.6915871299,0.0
340012.02908761695,3922225.878295721,-17500.0,-430099.39809282549,190216.04052915974,505539.46900655568,-43320.972135684613,-27745.30739862605,4337.7706281165501,507644.35701478395,488971.94903072395,-514138.15544067329,514138.15544067329,-488971.94903072395,879866.69170812692,0.0
345012.02908761695,3922225.878295721,-17500.0,-189586.42172104141,114799.9817979395,-1100988.3794560721,-116825.46285605816,197481.87554758249,-108334.06013099903,571094.61777003529,-464235.19278354768,209821.42433251327,-209821.42433251327,464235.19278354768,1052990.0206257207,0.0
350012.02908761695,3922225.878295721,-17500.0,-282088.23801381799,-138446.85977004044,-540153.98170079,55736.551043932472,297383.2638692013,-74155.779538620525,402489.85610795033,-373329.47281552659,126.93555904802633,-126.93555904802633,373329.47281552659,704007.65981712355,0.0
355012.02908761695,3922225.878295721,-17500.0,-195892.82891352903,-87567.098184494127,-255839.78307371994,67185.369530189302,193727.51431069651,-57281.5326686099,244125.75766300038,-188992.77651561023,-40379.142698017822,40379.142698017822,188992.77651561023,424561.79158627306,0.0
360012.02908761695,3922225.878295721,-17500.0,-136171.2583751636,-71392.862632173274,-130435.34468156163,59528.811995483913,119596.90227989884,-41411.44335736979,158708.18627759788,-115125.06789073811,-42127.182221356314,42127.182221356314,115125.06789073811,278030.40680763009,0.0
365012.02908761695,3922225.878295721,-17500.0,-109146.6534533231,-53091.912948591751,-47296.171846970028,47126.057935252378,64387.827594732611,-26081.867635120725,102603.88657914776,-57793.34939570514,-53937.033324876698,53937.033324876698,57793.34939570514,182054.58085106543,0.0
370012.02908761695,3922225.878295721,-17500.0,-86592.930998402444,-26836.864698268284,2270.1354724470534,31546.486414937692,28077.870523610964,-14664.897326748674,66451.244436924491,-11224.051423718767,-58870.805350134171,58870.805350134171,11224.051423718767,119121.09699166022,0.0
375012.02908761695,3922225.878295721,-17500.0,-62488.221045096689,-3670.7213707523492,24367.242892878596,17700.592103799641,7674.7544717952969,-7393.880827313501,47081.557738580785,17608.961842318571,-52771.596256629593,52771.596256629593,-17608.961842318571,83373.104159368799,0.0
380012.02908761695,3922225.878295721,-17500.0,-40199.36764217438,11326.381467776531,30047.142994971364,7685.7143490044155,-2351.1490123302792,-3063.2152660248203,37705.482288834959,30770.98554027416,-41034.030259346262,41034.030259346262,-30770.98554027416,65449.492119833732,0.0
385012.02908761695,3922225.878295721,-17500.0,-22387.408883661017,18890.385830466348,28183.826300854453,1273.7069897695119,-6562.2313527112365,-581.7256463515331,32228.845898272342,34039.952218631115,-28747.989075478021,28747.989075478021,-34039.952218631115,55989.221946004589,0.0
390012.02908761695,3922225.878295721,-17500.0,-9499.8033801196962,21478.161822013495,23782.466518140751,-2474.6716215693564,-7800.0222095723611,760.52142458649166,28133.579423641437,32287.371187038094,-18350.252899916326,18350.252899916326,-32287.371187038094,49561.317570820727,0.0
395012.02908761695,3922225.878295721,-17500.0,-803.67626510729997,21252.785318202936,19120.438233010125,-4450.3348339361091,-7633.1720693891193,1407.1511663694964,24637.818420790769,28505.831845220018,-10439.588368289791,10439.588368289791,-28505.831845220018,44125.552198873964,0.0
400012.02908761695,3922225.878295721,-17500.0,4729.7615090491454,19652.697414569433,15037.09691005147,-5314.3525014213074,-6878.2892788813733,1641.550380929126,21535.941380612214,24252.184749583284,-4791.1202910187731,4791.1202910187731,-24252.184749583284,39152.964174799374,0.0
405012.02908761695,3922225.878295721,-17500.0,8029.1247645024641,17516.327508776412,11728.690827768398,-5514.2809214630051,-5942.4596949326196,1645.0627615147848,18780.597861552298,20234.648698229023,-935.76799108699743,935.76799108699743,-20234.648698229023,34578.705122528489,0.0
410012.02908761695,3922225.878295721,-17500.0,9814.4990862746072,15290.718824036583,9143.8412871470755,-5339.4573421613695,-5017.1732082032222,1530.6648955801022,16354.378508782267,16718.754158703039,1592.4343054836354,-1592.4343054836354,-16718.754158703039,30429.916437161668,0.0
415012.02908761695,3922225.878295721,-17500.0,10605.520763801411,13193.08661055017,7157.806340357085,-4970.9024141192622,-4183.0814532933355,1365.7144771203955,14237.498415131206,13758.664459090747,3176.6477945133538,-3176.6477945133538,-13758.664459090747,26724.544304136954,0.0
420012.02908761695,3922225.878295721,-17500.0,10762.63358955595,11313.849772747608,5641.3466953024499,-4518.3308729613309,-3465.6454125711493,1188.1637468954402,12403.644889731042,11317.348553044856,4106.9659939893936,-4106.9659939893936,-11317.348553044856,23455.320747054855,0.0
425012.02908761695,3922225.878295721,-17500.0,10529.746230304301,9677.1050467734476,4483.6718166967157,-4045.7708598578106,-2864.3367219598226,1017.8238231926816,10822.572885121306,9325.4045365900674,4593.6726094089836,-4593.6726094089836,-9325.4045365900674,20595.607283703117,0.0
430012.02908761695,3922225.878295721,-17500.0,10068.93975174534,8274.4879647743273,3596.86480414483,-3588.6548033823065,-2367.6577936201525,863.81254628398256,9463.1938526209633,7708.1215852880468,4785.348651230659,-4785.348651230659,-7708.1215852880468,18108.01041623054,0.0
435012.02908761695,3922225.878295721,-17500.0,9486.1899252845888,7083.4935179829963,2913.6956093295425,-3164.938291749359,-1960.6182673276144,729.24914560137961,8295.7505027494444,6396.7973128185295,4785.244031510676,-4785.244031510676,-6396.7973128185295,15951.080410201646,0.0
440012.02908761695,3922225.878295721,-17500.0,8849.5926117618528,6077.0481889556304,2383.6885700445328,-2782.1906840049442,-1628.2551943601673,614.09339878817934,7293.0463522594291,5332.5556911726298,4664.2400792196231,-4664.2400792196231,-5332.5556911726298,14083.620228119649,0.0
445012.02908761695,3922225.878295721,-17500.0,8201.9398872326801,5228.2372517394369,1969.2580901689419,-2442.0240995200884,-1357.1102708500291,516.79410095067919,6430.9543682126068,4466.7534542415542,4470.4911177466347,-4470.4911177466347,-4466.7534542415542,12467.068787048334,0.0
250012.02908761695,3927225.878295721,-17500.0,13319.816409083596,-2613.0028887610674,739.11618307697574,3404.4558323108763,-685.94691652779113,639.40672069551272,7458.6678001812552,-3663.6821516060395,9993.0537282082187,-9993.0537282082187,3663.6821516060395,14703.885723128378,0.0
255012.02908761695,3927225.878295721,-17500.0,15032.302354458794,-3208.5862588450896,902.07423613542119,3999.5227947303865,-872.7797790747702,779.75015467905735,8521.2634736097498,-4320.795181353451,11297.617672940985,-11297.617672940985,4320.795181353451,16809.688746625896,0.0
260012.02908761695,3927225.878295721,-17500.0,17010.516693265974,-3959.6863535653374,1121.714508240445,4718.7908648534303,-1117.2757421505144,955.45770009350372,9780.4401367976079,-5116.9319096155232,12804.233648658264,-12804.233648658264,5116.9319096155232,19305.608582072411,0.0
265012.02908761695,3927225.878295721,-17500.0,19296.427273679226,-4912.1982350144717,1422.1258332172872,5590.7873775438593,-1439.4241698128442,1175.9955632732733,11280.0329995436,-6084.103572241248,14543.114335134134,-14543.114335134134,6084.103572241248,22278.380766064609,0.0
270012.02908761695,3927225.878295721,-17500.0,21935.603260008284,-6126.79327681636,1838.9805936835101,6650.3462360287531,-1866.8037328536209,1453.1194083948476,13075.005824968935,-7261.1807547448288,16545.571932319544,-16545.571932319544,7261.1807547448288,25836.536326837217,0.0
275012.02908761695,3927225.878295721,-17500.0,24974.794683405617,-7683.8016029929186,2425.6866361032821,7939.3866397124848,-2437.6088786443242,1801.038719516368,15234.512533498468,-8694.4006314039143,18840.92086000276,-18840.92086000276,8694.4006314039143,30116.233581143479,0.0
280012.02908761695,3927225.878295721,-17500.0,28456.909984358765,-9689.5120172190163,3263.0888122902788,9507.1601478619905,-3204.8394098686908,2236.1312690313157,17845.832328964629,-10436.805857710144,21450.478765034422,-21450.478765034422,10436.805857710144,35288.630609559164,0.0
285012.02908761695,3927225.878295721,-17500.0,32411.463865468915,-12284.013221601843,4474.9346232006919,11409.27562662074,-4241.9808768992198,2775.6558405616943,21019.450822151921,-12545.261329886438,24376.512565543009,-24376.512565543009,12545.261329886438,41569.195621580191,0.0
290012.02908761695,3927225.878295721,-17500.0,36837.172179763947,-15650.257923590452,6252.736006345337,13704.249251738383,-5650.4032654991797,3434.4544835038564,24895.640237846404,-15072.367210896911,27582.400969937895,-27582.400969937895,15072.367210896911,49229.44475835879,0.0
295012.02908761695,3927225.878295721,-17500.0,41670.816674313093,-20022.945752069405,8896.1055162488283,16445.418618776934,-7568.291054489091,4217.9693827276733,29653.009267901878,-18048.008151133788,30957.415515059522,-30957.415515059522,18048.008151133788,58611.762885792232,0.0
300012.02908761695,3927225.878295721,-17500.0,46731.462942016871,-25693.088193580425,12878.683089508408,19664.535713592475,-10179.702455216457,5109.167999545366,35519.567095614198,-21440.124259283468,34254.044980543491,-34254.044980543491,21440.124259283468,70148.136225204245,0.0
305012.02908761695,3927225.878295721,-17500.0,51617.829569724192,-32997.317497568671,18956.642838461645,23340.502011040608,-13719.309071643675,6046.9690875419865,42786.578766540333,-25073.344996104028,36974.159137922652,-36974.159137922652,25073.344996104028,84383.187737642002,0.0
310012.02908761695,3927225.878295721,-17500.0,55508.625395092575,-42262.616007076438,28348.032276401293,27339.930443323032,-18460.944257237523,6896.9322309514509,51824.128853853086,-28458.787868503037,38153.170286826753,-38153.170286826753,28458.787868503037,101998.49521355845,0.0
315012.02908761695,3927225.878295721,-17500.0,56740.183125334443,-53619.755821823215,43026.745422245782,31295.304698269894,-24658.785049808102,7426.9135027886559,63094.443562802684,-30421.201587200776,35921.80399771659,-35921.80399771659,30421.201587200776,123819.19259809608,0.0
320012.02908761695,3927225.878295721,-17500.0,51831.648297066677,-66390.034138409304,66167.026055712908,34315.804169905241,-32349.737305538496,7328.1589830446337,77172.60238280693,-28209.214659533642,26545.243951333327,-26545.243951333327,28209.214659533642,150728.8545862805,0.0
325012.02908761695,3927225.878295721,-17500.0,33173.734778420046,-76900.759485850896,102460.26218984272,34214.247850129723,-40691.893828566281,6349.1208307639181,94932.584998308987,-15160.999863308291,2278.8841402776343,-2278.8841402776343,15160.999863308291,183301.07067384542,0.0
330012.02908761695,3927225.878295721,-17500.0,-15230.575435412889,-70195.618636947198,154990.8117420357,25658.174165157154,-45571.669393537173,4493.9198160127971,118427.83052135725,25223.43335749954,-51996.567449508613,51996.567449508613,-25223.43335749954,221346.96046782986,0.0
335012.02908761695,3927225.878295721,-17500.0,-110307.58549938431,5466.3619186271153,192289.80740141356,-702.03480028623949,-32073.019109328874,1712.5632546192251,154023.83758938056,122226.61797144465,-146166.00116054362,146166.00116054362,-122226.61797144465,270912.99066808994,0.0
340012.02908761695,3927225.878295721,-17500.0,-155871.19801036548,196235.41472809575,2528.5430669596722,-39617.154641679299,30489.502523569237,-4191.7456091583663,215905.74705551812,188668.12298533044,-145729.24975679282,145729.24975679282,-188668.12298533044,383527.76739843457,0.0
345012.02908761695,3927225.878295721,-17500.0,-43311.970233954882,141002.92535694686,-420107.76373639458,-39212.68817263181,135396.77418631522,-17219.56052747053,266049.63954552414,-99774.843926654459,87455.801332632051,-87455.801332632051,99774.843926654459,521289.39473594894,0.0
350012.02908761695,3927225.878295721,-17500.0,-70500.083746605378,-51362.078980853767,-414099.91083037318,11597.731713636336,180421.26045789089,-28793.51117139604,267460.4480588396,-257711.69089280334,97006.966327883507,-97006.966327883507,257711.69089280334,490003.9344567738,0.0
355012.02908761695,3927225.878295721,-17500.0,-103703.016421932,-94997.0461964516,-260955.82081941757,42198.782446220248,150772.35770711236,-32211.172480978141,209171.42651489816,-208972.62493313994,28743.766683608279,-28743.766683608279,208972.62493313994,376422.98125364346,0.0
360012.02908761695,3927225.878295721,-17500.0,-103962.28353592908,-87852.749020771022,-148008.48797502738,49065.77878397733,105640.17407151194,-28971.025047650619,151661.05054912166,-142219.23850301682,-10625.999168975133,10625.999168975133,142219.23850301682,273355.16253730969,0.0
365012.02908761695,3927225.878295721,-17500.0,-95796.902339538021,-69121.071645572621,-71672.884603087557,44821.337907541572,65662.429943996176,-22266.936184067716,106389.11175104231,-86078.400513546803,-33622.800996289683,33622.800996289683,86078.400513546803,193673.62932803191,0.0
370012.02908761695,3927225.878295721,-17500.0,-83681.818239643224,-45942.675888391066,-22611.494459272526,35430.107688442091,35880.79395499434,-15190.991906940264,73272.176261960951,-41250.708589263137,-45310.700796122481,45310.700796122481,41250.708589263137,134900.63349953486,0.0
375012.02908761695,3927225.878295721,-17500.0,-68085.029617481108,-24088.476121224492,4844.2387489967005,24984.762392377361,16388.77411989235,-9417.3563330596935,51250.018534814022,-9643.4129747073457,-46927.742853530166,46927.742853530166,9643.4129747073457,94346.374790336078,0.0
380012.02908761695,3927225.878295721,-17500.0,-51386.923897234432,-7291.3260027191145,17354.762213130994,15895.245351193829,4912.1495416163798,-5294.5229880776333,37962.295966462843,9421.6256731652884,-41834.406405382753,41834.406405382753,-9421.6256731652884,68347.010862300391,0.0
385012.02908761695,3927225.878295721,-17500.0,-36042.900226100537,3743.7884637896932,21112.071410568897,8979.3160630750681,-1216.4779957364051,-2576.1504437874291,29966.115760577566,18991.762739998674,-33801.315860715593,33801.315860715593,-18991.762739998674,52557.536590005468,0.0
390012.02908761695,3927225.878295721,-17500.0,-23365.084944590108,10027.913053996128,20497.146626952843,4148.1179644319263,-4110.1773054355508,-890.18062043877057,24801.70082620571,22464.699953986255,-25436.779633987924,25436.779633987924,-22464.699953986255,42979.014249324253,0.0
395012.02908761695,3927225.878295721,-17500.0,-13623.631118362751,12993.37491870876,18091.330040585988,983.31766838843748,-5180.8905562070668,90.994275057584687,21138.868503186102,22495.404824246583,-18049.243278749123,18049.243278749123,-22495.404824246583,36727.100299984093,0.0
400012.02908761695,3927225.878295721,-17500.0,-6517.5121404326501,13877.288783410304,15224.819977711048,-967.78879744839764,-5290.9699561815905,614.88935613768945,18303.483246022726,20823.891570853881,-12074.967161902303,12074.967161902303,-20823.891570853881,32141.180462781846,0.0
405012.02908761695,3927225.878295721,-17500.0,-1542.858986729462,13567.756316752886,12499.500498565425,-2084.2776641312498,-4938.3504682388048,855.3025028637054,15971.222771852488,18472.54731343584,-7498.3452916285805,7498.3452916285805,-18472.54731343584,28420.235454710408,0.0
410012.02908761695,3927225.878295721,-17500.0,1809.7366475783192,12641.910995692817,10138.395042156664,-2650.6523321253535,-4397.8294354889658,928.35004809801364,13987.993364671345,15992.284578430323,-4120.1907217305361,4120.1907217305361,-15992.284578430323,25219.803455803809,0.0
415012.02908761695,3927225.878295721,-17500.0,3975.3505590973627,11450.570196670073,8185.2663472990389,-2867.907594490297,-3813.7401025499084,908.46629256726044,12276.061799290297,13652.790773364459,-1697.3394259396136,1697.3394259396136,-13652.790773364459,22398.564477436874,0.0
420012.02908761695,3927225.878295721,-17500.0,5296.0626302467599,10195.057099127378,6608.4588592683021,-2872.5480037773218,-3256.6700339228937,841.56499690994906,10790.189903802409,11566.671520900192,-3.9994181967113036,3.9994181967113036,-11566.671520900192,19894.744580378563,0.0
425012.02908761695,3927225.878295721,-17500.0,6028.4308517874824,8983.5148161645739,5351.217188574069,-2754.569632963216,-2756.871266023285,754.86939835663736,9498.8568085014158,9763.8780387269435,1147.3855469182972,-1147.3855469182972,-9763.8780387269435,17674.058259388119,0.0
430012.02908761695,3927225.878295721,-17500.0,6359.2818683085225,7868.3825664455653,4354.2085431241649,-2571.7907616595521,-2323.4009134846901,663.78646471337117,8376.7627889133273,8233.9738250775863,1903.8123559215328,-1903.8123559215328,-8233.9738250775863,15710.198351380885,0.0
435012.02908761695,3927225.878295721,-17500.0,6421.985786241873,6870.0430960490094,3564.4071405221948,-2360.38781461285,-1954.8241567822804,576.48870094295671,7402.0491865484528,6949.1461475858086,2376.6322292816299,-2376.6322292816299,-6949.1461475858086,13978.641029398868,0.0
440012.02908761695,3927225.878295721,-17500.0,6310.3823188733404,5991.248558632049,2937.6536580389802,-2142.297498836037,-1645.0482845337854,496.85924015732678,6555.3589580618909,5876.2036092648668,2648.415275396741,-2648.415275396741,-5876.2036092648668,12455.398767931993,0.0
445012.02908761695,3927225.878295721,-17500.0,6089.7231112131894,5225.6765418454088,2438.5004591441821,-1930.2585827280741,-1386.3923302175515,426.32760311606131,5819.5217731640032,4982.4552519337321,2779.5336163818524,-2779.5336163818524,-4982.4552519337321,11117.292350107158,0.0
250012.02908761695,3932225.878295721,-17500.0,12546.884520375908,-3397.9923521900182,1155.4555887428903,3235.2381678550701,-888.67345306455775,612.70766252286035,7257.4666859420549,-3996.0862267676048,9401.1098976522844,-9401.1098976522844,3996.0862267676048,14305.610034129904,0.0
255012.02908761695,3932225.878295721,-17500.0,14035.273051322003,-4109.5143795821687,1423.8878408133421,3773.4698374463351,-1114.4868628312224,742.84022204274004,8254.7641600804345,-4663.3044446450267,10522.090763652403,-10522.090763652403,4663.3044446450267,16285.195998405581,0.0
260012.02908761695,3932225.878295721,-17500.0,15718.390265847576,-4991.2415598071939,1779.352822567882,4415.0811787854691,-1405.4670487529957,904.14605479621775,9426.1057886533454,-5455.7280433619835,11784.599177609938,-11784.599177609938,5455.7280433619835,18611.947960498805,0.0
265012.02908761695,3932225.878295721,-17500.0,17613.384667721846,-6087.7617705565426,2255.3533656548966,5180.2454230393778,-1782.428975803444,1104.2602216480843,10806.682032623956,-6395.7228760929393,13197.099273465254,-13197.099273465254,6395.7228760929393,21356.291406842163,0.0
270012.02908761695,3932225.878295721,-17500.0,19731.588512134254,-7455.3870895392265,2899.8277508641568,6091.8245714264622,-2273.2094615165629,1352.2834922414386,12439.123811487138,-7507.0765932628328,14760.751559046204,-14760.751559046204,7507.0765932628328,24603.511372264293,0.0
275012.02908761695,3932225.878295721,-17500.0,22072.337220649169,-9164.5025027496213,3781.8839094135101,7174.5023475368689,-2914.9384890928618,1658.5944061990426,14374.842204126273,-8812.5211202383962,16462.946650168793,-16462.946650168793,8812.5211202383962,28456.288189580642,0.0
280012.02908761695,3932225.878295721,-17500.0,24612.708997123271,-11301.463281817658,5001.7951029394862,8452.6386116555896,-3756.7950081490985,2034.1032917997434,16675.40533488075,-10328.553542170739,18266.654519439664,-18266.654519439664,10328.553542170739,33037.029658431245,0.0
285012.02908761695,3932225.878295721,-17500.0,27290.759009709189,-13968.796671295828,6705.8041332481071,9945.8429703706315,-4863.0236940826653,2488.4288546932194,19413.850094376216,-12055.333532116707,20093.083542478467,-20093.083542478467,12055.333532116707,38489.340318661169,0.0
290012.02908761695,3932225.878295721,-17500.0,29978.463677031112,-17280.990232904685,9107.7934261763348,11660.641237185144,-6315.4524084065833,3026.1370819080485,22675.827121589449,-13957.728327029126,21793.743983086064,-21793.743983086064,13957.728327029126,44977.372250885775,0.0
295012.02908761695,3932225.878295721,-17500.0,32438.370583875425,-21350.185811023548,12520.273397572926,13575.670379655669,-8213.5945748817339,3639.7874774384536,26560.283855793983,-15930.556349996037,23105.790749544281,-23105.790749544281,15930.556349996037,52680.671940551292,0.0
300012.02908761695,3932225.878295721,-17500.0,34254.466495852896,-26249.930398396067,17396.453204484125,15616.523495703177,-10667.95018372107,4298.3407246791758,31177.913933016418,-17735.768538928387,23581.253819269434,-23581.253819269434,17735.768538928387,61780.10000272344,0.0
305012.02908761695,3932225.878295721,-17500.0,34722.027276028501,-31931.900106094967,24380.625546633855,17614.432300723722,-13777.027938063866,4930.3563684315041,36642.33779103565,-18889.784289886182,22476.056418441822,-22476.056418441822,18889.784289886182,72426.262595523367,0.0
310012.02908761695,3932225.878295721,-17500.0,32673.06384436967,-38040.793436801185,34346.328801783529,19239.794292880906,-17568.066581637442,5405.2903523428604,43050.801060314632,-18462.509715241307,18580.178985110848,-18580.178985110848,18462.509715241307,84673.982640081886,0.0
315012.02908761695,3932225.878295721,-17500.0,26212.062866099972,-43503.008385168425,48338.203670796378,19895.476578160189,-21858.645208674592,5526.2130150071625,50458.444954543957,-14724.47274159209,9979.5828733286871,-9979.5828733286871,14724.47274159209,98354.434617936247,0.0
320012.02908761695,3932225.878295721,-17500.0,12407.710071518215,-45609.189618467921,67106.13354873861,18547.565791068369,-25944.184880762848,5063.6101641635842,58860.393581900607,-4578.044488352215,-6155.0762434808994,6155.0762434808994,4578.044488352215,112869.38172860596,0.0
325012.02908761695,3932225.878295721,-17500.0,-12515.949148238955,-38091.284600144616,89116.138403582547,13511.288202706904,-27902.843569951045,3862.5391299979028,68294.197072351701,16979.699946597812,-33056.457856031207,33056.457856031207,-16979.699946597812,127157.24437005592,0.0
330012.02908761695,3932225.878295721,-17500.0,-49711.358637137346,-8511.3786632269221,103558.49517592661,2604.4370449458625,-23216.742890434707,1972.4829960408815,79663.348798127117,54856.071523633414,-69868.043785597096,69868.043785597096,-54856.071523633414,141760.44635496195,0.0
335012.02908761695,3932225.878295721,-17500.0,-83662.615792681085,55718.633795274953,73652.814178955523,-14374.765549761451,-3515.22785616788,-478.31444705058169,97497.86251731505,97925.842618850598,-94789.847393971824,94789.847393971824,-97925.842618850598,168974.16653131784,0.0
340012.02908761695,3932225.878295721,-17500.0,-71213.990205060589,121248.98752604345,-56251.781519748685,-28639.891396958643,37986.065812340559,-3926.7373743746775,127793.20382650061,82258.55972670397,-52233.547449133046,52233.547449133046,-82258.55972670397,233748.11403985377,0.0
345012.02908761695,3932225.878295721,-17500.0,-21898.24046875332,92576.533478866171,-225593.45602340475,-23500.124546912895,87857.258020440669,-9341.2615984056465,158529.35281195046,-39654.191396191942,45535.459739857884,-45535.459739857884,39654.191396191942,307785.50916276098,0.0
350012.02908761695,3932225.878295721,-17500.0,-15706.899920299024,-453.36635008496194,-274799.94432642503,103.06667432228136,114210.8491825602,-15661.784128345731,172720.58961296311,-146412.41014437706,81714.179905796802,-81714.179905796802,146412.41014437706,325996.77849224576,0.0
355012.02908761695,3932225.878295721,-17500.0,-40400.018081805145,-58624.742200761422,-221794.7077868589,22264.253358053844,108271.36847112252,-19847.23828056534,156153.23581271147,-164595.17907529767,55379.813839904222,-55379.813839904222,164595.17907529767,289862.64875677571,0.0
360012.02908761695,3932225.878295721,-17500.0,-59795.526019364741,-74314.244567952424,-148493.92169852625,33637.19323067501,85621.756518745053,-20306.899385785753,126537.03841257225,-136195.28603984835,19132.767161406882,-19132.767161406882,136195.28603984835,234275.03829885621,0.0
365012.02908761695,3932225.878295721,-17500.0,-68099.443478161469,-68160.615109739432,-86497.498407080187,35680.272102661191,59918.941357522992,-17666.923867007597,96622.209130589676,-96523.605815898351,-8858.6193305008783,8858.6193305008783,96523.605815898351,179826.24984717753,0.0
370012.02908761695,3932225.878295721,-17500.0,-67757.374717292711,-52826.442354363906,-41557.404507974185,31903.708982532626,37748.915451560279,-13599.678156742126,71289.196399203705,-59222.773988240981,-26342.364600076209,26342.364600076209,59222.773988240981,133794.41441447558,0.0
375012.02908761695,3932225.878295721,-17500.0,-61295.567724019718,-35427.708716705391,-12567.525665065346,25496.254573147857,21254.624906840145,-9531.1163020046097,51975.176601992396,-29502.984806627483,-34332.897558031247,34332.897558031247,29502.984806627483,97991.948721237219,0.0
380012.02908761695,3932225.878295721,-17500.0,-51364.479871274358,-20009.496376810966,3938.0931686290501,18715.328743123573,10193.745721251078,-6172.6810591036783,38520.254430292138,-8642.7298257174662,-35251.325206722118,35251.325206722118,8642.7298257174662,71868.757407080877,0.0
385012.02908761695,3932225.878295721,-17500.0,-40382.368104926485,-8224.675555482896,11940.571089585002,12767.515815084609,3370.0184326349658,-3688.846319876116,29545.178233667226,4388.531499484463,-31928.060519669798,31928.060519669798,-4388.531499484463,53760.83067349239,0.0
390012.02908761695,3932225.878295721,-17500.0,-30021.841306873259,-150.97350531540417,14798.962252635363,8073.3721246773457,-516.70339473074182,-1980.9828663650696,23499.453175562652,11545.440227386014,-26703.350073704092,26703.350073704092,-11545.440227386014,41650.782760730021,0.0
395012.02908761695,3932225.878295721,-17500.0,-21138.63426711096,4864.2344977517778,14874.563108944614,4616.2725304960495,-2520.9283615200375,-871.70407641842257,19313.516030866896,14768.109901521339,-21106.337323984822,21106.337323984822,-14768.109901521339,33642.226068194883,0.0
400012.02908761695,3932225.878295721,-17500.0,-13988.02229435675,7643.3391677665786,13634.611822818231,2197.8164428837572,-3389.069827664935,-189.03581439772003,16293.71394413797,15584.279685592122,-15954.709986421331,15954.709986421331,-15584.279685592122,28221.765782147671,0.0
405012.02908761695,3932225.878295721,-17500.0,-8483.202747909334,8914.5204396590543,11908.414950032871,579.16179987768203,-3609.3828956839652,205.48966339715298,14004.30942581972,15053.840489834947,-11585.918217933664,11585.918217933664,-15053.840489834947,24343.997166704765,0.0
410012.02908761695,3932225.878295721,-17500.0,-4386.9316667445255,9232.9354446108737,10124.630294692999,-456.15789042037369,-3484.7242768946785,413.52187132208718,12185.039375703647,13853.494045692521,-8063.9616695727891,8063.9616695727891,-13853.494045692521,21372.017837936877,0.0
415012.02908761695,3932225.878295721,-17500.0,-1424.5964819808269,8987.4497379692257,8480.8829052967412,-1082.0202977193492,-3195.1544892199172,505.51822331835274,10685.414253190136,12388.251556160476,-5320.1450336358921,5320.1450336358921,-12388.251556160476,18952.236069142775,0.0
420012.02908761695,3932225.878295721,-17500.0,660.13380330221776,8435.4675015836347,7050.4584003157051,-1429.0976937852204,-2843.389512990705,528.3468290542653,9418.2639110272521,10885.804704241114,-3235.3694228610498,3235.3694228610498,-10885.804704241114,16898.185291285088,0.0
425012.02908761695,3932225.878295721,-17500.0,2083.8328788471495,7739.9792942881722,5844.3766424393862,-1591.5522104767385,-2485.1587807894398,512.16983976837287,8331.072835393521,9464.4236424201772,-1682.8336317287149,1682.8336317287149,-9464.4236424201772,15111.952818468842,0.0
430012.02908761695,3932225.878295721,-17500.0,3019.5052035964864,6999.9437839756883,4845.5071873616935,-1635.2839933617045,-2148.5117541882641,475.82465660970746,7389.9097273134221,8177.8474077986812,-547.33953457970938,547.33953457970938,-8177.8474077986812,13539.489211991937,0.0
435012.02908761695,3932225.878295721,-17500.0,3600.6283040651865,6272.5393559055256,4026.3529684183841,-1605.3956745226224,-1845.6890712378797,430.71491045640363,6570.9179793378735,7043.4192340492882,267.97108483499915,-267.97108483499915,-7043.4192340492882,12147.631164176881,0.0
440012.02908761695,3932225.878295721,-17500.0,3927.8550595005872,5588.5195377761584,3357.7814347587282,-1532.1791253637837,-1580.2457628717514,383.490391044246,5855.9840383875426,6059.1013658697748,841.00786819018595,-841.00786819018595,-6059.1013658697748,10913.104807011416,0.0
445012.02908761695,3932225.878295721,-17500.0,4075.894058892829,4962.385566499137,2812.9057913002271,-1435.6117984896682,-1351.221601816299,337.82939469310946,5230.537104066213,5213.4143741477865,1232.7447906171494,-1232.7447906171494,-5213.4143741477865,9817.4991558318197,0.0
250012.02908761695,3937225.878295721,-17500.0,11555.510837972024,-4007.9898801180266,1617.4244357602379,3014.8101189002941,-1052.5413638197706,577.29479384371916,6971.1175348048191,-4126.3487308224412,8606.3232773231703,-8606.3232773231703,4126.3487308224412,13746.528580874492,0.0
255012.02908761695,3937225.878295721,-17500.0,12784.933716338241,-4782.684576984896,1992.3215278075631,3485.3575823150154,-1303.9329048467021,694.93462161868149,7885.8047959668838,-4753.7830779795704,9509.6665397784564,-9509.6665397784564,4753.7830779795704,15567.015614849282,0.0
260012.02908761695,3937225.878295721,-17500.0,14134.941188687269,-5724.6986033021603,2480.8070340441036,4036.4786989378777,-1622.9126509156956,838.9918990277248,8948.3338890394389,-5479.3620283772771,10490.300612823277,-10490.300612823277,5479.3620283772771,17684.622507901822,0.0
265012.02908761695,3937225.878295721,-17500.0,15599.909812659824,-6871.0594802457163,3122.6700033969805,4680.0509888930083,-2029.0600204090833,1015.1975615301137,10184.700629785391,-6312.4852186250328,11536.555458254959,-11536.555458254959,6312.4852186250328,20152.236923430446,0.0
270012.02908761695,3937225.878295721,-17500.0,17161.341607689887,-8265.2469902230623,3972.8694723905305,5427.504380733606,-2547.5608469520566,1229.9927175569724,11624.898283782388,-7258.1246038660092,12623.172373289199,-12623.172373289199,7258.1246038660092,23030.850124366825,0.0
275012.02908761695,3937225.878295721,-17500.0,18779.828643606754,-9956.3662204039938,5107.4564572218242,6287.8164388010709,-3210.4127325197824,1490.0874445401487,13303.095903056716,-8311.8327109227321,13703.248327530244,-13703.248327530244,8311.8327109227321,26389.296630296405,0.0
280012.02908761695,3937225.878295721,-17500.0,20382.910523650455,-11996.051294455021,6631.5616468906082,7263.9238270405267,-4057.3949892703713,1801.4473482852106,15257.986543317886,-9451.1472851547423,14696.097795843723,-14696.097795843723,9451.1472851547423,30302.591593332469,0.0
285012.02908761695,3937225.878295721,-17500.0,21847.052050634808,-14430.886837626429,8689.7464469226215,8346.6117566143021,-5136.1347333086478,2167.2886483907464,17534.33062329211,-10621.111520361426,15469.280359708444,-15469.280359708444,10621.111520361426,34847.726256240865,0.0
290012.02908761695,3937225.878295721,-17500.0,22971.517983222933,-17286.284374175051,11478.326229652654,9504.5350367583633,-6499.845838641003,2584.4670932398749,20184.623566445534,-11710.371633590486,15812.658545392696,-15812.658545392696,11710.371633590486,40095.042642133078,0.0
295012.02908761695,3937225.878295721,-17500.0,23441.80638085883,-20534.515195856777,15257.314923513633,10668.614914016025,-8199.927878190525,3037.5260477461679,23257.891147348884,-12512.614502681494,15402.431864691856,-15402.431864691856,12512.614502681494,46092.247996901409,0.0
300012.02908761695,3937225.878295721,-17500.0,22781.427640267579,-24033.962074847041,20354.399390974224,11708.873411034001,-10268.079191930525,3489.8935797472723,26778.420265006655,-12666.310993842288,13754.83008787023,-13754.83008787023,12666.310993842288,52836.731106131869,0.0
305012.02908761695,3937225.878295721,-17500.0,20295.798713204935,-27417.28872614944,27140.250933739277,12402.379588101823,-12678.238915841246,3872.9768719707181,30736.634968212689,-11565.529712403117,10175.804295283433,-10175.804295283433,11565.529712403117,60230.841522341725,0.0
310012.02908761695,3937225.878295721,-17500.0,15028.64648563479,-29892.514795171341,35922.16485955863,12393.719482993085,-15271.635193465367,4077.3043985878339,35077.42053029337,-8242.5852737563255,3734.0643805524637,-3734.0643805524637,8242.5852737563255,68018.025297113083,0.0
315012.02908761695,3937225.878295721,-17500.0,5802.6959488818511,-29910.727714534922,46625.494141277239,11157.77326533417,-17618.224450482881,3956.2238539347936,39693.102986443417,-1263.1009592736914,-6652.9426803149508,6652.9426803149508,1263.1009592736914,75722.761290632421,0.0
320012.02908761695,3937225.878295721,-17500.0,-8435.8573990431141,-24700.832753376711,57961.511370924905,8000.0647584789849,-18779.542961242994,3358.8062491474861,44482.583455340951,11175.021989904628,-21757.473082389457,21757.473082389457,-11175.021989904628,82734.51676556989,0.0
325012.02908761695,3937225.878295721,-17500.0,-27406.829708154102,-10017.035804854229,65518.410749938645,2207.7935286633183,-16964.80728586682,2199.2963919297022,49663.660738691229,30268.366788713814,-40548.788445716156,40548.788445716156,-30268.366788713814,89104.022156399602,0.0
330012.02908761695,3937225.878295721,-17500.0,-46578.831395855581,18202.458463811381,58513.27024451083,-6350.063547024286,-9283.1396038668972,517.18421788683077,56667.162183219567,53067.249295726506,-56700.86093154423,56700.86093154423,-53067.249295726506,98419.783074298699,0.0
335012.02908761695,3937225.878295721,-17500.0,-54079.749865326143,56152.081264456814,19144.723557698358,-15794.464982406796,7465.04868178793,-1598.2148662700149,68803.558903885685,65193.922637800271,-54909.524765145943,54909.524765145943,-65193.922637800271,121028.70394205986,0.0
340012.02908761695,3937225.878295721,-17500.0,-38463.989099083788,80381.253966884266,-60701.271469798914,-20963.264182332859,33242.642479176044,-4242.1561625543418,87292.132667287413,40829.184914301717,-20358.066329015361,20358.066329015361,-40829.184914301717,162615.08011073171,0.0
345012.02908761695,3937225.878295721,-17500.0,-12127.154920313424,62405.287655737062,-147298.63834650893,-16365.026233405042,60252.139761627914,-7624.6617765926285,105845.20710701581,-24539.414855671537,31039.045786456649,-31039.045786456649,24539.414855671537,205615.84113124845,0.0
350012.02908761695,3937225.878295721,-17500.0,-2881.1012328210772,13099.297755532762,-187574.15325161841,-3095.1572650966878,76582.086318130096,-11341.158779390458,117233.94001473529,-89532.149413266772,59364.11772567263,-59364.11772567263,89532.149413266772,225296.57082220051,0.0
355012.02908761695,3937225.878295721,-17500.0,-13926.028300804564,-30963.312109724815,-173799.53348384175,11567.307460667462,77319.576304704184,-14159.184209116409,113918.79236904645,-118398.41089396093,53830.875318847291,-53830.875318847291,118398.41089396093,216182.45790251042,0.0
360012.02908761695,3937225.878295721,-17500.0,-30642.864373217701,-53358.112284959068,-133382.81557022929,21839.615125106677,66628.328049431351,-15028.346463316635,99950.590380274516,-113698.61994092389,31668.753613541616,-31668.753613541616,113698.61994092389,188927.8133357293,0.0
365012.02908761695,3937225.878295721,-17500.0,-43358.833317253491,-57335.484031243701,-89440.300695768834,26267.724204476621,51137.018924981101,-13898.418245424449,81998.486847179287,-91845.782728321472,8219.2340313482855,-8219.2340313482855,91845.782728321472,155325.57469261659,0.0
370012.02908761695,3937225.878295721,-17500.0,-49469.719828895584,-50452.667060377484,-52486.066328327863,25944.378201754582,35715.019224440512,-11511.287719596918,64403.368347260941,-65283.022084215278,-9850.6561691598872,9850.6561691598872,65283.022084215278,122665.69045241253,0.0
375012.02908761695,3937225.878295721,-17500.0,-49557.735949248898,-38889.59739112082,-25459.296058505341,22729.919547576297,22847.397809946964,-8743.4882197964798,49333.785764188571,-40813.063883283714,-20956.94032489444,20956.94032489444,40813.063883283714,94425.307894658006,0.0
380012.02908761695,3937225.878295721,-17500.0,-45355.671298716552,-26708.30704404899,-7726.7880062900995,18307.801652228711,13250.475072929476,-6192.8905275513571,37607.859721471847,-21359.457601620161,-25903.360692644826,25903.360692644826,21359.457601620161,71751.359687360251,0.0
385012.02908761695,3937225.878295721,-17500.0,-38788.650264009746,-16090.541029653643,2741.7663901358069,13820.788007378123,6658.4164226176399,-4124.4321534309711,29032.919684188451,-7456.2781151195468,-26416.412599111834,26416.412599111834,7456.2781151195468,54493.363877161384,0.0
390012.02908761695,3937225.878295721,-17500.0,-31439.839464409302,-7842.7793449058072,8170.6946760747469,9871.6947937534678,2429.10202948598,-2579.0561665868481,22857.487772535183,1603.5323748329902,-24266.934037435054,24266.934037435054,-1603.5323748329902,41872.764814249756,0.0
395012.02908761695,3937225.878295721,-17500.0,-24358.721432757378,-1957.2603753221279,10415.610293884334,6678.5435616872501,-109.65794405921785,-1490.0711023521289,18403.912619821276,6959.01483745327,-20847.155403810517,20847.155403810517,-6959.01483745327,32898.705045629773,0.0
400012.02908761695,3937225.878295721,-17500.0,-18105.304491177871,1943.2638636747029,10814.392532270107,4239.9619777109083,-1515.5084740467012,-757.73406614347539,15165.938447152766,9724.9270623727334,-17078.898552866543,17078.898552866543,-9724.9270623727334,26603.600294852014,0.0
405012.02908761695,3937225.878295721,-17500.0,-12889.00848212333,4331.658188511823,10242.586049574076,2454.8745247974803,-2200.3454327193358,-285.90783784747367,12767.66526471939,10804.427949815246,-13488.255003764716,13488.255003764716,-10804.427949815246,22164.669461480946,0.0
410012.02908761695,3937225.878295721,-17500.0,-8708.6542497708888,5642.4111700654421,9232.2181172657893,1192.8681777822528,-2447.6499438932274,4.3352158061311172,10940.946908921827,10856.046591305461,-10325.618388215822,10325.618388215822,-10856.046591305461,18953.222428620429,0.0
415012.02908761695,3937225.878295721,-17500.0,-5457.2370471568429,6224.1174939786179,8085.5806275668019,329.11176174540998,-2443.2102696940128,172.51173998426168,9504.0680701109268,10327.574063342801,-7672.6050733838365,7672.6050733838365,-10327.574063342801,16532.120531132718,0.0
420012.02908761695,3937225.878295721,-17500.0,-2988.1950845891724,6335.562182591083,6961.8611650997955,-241.81721907588582,-2304.2082324179655,261.17475844457573,8338.6357139564643,9507.7870066528958,-5518.9255864825391,5518.9255864825391,-9507.7870066528958,14620.267062552257,0.0
425012.02908761695,3937225.878295721,-17500.0,-1152.1200771054669,6159.2419228575936,5935.9191016687355,-603.03047646379969,-2102.0222942959558,299.63983493150249,7368.9439942983154,8574.3459247551637,-3811.1861720856546,3811.1861720856546,-8574.3459247551637,13046.56999919854,0.0
430012.02908761695,3937225.878295721,-17500.0,185.72941874219217,5819.0232379562913,5035.4413199242008,-817.2939170830432,-1878.5275446089565,307.53781101486129,6546.3952068888484,7631.1529624154591,-2481.0894877595924,2481.0894877595924,-7631.1529624154591,11709.714205697683,0.0
435012.02908761695,3937225.878295721,-17500.0,1139.0761760206556,5396.2891294210958,4263.2724433516987,-930.65120880232905,-1657.1278806494099,297.70438166412157,5839.0046723837522,6735.0132901431371,-1460.2543180648117,1460.2543180648117,-6735.0132901431371,10549.57259765758,0.0
440012.02908761695,3937225.878295721,-17500.0,1800.0886244103574,4942.8116731612217,3610.2975340240455,-976.17589134629532,-1449.9583019418194,278.34462319493048,5224.8417334119531,5913.666184290455,-687.07312277551955,687.07312277551955,-5913.666184290455,9529.2860542904873,0.0
250012.02908761695,3942225.878295721,-17500.0,10415.553102899315,-4429.3712769412878,2087.4681883685575,2757.8452225067326,-1173.779758303373,535.40685415135613,6616.0121043948257,-4072.6621583839033,7670.7292188977763,-7670.7292188977763,4072.6621583839033,13057.56442130856,0.0
255012.02908761695,3942225.878295721,-17500.0,11374.069698198382,-5215.9315743423813,2558.0377736931659,3155.3483267740457,-1437.244599189479,639.20700322150788,7436.6051241716532,-4621.1240634911092,8343.4700389232712,-8343.4700389232712,4621.1240634911092,14697.085276271471,0.0
260012.02908761695,3942225.878295721,-17500.0,12384.002062308538,-6152.1369967043674,3161.1114389194654,3610.8513264475805,-1766.135169791718,764.51730508797539,8377.4984735615799,-5232.9615108983362,9033.2594947008765,-9033.2594947008765,5232.9615108983362,16580.944229928657,0.0
265012.02908761695,3942225.878295721,-17500.0,13421.950482973223,-7263.3616532516862,3938.4842069108058,4128.9250447870027,-2177.2264099811382,915.27664876226231,9456.0256341346158,-5904.1372075127956,9712.7997718071238,-9712.7997718071238,5904.1372075127956,18745.150881954669,0.0
270012.02908761695,3942225.878295721,-17500.0,14447.909133792658,-8575.4294641804881,4945.5773617208524,4711.4123983583522,-2691.0243833277618,1095.5201333725724,10691.077601460689,-6621.4031129801588,10338.03225412641,-10338.03225412641,6621.4031129801588,21228.11342149659,0.0
275012.02908761695,3942225.878295721,-17500.0,15397.405692762328,-10110.980187443696,6255.3996579825716,5354.901854634697,-3331.884057040028,1308.7988164463625,12103.96758941876,-7356.0041437995033,10840.434931463493,-10840.434931463493,7356.0041437995033,24068.486154098398,0.0
280012.02908761695,3942225.878295721,-17500.0,16170.692774641053,-11882.466487466032,7962.8902338294129,6046.7240080175188,-4127.3331218103585,1557.0837138927095,13722.734786513151,-8053.909985533196,11116.489426873433,-11116.489426873433,8053.909985533196,27301.140159523522,0.0
285012.02908761695,3942225.878295721,-17500.0,16618.468004592662,-13879.419660648095,10188.664760199776,6758.8371440838828,-5105.7232845429999,1838.8611948633525,15580.939568372441,-8621.0245881164847,11013.894330186871,-11013.894330186871,8621.0245881164847,30950.200696289947,0.0
290012.02908761695,3942225.878295721,-17500.0,16524.263714830737,-16046.221304007786,13079.618673102375,7438.8991976435864,-6290.6221780240094,2146.0531158786284,17693.04639923892,-8901.5702280239257,10314.903964328585,-10314.903964328585,8901.5702280239257,35017.735335574551,0.0
295012.02908761695,3942225.878295721,-17500.0,15585.461675116539,-18244.708540853866,16800.616397746435,7998.0058170606499,-7689.2281013667616,2459.4552478982005,20051.438423124353,-8648.20783276558,8719.3032525668859,-8719.3032525668859,8648.20783276558,39466.491118193939,0.0
300012.02908761695,3942225.878295721,-17500.0,13399.363280904852,-20193.878597688567,21504.82752086415,8295.4541749314449,-9270.4258349884112,2742.7911382989932,22629.375188436636,-7484.905039707699,5834.7590191936888,-5834.7590191936888,7484.905039707699,44195.947875840822,0.0
305012.02908761695,3942225.878295721,-17500.0,9470.6073988508979,-21378.471275729709,27257.25638700126,8123.1998598613936,-10926.043947736795,2936.6179958838907,25372.409385575098,-4871.4851689735951,1193.8615105981057,-1193.8615105981057,4871.4851689735951,49015.173313409883,0.0
310012.02908761695,3942225.878295721,-17500.0,3277.0988348220812,-20925.639930076959,33862.395690159909,7197.9170598323135,-12407.41187178616,2955.6231619445875,28198.119145551285,-100.59069023757729,-5658.3794867513261,5658.3794867513261,100.59069023757729,53631.194437033628,0.0
315012.02908761695,3942225.878295721,-17500.0,-5529.1091905924559,-17483.277501562385,40511.662293852933,5179.1647088516274,-13231.893427629768,2695.8775009230926,31031.535613577013,7588.8886520433171,-14916.791673840953,14916.791673840953,-7588.8886520433171,57718.571890739462,0.0
320012.02908761695,3942225.878295721,-17500.0,-16655.326006664978,-9244.2180778586353,45146.420520927997,1751.6538050759191,-12570.816340817177,2059.2491983481555,33938.868257572722,18586.20802883376,-25954.701683486266,25954.701683486266,-18586.20802883376,61259.657303712927,0.0
325012.02908761695,3942225.878295721,-17500.0,-28322.548618486344,5469.0063669567508,43574.441094337366,-3162.8230147375516,-9186.3599904111379,992.67178820666732,37451.620003534561,31824.480876813221,-36314.0830712428,36314.0830712428,-31824.480876813221,65527.026844372238,0.0
330012.02908761695,3942225.878295721,-17500.0,-36379.362005807983,26285.666825015676,29125.286201271148,-9000.6066227351221,-1619.9234492027067,-485.42875279178168,42943.202952356616,42848.351180510057,-40639.666963038617,40639.666963038617,-42848.351180510057,74509.918578540048,0.0
335012.02908761695,3942225.878295721,-17500.0,-35173.548814406458,47394.423255060268,-4622.4189370198565,-14085.028894356426,11001.460354907787,-2315.8342593327511,52022.879626105845,42512.143205177614,-31704.936651950084,31704.936651950084,-42512.143205177614,93306.565746721608,0.0
340012.02908761695,3942225.878295721,-17500.0,-22812.424348347293,56593.484586742168,-55545.77398806659,-15769.345873516675,27457.928564535421,-4465.2726655536972,64153.870099824853,21320.689691000211,-6908.1828249804475,6908.1828249804475,-21320.689691000211,120933.66656330253,0.0
345012.02908761695,3942225.878295721,-17500.0,-6992.8156325690888,44122.357835245457,-106258.22661536343,-12060.169339891721,43561.041171133671,-6875.9337874205839,75816.647612775356,-18688.083678429692,23809.615183967471,-23809.615183967471,18688.083678429692,147765.42614369717,0.0
350012.02908761695,3942225.878295721,-17500.0,491.58462031469037,14936.358664656762,-134846.51875251482,-3701.423257947356,54072.827673914704,-9249.5500028091537,83777.119744407697,-59981.961440553321,43655.821297141956,-43655.821297141956,59981.961440553321,163018.23012947768,0.0
355012.02908761695,3942225.878295721,-17500.0,-3930.4417249546705,-15525.508078145938,-134217.09671027746,6092.4494707841168,56306.605490825663,-11003.676890861816,84365.043375686742,-85120.321729342293,45162.249830445973,-45162.249830445973,85120.321729342293,162631.09931344763,0.0
360012.02908761695,3942225.878295721,-17500.0,-14995.307729812923,-36065.868702558706,-113200.5700821467,14098.24456838691,51322.096159856141,-11621.545050986837,77949.524404701326,-89965.284418271127,33340.818959177981,-33340.818959177981,89965.284418271127,149624.10198747288,0.0
365012.02908761695,3942225.878295721,-17500.0,-26272.224743496841,-44472.216804423282,-84312.266217639015,18742.726245692367,42159.013081912119,-11015.981237355325,67518.572585234491,-80171.913191110274,16734.869489292469,-16734.869489292469,80171.913191110274,129638.81788283633,0.0
370012.02908761695,3942225.878295721,-17500.0,-34134.860744315025,-43549.475458764529,-56278.993373937796,20047.197366219687,31803.464769703594,-9523.1437882876999,55839.482509268128,-63290.010137175763,1381.3333607774803,-1381.3333607774803,63290.010137175763,107567.77521615555,0.0
375012.02908761695,3942225.878295721,-17500.0,-37604.154293409207,-37205.324556097992,-33286.497459149497,18885.76742479299,22256.207640457884,-7633.3273794568277,44764.095240304079,-45038.611523439991,-9957.7855217361503,9957.7855217361503,45038.611523439991,86580.77370895051,0.0
380012.02908761695,3942225.878295721,-17500.0,-37227.447110933615,-28702.863643493016,-16424.952868367094,16322.838892419441,14466.063428839623,-5752.0795609732932,35319.057203360739,-28728.479260573207,-16778.906840960975,16778.906840960975,28728.479260573207,68317.974961151529,0.0
385012.02908761695,3942225.878295721,-17500.0,-34167.221426061376,-20195.548244935006,-5134.2513326772905,13238.872651122685,8628.8183496069305,-4114.0536510960974,27841.19484405993,-15754.509755556868,-19764.559625389778,19764.559625389778,15754.509755556868,53350.977468285389,0.0
390012.02908761695,3942225.878295721,-17500.0,-29626.372099439017,-12819.640484704509,1788.60200562624,10211.394376781593,4533.1181855971272,-2805.6899102946759,22108.72463015265,-6289.1366380197333,-20010.673682228469,20010.673682228469,6289.1366380197333,41607.370836672082,0.0
395012.02908761695,3942225.878295721,-17500.0,-24564.843041552249,-6984.9560044894033,5607.2496483271725,7544.4101682680639,1816.8341909108497,-1821.8743152675324,17759.940664201276,119.22007858704637,-18575.995449216534,18575.995449216534,-119.22007858704637,32686.705374905741,0.0
400012.02908761695,3942225.878295721,-17500.0,-19624.010421665229,-2674.6938564948068,7382.1327393741576,5350.0632262907739,112.71604186660427,-1114.9516175937297,14481.743726072034,4137.5574586778703,-16288.619425458703,16288.619425458703,-4137.5574586778703,26065.846243320058,0.0
405012.02908761695,3942225.878295721,-17500.0,-15163.99015975178,327.95391121244063,7900.9832700889292,3628.0832227015449,-888.51178768309535,-625.50048578191593,12011.61000284369,6421.4799437495931,-13712.464250878511,13712.464250878511,-6421.4799437495931,21218.171169683737,0.0
410012.02908761695,3942225.878295721,-17500.0,-11340.352640715246,2299.4488835410821,7703.423087284923,2323.7089043211245,-1422.6716653211106,-297.83597299375117,10135.600999940958,7518.0136173036417,-11188.435665995519,11188.435665995519,-7518.0136173036417,17676.102685957812,0.0
415012.02908761695,3942225.878295721,-17500.0,-8179.3066836118605,3503.1910325836539,7137.055956976521,1363.3927938783663,-1658.6304763587807,-85.957729384876416,8688.0938086435053,7843.1281866864801,-8896.2190626364536,8896.2190626364536,-7843.1281866864801,15059.193916274913,0.0
420012.02908761695,3942225.878295721,-17500.0,-5635.6557503227532,4159.8819145887819,6414.1024766209548,673.91462591406082,-1712.0825056840047,45.500664193429841,7547.1833618909714,7694.2464462404541,-6910.7686692880388,6910.7686692880388,-7694.2464462404541,13079.971911570145,0.0
425012.02908761695,3942225.878295721,-17500.0,-3631.650503872972,4441.3065855591876,5657.1228059542118,190.97463050173099,-1659.6199614413035,122.49906200740085,6626.6735773376722,7274.4931228607793,-5245.031400722205,5245.031400722205,-7274.4931228607793,11534.797181321912,0.0
430012.02908761695,3942225.878295721,-17500.0,-2080.4125167353741,4474.8580824293576,4932.0605383074362,-138.12303978229755,-1550.4589031337866,163.4835912023118,5867.1992782485195,6717.346066120278,-3878.9088463288526,3878.9088463288526,-6717.346066120278,10286.722219571098,0.0
435012.02908761695,3942225.878295721,-17500.0,-898.58970526623079,4351.7554876334534,4270.5540802510004,-354.74354761941157,-1415.2993777875145,181.24567328212311,5228.3226249769823,6107.2975603414652,-2777.3559247718708,2777.3559247718708,-6107.2975603414652,9246.855735664134,0.0
255012.02908761695,3947225.878295721,-17500.0,9891.1487740160192,-5418.1545793846799,3077.9466891336724,2803.0729100967524,-1515.19819339681,578.80383037755234,6930.3990606501429,-4308.0600414162036,7104.5310377500446,-7104.5310377500446,4308.0600414162036,13719.363325814653,0.0
260012.02908761695,3947225.878295721,-17500.0,10579.734239887839,-6293.5505727218588,3766.1223933355268,3164.5261733918996,-1838.047326172247,685.08543106049842,7744.6635015719285,-4778.0899068767103,7518.8551886931255,-7518.8551886931255,4778.0899068767103,15359.536228819612,0.0
265012.02908761695,3947225.878295721,-17500.0,11226.553200432661,-7302.7341955392585,4635.466395182566,3562.1906727489186,-2233.5944307304353,810.54841299769976,8662.7542573662304,-5259.1036331832092,7862.6461681414603,-7862.6461681414603,5259.1036331832092,17213.57048640545,0.0
270012.02908761695,3947225.878295721,-17500.0,11779.751329719886,-8452.9616369402356,5735.7272809553597,3990.8440689893264,-2716.6773712488189,957.23441658634579,9697.0395674324154,-5723.4927718981371,8082.1054140767019,-8082.1054140767019,5723.4927718981371,19300.900103882301,0.0
275012.02908761695,3947225.878295721,-17500.0,12164.231785586473,-9741.1868405401383,7128.3999728132021,4438.7177055617612,-3303.1602906632429,1126.2227157630969,10869.052032622383,-6125.4021081508763,8100.7289605306451,-8100.7289605306451,6125.4021081508763,21636.152628457956,0.0
280012.02908761695,3947225.878295721,-17500.0,12274.203148774044,-11145.158329119149,8886.9707612568764,4883.8797839915142,-4008.0769016942245,1316.5938180827179,12199.949889949155,-6392.0101884164542,7812.3340361587179,-7812.3340361587179,6392.0101884164542,24224.391125536073,0.0
285012.02908761695,3947225.878295721,-17500.0,11965.114631146726,-12609.22233875603,11094.139463784753,5289.2491717987295,-4841.8357738751265,1523.796866343547,13685.925732010865,-6411.853218767581,7073.8243963493933,-7073.8243963493933,6411.853218767581,27054.050367223786,0.0
290012.02908761695,3947225.878295721,-17500.0,11046.935314382084,-14022.537621624368,13832.463946594848,5596.174319528961,-5803.1435888625992,1737.2522161454576,15313.80808497545,-6020.4228282914373,5699.9777615598705,-5699.9777615598705,6020.4228282914373,30087.16287072585,0.0
295012.02908761695,3947225.878295721,-17500.0,9283.268576777411,-15187.329756430634,17161.847300974368,5717.0768745033538,-6866.6770256068612,1937.1567725953723,17060.616463320566,-4985.1747542577259,3465.414652742832,-3465.414652742832,4985.1747542577259,33247.374347450939,0.0
300012.02908761695,3947225.878295721,-17500.0,6405.4481681169091,-15776.304511116701,21072.323765509198,5528.9420669623205,-7962.9491843221485,2090.85309607615,18887.814670988875,-2996.6527291769798,124.24199557608085,-124.24199557608085,2996.6527291769798,36409.109189295108,0.0
305012.02908761695,3947225.878295721,-17500.0,2158.5209833051631,-15284.135843736607,25393.535504623029,4871.9441289585429,-8947.8560141739199,2149.9548499251578,20743.263014368054,317.80548153611608,-4533.1457230829747,4533.1457230829747,-317.80548153611608,39398.976299208567,0.0
310012.02908761695,3947225.878295721,-17500.0,-3593.3451345013791,-12993.981523080405,29635.567040580274,3561.7594940428266,-9561.5392470972693,2050.6899231609418,22581.451912006003,5322.6689210290951,-10554.05706984845,10554.05706984845,-5322.6689210290951,42039.60928333296,0.0
315012.02908761695,3947225.878295721,-17500.0,-10666.972156678568,-8016.7612014795268,32741.046047943597,1430.1261534569694,-9383.5864728841661,1721.0145708546063,24425.161747520986,12180.63545001159,-17586.784619673774,17586.784619673774,-12180.63545001159,44306.619758657966,0.0
320012.02908761695,3947225.878295721,-17500.0,-18251.904879000613,471.91806522745179,32782.041324284968,-1586.564551449731,-7809.6581193199791,1097.0532417914349,26498.395291587851,20447.082583396983,-24514.86281954691,24514.86281954691,-20447.082583396983,46718.134794151163,0.0
325012.02908761695,3947225.878295721,-17500.0,-24597.860476587146,12603.977738062766,26815.698507736925,-5296.6766593813391,-4108.5429897183167,145.5392356728303,29399.702436458796,28417.388086871677,-29080.672743359839,29080.672743359839,-28417.388086871677,50939.465329331761,0.0
330012.02908761695,3947225.878295721,-17500.0,-27104.580885724678,26718.723792083551,11479.418822212752,-9070.2923317005134,2342.8630217319669,-1120.7894747575558,34043.29995221179,32523.841501008828,-27979.431419485809,27979.431419485809,-32523.841501008828,59718.272605084312,0.0
335012.02908761695,3947225.878295721,-17500.0,-23533.294083386016,38408.973801932283,-14873.172056249065,-11767.216647112107,11577.633051145494,-2648.452607665814,40944.305080197882,27832.781941838428,-18316.875166508351,18316.875166508351,-27832.781941838428,74656.438241503536,0.0
340012.02908761695,3947225.878295721,-17500.0,-14395.074062443802,41536.236725326555,-48877.83768556454,-12041.139617811221,22480.559908583939,-4356.3182131533795,49261.965327766098,10992.266653476701,-627.72968266631142,627.72968266631142,-10992.266653476701,93610.215181438631,0.0
345012.02908761695,3947225.878295721,-17500.0,-4200.4304830423998,32393.897810226168,-81178.275061691354,-9113.621010123712,32729.448656273875,-6114.8613542715957,56971.963457302234,-15535.426882606156,19222.664325444788,-19222.664325444788,15535.426882606156,111322.96877675752,0.0
350012.02908761695,3947225.878295721,-17500.0,1314.7890536951261,13616.203378896549,-101302.24880678591,-3484.4040607909606,39725.502663677878,-7696.5965896793114,62439.380807392918,-43128.186145436041,33090.192239671822,-33090.192239671822,43128.186145436041,122530.45626586099,0.0
355012.02908761695,3947225.878295721,-17500.0,-283.42916216743936,-7419.822958924985,-104627.96630198971,3219.9515902359572,41968.555542261354,-8795.996416701566,63979.310258120444,-62693.766485135988,36457.511588227862,-36457.511588227862,62693.766485135988,124709.06497928739,0.0
360012.02908761695,3947225.878295721,-17500.0,-7139.2504170923639,-23999.55224931231,-93932.098754086925,9184.8259034564471,39663.043648966006,-9169.1919066293176,61092.316652283807,-70232.727739834547,30535.380196876526,-30535.380196876526,70232.727739834547,118580.87738205226,0.0
365012.02908761695,3947225.878295721,-17500.0,-15658.949863056358,-33231.317256443988,-75520.187730861944,13245.033224615048,34219.135477159281,-8775.7588715917936,55039.863993929335,-67126.21839493775,19603.47897469093,-19603.47897469093,67126.21839493775,106746.82292270761,0.0
370012.02908761695,3947225.878295721,-17500.0,-22934.900663614935,-35553.090642310963,-55235.923317496512,15102.612953896996,27356.093706117364,-7787.4451934623694,47406.352597831094,-57262.526845471395,7822.4980403694099,-7822.4980403694099,57262.526845471395,92105.813493705675,0.0
375012.02908761695,3947225.878295721,-17500.0,-27529.038723520127,-32965.563129998016,-36830.273626493734,15087.404758298448,20468.463069916226,-6478.87449359112,39499.401414698783,-44553.362437308373,-2169.3276186128387,2169.3276186128387,44553.362437308373,76976.381136459167,0.0
380012.02908761695,3947225.878295721,-17500.0,-29229.090408549739,-27678.428288545027,-22014.609205249304,13800.240710029011,14403.878348428734,-5106.663063459333,32212.510916320902,-31836.585758650675,-9279.9679552937159,9279.9679552937159,31836.585758650675,62864.542345891816,0.0
385012.02908761695,3947225.878295721,-17500.0,-28530.573662564959,-21454.412496159097,-11097.927345719276,11841.277378668456,9517.2093812709136,-3845.7102515313486,26031.869741347804,-20723.290639304712,-13478.692023333399,13478.692023333399,20723.290639304712,50558.599325614421,0.0
390012.02908761695,3947225.878295721,-17500.0,-26189.364002312053,-15437.030792881387,-3634.7138456117104,9674.2742624533203,5831.2077684574615,-2783.028301873991,21024.277205573544,-11855.574158261928,-15280.075672757981,15280.075672757981,11855.574158261928,40327.86307470857,0.0
395012.02908761695,3947225.878295721,-17500.0,-22938.259874177475,-10225.371232833284,1105.8709442923732,7596.5480458447264,3194.714551498837,-1940.4150153595067,17041.519262031899,-5259.0313264117613,-15367.095409844431,15367.095409844431,5259.0313264117613,32118.073840475685,0.0
400012.02908761695,3947225.878295721,-17500.0,-19354.853012153206,-6033.619759641113,3866.1847537539361,5764.4979046544677,1395.1497806092027,-1301.8637683897066,13914.801281148011,-643.50654625979041,-14376.38270118131,14376.38270118131,643.50654625979041,25703.291807962498,0.0
405012.02908761695,3947225.878295721,-17500.0,-15831.738839130989,-2846.6971535329676,5274.60410761206,4236.1979453943932,222.61668585671387,-834.78022255140127,11483.6201717734,2392.338782580312,-12808.710906008804,12808.710906008804,-2392.338782580312,20788.250920393559,0.0
410012.02908761695,3947225.878295721,-17500.0,-12599.696912365918,-537.15254053022068,5810.8468413812025,3010.6577380995291,-501.4414271176671,-503.03759385837003,9600.7792670329127,4245.2814063351607,-11015.08038212368,11015.08038212368,-4245.2814063351607,17069.953762003453,0.0
415012.02908761695,3947225.878295721,-17500.0,-9769.0990523189394,1060.4948693012209,5816.5532955176577,2056.7598128256559,-916.57004069822949,-273.60326287624684,8138.8761247511993,5254.9101983528381,-9218.3265727223279,9218.3265727223279,-5254.9101983528381,14271.248577306462,0.0
420012.02908761695,3947225.878295721,-17500.0,-7370.6346541491694,2108.9874111395065,5522.5742413168127,1331.7866029862155,-1125.9511835887349,-119.09082166644798,6993.7194918698078,5688.6408306251842,-7545.3574354046023,7545.3574354046023,-5688.6408306251842,12156.965192921451,0.0
425012.02908761695,3947225.878295721,-17500.0,-5387.7431786341349,2749.7877402209801,5078.0952946028938,791.93533959201034,-1202.9194523389067,-18.104375623174196,6084.0982895258985,5745.6789101982058,-6057.596928021002,6057.596928021002,-5745.6789101982058,10539.238666634787,0.0
430012.02908761695,3947225.878295721,-17500.0,-3779.4894661147023,3097.430643541436,4575.43819054493,397.50752327886323,-1198.0227689967553,45.421857336556322,5349.1012173898635,5568.4649944745015,-4775.1081370205175,4775.1081370205175,-5568.4649944745015,9275.7720709734131,0.0
435012.02908761695,3947225.878295721,-17500.0,-2495.2686066809374,3240.441760220413,4068.9720300885074,114.89902124384909,-1145.2117843335702,83.21625084330158,4744.3097463903832,5255.5221234411765,-3693.8449743641581,3693.8449743641581,-5255.5221234411765,8263.6292309832534,0.0
255012.02908761695,3952225.878295721,-17500.0,8412.8775855973872,-5414.393977570594,3519.1888702743217,2446.0191592542892,-1542.2900517231878,516.59582956276483,6389.6472353480904,-3863.858834761083,5864.2209756354887,-5864.2209756354887,3863.858834761083,12676.33627342521,0.0
260012.02908761695,3952225.878295721,-17500.0,8817.0555350777558,-6188.8769208873427,4257.3787387458151,2720.1219076329994,-1846.3841631668643,604.55454667113906,7079.3527046605805,-4182.1082185085143,6036.0375797974011,-6036.0375797974011,4182.1082185085143,14075.534107511074,0.0
265012.02908761695,3952225.878295721,-17500.0,9129.8862615148428,-7051.2206061159695,5170.1394146061848,3008.9148645005503,-2210.966609111359,706.17343262682448,7845.9904500848661,-4469.0369136303925,6095.7676153927387,-6095.7676153927387,4469.0369136303925,15629.066662322461,0.0
270012.02908761695,3952225.878295721,-17500.0,9296.5015028057642,-7992.3462433140976,6297.0761121470159,3302.7291489685267,-2645.158811977627,821.975942613641,8708.645507523499,-4688.1888425623147,5988.2450606342645,-5988.2450606342645,4688.1888425623147,17341.939895541942,0.0
275012.02908761695,3952225.878295721,-17500.0,9243.2165947119156,-8988.5347308132459,7682.8746172431793,3585.2916085486577,-3156.845784399226,951.28977611880248,9679.0519042928554,-4785.3619358226879,5640.4272803520726,-5640.4272803520726,4785.3619358226879,19211.81197747726,0.0
280012.02908761695,3952225.878295721,-17500.0,8874.0084325902844,-9992.6450822721199,9374.0725734572934,3830.9458926193079,-3750.212462489565,1091.3559416597668,10746.13693961615,-4682.3949500058652,4958.5069304520503,-4958.5069304520503,4682.3949500058652,21224.776946527592,0.0
285012.02908761695,3952225.878295721,-17500.0,8068.6135585362872,-10921.591103571038,11411.53328124244,4001.2618145341112,-4421.489133270753,1236.0402842914732,11898.379140720481,-4270.3038792777879,3827.0783942971293,-3827.0783942971293,4270.3038792777879,23349.996943655849,0.0
290012.02908761695,3952225.878295721,-17500.0,6684.9134934626709,-11639.512942775689,13815.253081242436,4041.4007368414241,-5152.0057314797141,1374.1081585083587,13119.039422878588,-3403.4633136484495,2113.3709090773232,-2113.3709090773232,3403.4633136484495,25533.845676270721,0.0
295012.02908761695,3952225.878295721,-17500.0,4570.330376041984,-11937.293979921144,16556.266001901357,3877.2423984889547,-5897.4997807879354,1487.1666732460551,14382.848810399211,-1898.841970815994,-318.10647442235074,318.10647442235074,1898.841970815994,27695.859843006634,0.0
300012.02908761695,3952225.878295721,-17500.0,1589.8420415158803,-11512.287339570472,19508.315578620452,3415.4222761770011,-6572.8231288160478,1547.6882138376604,15658.100493591179,451.453536743737,-3571.8318294973151,3571.8318294973151,-451.453536743737,29732.615459781948,0.0
305012.02908761695,3952225.878295721,-17500.0,-2318.7814368022773,-9959.1492837583519,22371.131722248338,2550.1850181548543,-7032.3310939318917,1518.0463443578706,16918.142648421795,3839.2523379420259,-7656.1958794267812,7656.1958794267812,-3839.2523379420259,31543.738690804046,0.0
310012.02908761695,3952225.878295721,-17500.0,-7051.7899496684604,-6795.894521850104,24561.96895397472,1183.1124221573762,-7049.3592940133085,1352.1036566158805,18171.624548759009,8347.2926228094384,-12374.30663970491,12374.30663970491,-8347.2926228094384,33109.042947169088,0.0
315012.02908761695,3952225.878295721,-17500.0,-12208.252119697454,-1569.1107657814803,25092.686392970507,-736.85318763069927,-6304.7285537407433,1001.1409632944634,19522.564785881674,13776.071243387105,-17169.597064226189,17169.597064226189,-13776.071243387105,34661.063319289358,0.0
320012.02908761695,3952225.878295721,-17500.0,-16958.242117091602,5901.5940473725295,22503.260410084622,-3148.4011667703794,-4404.9623015421148,424.88160363705219,21252.186772299065,19382.662264195977,-20968.211158155878,20968.211158155878,-19382.662264195977,36957.459282416545,0.0
325012.02908761695,3952225.878295721,-17500.0,-20028.625801028833,15107.830472280337,15019.619845032021,-5796.4108945642747,-962.4761061768977,-394.62756522517975,23840.395595697606,23610.211749408289,-22156.45127296841,22156.45127296841,-23610.211749408289,41401.087663075145,0.0
330012.02908761695,3952225.878295721,-17500.0,-20020.316895960575,24388.828155208899,1187.0547538650021,-8173.4074622685648,4232.686654481573,-1442.0549680413392,27758.310022178503,24076.319955013896,-18954.023341061955,18954.023341061955,-24076.319955013896,49391.43465393388,0.0
335012.02908761695,3952225.878295721,-17500.0,-16211.917383697457,30864.40280738374,-18924.821267954387,-9563.8710698259365,10968.025672159903,-2665.6377517288161,33024.678269799238,18269.857273054367,-10398.48643379965,10398.48643379965,-18269.857273054367,60997.877232810752,0.0
340012.02908761695,3952225.878295721,-17500.0,-9524.7615064453057,31388.865155309955,-42526.821125473987,-9270.6703325420895,18420.122078580742,-3978.4697686805216,38922.301609062219,5131.7945512184669,2394.8280161896359,-2394.8280161896359,-5131.7945512184669,74393.935145015275,0.0
345012.02908761695,3952225.878295721,-17500.0,-2648.7371113185468,24467.613671349267,-64296.511883199724,-6981.9103732520171,25243.12356089742,-5255.8489636520007,44252.068735997476,-13397.45597753668,15900.571341603107,-15900.571341603107,13397.45597753668,86604.861048795457,0.0
350012.02908761695,3952225.878295721,-17500.0,1349.9622015022053,11651.544901684265,-78692.048475313422,-3037.8084826090858,30033.337208776455,-6335.425761964204,48073.623081059959,-32615.923030093738,25759.917758487241,-25759.917758487241,32615.923030093738,94824.042966519657,0.0
355012.02908761695,3952225.878295721,-17500.0,930.99358478913348,-3168.5937668482966,-82836.4453138393,1659.108561858897,31924.830704151958,-7045.8003496171013,49647.067502066668,-47457.77494576652,29253.815876781169,-29253.815876781169,47457.77494576652,97510.921399115163,0.0
360012.02908761695,3952225.878295721,-17500.0,-3274.0579407063678,-15997.768173343355,-77507.161227964942,6053.5553572402814,30895.177759945414,-7268.6540410552007,48415.293347129911,-55013.164711318073,26463.718787725586,-26463.718787725586,55013.164711318073,94716.61702248003,0.0
365012.02908761695,3952225.878295721,-17500.0,-9337.7072480434363,-24478.236778727063,-65863.662849087021,9358.915706035601,27619.715132147234,-6993.1231993711226,44865.821641937408,-55216.2575795538,19481.880748727719,-19481.880748727719,55216.2575795538,87647.456972337794,0.0
370012.02908761695,3952225.878295721,-17500.0,-15281.366899948547,-28174.950769750329,-51526.304765041044,11245.9648542954,23075.191310458013,-6317.6321092248108,39874.342432840975,-49896.751424373317,10902.491837812166,-10902.491837812166,49896.751424373317,77956.565881009796,0.0
375012.02908761695,3952225.878295721,-17500.0,-19795.007598646243,-27927.431836271942,-37332.248672056907,11789.760711813769,18174.744211455916,-5401.5627419870534,34293.711941962698,-41466.207104964036,2774.0604652290422,-2774.0604652290422,41466.207104964036,67193.236958242836,0.0
380012.02908761695,3952225.878295721,-17500.0,-22357.199048515158,-25062.967662224739,-24966.484071304396,11300.274931250462,13572.485975045325,-4405.2899728021412,28798.86764134105,-32032.473085956535,-3739.2765091850706,3739.2765091850706,32032.473085956535,56534.094726825402,0.0
385012.02908761695,3952225.878295721,-17500.0,-23036.385285460568,-20856.543936756399,-15117.214348991738,10155.153966025553,9629.0795452659386,-3450.9143060322549,23849.64578180141,-23047.069814028546,-8248.0417345480364,8248.0417345480364,23047.069814028546,46730.380900389413,0.0
390012.02908761695,3952225.878295721,-17500.0,-22219.591463385168,-16280.193059918438,-7807.4018347624014,8690.7776249593771,6469.1749109896118,-2610.8023026306928,19639.258088284281,-15303.834022779391,-10868.649836927782,10868.649836927782,15303.834022779391,38169.147382943891,0.0
395012.02908761695,3952225.878295721,-17500.0,-20392.237244121468,-11954.492871439999,-2708.3155416313248,7155.7320339558619,4066.106656837344,-1914.6259465883938,16148.036786226856,-9094.2493225304243,-11965.071745090339,11965.071745090339,9094.2493225304243,30973.043875400872,0.0
400012.02908761695,3952225.878295721,-17500.0,-18003.304323177224,-8203.3806669302012,635.9741820259303,5707.0780422447624,2316.4302170167211,-1363.1370691588609,13300.745343146538,-4392.3628036115224,-11965.893797470171,11965.893797470171,4392.3628036115224,25096.878031079039,0.0
405012.02908761695,3952225.878295721,-17500.0,-15404.884616375379,-5141.7377020405793,2676.8743357271223,4427.4138609998099,1091.4407624073347,-941.2156946622755,11011.312886198324,-1008.3132527405742,-11261.543025589914,11261.543025589914,1008.3132527405742,20403.707005503806,0.0
410012.02908761695,3952225.878295721,-17500.0,-12840.68218983849,-2757.4487398808797,3799.6806517067844,3347.3563684139549,266.66720377203535,-627.3300016769781,9189.1726416989113,1306.8735630301408,-10161.763273288056,10161.763273288056,-1306.8735630301408,16717.395851960944,0.0
415012.02908761695,3952225.878295721,-17500.0,-10459.731058354537,-973.36163745391957,4305.5549638492639,2465.577761138999,-264.5839799107689,-399.27074409391355,7746.6747228218355,2800.3593382023732,-8889.4517045286848,8889.4517045286848,-2800.3593382023732,13855.341669008305,0.0
420012.02908761695,3952225.878295721,-17500.0,-8339.018607666816,312.12823577222628,4416.1231694168382,1763.7410918256548,-587.37660780793954,-237.06349277174098,6604.9730231800859,3688.1653598181883,-7592.1031054011701,7592.1031054011701,-3688.1653598181883,11647.033362067194,0.0
425012.02908761695,3952225.878295721,-17500.0,-6505.9472408787615,1201.6519342010924,4287.1999693181497,1216.3664130098502,-766.30625002147065,-124.0769269489697,5697.0688762384634,4145.4097887697453,-6359.009258213483,6359.009258213483,-4145.4097887697453,9943.4425276982747,0.0
430012.02908761695,3952225.878295721,-17500.0,-4956.8082472453325,1787.230695945665,4024.2426187235174,796.71533851274592,-848.72022294648127,-47.130436311472479,4968.5344031751174,4307.0456914672122,-5238.0523679798716,5238.0523679798716,-4307.0456914672122,8620.7870541355624,0.0
255012.02908761695,3957225.878295721,-17500.0,6999.8654836624455,-5239.9257769715823,3860.8447359894312,2098.5167432530111,-1525.5635301500945,455.01094882768194,5834.8459384949601,-3337.8308402006005,4679.5920081541062,-4679.5920081541062,3337.8308402006005,11606.375585183614,0.0
260012.02908761695,3957225.878295721,-17500.0,7166.918482183486,-5889.1598844685523,4613.4858121153684,2295.3449032157482,-1801.8793700040301,526.06752432102917,6409.8711434371007,-3509.3283639996725,4652.0469622144356,-4652.0469622144356,3509.3283639996725,12777.194486781887,0.0
265012.02908761695,3957225.878295721,-17500.0,7212.8026232393686,-6581.7167646304861,5523.187423825626,2490.6007801092951,-2125.465467037709,606.17186064919338,7054.4637167717365,-3616.964905516596,4489.3368292781961,-4489.3368292781961,3616.964905516596,14052.002690140387,0.0
270012.02908761695,3957225.878295721,-17500.0,7086.3344514771306,-7296.2878499655035,6617.126904695212,2672.4702293886535,-2500.3630167765973,694.79184486472013,7773.5253841586746,-3621.067169126607,4141.2767158368279,-4141.2767158368279,3621.067169126607,15426.023427444256,0.0
275012.02908761695,3957225.878295721,-17500.0,6723.3456211598887,-7995.4717842688597,7921.4249985690212,2823.2959600971617,-2927.8535360674045,790.1550199557181,8554.1275703509164,-3467.0734844533854,3545.9405125282974,-3545.9405125282974,3467.0734844533854,16886.659367273896,0.0
280012.02908761695,3957225.878295721,-17500.0,6046.5530380602304,-8618.5455954807403,9455.685237298112,2917.7602578072851,-3403.8950709889464,888.53904754715427,9387.5351188394416,-3082.3004826386295,2630.2658094457438,-2630.2658094457438,3082.3004826386295,18410.570510729838,0.0
285012.02908761695,3957225.878295721,-17500.0,4968.2192223919756,-9072.3762563397959,11223.13095738083,2921.0427629244732,-3915.151369326436,983.32722756055989,10262.102484381083,-2373.8726812613672,1313.9037576278956,-1313.9037576278956,2373.8726812613672,19960.840882503362,0.0
290012.02908761695,3957225.878295721,-17500.0,3398.0190266328136,-9221.2123675816947,13193.900843890515,2787.5018887455135,-4433.1610439644846,1063.8562882719909,11161.499435906011,-1230.082261378617,-480.96948507719009,480.96948507719009,1230.082261378617,21485.677137168313,0.0
295012.02908761695,3957225.878295721,-17500.0,1259.6128114329872,-8877.7392140598313,15278.49662818754,2460.9434074540645,-4906.3394533116725,1114.2116751114424,12066.390621873608,470.70566734969066,-2809.9168048916763,2809.9168048916763,-470.70566734969066,22921.96752268514,0.0
300012.02908761695,3957225.878295721,-17500.0,-1479.7118823456199,-7800.9045796065984,17288.58741120941,1878.2962390653174,-5250.0627885380281,1112.3307942437216,12961.073170302769,2836.8300940524932,-5671.5649719681223,5671.5649719681223,-2836.8300940524932,24210.644679356228,0.0
305012.02908761695,3957225.878295721,-17500.0,-4762.6392604348684,-5711.1508667556463,18885.119405856647,979.36375675476984,-5336.4202426671291,1030.0683593068843,13849.144749723997,5916.231215157426,-8953.5922786117317,8953.5922786117317,-5916.231215157426,25336.707273887183,0.0
310012.02908761695,3957225.878295721,-17500.0,-8379.8322052518815,-2340.4110620772944,19522.027636059283,-274.19714331277265,-4987.77995512711,835.13073007805053,14782.778687394468,9615.3359997509651,-12360.314143735868,12360.314143735868,-9615.3359997509651,26412.245094277976,0.0
315012.02908761695,3957225.878295721,-17500.0,-11907.019899686489,2461.1219208732141,18412.359544129671,-1868.5565675353566,-3982.260378277168,495.73831296511503,15903.408168306489,13581.607457580307,-15338.23220433668,15338.23220433668,-13581.607457580307,27807.738422387793,0.0
320012.02908761695,3957225.878295721,-17500.0,-14681.884270515264,8547.9836484219613,14574.296626169409,-3698.4682508353667,-2083.4457336590317,-11.84721036615564,17466.189271694406,17074.643466215184,-17046.697910756509,17046.697910756509,-17074.643466215184,30252.391045280703,0.0
325012.02908761695,3957225.878295721,-17500.0,-15893.645450883696,15261.177285080885,7044.650700387645,-5531.5499306193087,892.77249778660803,-694.29418516481257,19782.106670571695,18907.214766815821,-16461.218120838021,16461.218120838021,-18907.214766815821,34661.71298515267,0.0
330012.02908761695,3957225.878295721,-17500.0,-14860.636010490911,21290.043167072792,-4671.7988230142855,-7002.9655708611563,4972.5909975636296,-1533.4936186509071,23034.711907550238,17606.094078632505,-12706.660865248012,12706.660865248012,-17606.094078632505,41554.05421586601,0.0
335012.02908761695,3957225.878295721,-17500.0,-11473.320737958789,24835.057846039464,-19998.28284210727,-7675.6991431729602,9909.1523190707921,-2482.7909394023477,27073.121167407757,11933.748490475251,-5611.1647023709902,5611.1647023709902,-11933.748490475251,50515.4609646428,0.0
340012.02908761695,3957225.878295721,-17500.0,-6558.582027927675,24238.861302236503,-36891.705321619687,-7181.9723242099144,15128.966982118614,-3467.5762691435684,31366.463866544655,1685.2301917072921,3794.4552444476603,-3794.4552444476603,-1685.2301917072921,60227.724853727457,0.0
345012.02908761695,3957225.878295721,-17500.0,-1768.5315547323253,18890.358541386151,-52170.524531697694,-5401.1231584166335,19821.269852805708,-4389.7221121622088,35182.35376031023,-11733.010121982037,13325.410589552497,-13325.410589552497,11733.010121982037,68933.445113662397,0.0
350012.02908761695,3957225.878295721,-17500.0,1143.4726001213239,9766.0971797751845,-62677.960493182574,-2566.6705661429974,23180.693381595702,-5138.6591092689132,37938.007108799167,-25561.807134039009,20478.449198285554,-20478.449198285554,25561.807134039009,75030.879276717969,0.0
355012.02908761695,3957225.878295721,-17500.0,1206.344918875265,-920.17741492917548,-66608.888417440001,788.68649039565707,24690.153357827254,-5613.7652186712112,39295.015853015422,-36815.778470476966,23580.290124460196,-23580.290124460196,36815.778470476966,77563.713754915007,0.0
360012.02908761695,3957225.878295721,-17500.0,-1393.0857622957308,-10738.781564431551,-64080.262819523836,4030.1763413404401,24279.204214586927,-5754.3295882162711,38847.954584418265,-43508.740247892027,22416.790114217991,-22416.790114217991,43508.740247892027,76409.679200881568,0.0
365012.02908761695,3957225.878295721,-17500.0,-5620.3365558916403,-17980.156699007464,-56700.666871329275,6639.3022399352012,22282.302009524868,-5561.015773807022,36740.366024932431,-45180.218475018097,18010.865194924882,-18010.865194924882,45180.218475018097,72137.6174074671,0.0
370012.02908761695,3957225.878295721,-17500.0,-10208.616977856744,-22002.267695398325,-46658.087478399626,8340.0033545301103,19258.29158598723,-5094.0224782369114,33451.298054029867,-42622.19180618778,11921.78591172925,-11921.78591172925,42622.19180618778,65686.824717860844,0.0
375012.02908761695,3957225.878295721,-17500.0,-14144.456643133079,-23045.783153847424,-35941.59476402797,9103.7422645011229,15790.263299027412,-4449.3443807688145,29519.377834646955,-37240.654162739811,5599.0742949828673,-5599.0742949828673,37240.654162739811,58055.078257265748,0.0
380012.02908761695,3957225.878295721,-17500.0,-16863.683173253135,-21835.078525734869,-25954.349595312535,9075.4770173460674,12349.352654601673,-3728.112259061139,25421.278370628388,-30481.83973612891,44.973755582925151,-44.973755582925151,30481.83973612891,50095.09833904363,0.0
385012.02908761695,3957225.878295721,-17500.0,-18220.672963109511,-19217.18279168876,-17463.395887934501,8479.4263857465412,9242.3300739626739,-3013.6138785483163,21529.593106645352,-23500.839544195267,-4238.2982006746552,4238.2982006746552,23500.839544195267,42428.487031403703,0.0
390012.02908761695,3957225.878295721,-17500.0,-18354.576688129364,-15936.888621776625,-10729.471094078053,7544.0504553116116,6621.2136587572522,-2361.46428625114,18071.378783774508,-17056.452582170343,-7143.5879725162804,7143.5879725162804,17056.452582170343,35442.706843129701,0.0
395012.02908761695,3957225.878295721,-17500.0,-17545.533778415331,-12542.910503099354,-5686.7831462081449,6459.2224478557855,4522.6067004919123,-1800.472286157818,15098.934308794374,-11546.148422421462,-8808.5117803323265,8808.5117803323265,11546.148422421462,29331.221585323223,0.0
400012.02908761695,3957225.878295721,-17500.0,-16105.657654200937,-9381.4141376709504,-2100.999348764763,5361.293474247027,2911.9090313099282,-1338.9493624775541,12591.040334844285,-7099.5233480858442,-9483.7054875040922,9483.7054875040922,7099.5233480858442,24147.13779191229,0.0
405012.02908761695,3957225.878295721,-17500.0,-14314.47763247583,-6632.6577604602235,319.50438095150076,4335.6546469713503,1719.5601117889364,-972.15334162294516,10509.629869377806,-3677.7596914122987,-9442.266104016142,9442.266104016142,3677.7596914122987,19853.476392100718,0.0
410012.02908761695,3957225.878295721,-17500.0,-12390.976534902396,-4359.8357036165953,1858.0518643414146,3427.2191980381731,865.62558838816528,-688.54338277924694,8805.4980465454137,-1154.2530304000343,-8929.3052981998171,8929.3052981998171,1154.2530304000343,16362.865550908982,0.0
415012.02908761695,3957225.878295721,-17500.0,-10489.370229107091,-2553.5615731672392,2758.3158791132691,2652.5258619735232,273.96508950420639,-474.14146175952499,7423.8120418509707,629.96089652554201,-8141.0792121596069,8141.0792121596069,-629.96089652554201,13565.480771148017,0.0
420012.02908761695,3957225.878295721,-17500.0,-8707.2424611103906,-1165.7526571189887,3214.6342109594552,2010.3046770663273,-121.11155963927294,-315.14995090138632,6309.9442946039671,1833.0842930086046,-7222.1600599583462,7222.1600599583462,-1833.0842930086046,11346.972487977382,0.0
425012.02908761695,3957225.878295721,-17500.0,-7098.178708284453,-132.43954927591875,3374.0449923042311,1489.4324927489645,-372.86448310398094,-199.27629520155057,5413.488160863626,2595.7849754642511,-6271.6400132850367,6271.6400132850367,-2595.7849754642511,9598.9794407720656,0.0
430012.02908761695,3957225.878295721,-17500.0,-5684.4647350058549,612.44550459410959,3343.4230025525399,1074.3436874729705,-522.66014150553497,-116.22997974562558,4690.411226340897,3034.8868872610383,-5352.5664354243763,5352.5664354243763,-3034.8868872610383,8224.7206311261543,0.0
260012.02908761695,3962225.878295721,-17500.0,5675.8435113056348,-5448.5683664564522,4828.6946807978211,1902.6674857547232,-1716.5388150095416,451.97009681738342,5773.7000513422336,-2814.9719072586322,3411.3380545155187,-3411.3380545155187,2814.9719072586322,11503.988667589199,0.0
265012.02908761695,3962225.878295721,-17500.0,5522.4454837797211,-5967.0179471332422,5695.9288515403068,2021.1887290738821,-1994.0520614128259,513.3692748508779,6314.5141880817318,-2770.151942351833,3088.7337012836761,-3088.7337012836761,2770.151942351833,12529.572395199762,0.0
270012.02908761695,3962225.878295721,-17500.0,5191.678862555621,-6461.0584124098204,6709.878720550726,2114.6804165809126,-2305.9431518363012,578.96203674995309,6895.2425760077649,-2601.7931923366687,2582.4236775945355,-2582.4236775945355,2601.7931923366687,13608.404830501864,0.0
275012.02908761695,3962225.878295721,-17500.0,4632.9738723491564,-6886.6267341038538,7879.2755088255199,2166.2798152745522,-2648.6323856083218,646.40347574584951,7509.5844859347526,-2260.8611149811845,1845.3055816637793,-1845.3055816637793,2260.8611149811845,14723.239331939965,0.0
280012.02908761695,3962225.878295721,-17500.0,3790.7299788090277,-7179.4128901570884,9200.7032160359431,2153.4977077473845,-3012.6664370847298,711.66260176558364,8149.5169965356708,-1686.935084425334,827.47055721114111,-827.47055721114111,1686.935084425334,15848.633414354676,0.0
285012.02908761695,3962225.878295721,-17500.0,2609.4878726501684,-7249.5936199073894,10648.547318507481,2047.5946650049355,-3379.4498154266594,768.37608557062117,8804.4086618128713,-809.82709251171082,-517.43651375940203,517.43651375940203,809.82709251171082,16950.716042462333,0.0
290012.02908761695,3962225.878295721,-17500.0,1043.7623901214733,-6977.7027382897095,12159.940144745438,1813.827173544872,-3716.9075620548988,807.14175978297021,9462.2538228856938,444.51467395221789,-2220.5634760623484,2220.5634760623484,-444.51467395221789,17989.90920530762,0.0
295012.02908761695,3962225.878295721,-17500.0,-925.55819181242884,-6214.4491564302853,13613.717405937228,1413.4333494243203,-3974.2348285226017,814.90166364828235,10113.600731490336,2140.6403997579619,-4278.7285056542905,4278.7285056542905,-2140.6403997579619,18930.130844252468,0.0
300012.02908761695,3962225.878295721,-17500.0,-3266.8472022796236,-4789.4265381303167,14803.806950962424,808.59211084427739,-4076.4792240506958,774.69435975571764,10760.065934855837,4308.6057245376669,-6626.1646969771191,6626.1646969771191,-4308.6057245376669,19760.557476958988,0.0
305012.02908761695,3962225.878295721,-17500.0,-5866.2094179601354,-2536.2102073238798,15411.066228513417,-28.20628931230145,-3920.769722553383,666.20231633368621,11429.502532557453,6903.2449846980862,-9097.8953648753759,9097.8953648753759,-6903.2449846980862,20538.250070998583,0.0
310012.02908761695,3962225.878295721,-17500.0,-8494.923708435168,657.07884767522239,14984.702380133624,-1099.3118295673025,-3377.591522894917,467.60392581439436,12197.2582683449,9746.7980091834761,-11391.574178716917,11391.574178716917,-9746.7980091834761,21455.256605589781,0.0
315012.02908761695,3962225.878295721,-17500.0,-10791.563869428252,4765.5411152165689,12955.539800283817,-2362.158044907319,-2302.2686678067926,159.11604070136352,13203.405809202803,12463.682961984747,-13045.849588739498,13045.849588739498,-12463.682961984747,22903.432786824807,0.0
320012.02908761695,3962225.878295721,-17500.0,-12286.615666348142,9520.8737301515303,8715.0493417153757,-3708.7878701334666,-562.52122905642625,-271.86014689266108,14639.15591663506,14435.532491531196,-13468.23720976888,13468.23720976888,-14435.532491531196,25441.111125158273,0.0
325012.02908761695,3962225.878295721,-17500.0,-12502.893776307727,14317.381705141219,1793.711400352872,-4954.3994492615166,1914.82274310408,-824.86903088584438,16673.678443075791,14830.43310015693,-12054.054068006284,12054.054068006284,-14830.43310015693,29553.564747702236,0.0
330012.02908761695,3962225.878295721,-17500.0,-11144.45197894089,18207.597493773363,-7863.209493808653,-5849.6354593468823,5084.0778300504853,-1481.4262694427121,19339.806645389017,12772.4499213618,-8417.1694302963624,8417.1694302963624,-12772.4499213618,35315.463387435469,0.0
335012.02908761695,3962225.878295721,-17500.0,-8322.1866728471723,20079.407292225638,-19611.346610038512,-6129.6691360195837,8729.6174375202299,-2202.674306349234,22456.674625288539,7674.9828134115151,-2679.1426927259845,2679.1426927259845,-7674.9828134115151,42247.635461917351,0.0
340012.02908761695,3962225.878295721,-17500.0,-4678.3954587777835,19037.196889638632,-32004.545922996524,-5597.7814355879937,12458.660914653507,-2930.8069618080831,25648.791164034177,-363.20209579518519,4344.6125345477321,-4344.6125345477321,363.20209579518519,49441.199354091128,0.0
345012.02908761695,3962225.878295721,-17500.0,-1257.5375310028699,14843.465851925526,-43061.062725849813,-4213.9166303873753,15767.177094721483,-3594.8562634481618,28455.29512569397,-10341.98756527743,11259.107307885197,-11259.107307885197,10341.98756527743,55815.391705670336,0.0
350012.02908761695,3962225.878295721,-17500.0,886.00541354282586,8141.7577245624907,-50880.75460511772,-2139.3078097059401,18171.960253883484,-4121.3378589976637,30504.230302906122,-20553.028189722521,16549.25573356809,-16549.25573356809,20553.028189722521,60406.224684336732,0.0
355012.02908761695,3962225.878295721,-17500.0,1130.7468118468516,267.11301675044558,-54306.75848013151,297.73840821689964,19354.448405772833,-4449.1953365868685,31618.370498032866,-29154.525720106001,19156.68343773768,-19156.68343773768,29154.525720106001,62604.941393158195,0.0
360012.02908761695,3962225.878295721,-17500.0,-496.81226306476191,-7259.6267927964227,-53251.241312162136,2703.6577122824706,19245.563632704525,-4545.1615401578829,31544.647635328816,-34805.151824800058,18827.199224884054,-18827.199224884054,34805.151824800058,62266.05462585749,0.0
365012.02908761695,3962225.878295721,-17500.0,-3433.3745935798675,-13243.18047573526,-48550.316057526106,4736.8246831491842,18015.614671701474,-4412.7147761849337,30282.837211609611,-37007.54329416703,16062.310751402792,-16062.310751402792,37007.54329416703,59661.191809547119,0.0
370012.02908761695,3962225.878295721,-17500.0,-6884.1695176709409,-17079.110203593933,-41524.033822132187,6186.2915158342876,15989.068361875106,-4089.6209453286669,28093.80249072575,-36058.54050438042,11790.477381074288,-11790.477381074288,36058.54050438042,55329.757179398068,0.0
375012.02908761695,3962225.878295721,-17500.0,-10120.010551706328,-18736.059782423185,-33520.048965977163,6990.1771557335978,13535.712558076078,-3635.2913751003621,25314.5193822156,-32750.415152923622,6993.6760379824227,-6993.6760379824227,32750.415152923622,49907.014940877169,0.0
380012.02908761695,3962225.878295721,-17500.0,-12647.499488365755,-18570.79436273608,-25616.58458271213,7206.0290592183055,10983.500113754073,-3114.3811149848661,22271.078014710725,-28031.43240283028,2453.3920439993435,-2453.3920439993435,28031.43240283028,43988.963797146149,0.0
385012.02908761695,3962225.878295721,-17500.0,-14243.906628260567,-17111.431189277064,-18514.011628038141,6960.4677662964905,8572.5251424134003,-2583.3703234424979,19242.070287170311,-22758.04601006733,-1346.2475765153049,1346.2475765153049,22758.04601006733,38055.298534703077,0.0
390012.02908761695,3962225.878295721,-17500.0,-14906.150275470707,-14890.226601714789,-12560.139475763013,6401.6316430649131,6446.5019416676132,-2083.4356577979784,16439.083327771812,-17572.309199987714,-4199.6604646007982,4199.6604646007982,17572.309199987714,32444.027486541785,0.0
395012.02908761695,3962225.878295721,-17500.0,-14768.846691267741,-12348.865399870063,-7838.4906809743979,5666.295162821868,4667.5596015998435,-1639.2752399778401,13954.800039998105,-12879.026156594124,-6105.5249097231335,6105.5249097231335,12879.026156594124,27360.287772908265,0.0
400012.02908761695,3962225.878295721,-17500.0,-14027.981236287183,-9804.9367386855229,-4267.2172626364845,4863.2789588279766,3240.0331754896188,-1261.6685082875858,11796.624565510838,-8880.1539706836156,-7183.1376621768004,7183.1376621768004,8880.1539706836156,22901.976631819736,0.0
405012.02908761695,3962225.878295721,-17500.0,-12886.069122227351,-7457.1347947087852,-1681.3816617592306,4069.3139594492504,2133.6953328590871,-951.4755818645915,9953.4145573935857,-5630.5665693819901,-7603.8057736363971,7603.8057736363971,5630.5665693819901,19089.752411553764,0.0
410012.02908761695,3962225.878295721,-17500.0,-11520.593064330486,-5408.7039659861357,109.90482577069918,3332.2183443510148,1301.9449643213238,-703.52662731934538,8403.2463526651936,-3092.8817873283801,-7544.753114990679,7544.753114990679,3092.8817873283801,15894.275517628801,0.0
415012.02908761695,3962225.878295721,-17500.0,-10070.803878487231,-3695.2677591615475,1289.5811699409437,2677.1576868481461,694.01228818576033,-509.68047058232537,7115.487110923772,-1181.1678379159789,-7163.5548577637674,7163.5548577637674,1181.1678379159789,13257.710070193241,0.0
420012.02908761695,3962225.878295721,-17500.0,-8636.3679027659291,-2309.6926642752369,2016.0798231903971,2113.3181572026333,262.04980712634529,-360.90816913475987,6055.2528866991452,208.73922320793372,-6587.5460179869433,6587.5460179869433,-208.73922320793372,11109.111843508133,0.0
425012.02908761695,3962225.878295721,-17500.0,-7282.2464262048807,-1221.1913404548709,2417.9645740093933,1639.64906607136,-35.474579433383248,-248.53360790612689,5187.2586404575277,1180.6638781095053,-5912.4849980029421,5912.4849980029421,-1180.6638781095053,9374.5271023950099,0.0
260012.02908761695,3967225.878295721,-17500.0,4368.4878811716871,-4918.2957932571662,4909.7273909493424,1549.6759638082581,-1602.2408476253424,383.83266057727417,5183.7044638557027,-2142.0703134599185,2337.6132401233212,-2337.6132401233212,2142.0703134599185,10286.009176639318,0.0
265012.02908761695,3967225.878295721,-17500.0,4077.6672108207863,-5272.2350928590431,5704.7871301328114,1607.9545857164092,-1832.6714118887974,429.48761854247357,5622.4181849983988,-1977.397975861928,1912.2441082691676,-1912.2441082691676,1977.397975861928,11095.708865923236,0.0
270012.02908761695,3967225.878295721,-17500.0,3619.334699971279,-5567.6337338312815,6606.6680817709021,1635.058629167653,-2082.9553502111926,476.22047898848723,6082.987990258458,-1682.9284640449941,1318.4930984098619,-1318.4930984098619,1682.9284640449941,11925.806182097911,0.0
275012.02908761695,3967225.878295721,-17500.0,2957.373755698226,-5759.5773442520704,7609.7573577720705,1616.1996439767431,-2346.3761070672558,521.50225377661798,6559.8618475173816,-1218.5691499885843,524.59263881504921,-524.59263881504921,1218.5691499885843,12758.592857964544,0.0
280012.02908761695,3967225.878295721,-17500.0,2056.6254768729341,-5787.4571301983751,8693.4692126579321,1532.8821182417093,-2610.5639649314226,561.42998390920627,7046.0077305538343,-539.04063491522732,-497.95815488156711,497.95815488156711,539.04063491522732,13571.476658366304,0.0
285012.02908761695,3967225.878295721,-17500.0,888.81052479405605,-5572.992066847678,9813.4489993247389,1363.0872213908906,-2855.0652938786679,590.31717956556349,7533.7926214838153,402.2828223772824,-1767.3888716192866,1767.3888716192866,-402.2828223772824,14338.938277263307,0.0
290012.02908761695,3967225.878295721,-17500.0,-558.11135304562254,-5020.5468882329069,10889.780979957408,1082.3710885621281,-3048.4546415955037,600.30572512914637,8017.3692082343168,1645.5069300679929,-3280.7544627843695,3280.7544627843695,-1645.5069300679929,15038.158690606902,0.0
295012.02908761695,3967225.878295721,-17500.0,-2266.5628368350858,-4022.1576843876524,11792.568771736243,666.47154208618542,-3145.3485695945578,581.12441702479191,8497.5026805788184,3210.3935476296979,-4998.4500815486954,4998.4500815486954,-3210.3935476296979,15661.352353391392,0.0
300012.02908761695,3967225.878295721,-17500.0,-4172.4024661682888,-2470.7325582535022,12326.878850305093,96.112278193754591,-3084.1520561002367,520.19046372503453,8989.8373884589473,5074.7603593642889,-6824.5997981281143,6824.5997981281143,-5074.7603593642889,16238.828592621787,0.0
305012.02908761695,3967225.878295721,-17500.0,-6147.1138355961821,-285.52076808452392,12222.024029441836,-635.43676693787188,-2787.0471674684604,403.31798609183363,9536.5091725279253,7144.6591975182582,-8586.337283762985,8586.337283762985,-7144.6591975182582,16875.022947233927,0.0
310012.02908761695,3967225.878295721,-17500.0,-7985.7039461724062,2547.0942463591982,11134.632235724963,-1512.0994890173251,-2164.5161784933125,216.30153279172245,10217.141092888509,9219.6887647906369,-10019.50602680488,10019.50602680488,-9219.6887647906369,17787.997082769551,0.0
315012.02908761695,3967225.878295721,-17500.0,-9411.8614606016708,5919.183528806946,8679.8183922313692,-2483.4813302022571,-1127.1621833412303,-52.48249253480931,11147.916463783926,10964.12615289645,-10774.348706323777,10774.348706323777,-10964.12615289645,19313.329332661557,0.0
320012.02908761695,3967225.878295721,-17500.0,-10115.34125976977,9545.5148268256999,4506.3736032377765,-3455.7874034133538,393.05677468615841,-408.61691460135359,12453.073846809233,11904.854708603378,-10459.458078032008,10459.458078032008,-11904.854708603378,21811.1789677659,0.0
325012.02908761695,3967225.878295721,-17500.0,-9832.5018617021597,12934.521014815235,-1576.9853128697782,-4291.3351636393345,2412.9358571903558,-847.93841440521169,14207.187178093673,11485.194080619323,-8738.7932325236252,8738.7932325236252,-11485.194080619323,25481.810651212603,0.0
330012.02908761695,3967225.878295721,-17500.0,-8462.1068439391493,15426.839540717086,-9444.1453600215154,-4823.7459584746812,4865.8960489252249,-1353.6043110082962,16377.031250907396,9197.6629209905623,-5475.7281454645372,5475.7281454645372,-9197.6629209905623,30220.4330565331,0.0
335012.02908761695,3967225.878295721,-17500.0,-6174.8032259764968,16333.85674353274,-18524.982597205617,-4892.5426335388947,7580.980050339308,-1895.0784102514042,18800.749821903719,4784.4176267956173,-877.86817648253918,877.86817648253918,-4784.4176267956173,35613.307461147677,0.0
340012.02908761695,3967225.878295721,-17500.0,-3445.7032501243002,15161.998153089347,-27802.373164310586,-4391.6858084928754,10289.640604237873,-2429.931400625002,21215.886574593362,-1565.8897716880522,4442.5336469178437,-4442.5336469178437,1565.8897716880522,41038.632645384117,0.0
345012.02908761695,3967225.878295721,-17500.0,-952.50605437772799,11835.981539502056,-35999.287681890302,-3314.7347243607669,12670.296646216755,-2908.8319892633258,23324.352707039223,-9141.9178650009871,9570.7652495422208,-9570.7652495422208,9141.9178650009871,45808.12387531525,0.0
350012.02908761695,3967225.878295721,-17500.0,645.26197594930204,6793.9382905477205,-41921.906523782629,-1773.718102540073,14422.750901358026,-3283.4150751927255,24884.928945430831,-16841.90494102372,13551.659342923271,-13551.659342923271,16841.90494102372,49316.568517454347,0.0
355012.02908761695,3967225.878295721,-17500.0,941.74053693296685,878.35948099949792,-44810.998784507552,22.363522859277719,15345.197360861781,-3515.6566651102498,25792.843381814448,-23486.144017136343,15697.533881754965,-15697.533881754965,23486.144017136343,51166.24576458308,0.0
360012.02908761695,3967225.878295721,-17500.0,-90.541022199505008,-4931.1258337021054,-44530.942424640241,1822.9562719625339,15381.245198638453,-3586.1299151843782,25894.624212248396,-28162.503208541817,15785.605917299039,-15785.605917299039,28162.503208541817,51229.763528933501,0.0
365012.02908761695,3967225.878295721,-17500.0,-2139.3637936879572,-9805.0500122381163,-41524.350075389804,3401.0358134305225,14619.30078856285,-3498.0296077834564,25139.337060705635,-30441.880734404895,14060.254526334025,-14060.254526334025,30441.880734404895,49636.701143753184,0.0
370012.02908761695,3967225.878295721,-17500.0,-4707.1492642823132,-13244.649621285145,-36594.376417292879,4601.4244231732791,13250.914811746679,-3275.1965490726561,23668.371007205973,-30395.111541119142,11075.784270085644,-11075.784270085644,30395.111541119142,46701.697255789368,0.0
375012.02908761695,3967225.878295721,-17500.0,-7286.5593911672686,-15114.098027492641,-30642.121359454846,5358.6212749098841,11511.122305243382,-2955.0472879346512,21693.06219167274,-28456.574595122845,7484.8604108539657,-7484.8604108539657,28456.574595122845,42829.654737517427,0.0
380012.02908761695,3967225.878295721,-17500.0,-9484.9031941241446,-15562.306707591186,-24462.374948273307,5686.6747214578372,9624.5523046353919,-2579.4310267671799,19433.861100234953,-25231.607486966655,3866.3082206303352,-3866.3082206303352,25231.607486966655,38430.505069235434,0.0
385012.02908761695,3967225.878295721,-17500.0,-11074.421333916715,-14900.899841312677,-18637.632700083977,5653.273250797256,7770.989611226275,-2186.6690781517646,17090.611560805228,-21328.924212460552,633.09863063427656,-633.09863063427656,21328.924212460552,33861.01057868846,0.0
390012.02908761695,3967225.878295721,-17500.0,-11983.047453897647,-13491.604381821408,-13518.862164299771,5351.0539906058921,6072.325735407001,-1806.6741061008315,14834.574819734289,-17255.374852107663,-1985.4837590643237,1985.4837590643237,17255.374852107663,29396.211448978778,0.0
395012.02908761695,3967225.878295721,-17500.0,-12253.570273158704,-11668.542920253696,-9259.8841664894499,4874.5912016906623,4595.5136866110952,-1459.3511578537589,12779.043458518667,-13373.38687077682,-3914.9358016873093,3914.9358016873093,13373.38687077682,25224.366333851598,0.0
400012.02908761695,3967225.878295721,-17500.0,-11995.541124629392,-9698.3855705152382,-5873.0467089066733,4306.1122039649727,3364.0310748906645,-1155.3942280001513,10950.451015995191,-9903.1012864529912,-5188.0713539160924,5188.0713539160924,9903.1012864529912,21456.443180356415,0.0
405012.02908761695,3967225.878295721,-17500.0,-11344.412420077639,-7769.654674790474,-3284.4541680179486,3709.2183410779448,2371.6774903107703,-898.30804024526628,9349.0034818068943,-6948.2204015457664,-5898.2925457052643,5898.2925457052643,6948.2204015457664,18142.241435312764,0.0
410012.02908761695,3967225.878295721,-17500.0,-10433.345718353274,-5999.6260680653195,-1378.1424937811039,3128.2451929211693,1594.9714433976214,-686.71140854466239,7968.6206026175205,-4529.2969616587397,-6163.0018386309766,6163.0018386309766,4529.2969616587397,15287.639645256804,0.0
415012.02908761695,3967225.878295721,-17500.0,-9377.3774597544179,-4449.0980819349297,-26.470479969072215,2590.7600134375393,1002.5696505558337,-516.36620924423698,6795.0905682512412,-2614.7315633287294,-6099.4145788251499,6099.4145788251499,2614.7315633287294,12869.866396286829,0.0
420012.02908761695,3967225.878295721,-17500.0,-8267.0563839043098,-3138.6334677192435,891.70462973641236,2111.2896004150957,561.56042570253544,-381.71358628623364,5808.2655033647325,-1145.2348570736353,-5811.1671002919938,5811.1671002919938,1145.2348570736353,10849.576302629795,0.0
425012.02908761695,3967225.878295721,-17500.0,-7168.1689109659719,-2062.861949638549,1481.9813622672034,1695.0844879110571,241.14422968638553,-276.90324011270434,4985.1287002461295,-50.937685871193935,-5382.7600705647683,5382.7600705647683,50.937685871193935,9179.5829328976415,0.0
265012.02908761695,3972225.878295721,-17500.0,2876.0833643881715,-4550.6644221771085,5575.379959789062,1252.8731785528612,-1655.0992181273671,355.32242830330097,4983.8033429934712,-1269.6818852409865,957.61510086897272,-957.61510086897272,1269.6818852409865,9772.2818798570333,0.0
270012.02908761695,3972225.878295721,-17500.0,2351.6432820548735,-4678.0345869878465,6347.4792707680836,1232.7008269119588,-1848.6202850384084,387.07466549700598,5344.9512957401294,-893.02593181904626,332.47032151461025,-332.47032151461025,893.02593181904626,10398.99979469836,0.0
275012.02908761695,3972225.878295721,-17500.0,1655.6408896080648,-4683.097735507381,7172.0888762190098,1167.1589590888939,-2041.9450716952422,415.34285318348134,5711.9370503622567,-360.94716231349372,-455.79581456168154,455.79581456168154,360.94716231349372,11009.141181296722,0.0
280012.02908761695,3972225.878295721,-17500.0,769.86352676173271,-4513.2986658236705,8017.6031768061048,1041.96996343565,-2221.7182273024841,436.60606479159497,6079.7841057981832,356.77359413207262,-1418.2398822895811,1418.2398822895811,-356.77359413207262,11585.808055161544,0.0
285012.02908761695,3972225.878295721,-17500.0,-313.68304512883134,-4105.5842291860472,8830.0694766129473,841.35694476810716,-2367.9650263683047,446.04141578169492,6444.7678354909613,1285.9148807309075,-2552.5430043671104,2552.5430043671104,-1285.9148807309075,12114.105175073713,0.0
290012.02908761695,3972225.878295721,-17500.0,-1585.1416873923599,-3389.3613285899282,9525.0115334679485,549.46129574782719,-2452.3899996170549,437.34708422490922,6807.2546598983581,2439.8795511039643,-3834.1806673765495,3834.1806673765495,-2439.8795511039643,12588.387077248428,0.0
295012.02908761695,3972225.878295721,-17500.0,-3007.2833629428192,-2293.7330999925248,9978.9596994865933,152.89595317969295,-2437.0117251841834,402.71890816914731,7176.4059813460954,3807.70833119078,-5205.4313163349534,5205.4313163349534,-3807.70833119078,13025.296564567907,0.0
300012.02908761695,3972225.878295721,-17500.0,-4505.3515038066962,-760.98470683590324,10023.040107845092,-355.26761445535192,-2273.8380039475751,333.10961817037401,7576.774381039153,5337.7963808486802,-6563.6249319727485,6563.6249319727485,-5337.7963808486802,13483.944789374822,0.0
305012.02908761695,3972225.878295721,-17500.0,-5959.1985886704133,1232.0992544951237,9442.9262466341133,-970.02141762589008,-1906.6473397330897,218.92443777087047,8055.154681106038,6918.6702426457741,-7751.9807430198725,7751.9807430198725,-6918.6702426457741,14089.761320764284,0.0
310012.02908761695,3972225.878295721,-17500.0,-7202.8369272761283,3645.324439415564,7991.6323169458865,-1667.9533251006092,-1276.2156563963647,51.27930773366981,8682.7187943401113,8361.1925646661039,-8559.0134019864745,8559.0134019864745,-8361.1925646661039,15045.571003873907,0.0
315012.02908761695,3972225.878295721,-17500.0,-8038.3633159039482,6342.8896564710813,5422.8352811239038,-2401.2250655356847,-330.22023013121094,-176.15196358858333,9544.3890987577233,9390.9136608572844,-8734.8817334504529,8734.8817334504529,-9390.9136608572844,16598.342562482379,0.0
320012.02908761695,3972225.878295721,-17500.0,-8270.7648215167483,9068.6652197965159,1550.2299943324845,-3094.60442307531,961.8568207382018,-464.87396942324074,10710.887666730634,9663.5457268463979,-8033.0030538817991,8033.0030538817991,-9663.5457268463979,18945.964198721416,0.0
325012.02908761695,3972225.878295721,-17500.0,-7764.5658227413542,11446.540513566681,-3670.1933649065613,-3649.0200740668533,2590.5790054400459,-809.31870195116744,12202.390567014538,8816.9804655624139,-6279.3627360313103,6279.3627360313103,-8816.9804655624139,22131.678348584785,0.0
330012.02908761695,3972225.878295721,-17500.0,-6510.9783223859504,13025.140043823023,-10054.238974235353,-3954.6737330513424,4489.9740275469312,-1195.2596237763123,13963.610189857245,6564.4037689493871,-3457.7568245874645,3457.7568245874645,-6564.4037689493871,26000.140211606129,0.0
335012.02908761695,3972225.878295721,-17500.0,-4678.5970609112446,13375.193053612569,-17137.616910478864,-3914.0045329154768,6530.1101612410221,-1599.6035526363871,15863.504366106004,2811.7693016178546,220.15465169934305,-220.15465169934305,-2811.7693016178546,30226.499898951286,0.0
340012.02908761695,3972225.878295721,-17500.0,-2612.9418217998546,12221.166658026512,-24201.957160089089,-3469.8081367349137,8526.5158950816003,-1992.0948433546644,17718.284842881207,-2244.1541858719984,4303.0702925617279,-4303.0702925617279,2244.1541858719984,34382.675551535955,0.0
345012.02908761695,3972225.878295721,-17500.0,-764.0323904315851,9557.6443772084149,-30400.680478041195,-2628.7537780069838,10269.416264545178,-2339.0491524916115,19330.34305105278,-8093.8205440758202,8176.995279008609,-8176.995279008609,8093.8205440758202,38017.007231021613,0.0
350012.02908761695,3972225.878295721,-17500.0,442.13003557208287,5690.3999697768104,-34957.438235127076,-1469.2711501097026,11566.913629468092,-2608.6513104598562,20540.983754645527,-14003.390825015351,11219.605944549905,-11219.605944549905,14003.390825015351,40736.213119972512,0.0
355012.02908761695,3972225.878295721,-17500.0,734.89836063548296,1170.7194190582272,-37362.342705756091,-127.91676937329962,12287.95582568013,-2776.6994034530298,21285.767769882281,-19193.296441231101,12972.865122547697,-12972.865122547697,19193.296441231101,42274.00293651595,0.0
360012.02908761695,3972225.878295721,-17500.0,72.860335836925429,-3353.4699183804305,-37484.244283097403,1232.043867058828,12389.241213156569,-2831.210414093282,21466.447463330027,-23035.054419777742,13258.569652544888,-13258.569652544888,23035.054419777742,42528.487118249483,0.0
365012.02908761695,3972225.878295721,-17500.0,-1368.0232837100884,-7303.9886042403068,-35560.312319049342,2457.912455040484,11917.082769092476,-2774.3852883815875,21020.420265452118,-25185.921923360467,12192.693745145196,-12192.693745145196,25185.921923360467,41559.873460960691,0.0
370012.02908761695,3972225.878295721,-17500.0,-3274.2513294582377,-10290.861210345687,-32085.370496922518,3437.2726681910131,10986.424895452745,-2621.2696601843331,20024.179286922779,-25620.016338159137,10108.673653116271,-10108.673653116271,25620.016338159137,39554.705218449024,0.0
375012.02908761695,3972225.878295721,-17500.0,-5297.7847307545317,-12152.549851333402,-27660.635363385092,4111.9951871443463,9747.6641736793263,-2395.6950374014191,18611.50517586627,-24567.951726353564,7437.6203016145773,-7437.6203016145773,24567.951726353564,36772.924806082279,0.0
380012.02908761695,3972225.878295721,-17500.0,-7140.7210265709091,-12927.679160406658,-22859.650218993414,4476.178348258577,8353.7144830080979,-2125.015737333702,16931.401133206298,-22409.691655160132,4596.7701435094023,-4596.7701435094023,22409.691655160132,33495.079803260705,0.0
385012.02908761695,3972225.878295721,-17500.0,-8601.371078033224,-12789.436564619253,-18143.044394826447,4563.2862245041288,6935.9646827280048,-1835.3002258567067,15125.448237656499,-19566.8146150393,1916.6015172141779,-1916.6015172141779,19566.8146150393,29981.419359871528,0.0
390012.02908761695,3972225.878295721,-17500.0,-9582.6737036363647,-11974.074631841608,-13825.689495004004,4429.3845535212622,5592.0262850236522,-1548.0555311080116,13319.82317322155,-16422.783884478198,-387.84049109294119,387.84049109294119,16422.783884478198,26447.217061925581,0.0
395012.02908761695,3972225.878295721,-17500.0,-10075.413441777013,-10723.465190212213,-10083.040155027356,4137.8898257959981,4383.7286637581828,-1278.7681691708076,11623.980050110924,-13279.523698383913,-2211.7670147452964,2211.7670147452964,13279.523698383913,23053.066181976803,0.0
400012.02908761695,3972225.878295721,-17500.0,-10130.567268942261,-9248.8978356032731,-6978.796643153908,3748.6105168751665,3341.7426121134749,-1036.9312139404253,10088.153751971526,-10344.985318377989,-3536.938757729632,3536.938757729632,10344.985318377989,19906.057539790607,0.0
405012.02908761695,3972225.878295721,-17500.0,-9831.5045010223657,-7714.5489267608573,-4499.0527886121117,3311.5693270171828,2473.1843885599119,-826.98446869124166,8715.1812953214285,-7741.0000223075294,-4402.5095154786213,4402.5095154786213,7741.0000223075294,17067.291722020123,0.0
410012.02908761695,3972225.878295721,-17500.0,-9271.7878964465708,-6235.1256033775207,-2583.6751201106663,2864.7484762661716,1769.5371380531672,-649.61848278248544,7505.4182489615305,-5521.0130400824546,-4878.6164564569917,4878.6164564569917,5521.0130400824546,14561.975377914589,0.0
415012.02908761695,3972225.878295721,-17500.0,-8540.3267987178551,-4881.7062063339263,-1150.7139127051332,2434.4407561529974,1213.397272482239,-503.06301496889915,6454.7058243829397,-3690.1134140577915,-5046.3707185118192,5046.3707185118192,3690.1134140577915,12389.567804130564,0.0
420012.02908761695,3972225.878295721,-17500.0,-7713.2228046874789,-3691.0500093433275,-113.12801093631124,2036.9909100988832,783.51193761658158,-384.1609044286447,5553.1685624002739,-2223.025611235224,-4984.7681335486141,4984.7681335486141,2223.025611235224,10532.627559524331,0.0
270012.02908761695,3977225.878295721,-17500.0,1356.5347437326473,-3835.470241004326,5974.0577422163824,902.34596273958562,-1615.9782907034757,311.14608983057161,4684.5049191164708,-241.81801584456758,-406.74132080774331,406.74132080774331,241.81801584456758,9036.0832420557999,0.0
275012.02908761695,3977225.878295721,-17500.0,674.36290838715138,-3700.1071130142082,6622.8007609720216,808.6909000824362,-1749.9991888246896,326.76605567216734,4966.0647077521426,313.38819525987071,-1147.7197033082175,1147.7197033082175,-313.38819525987071,9475.9805337408579,0.0
280012.02908761695,3977225.878295721,-17500.0,-150.89971094100721,-3393.7885755384232,7246.3347679439512,662.7280716380526,-1861.4586557554255,334.79379914214104,5245.5526506217539,1019.837412046975,-2012.3959822145296,2012.3959822145296,-1019.837412046975,9880.7034415987018,0.0
285012.02908761695,3977225.878295721,-17500.0,-1113.6843374296745,-2869.11014305037,7788.207947485942,453.90528204663582,-1932.2427210776489,331.29750640764604,5523.1358195401626,1886.8268211935333,-2985.1736502639264,2985.1736502639264,-1886.8268211935333,10246.108573858995,0.0
290012.02908761695,3977225.878295721,-17500.0,-2191.7939521055855,-2078.0035878033991,8167.7662730568463,172.92493980526376,-1938.3003978060985,311.38769864685895,5804.3675758166228,2908.9909739977666,-4030.1972076041047,4030.1972076041047,-2908.9909739977666,10581.567771532573,0.0
295012.02908761695,3977225.878295721,-17500.0,-3340.4138089191192,-979.18680019046553,8276.2097171587902,-186.083200261851,-1849.307997524782,269.30515364606566,6104.0673681852986,4057.0401546714488,-5084.4470118034278,5084.4470118034278,-4057.0401546714488,10921.693475036418,0.0
300012.02908761695,3977225.878295721,-17500.0,-4487.0564022809594,450.20269181520217,7975.7409951072395,-622.55686408830093,-1629.3519298287611,198.72465347771384,6450.5933834292937,5266.7241895080124,-6051.9002574838514,6051.9002574838514,-5266.7241895080124,11340.858203696338,0.0
305012.02908761695,3977225.878295721,-17500.0,-5529.8363151872172,2198.6811899601321,7104.9121966014027,-1125.8334426248512,-1239.2962057732002,93.356047332730839,6888.2367305118241,6427.9161644015612,-6801.5445019308236,6801.5445019308236,-6427.9161644015612,11963.369340281202,0.0
310012.02908761695,3977225.878295721,-17500.0,-6342.4291010949737,4201.7598960712057,5494.0008994555528,-1671.3936381149513,-641.51748931062832,-52.106396066387759,7473.6516830544369,7377.6485545246014,-7173.2411868102045,7173.2411868102045,-7377.6485545246014,12953.529763464096,0.0
315012.02908761695,3977225.878295721,-17500.0,-6789.2922385928832,6324.8688075577811,2993.7945062626936,-2218.1360473538853,192.59578984575506,-240.71423720180991,8262.6788946046199,7903.0633942821423,-6995.88218582626,6995.88218582626,-7903.0633942821423,14471.036996068156,0.0
320012.02908761695,3977225.878295721,-17500.0,-6753.1148371618037,8355.5226177982349,-481.68194720764126,-2708.3281132505454,1272.7496518368187,-471.82448906224465,9289.3786068812242,7761.3407898899577,-6120.6702025015775,6120.6702025015775,-7761.3407898899577,16604.272378979458,0.0
325012.02908761695,3977225.878295721,-17500.0,-6172.0373036341471,10014.620078204161,-4904.1157039503769,-3072.0246010432188,2579.118285761584,-739.78556348539064,10546.420663382683,6721.6754971724858,-4467.3887025634376,4467.3887025634376,-6721.6754971724858,19322.906603599851,0.0
330012.02908761695,3977225.878295721,-17500.0,-5077.2044016849004,10994.985481975591,-10085.821227784465,-3237.0516628828846,4054.1648117832829,-1033.1582026359981,11976.577162491449,4627.278111936128,-2073.2156051983952,2073.2156051983952,-4627.278111936128,22474.630466888553,0.0
335012.02908761695,3977225.878295721,-17500.0,-3614.6336620846923,11026.831131913443,-15662.067606679222,-3143.8371811654602,5601.0445476785408,-1334.8886197458996,13478.158141558548,1463.4941421563703,874.92484603949742,-874.92484603949742,-1463.4941421563703,25813.605542252546,0.0
340012.02908761695,3977225.878295721,-17500.0,-2034.7097515423375,9955.5440723702995,-21121.164679287889,-2761.7757671618551,7092.0508273017804,-1623.7098474092265,14921.457545264318,-2593.5046112313912,4045.8490845830165,-4045.8490845830165,2593.5046112313912,29041.669340478191,0.0
345012.02908761695,3977225.878295721,-17500.0,-642.51812200466441,7803.9707597836205,-25888.176685939441,-2101.6945632764123,8387.6363700751317,-1876.756825260062,16172.603706783786,-7175.1785838102323,7018.7819161103844,-7018.7819161103844,7175.1785838102323,31854.701744248356,0.0
350012.02908761695,3977225.878295721,-17500.0,279.23434893749175,4789.8284581428179,-29443.615731125399,-1218.9816163753478,9362.1166807005829,-2072.995997880188,17125.887919976773,-11779.668149681618,9376.976112436083,-9376.976112436083,11779.668149681618,33989.684012679412,0.0
355012.02908761695,3977225.878295721,-17500.0,546.40467836447692,1284.7302396580703,-31437.656230537574,-204.84930959653079,9928.4812038132222,-2196.7249255565307,17743.051825534028,-15878.033433682926,10808.432214237248,-10808.432214237248,15878.033433682926,35264.290579052664,0.0
360012.02908761695,3977225.878295721,-17500.0,118.21486574736662,-2272.4381195460546,-31758.489689868613,832.07801359868893,10054.235438500858,-2240.2208877010667,17954.525819630901,-19030.632984502616,11175.472653933273,-11175.472653933273,19030.632984502616,35599.709128659371,0.0
365012.02908761695,3977225.878295721,-17500.0,-904.8132943820259,-5474.7643176583197,-30533.602590852173,1787.718379795577,9763.5678375647767,-2204.7823944283309,17700.206128574147,-20972.107248300716,10529.470770441292,-10529.470770441292,20972.107248300716,35021.811475890034,0.0
370012.02908761695,3977225.878295721,-17500.0,-2323.1334726442183,-8024.3899870981904,-28072.057042801993,2580.9881254952447,9126.5048072533064,-2099.8931468414053,17021.814355925286,-21640.547108638064,9072.7951535306966,-9072.7951535306966,21640.547108638064,33642.850242647204,0.0
375012.02908761695,3977225.878295721,-17500.0,-3898.8642399494424,-9767.6954041951831,-24776.492416732748,3163.9894290220236,8240.1460378325191,-1940.856143717308,16005.18702973544,-21152.301842044784,7090.4269295593131,-7090.4269295593131,21152.301842044784,31631.374409214506,0.0
380012.02908761695,3977225.878295721,-17500.0,-5411.6252723454754,-10688.975274492035,-21056.784619207494,3522.9635787073635,7208.5488525496339,-1745.6946030912359,14751.617324776287,-19742.933380423798,4879.0619906679221,-4879.0619906679221,19742.933380423798,29179.617067417123,0.0
385012.02908761695,3977225.878295721,-17500.0,-6695.0017722180492,-10876.645143685173,-17266.939603782834,3672.1932676330025,6126.4915128215434,-1532.1991137049606,13361.67736680835,-17699.755462468471,2693.8056764770572,-2693.8056764770572,17699.755462468471,26475.690042889899,0.0
390012.02908761695,3977225.878295721,-17500.0,-7650.37911442316,-10479.560629422707,-13672.320270061899,3644.4355058649912,5069.5956462053664,-1315.7460171386865,11926.425218950471,-15305.179585914218,720.0354827844867,-720.0354827844867,15305.179585914218,23684.379725636416,0.0
395012.02908761695,3977225.878295721,-17500.0,-8242.8134381066138,-9667.0706714850749,-10443.314296173965,3481.1553304205436,4090.7447646474029,-1108.123950429989,10529.33544411498,-12799.783205692258,-932.11074175496833,932.11074175496833,12799.783205692258,20937.061877113334,0.0
400012.02908761695,3977225.878295721,-17500.0,-8486.6448303000852,-8599.8970944712892,-7666.4847892631287,3224.6488046362947,3221.2182867155516,-917.27126434742854,9240.3571004032692,-10365.335097924535,-2218.1322411034434,2218.1322411034434,10365.335097924535,18329.170535995545,0.0
405012.02908761695,3977225.878295721,-17500.0,-8427.908769357462,-7413.2598764891027,-5363.9887747189041,2912.8456477079458,2474.5092547451377,-747.64836548342487,8072.8414487930349,-8123.1220434090719,-3142.478075465553,3142.478075465553,8123.1220434090719,15922.787621395366,0.0
410012.02908761695,3977225.878295721,-17500.0,-8128.2613426875469,-6210.2799696807378,-3514.3930778641316,2576.6588528815714,1851.1003157211223,-600.94029096652275,7024.7968958632555,-6141.5953647872157,-3740.8482310838808,3740.8482310838808,6141.5953647872157,13752.026630122364,0.0
415012.02908761695,3977225.878295721,-17500.0,-7652.6999322259999,-5062.4186640312855,-2070.8392812114625,2239.2755718466701,1343.0271001707179,-476.84381373168401,6096.6912885382462,-4448.1018088684386,-4065.0325408243125,4065.0325408243125,4448.1018088684386,11829.367239235362,0.0
275012.02908761695,3982225.878295721,-17500.0,-42.725842394874185,-2832.8194646401266,6010.7814452837792,528.28779429505448,-1479.8254678191856,254.00631918116875,4317.6933735048415,819.62059435991682,-1605.7347073107906,1605.7347073107906,-819.62059435991682,8149.7388141741667,0.0
280012.02908761695,3982225.878295721,-17500.0,-783.14496814783547,-2441.2013732269688,6438.2423619494348,376.21932314667254,-1538.0911575355467,253.04248248841913,4532.9878305538414,1481.8765484998587,-2355.4289809730799,2355.4289809730799,-1481.8765484998587,8434.4292678547354,0.0
285012.02908761695,3982225.878295721,-17500.0,-1612.2919583194944,-1858.6066400612658,6753.5186449891025,173.57191873434289,-1553.3362700365287,241.48309461444182,4750.2198950404963,2258.4064890693739,-3162.7583878116434,3162.7583878116434,-2258.4064890693739,8695.2364123765437,0.0
290012.02908761695,3982225.878295721,-17500.0,-2502.5732096478037,-1055.3313099227562,6884.5398704247518,-84.274422656494139,-1505.9618618327518,215.63625192747008,4978.6103563519046,3132.1079485441237,-3987.898879289623,3987.898879289623,-3132.1079485441237,8953.0250478747585,0.0
295012.02908761695,3982225.878295721,-17500.0,-3409.101763783804,-11.833362798043108,6740.3647520821269,-398.3745170718513,-1372.6141679899547,171.35769146085093,5235.829777653491,4064.780586349742,-4770.3670884398352,4770.3670884398352,-4064.780586349742,9253.1261166373224,0.0
300012.02908761695,3982225.878295721,-17500.0,-4267.9908593924438,1272.2021314782048,6213.4011959659165,-764.10637525178254,-1127.277263910398,104.33864972535241,5549.9572231636967,4990.3735679374913,-5427.0803526926993,5427.0803526926993,-4990.3735679374913,9673.059366687341,0.0
305012.02908761695,3982225.878295721,-17500.0,-4997.8729135097528,2766.8929318347564,5186.7313712519062,-1168.8749767489121,-743.59072811816498,10.588180098723644,5958.6141627832858,5809.7829068960955,-5854.2007259351549,5854.2007259351549,-5809.7829068960955,10321.159323675758,0.0
310012.02908761695,3982225.878295721,-17500.0,-5506.5773643953607,4401.0818069997003,3548.4972587858942,-1590.1225859356032,-198.68090137068623,-112.8794617673291,6502.9115680017603,6390.0351370545604,-5935.1231847383797,5935.1231847383797,-6390.0351370545604,11316.292304696328,0.0
315012.02908761695,3982225.878295721,-17500.0,-5704.4732231049175,6054.560535849273,1214.3471537110561,-1994.4192438241485,521.49108536406004,-267.19576056918879,7215.8763458344047,6571.4954432121576,-5556.587360095933,5556.587360095933,-6571.4954432121576,12748.9846094734,0.0
320012.02908761695,3982225.878295721,-17500.0,-5524.3915711728059,7558.4733554029444,-1843.4303213650387,-2338.5938030061816,1415.7998599285245,-450.74611962174498,8109.0783465822533,6186.5013126860804,-4633.1583679773585,4633.1583679773585,-6186.5013126860804,14643.344926543072,0.0
325012.02908761695,3982225.878295721,-17500.0,-4945.0989614392975,8709.0163325329904,-5565.2982279098578,-2573.7552622647713,2461.9181485142876,-658.43333072260202,9163.4089244130446,5090.5739512552127,-3136.9094649430344,3136.9094649430344,-5090.5739512552127,16941.528975877914,0.0
330012.02908761695,3982225.878295721,-17500.0,-4011.6618586269569,9297.2396267981258,-9781.8827528797719,-2652.4599885689927,3612.5417889820378,-881.34497117087187,10327.609351617486,3202.6171640384437,-1124.6742682877432,1124.6742682877432,-3202.6171640384437,19512.328242232277,0.0
335012.02908761695,3982225.878295721,-17500.0,-2843.5819653426506,9152.2415450564331,-14211.226266571755,-2538.1768509452581,4796.0738623786037,-1107.0575044180855,11524.186391015486,544.24478423223331,1248.2197269199949,-1248.2197269199949,-544.24478423223331,22172.136142289,0.0
340012.02908761695,3982225.878295721,-17500.0,-1622.8199297410611,8187.6365189361159,-18485.111867806158,-2214.8866334233248,5923.2759504702863,-1320.7049039815063,12660.653847182493,-2736.3677448413841,3738.2143913170044,-3738.2143913170044,2736.3677448413841,24710.472522965207,0.0
345012.02908761695,3982225.878295721,-17500.0,-560.11092017808267,6435.6313256337598,-22204.810181566903,-1693.7896956675263,6899.6568046982175,-1506.748922609768,13644.575593136053,-6369.8370098746946,6051.5445953662638,-6051.5445953662638,6369.8370098746946,26917.913163863916,0.0
350012.02908761695,3982225.878295721,-17500.0,152.49875627217256,4053.894712639179,-25014.178432907614,-1014.3773278048048,7641.1284517466174,-1651.1681592834561,14405.021990679834,-10005.216187643888,7902.5003991560116,-7902.5003991560116,10005.216187643888,28614.194995269743,0.0
355012.02908761695,3982225.878295721,-17500.0,387.34545409064617,1299.2572503161664,-26668.471830775339,-238.76864149565588,8088.7558483453167,-1743.5952357641204,14921.934618637491,-13275.347382201522,9074.212116360759,-9074.212116360759,13275.347382201522,29671.922222002031,0.0
360012.02908761695,3982225.878295721,-17500.0,108.95413236229827,-1524.5642415227514,-27076.984161000335,559.38910656029611,8218.337049335003,-1778.8819572971474,15139.648123544528,-15867.936773119427,9461.6633300486737,-9461.6633300486737,15867.936773119427,30030.84079770491,0.0
365012.02908761695,3982225.878295721,-17500.0,-624.71633795520995,-4127.8071058373689,-26307.576583080219,1308.1814894477793,8042.2553213504034,-1757.6916597189911,15005.251416668942,-17579.983523680603,9083.8097518297491,-9083.8097518297491,17579.983523680603,29699.813122285614,0.0
370012.02908761695,3982225.878295721,-17500.0,-1685.1546095837698,-6285.0190089308599,-24555.886963421453,1949.0419620694718,7603.7582766311789,-1686.0000044520427,14542.121559481793,-18341.158944151684,8064.4998857153359,-8064.4998857153359,18341.158944151684,28747.228903699641,0.0
375012.02908761695,3982225.878295721,-17500.0,-2909.426236920222,-7862.5456970666846,-22093.421943216672,2443.923446151985,6966.1601432591451,-1573.7023293218083,13806.20577831855,-18204.633935419552,6592.9623549634443,-6592.9623549634443,18204.633935419552,27283.579176798507,0.0
380012.02908761695,3982225.878295721,-17500.0,-4136.5302613811182,-8821.010203417527,-19212.236742301098,2777.1227435676346,6200.4905360890043,-1432.7577781744076,12866.936838840989,-17314.735831339538,4878.9951874895778,-4878.9951874895778,17314.735831339538,25441.201539571772,0.0
385012.02908761695,3982225.878295721,-17500.0,-5234.3906843741506,-9198.8139539662843,-16180.070591321422,2952.604320936337,5374.700880817707,-1275.3520059298476,11796.167777522322,-15865.268591173859,3115.4948072278048,-3115.4948072278048,15865.268591173859,23355.655545886966,0.0
390012.02908761695,3982225.878295721,-17500.0,-6113.6774159384231,-9086.1930064362405,-13212.541144863048,2988.6495519053328,4546.2374379337252,-1112.4468342338387,10660.772016766707,-14060.660822286247,1454.8469699407415,-1454.8469699407415,14060.660822286247,21151.521008164524,0.0
395012.02908761695,3982225.878295721,-17500.0,-6729.587052515958,-8598.5038335923764,-10462.374383556893,2911.7484372468039,3758.3904258297994,-952.89178236781413,9519.9646126660609,-12087.174466438519,-0.27084532554999896,0.27084532554999896,12087.174466438519,18933.600334217164,0.0
400012.02908761695,3982225.878295721,-17500.0,-7075.3932871013458,-7854.3564778526124,-8021.6333373048337,2751.1604718061899,3039.8219941128973,-803.08851619585039,8432.4733924264165,-10096.29881969612,-1194.9216121850459,1194.9216121850459,10096.29881969612,16783.123531964062,0.0
405012.02908761695,3982225.878295721,-17500.0,-7172.0544067350911,-6960.8624861748922,-5931.6366448701556,2534.8858162522142,2406.2107870862906,-667.08222360052639,7440.4967713322503,-8198.8536119942491,-2113.3333572428942,2113.3333572428942,8198.8536119942491,14757.768303683299,0.0
410012.02908761695,3982225.878295721,-17500.0,-7057.2860709894321,-6005.8084733713031,-4195.915697559617,2287.2014773893902,1862.9581633495284,-546.91397900069603,6539.4761741469711,-6466.6984476241496,-2767.8025010441443,2767.8025010441443,6466.6984476241496,12894.134975724863,0.0
275012.02908761695,3987225.878295721,-17500.0,-548.75996770150482,-2088.3327707207941,5375.2035905373286,313.1484530406716,-1236.45008335894,195.03051639814521,3759.2663600378037,1180.0764556646541,-1881.1311029778904,1881.1311029778904,-1180.0764556646541,7014.5844047560759,0.0
280012.02908761695,3987225.878295721,-17500.0,-1194.8965775849908,-1651.6499494564302,5636.6896362601401,164.5566878187953,-1254.7808734622026,188.27652504757589,3929.1490521288129,1778.8266379945353,-2512.7233088043413,2512.7233088043413,-1778.8266379945353,7219.624382756675,0.0
285012.02908761695,3987225.878295721,-17500.0,-1892.3594892153872,-1053.9832141485215,5769.9184183156585,-23.578182125385986,-1230.9323319790947,172.15266314048179,4105.8649589266797,2452.6687834012882,-3164.3217841593796,3164.3217841593796,-2452.6687834012882,7418.4728995602381,0.0
290012.02908761695,3987225.878295721,-17500.0,-2612.6877493875122,-279.54455623319632,5713.4523850936293,-252.74719655614598,-1149.4434140059868,143.93447609565439,4300.7056633127786,3178.2561168511229,-3796.8524392149757,3796.8524392149757,-3178.2561168511229,7639.4562689181112,0.0
295012.02908761695,3987225.878295721,-17500.0,-3314.9890644526809,676.36961196507502,5394.2155964423446,-521.17369460279531,-992.84087701955048,100.70620766987341,4531.8171086191687,3914.8962657896386,-4356.4439721251101,4356.4439721251101,-3914.8962657896386,7931.8171606662127,0.0
300012.02908761695,3987225.878295721,-17500.0,-3946.1763923287363,1800.8090669929622,4731.070762556119,-822.41307617797622,-742.79895439770019,39.606637409865556,4824.2997566982904,4600.9108977793512,-4774.7654611603557,4774.7654611603557,-4600.9108977793512,8367.1106508270041,0.0
305012.02908761695,3987225.878295721,-17500.0,-4443.862185419106,3056.1159686400788,3642.2087290351224,-1144.0097103570531,-382.13221965238654,-41.803132579858506,5207.5297233496203,5151.9836191330469,-4972.5199319746025,4972.5199319746025,-5151.9836191330469,9030.5697085392694,0.0
310012.02908761695,3987225.878295721,-17500.0,-4742.8818967981388,4373.9458848713284,2057.1537087235297,-1466.5785531638387,102.30067976593834,-145.05729867275727,5708.9471099870589,5463.383209321707,-4867.323004794297,4867.323004794297,-5463.383209321707,9999.6633119662511,0.0
315012.02908761695,3987225.878295721,-17500.0,-4785.8502698693301,5652.7590947029075,-66.746584734237516,-1763.8069783402598,715.92995371726943,-270.23124318965876,6345.5747010763025,5418.0836089245731,-4386.5967058040169,4386.5967058040169,-5418.0836089245731,11317.369341430478,0.0
320012.02908761695,3987225.878295721,-17500.0,-4536.9323404362649,6761.6606108182987,-2725.1547439009382,-2003.9022361617226,1452.5341033254876,-415.40309715475115,7116.4739438673305,4902.1501493143896,-3484.7246137665293,3484.7246137665293,-4902.1501493143896,12974.546163315979,0.0
325012.02908761695,3987225.878295721,-17500.0,-3996.2372019225245,7553.0162114856066,-5848.9175369255954,-2152.8439327364772,2290.9128965621526,-576.25935195523846,7999.1034750250701,3826.9579035228767,-2161.6006005877193,2161.6006005877193,-3826.9579035228767,14908.320394823584,0.0
330012.02908761695,3987225.878295721,-17500.0,-3210.475718898997,7884.3498906003697,-9293.552785900205,-2179.3747265412917,3193.350541724933,-745.99180869064389,8950.3964631514627,2154.8892073806228,-477.44735783207602,477.44735783207602,-2154.8892073806228,17011.747656787935,0.0
335012.02908761695,3987225.878295721,-17500.0,-2274.8164843854402,7646.6654959635962,-12842.433613177271,-2061.0201709360063,4107.0158237166843,-915.61028550679612,9911.6719996475458,-78.017178344391596,1442.4058240747986,-1442.4058240747986,78.017178344391596,19148.00702334079,0.0
340012.02908761695,3987225.878295721,-17500.0,-1322.2983738498394,6792.5466154150299,-16227.70247705791,-1789.7735390618907,4968.9160461879947,-1074.7221577261939,10816.237130316144,-2750.7654159563808,3417.8602365064298,-3417.8602365064298,2750.7654159563808,21166.457085769442,0.0
345012.02908761695,3987225.878295721,-17500.0,-500.98798187639773,5355.1394448906285,-19167.670404691555,-1375.7487982500347,5714.0177018156437,-1212.713466938741,11599.20306658124,-5664.3272063490958,5240.3497763516434,-5240.3497763516434,5664.3272063490958,22920.005166202722,0.0
350012.02908761695,3987225.878295721,-17500.0,55.947470946626439,3450.3323764189131,-21412.988114955249,-847.38719932931212,6284.980750847657,-1320.1405668367831,12213.118498378708,-8568.5124144138681,6709.9436655737518,-6709.9436655737518,8568.5124144138681,24282.446187961865,0.0
355012.02908761695,3987225.878295721,-17500.0,258.44868088275302,1259.4706785528451,-22789.360173073284,-247.74086250842078,6641.1584304313274,-1390.0476195745011,12650.80025235102,-11203.330325358784,7673.1143816324766,-7673.1143816324766,11203.330325358784,25163.121568304337,0.0
360012.02908761695,3987225.878295721,-17500.0,77.207396441122825,-1003.1876540837291,-23224.746013643446,372.38612579672775,6764.5275487729914,-1418.9118242532472,12861.975758815244,-13343.628888810723,8049.9753293871509,-8049.9753293871509,13343.628888810723,25516.045434863776,0.0
365012.02908761695,3987225.878295721,-17500.0,-454.23291506360596,-3128.7179417384791,-22754.187542755812,962.63466763932399,6661.1282607839357,-1407.0016418832799,12802.718322281566,-14834.541193270683,7843.5245606239932,-7843.5245606239932,14834.541193270683,25341.81443330193,0.0
370012.02908761695,3987225.878295721,-17500.0,-1252.1038872708677,-4946.7392155322641,-21503.061678511738,1480.5064827989756,6357.9935147811548,-1358.0850341185492,12486.808675431503,-15609.132106152178,7130.0559768491739,-7130.0559768491739,15609.132106152178,24682.482315863352,0.0
375012.02908761695,3987225.878295721,-17500.0,-2204.2048003155687,-6345.8947344650478,-19655.992721626226,1896.3443284836428,5896.8321493756175,-1278.6040960374726,11951.304768091946,-15686.304191676525,6036.0179273310132,-6036.0179273310132,15686.304191676525,23611.277370740059,0.0
380012.02908761695,3987225.878295721,-17500.0,-3193.5119002945912,-7279.2132947096497,-17421.32984325046,2195.1842651699394,5326.38151539296,-1176.5480549454787,11244.24051480171,-15153.205566650231,4709.6455515961861,-4709.6455515961861,15153.205566650231,22219.907775389973,0.0
385012.02908761695,3987225.878295721,-17500.0,-4117.4972974757329,-7756.740583116788,-14999.878775152953,2375.7573035386599,4695.2735364724094,-1060.2975672783198,10417.232364139292,-14139.636817395385,3295.1351674434554,-3295.1351674434554,14139.636817395385,20606.135809453237,0.0
390012.02908761695,3987225.878295721,-17500.0,-4899.9474529867512,-7830.5018350091659,-12563.014763587238,2447.5629970046057,4046.6532439764028,-937.66096493697921,9519.9731315603003,-12791.939987909969,1914.237752601578,-1914.237752601578,12791.939987909969,18863.556429000924,0.0
395012.02908761695,3987225.878295721,-17500.0,-5495.0098682320058,-7577.1075361621197,-10241.442026354553,2427.1132604019786,3415.0205518021958,-815.22243926789054,8596.7831907586788,-11251.609749153638,656.74133212518518,-656.74133212518518,11251.609749153638,17074.50527675133,0.0
400012.02908761695,3987225.878295721,-17500.0,-5885.1532091546551,-7082.0269028385073,-8123.1031948626387,2334.2759688453116,2825.1504731426903,-698.02519602924917,7686.7624241298736,-9641.0329429013091,-421.25178807839984,421.25178807839984,9641.0329429013091,15306.192337331546,0.0
405012.02908761695,3987225.878295721,-17500.0,-6075.4933215497904,-6427.7056709750013,-6257.3638632406892,2189.3011345994782,2292.5663162563501,-589.53473465591844,6834.1643039479559,-8056.3478926672324,-1293.6659922017066,1293.6659922017066,8056.3478926672324,13609.535358202715,0.0
410012.02908761695,3987225.878295721,-17500.0,-6086.759658771598,-5686.0902829633696,-4662.5339594145935,2010.7637612349806,1824.9542289151166,-491.79594789790247,6061.0151774301348,-6566.0283684015576,-1957.9731253508239,1957.9731253508239,6566.0283684015576,12019.954297173117,0.0
285012.02908761695,3992225.878295721,-17500.0,-2018.7690235408438,-428.21735048746973,4863.7343299243912,-157.56931442679902,-961.27233647805508,119.29954574999708,3570.3672814816355,2515.5836941240636,-3050.7759253544186,3050.7759253544186,-2515.5836941240636,6373.511873239353,0.0
290012.02908761695,3992225.878295721,-17500.0,-2592.1390103718913,292.96818104167028,4671.9626346590358,-356.74634659463476,-860.02397231202008,91.000316956337002,3744.0610300629623,3103.432685314523,-3521.3492547797623,3521.3492547797623,-3103.432685314523,6582.8588917956149,0.0
295012.02908761695,3992225.878295721,-17500.0,-3127.6665368379522,1147.0649677656172,4239.1338789723841,-582.36390829251093,-694.72247904001233,50.660923978009713,3958.1974064617402,3670.0123829287659,-3904.0756077360929,3904.0756077360929,-3670.0123829287659,6882.5899928123563,0.0
300012.02908761695,3992225.878295721,-17500.0,-3582.9671709223908,2114.3165897568701,3505.8445988346512,-827.50882226699298,-452.79366834151449,-3.5679638714361528,4233.5278630038138,4160.9601505909886,-4144.7300306796224,4144.7300306796224,-4160.9601505909886,7332.8061858407355,0.0
305012.02908761695,3992225.878295721,-17500.0,-3911.6127768122342,3155.675659082649,2416.7555993951951,-1080.8819778564525,-123.4397649253349,-73.105978120116532,4591.3897385180562,4507.1316931161418,-4184.4320098286171,4184.4320098286171,-4507.1316931161418,7994.7727913135022,0.0
310012.02908761695,3992225.878295721,-17500.0,-4068.7246625962671,4210.0202009886661,929.97511646475482,-1326.4870783985248,300.25144469588042,-158.61306995688244,5048.5534295367852,4628.0113095712131,-3966.4635282345334,3966.4635282345334,-4628.0113095712131,8913.6112305645074,0.0
315012.02908761695,3992225.878295721,-17500.0,-4018.8506859383183,5194.3751290711907,-971.28683580206143,-1544.0308303891372,818.86038827428115,-259.63497674724744,5611.7368689901859,4439.2017878157549,-3446.0009116897736,3446.0009116897736,-4439.2017878157549,10103.028646661451,0.0
320012.02908761695,3992225.878295721,-17500.0,-3745.1879503914784,6008.7357545129489,-3266.4403033434915,-1710.3029216388518,1424.2380963076696,-374.28635716804672,6273.809679854563,3864.3440352734542,-2601.7706197481784,2601.7706197481784,-3864.3440352734542,11539.231017423663,0.0
325012.02908761695,3992225.878295721,-17500.0,-3258.209097283971,6546.5016468891336,-5887.4515474584005,-1801.6566963961452,2097.7415055529841,-499.05216048182217,7012.8207460136719,2850.5439580595194,-1447.410340223455,1447.410340223455,-2850.5439580595194,13163.960865718536,0.0
330012.02908761695,3992225.878295721,-17500.0,-2600.95472472338,6710.153637157905,-8714.6332873926458,-1797.4291105633702,2809.7896160959872,-628.79188683986877,7793.7171012022927,1384.678570725237,-39.247252577557447,39.247252577557447,-1384.678570725237,14892.251484456167,0.0
335012.02908761695,3992225.878295721,-17500.0,-1848.2219865642689,6429.8269137728457,-11581.688091312206,-1683.7749226396124,3521.3279756649331,-757.01226032523482,8572.0672596518161,-493.60590695660858,1523.0498561669485,-1523.0498561669485,493.60590695660858,16621.820673217451,0.0
340012.02908761695,3992225.878295721,-17500.0,-1098.0326924394853,5680.5166540457458,-14291.6349590547,-1457.067470691951,4187.4239263931722,-876.42169219887012,9299.2281124103538,-2686.9200604224534,3105.3508363671745,-3105.3508363671745,2686.9200604224534,18243.398867295855,0.0
345012.02908761695,3992225.878295721,-17500.0,-456.06094665255404,4492.8025980945413,-16642.146284656061,-1125.9055398933904,4762.6349613645843,-979.71434012342206,9929.0039191463729,-5046.6527563017362,4557.2918786898654,-4557.2918786898654,5046.6527563017362,19651.833595561286,0.0
350012.02908761695,3992225.878295721,-17500.0,-16.352962814315028,2953.0031940138606,-18455.380049523093,-710.98267444746659,5207.1804422413588,-1060.4574058464821,10430.4356866913,-7391.3916378862014,5736.404477071057,-5736.404477071057,7391.3916378862014,20757.09423406277,0.0
355012.02908761695,3992225.878295721,-17500.0,156.53261560927939,1191.5829110384948,-19605.185246142268,-242.61814314066092,5492.5594218409242,-1113.9130033665551,10805.002875626362,-9533.7472207214432,6532.1825981983457,-6532.1825981983457,9533.7472207214432,21493.584257552015,0.0
360012.02908761695,3992225.878295721,-17500.0,38.954224755618291,-637.66319735549416,-20034.826072389722,243.57821668484567,5605.3034618323372,-1137.621176362964,11003.040567737135,-11309.095573169934,6883.7168711707327,-6883.7168711707327,11309.095573169934,21826.103266224614,0.0
365012.02908761695,3992225.878295721,-17500.0,-349.74131119598076,-2382.209141733123,-19761.173146594698,711.87944503582821,5548.0498634624419,-1131.6252521187969,10990.52500039691,-12599.05131157691,6786.5289884456397,-6786.5289884456397,12599.05131157691,21751.441139727911,0.0
370012.02908761695,3992225.878295721,-17500.0,-954.30579493062044,-3912.9663676598134,-18865.459052522896,1131.2480451374215,5337.8740056271754,-1098.305523455218,10776.118905954321,-13344.457972692719,6287.8000623917387,-6287.8000623917387,13344.457972692719,21295.603448462312,0.0
375012.02908761695,3992225.878295721,-17500.0,-1696.9189351520959,-5139.2260686644513,-17474.366191129979,1478.7804662523524,5002.5334062326046,-1041.8846450171998,10384.738963387994,-13546.217569481714,5472.6327051607313,-5472.6327051607313,13546.217569481714,20507.632993544765,0.0
380012.02908761695,3992225.878295721,-17500.0,-2492.5684177119047,-6014.3862849074612,-15737.074526138847,1741.2999284012947,4575.6850928985659,-967.73621583020815,9849.9261736130939,-13255.834517912132,4445.9895133351465,-4445.9895133351465,13255.834517912132,19451.562672302814,0.0
385012.02908761695,3992225.878295721,-17500.0,-3262.6430754596063,-6533.2521507143465,-13803.663520785791,1915.1469791023301,4092.1733982848937,-881.65096634473275,9208.9630190508669,-12559.742503235828,3315.0540883245394,-3315.0540883245394,12559.742503235828,18198.117654549282,0.0
390012.02908761695,3992225.878295721,-17500.0,-3944.3353728546017,-6723.5450068224072,-11808.546373273717,2004.62419917585,3584.204864738168,-789.19484728517978,8498.9454979384027,-11561.947479431979,2175.4283575474865,-2175.4283575474865,11561.947479431979,16817.452770189571,0.0
395012.02908761695,3992225.878295721,-17500.0,-4495.143544092206,-6634.7974702220909,-9860.4284431992764,2019.7187879369048,3078.8188440619829,-695.24023944139708,7753.9168319726759,-10368.586468145053,1102.6921265082201,-1102.6921265082201,10368.586468145053,15373.67528521006,0.0
400012.02908761695,3992225.878295721,-17500.0,-4893.0846618970172,-6327.3637318126948,-8038.484608921719,1973.6895693958788,2596.6869449285564,-603.69907736897164,7003.3110464681695,-9076.4833477222419,149.2094442123971,-149.2094442123971,9076.4833477222419,13921.404344128954,0.0
290012.02908761695,3997225.878295721,-17500.0,-2490.7943637635303,702.79746626720748,3763.5889124135711,-414.89877550154432,-628.09163478924393,52.477052826880467,3285.6072012681793,2950.8188532150466,-3205.6653213882551,3205.6653213882551,-2950.8188532150466,5732.4199577191475,0.0
295012.02908761695,3997225.878295721,-17500.0,-2893.2479338242947,1452.4444485336739,3263.95099619539,-602.29325489080531,-463.67545647663252,15.925101122245122,3487.2870083349785,3374.7733705810706,-3451.6488996238913,3451.6488996238913,-3374.7733705810706,6043.5147242963631,0.0
300012.02908761695,3997225.878295721,-17500.0,-3215.0980606470912,2273.9569270373031,2506.9033734112686,-800.09863406259979,-237.18148059222642,-31.336535075794313,3746.704142823231,3711.0273522542184,-3563.2619412194927,3563.2619412194927,-3711.0273522542184,6500.9252266898256,0.0
305012.02908761695,3997225.878295721,-17500.0,-3422.600197163275,3130.4013433712994,1456.4159305656883,-998.56347883846695,57.855251403773025,-90.076062208080401,4078.3253288909427,3904.3021324744759,-3497.7733947389152,3497.7733947389152,-3904.3021324744759,7144.9802624012354,0.0
310012.02908761695,3997225.878295721,-17500.0,-3485.6032045052179,3969.3639776040854,89.768977096057952,-1184.8216823718819,424.48131964463323,-160.4500848070152,4491.2757072396007,3893.7599643488352,-3217.1120584551622,3217.1120584551622,-3893.7599643488352,7998.1736122700813,0.0
315012.02908761695,3997225.878295721,-17500.0,-3383.2136617989095,4724.4172036103209,-1594.4324941872069,-1343.4192999537377,860.72759108774869,-241.78130273930239,4986.133212392142,3619.3044758183391,-2694.9469186129004,2694.9469186129004,-3619.3044758183391,9057.9377473511231,0.0
320012.02908761695,3997225.878295721,-17500.0,-3109.8345184856339,5319.7862464844266,-3568.5693002250196,-1457.4869435498906,1358.1822096551261,-332.37695075405441,5553.2713046172275,3030.4800931524801,-1924.4386385619978,1924.4386385619978,-3030.4800931524801,10295.920695704266,0.0
325012.02908761695,3997225.878295721,-17500.0,-2680.2176754436728,5678.5266521185495,-5770.5551571113492,-1510.5714944034748,1901.1074402264987,-429.43786443538943,6173.0139483100193,2097.0283795966657,-925.07134684380662,925.07134684380662,-2097.0283795966657,11661.773739642322,0.0
330012.02908761695,3997225.878295721,-17500.0,-2131.8534124179082,5733.6016103399306,-8102.7989499593405,-1488.9619995047008,2466.4959569952562,-529.10700503241981,6817.2836562470939,819.19073126356898,253.49315108081561,-253.49315108081561,-819.19073126356898,13088.746726538362,0.0
335012.02908761695,3997225.878295721,-17500.0,-1523.2001806529795,5440.1076944110064,-10437.352582964983,-1384.1419107229538,3025.360655086376,-626.68781435071287,7452.3258384962883,-764.8804958822368,1532.5070410439496,-1532.5070410439496,764.8804958822368,14499.923388963705,0.0
340012.02908761695,3997225.878295721,-17500.0,-927.09592349024626,4785.9382187159854,-12627.806344525954,-1194.8444670237184,3545.3129171554401,-717.03489765498296,8042.2657124888374,-2577.2974449127096,2811.2738845940776,-2811.2738845940776,2577.2974449127096,15815.02191172783,0.0
345012.02908761695,3997225.878295721,-17500.0,-420.05284506648712,3797.9009895292047,-14526.642225103389,-928.16026668797542,3994.1477673040058,-795.0731791689368,8553.8447253218019,-4505.9528114795457,3979.8556498112489,-3979.8556498112489,4505.9528114795457,16957.667755548424,0.0
350012.02908761695,3997225.878295721,-17500.0,-69.595027195184542,2541.0728530962547,-16004.904929694543,-599.30044313411531,4343.8272080446723,-856.36931523944872,8968.4485961381743,-6417.2941428025752,4935.0630554652344,-4935.0630554652344,6417.2941428025752,17862.552018214439,0.0
355012.02908761695,3997225.878295721,-17500.0,77.309923623403449,1110.8814683039247,-16969.930324631438,-229.93441484278728,4574.0613216664196,-897.65006718609084,9291.9775641276356,-8174.1025668403599,5596.1437138037509,-5596.1437138037509,8174.1025668403599,18481.489745363557,0.0
360012.02908761695,3997225.878295721,-17500.0,1.7980613212005352,-380.52714070911765,-17377.119383574762,154.60545258910054,4674.7308089522976,-917.16904537277048,9473.7493383058445,-9654.4119637414642,5916.4299872723786,-5916.4299872723786,9654.4119637414642,18787.390832117897,0.0
365012.02908761695,3997225.878295721,-17500.0,-285.12430289647244,-1820.4448585698035,-17233.311771951416,528.65384973755488,4646.672634355109,-914.85317762617615,9489.7842810257735,-10767.309547078006,5888.3314159816509,-5888.3314159816509,10767.309547078006,18775.51695050508,0.0
370012.02908761695,3997225.878295721,-17500.0,-746.6122292318455,-3110.5941137540631,-16591.627801963154,869.37329351536266,4500.7675031505214,-892.20888151511656,9345.814658826519,-11462.406293173884,5541.0305765434459,-5541.0305765434459,11462.406293173884,18461.96839469545,0.0
375012.02908761695,3997225.878295721,-17500.0,-1328.2528289148001,-4177.9416022087053,-15539.790116846472,1159.1409348501709,4255.6725259692612,-852.02397845374276,9058.810459766748,-11731.694078667855,4932.2215075171898,-4932.2215075171898,11731.694078667855,17879.910157212827,0.0
380012.02908761695,3997225.878295721,-17500.0,-1968.147195038815,-4979.8349137642381,-14185.165909005274,1386.8236842662202,3934.7980190853509,-797.93821855956435,8652.4065171498314,-11604.571222927245,4136.5188905248724,-4136.5188905248724,11604.571222927245,17074.408151461448,0.0
385012.02908761695,3997225.878295721,-17500.0,-2606.4020542796325,-5503.5838767983396,-12639.884026249432,1547.9109254527305,3563.1842889050681,-733.97339027522435,8153.6869605830552,-11138.254698391309,3233.4419012409862,-3233.4419012409862,11138.254698391309,16096.862017924088,0.0
390012.02908761695,3997225.878295721,-17500.0,-3192.3284890414889,-5761.8275220803307,-11008.566120260753,1643.7241243499886,3164.81167135636,-664.10482181186728,7590.4232596597403,-10406.30626869464,2297.2847461408578,-2297.2847461408578,10406.30626869464,14999.874583013865,0.0
395012.02908761695,3997225.878295721,-17500.0,-3688.597739486052,-5785.5593156139857,-9379.9943409938369,1680.0542050120691,2760.6553673655053,-591.92803734085805,6988.8877199183453,-9487.6750731348911,1390.1644873057476,-1390.1644873057476,9487.6750731348911,13833.120555012569,0.0
295012.02908761695,4002225.878295721,-17500.0,-2641.2832716599341,1634.8186380619466,2451.095586230389,-595.49037154998234,-286.7034411655045,-7.5917726930787328,3097.0237220469066,3059.7248779379802,-3021.6401467743203,3021.6401467743203,-3059.7248779379802,5365.1856735711508,0.0
300012.02908761695,4002225.878295721,-17500.0,-2863.2945750386921,2326.1857870170061,1701.563937984838,-754.14312203387681,-79.273083023555358,-48.269079449582435,3340.3821780136354,3275.8724087534756,-3041.907577796499,3041.907577796499,-3275.8724087534756,5819.8434553337329,0.0
305012.02908761695,4002225.878295721,-17500.0,-2985.2131688535528,3026.2700089107593,712.24847754647021,-908.97312609415189,181.61387047978616,-97.522894993915003,3645.1569802735894,3357.4490493682488,-2909.4658900289405,2909.4658900289405,-3357.4490493682488,6433.1509726026588,0.0
310012.02908761695,4002225.878295721,-17500.0,-2987.3217056460016,3691.2996603383317,-527.07277010080668,-1049.8021070841294,496.69137215017582,-155.23794510280425,4015.3591733700118,3259.078077925356,-2599.4782322660217,2599.4782322660217,-3259.078077925356,7213.1360787936273,0.0
315012.02908761695,4002225.878295721,-17500.0,-2858.1863510245425,4268.7741199993043,-2009.1348030149966,-1164.9511300198756,862.80714864282606,-220.6831180295853,4448.2149862281485,2938.4331599563998,-2097.6784664245538,2097.6784664245538,-2938.4331599563998,8149.2254250548522,0.0
320012.02908761695,4002225.878295721,-17500.0,-2598.539977772311,4701.5250425507129,-3704.4786884447381,-1242.1797336257391,1272.09486074847,-292.41085727250999,4933.6164062077023,2362.7350673681644,-1405.4426930183909,1405.4426930183909,-2362.7350673681644,9213.4949976469106,0.0
325012.02908761695,4002225.878295721,-17500.0,-2224.1592918863143,4933.9370922705757,-5558.6852783863606,-1270.0133071565917,1711.5765592570451,-368.22356060117761,5454.662991145171,1515.9116573076244,-543.81239805216774,543.81239805216774,-1515.9116573076244,10363.914172051909,0.0
330012.02908761695,4002225.878295721,-17500.0,-1766.7259639707127,4919.7303919627375,-7492.8323210492417,-1239.3210796539936,2163.4200581539949,-445.23371234631014,5989.0307531562803,405.09081940943867,444.79633736636873,-444.79633736636873,-405.09081940943867,11548.237597782343,0.0
335012.02908761695,4002225.878295721,-17500.0,-1271.8748740450976,4630.054087742481,-9408.0811355176284,-1144.8939330849794,2605.9938754777163,-520.0325775209235,6510.9418960609901,-935.22907763666797,1498.2834948108602,-1498.2834948108602,935.22907763666797,12708.203032926283,0.0
340012.02908761695,4002225.878295721,-17500.0,-794.20782784937091,4060.1692808471985,-11194.482890235022,-986.69854846032592,3015.7082855951885,-588.96266374314189,6993.6548630879488,-2442.87371707682,2540.4202350232845,-2540.4202350232845,2442.87371707682,13784.106367408389,0.0
345012.02908761695,4002225.878295721,-17500.0,-389.86653462588919,3232.9586704825128,-12743.003394626778,-770.48867475942586,3369.4356339010724,-648.46406296753548,7413.0505787164248,-4032.4367419683035,3489.7756126858253,-3489.7756126858253,4032.4367419683035,14719.670018932609,0.0
350012.02908761695,4002225.878295721,-17500.0,-108.06439667493113,2198.0334290842738,-13958.732004425594,-507.55817745031345,3647.1246787049445,-695.44483491282085,7760.7416182758661,-5604.2433661641353,4270.5005576375734,-4270.5005576375734,5604.2433661641353,15466.798369182683,0.0
355012.02908761695,4002225.878295721,-17500.0,16.559356539564384,1026.2374124018991,-14772.674217575935,-213.60770211685602,3834.1274689129423,-727.61318787304492,8041.7974492769345,-7056.3633437548242,4822.7622497266084,-4822.7622497266084,7056.3633437548242,15989.604613044996,0.0
360012.02908761695,4002225.878295721,-17500.0,-30.986861367966515,-199.47124374386507,-15149.713914760188,93.09156809717706,3922.7920148074281,-743.71200330970748,8206.2777010538884,-8297.3139509943067,5110.5813196961481,-5110.5813196961481,8297.3139509943067,16267.103122053642,0.0
365012.02908761695,4002225.878295721,-17500.0,-244.62777823692153,-1394.8364683065372,-15091.237299314987,393.88045232231121,3913.0335184648411,-743.61642422225725,8239.1564781051711,-9256.8637677069564,5125.4685883590519,-5125.4685883590519,9256.8637677069564,16294.175034649623,0.0
370012.02908761695,4002225.878295721,-17500.0,-599.53905689295357,-2484.5786413419028,-14632.239534025441,671.82014784038086,3811.8337363135688,-728.28158462212616,8144.3022631436779,-9892.923966546361,4885.3860487236379,-4885.3860487236379,9892.923966546361,16080.743182363578,0.0
375012.02908761695,4002225.878295721,-17500.0,-1057.3502958773922,-3410.2121078465029,-13834.00869794637,913.3537605550772,3631.8531807490699,-699.56123237985287,7933.3935397145096,-10193.596276592798,4429.720105326398,-4429.720105326398,10193.596276592798,15649.431916150896,0.0
380012.02908761695,4002225.878295721,-17500.0,-1572.8081135935388,-4134.3208245751312,-12774.285808885254,1109.2913567752512,3389.4980742895109,-659.93855697874051,7623.2294587280203,-10174.659664514273,3811.7761453994149,-3811.7761453994149,10174.659664514273,15032.212775691944,0.0
385012.02908761695,4002225.878295721,-17500.0,-2100.3918531508607,-4641.1700995662195,-11536.991080014723,1255.067318383534,3102.8402197019282,-612.22264805612042,7233.6050063755374,-9873.7109639871978,3090.5806684864492,-3090.5806684864492,9873.7109639871978,14266.643712135839,0.0
390012.02908761695,4002225.878295721,-17500.0,-2599.7054714215869,-4934.3088490054279,-10203.243752492424,1350.3685525856929,2789.7326220537225,-559.26112886572923,6785.3750003402811,-9342.597456201931,2323.5359721648406,-2323.5359721648406,9342.597456201931,13392.248714051169,0.0
305012.02908761695,4007225.878295721,-17500.0,-2600.5070897906021,2875.2618805129973,141.99496624705438,-819.29344350918154,263.07750715885703,-98.810772806122444,3274.9745446311863,2871.216314932165,-2411.0817107112935,2411.0817107112935,-2871.216314932165,5825.945580377168,0.0
310012.02908761695,4007225.878295721,-17500.0,-2564.5210776616609,3400.9352227283894,-971.65825413964888,-925.50502736254168,532.72338374750279,-146.06925900599589,3604.9571544498785,2716.606978821168,-2093.4142366396318,2093.4142366396318,-2716.606978821168,6531.0031102947478,0.0
315012.02908761695,4007225.878295721,-17500.0,-2424.7904326752432,3841.3192458837948,-2270.639279294629,-1008.6938323878356,839.78953822143626,-198.77897908422705,3982.5465974136737,2376.1545518037947,-1623.8126264827042,1623.8126264827042,-2376.1545518037947,7353.3038242003495,0.0
320012.02908761695,4007225.878295721,-17500.0,-2185.3962468772834,4153.3579486591771,-3726.4187377553862,-1059.9761479252068,1177.2909788124593,-255.73774275339258,4398.1619349635221,1829.0440745628057,-1008.0347746011536,1008.0347746011536,-1829.0440745628057,8267.5157461271683,0.0
325012.02908761695,4007225.878295721,-17500.0,-1861.4945312326781,4296.757289352985,-5292.3982587995251,-1071.3251160249135,1534.6705917913844,-315.23439962544126,4837.6237805081,1067.9712383423623,-266.46683566135431,266.46683566135431,-1067.9712383423623,9239.172800157965,0.0
330012.02908761695,4007225.878295721,-17500.0,-1479.4054994962453,4239.4446272052155,-6904.9895894446563,-1036.6418182735611,1898.1129196991037,-375.10670241810999,5283.2257851752702,103.22183915904853,565.31033933200536,-565.31033933200536,-103.22183915904853,10227.362979854097,0.0
335012.02908761695,4007225.878295721,-17500.0,-1074.8055021978182,3962.96319073726,-8487.4515550156593,-952.7776598102098,2251.374636897548,-432.86818067478379,5715.157605024744,-1035.0341075281751,1438.2819331592329,-1438.2819331592329,1035.0341075281751,11187.605195446286,0.0
340012.02908761695,4007225.878295721,-17500.0,-688.98854869083982,3466.7034992968292,-9956.3971009638317,-820.30627291760209,2577.0998891053882,-485.89803134171945,6113.2844886785106,-2297.1251090673049,2294.2551978836018,-2294.2551978836018,2297.1251090673049,12074.989355933285,0.0
345012.02908761695,4007225.878295721,-17500.0,-363.66182218469146,2769.9164333422646,-11230.219690571172,-643.85872466047294,2858.4723471996149,-531.67365044425003,6460.1086223152561,-3617.3716813110946,3072.1850479935497,-3072.1850479935497,3617.3716813110946,12847.496387282952,0.0
350012.02908761695,4007225.878295721,-17500.0,-135.18838877146803,1910.8149174728067,-12238.113702128116,-431.90247180658309,3080.9579772236725,-568.01334304373688,6756.7241983442409,-4920.4489681787672,3715.5646028596298,-3715.5646028596298,4920.4489681787672,13469.218865273442,0.0
355012.02908761695,4007225.878295721,-17500.0,-29.439480156236726,942.70239646891753,-12928.064841930533,-195.95918233049161,3233.8442460231454,-593.29212089400141,7000.9959979003552,-6129.6468849708608,4179.4936073314466,-4179.4936073314466,6129.6468849708608,13913.089207746241,0.0
360012.02908761695,4007225.878295721,-17500.0,-58.327180115005646,-72.242616560453982,-13272.32380699707,50.622467609286986,3311.3045496861455,-606.5941327037558,7148.4608015904978,-7175.5538824263886,4436.0416600161943,-4436.0416600161943,7175.5538824263886,14162.735053525239,0.0
365012.02908761695,4007225.878295721,-17500.0,-218.69661317995488,-1070.3356099943539,-13269.414816354565,294.12134497622509,3312.8134361620814,-607.77872193466249,7190.6524893760925,-8003.5534109619948,4476.9022167189214,-4476.9022167189214,8003.5534109619948,14213.212345771713,0.0
370012.02908761695,4007225.878295721,-17500.0,-493.66674878989289,-1993.5207707840166,-12942.51572960223,521.87002444884774,3242.8732795461151,-597.45219261470004,7130.1541645527877,-8578.8525961845735,4312.9976966134673,-4312.9976966134673,8578.8525961845735,14070.561628034602,0.0
375012.02908761695,4007225.878295721,-17500.0,-855.94782988238967,-2795.0359721482405,-12334.812190840779,723.41845969827591,3110.1531735623871,-576.85610012694895,6975.0682395539116,-8888.3769627185884,3971.3881015236202,-3971.3881015236202,8888.3769627185884,13750.335074840599,0.0
380012.02908761695,4007225.878295721,-17500.0,-1272.2846854775244,-3442.8441241320347,-11502.958570916267,891.28173873860487,2926.2397189984863,-547.69708440413649,6737.4328148863688,-8939.6003630781779,3490.3654593937399,-3490.3654593937399,8939.6003630781779,13275.392569397445,0.0
320012.02908761695,4012225.878295721,-17500.0,-1849.9273387339051,3670.9525445914687,-3671.6620374576937,-906.29127550549049,1080.8197445246194,-222.88059785789687,3933.5306602386631,1402.9395381855186,-703.91782115472756,703.91782115472756,-1402.9395381855186,7438.1670629525024,0.0
325012.02908761695,4012225.878295721,-17500.0,-1570.8100064703845,3751.8258855104614,-4998.6886617176278,-907.05381436267407,1372.8418117160629,-269.81492514191473,4305.5106253426375,722.92255942765235,-65.80507371092267,65.80507371092267,-722.92255942765235,8261.5682384523207,0.0
330012.02908761695,4012225.878295721,-17500.0,-1250.9205429390167,3668.8414698892939,-6350.3312060327908,-871.44586214965273,1667.0497324282344,-316.66311281486338,4679.0869881001963,-115.24674549223482,636.47611082784147,-636.47611082784147,115.24674549223482,9090.5225182354116,0.0
335012.02908761695,4012225.878295721,-17500.0,-918.23583628355379,3410.3083714644595,-7666.6669929642903,-797.60472990701214,1951.164387262663,-361.60062626480754,5038.930945189918,-1085.6828454700058,1364.1388926485815,-1364.1388926485815,1085.6828454700058,9890.7955750286346,0.0
340012.02908761695,4012225.878295721,-17500.0,-604.25812129405074,2977.8437777944509,-8883.8545854684817,-686.36607772893535,2212.290658047018,-402.73358575121381,5369.739489157756,-2148.6043612690701,2072.3892594560739,-2072.3892594560739,2148.6043612690701,10628.241497057976,0.0
345012.02908761695,4012225.878295721,-17500.0,-340.32974463127857,2387.5188591305327,-9940.1053432733297,-541.44427826955086,2438.057710912271,-438.25611064675388,5659.0166236449586,-3253.0479736651687,2714.9506454489174,-2714.9506454489174,3253.0479736651687,11271.105128213745,0.0
350012.02908761695,4012225.878295721,-17500.0,-153.65907976700774,1669.0506065328261,-10781.938974438219,-369.24768440003436,2617.7982127419455,-466.61114491133543,5916.7650443550037,-4341.4354482311364,3249.2043858506854,-3249.2043858506854,4341.4354482311364,11792.241269550637,0.0
355012.02908761695,4012225.878295721,-17500.0,-63.796094980780076,863.03766744009431,-11369.689667681885,-178.3322285687359,2743.5828207985073,-486.63270960395613,6128.340233941507,-5355.3439189853907,3641.0583640013297,-3641.0583640013297,5355.3439189853907,12170.995185176174,0.0
360012.02908761695,4012225.878295721,-17500.0,-80.225898594886999,16.650453078825663,-11681.32586559403,21.431987123611258,2810.9431560797743,-497.64631670709571,6259.81644364351,-6241.5398809265726,3868.6749409314534,-3868.6749409314534,6241.5398809265726,12394.500322082062,0.0
365012.02908761695,4012225.878295721,-17500.0,-201.51540837409544,-821.47143017509461,-11713.97879252956,219.84520368754508,2819.1740900820387,-499.5144752776431,6306.5007447746193,-6957.2544647297436,3924.4173595875527,-3924.4173595875527,6957.2544647297436,12458.233526156939,0.0
335012.02908761695,3797225.878295721,-22500.0,-103.91277090177277,-1112.2812495492662,-11560.354879818698,-385.55417503697004,-3634.5566069884221,-845.36992965862498,6531.7739495241622,-7023.2481030703839,3878.2184099553615,-3878.2184099553615,7023.2481030703839,12926.439319699306,0.0
340012.02908761695,3797225.878295721,-22500.0,57.82933293121846,-250.06776736540377,-11623.194838605399,-127.55264993185048,-3648.9190992767485,-846.97500953500821,6515.7760404316186,-6355.02730390952,3891.8339045822859,-3891.8339045822859,6355.02730390952,12918.057039618929,0.0
345012.02908761695,3797225.878295721,-22500.0,107.29975606742005,637.51874220750176,-11400.831566370573,136.69932298781507,-3585.6402252199896,-832.86923485519105,6413.0685966204646,-5499.7724537618142,3725.6719350404642,-3725.6719350404642,5499.7724537618142,12741.554617942424,0.0
350012.02908761695,3797225.878295721,-22500.0,39.227090048311453,1499.0310714847528,-10889.643951737324,393.59638688137909,-3444.0345643885285,-802.99636603465069,6232.7046549348506,-4498.0490022485183,3382.215657104437,-3382.215657104437,4498.0490022485183,12398.998754225937,0.0
355012.02908761695,3797225.878295721,-22500.0,-139.64377095107494,2282.8197396278874,-10106.389519449087,629.54583286698244,-3228.5186302514944,-758.24961104191402,5996.1629885041384,-3402.9724947202317,2879.4922376824275,-2879.4922376824275,3402.9724947202317,11901.511932080906,0.0
360012.02908761695,3797225.878295721,-22500.0,-410.94028835933989,2942.7049786906268,-9087.3833647104275,832.34501270479268,-2948.3895559989587,-700.42410405500584,5709.3143438089155,-2274.95852810513,2249.6834960586598,-2249.6834960586598,2274.95852810513,11268.926783213588,0.0
365012.02908761695,3797225.878295721,-22500.0,-746.86714073692008,3443.0493144558063,-7885.0722212525807,992.41057240917394,-2616.9957434975336,-632.06521722265779,5376.1537964075687,-1175.3559621463583,1535.6357716947477,-1535.6357716947477,1175.3559621463583,10528.581721641798,0.0
370012.02908761695,3797225.878295721,-22500.0,-1113.8456063895233,3762.33613080741,-6562.5301520954326,1103.6589580994603,-2250.4233708125485,-556.23381968114541,5009.2429017145178,-160.04463381427496,785.85417304568978,-785.85417304568978,160.04463381427496,9713.4067001565436,0.0
375012.02908761695,3797225.878295721,-22500.0,-1476.879795184575,3894.6613916969859,-5186.8373261990346,1163.9020495476482,-1865.9140256216151,-476.22554657546226,4624.3308340671374,725.90118332800182,48.904037799883554,-48.904037799883554,-725.90118332800182,8859.545701476045,0.0
380012.02908761695,3797225.878295721,-22500.0,-1803.8187596804826,3849.0264536385207,-3822.4700345267124,1174.7293933190879,-1480.26833846312,-395.28544053864948,4237.693885643097,1451.6817778332852,-631.78328959548674,631.78328959548674,-1451.6817778332852,8003.8004152714839,0.0
385012.02908761695,3797225.878295721,-22500.0,-2068.7712196264247,3646.7638744207361,-2525.7425120576299,1140.9441428002374,-1108.4728009568905,-316.35826025239874,3864.543124160577,2002.0029457277449,-1221.8620544337457,1221.8620544337457,-2002.0029457277449,7181.1303488309677,0.0
320012.02908761695,3802225.878295721,-22500.0,-1321.9106012234076,-3724.519440651718,-10942.659419388581,-1243.7740003280257,-3669.8440953428394,-906.10421863562851,6855.2952738507338,-8720.2446174374418,3158.1436108309554,-3158.1436108309554,8720.2446174374418,13542.244831242559,0.0
325012.02908761695,3802225.878295721,-22500.0,-862.73272377093986,-3115.7518309895395,-11859.42355718225,-1041.6219536865181,-3930.4700120935872,-960.07621836966007,7132.9004091860224,-8755.8995897398217,3707.7190540209431,-3707.7190540209431,8755.8995897398217,14092.220179051892,0.0
330012.02908761695,3802225.878295721,-22500.0,-450.31303468580762,-2336.2766387004217,-12570.085686490796,-791.9953970636966,-4129.6197124092041,-1000.4276420954786,7329.2154690915222,-8533.207066885001,4130.3821732691995,-4130.3821732691995,8533.207066885001,14489.370720302581,0.0
335012.02908761695,3802225.878295721,-22500.0,-122.16651717857179,-1414.1990416556448,-13011.806339984229,-503.40114958508093,-4250.8338861135644,-1023.9891073625092,7430.5050315603112,-8037.5098427432404,4382.0628275741255,-4382.0628275741255,8037.5098427432404,14707.168711099599,0.0
340012.02908761695,3802225.878295721,-22500.0,89.029120339439615,-394.26869802601703,-13133.282509405499,-188.5917416444623,-4280.9352883824567,-1028.2903765230969,7427.2520004195503,-7274.8668530953628,4428.4704566918817,-4428.4704566918817,7274.8668530953628,14726.05330352925,0.0
345012.02908761695,3802225.878295721,-22500.0,160.57836315304712,664.94869807618943,-12902.209227198224,136.24187501827961,-4211.8515740274361,-1011.8868335948217,7317.0877661797631,-6274.3125387558021,4250.9076830058721,-4250.9076830058721,6274.3125387558021,14536.04717072976,0.0
350012.02908761695,3802225.878295721,-22500.0,83.996223176551382,1696.5328561666329,-12311.143757362524,452.90022478998611,-4042.0080919051784,-974.59708627263763,7111.6340884577503,-5086.9376819138743,3850.4991057835141,-3850.4991057835141,5086.9376819138743,14138.678083928789,0.0
355012.02908761695,3802225.878295721,-22500.0,-132.72297704800485,2632.6351983066902,-11380.420821173046,743.05201412008819,-3776.9829471686685,-917.60410571989371,6833.9218605388533,-3781.4984468561547,3249.7236648972789,-3249.7236648972789,3781.4984468561547,13547.845699548894,0.0
360012.02908761695,3802225.878295721,-22500.0,-465.49340483638889,3412.6317597251809,-10157.226389323714,990.26134603437731,-3429.2353919081215,-843.39009252983044,6490.7219486906324,-2437.0285284788315,2490.6278458591314,-2490.6278458591314,2437.0285284788315,12789.4099026684,0.0
365012.02908761695,3802225.878295721,-22500.0,-877.27920031060944,3990.4414647858525,-8710.7459214079372,1181.7999373325529,-3016.8963407833589,-755.50875053460879,6090.3923825708116,-1133.7085604727472,1629.8508006602606,-1629.8508006602606,1133.7085604727472,11899.4843081241,0.0
370012.02908761695,3802225.878295721,-22500.0,-1323.3978545815346,4339.5877609136551,-7124.1967221118684,1309.9202829376522,-2561.8179902760498,-658.22958316991856,5650.3031429737348,56.305145341217383,731.37139181009252,-731.37139181009252,-56.305145341217383,10921.661832305143,0.0
375012.02908761695,3802225.878295721,-22500.0,-1757.8589936859705,4455.0890404547226,-5485.2675949516997,1372.3758704319723,-2087.2311031822819,-556.1142237204067,5191.2858265370942,1076.3680775531857,-141.56076463076397,141.56076463076397,-1076.3680775531857,9903.5580406069603,0.0
380012.02908761695,3802225.878295721,-22500.0,-2139.4206634837356,4352.0540726801128,-3876.7486733916958,1372.1554382151523,-1615.4209456777644,-453.59271435251037,4734.4570278255233,1889.9284152074802,-933.73903950845431,933.73903950845431,-1889.9284152074802,8893.1136669707685,0.0
385012.02908761695,3802225.878295721,-22500.0,-2436.2274308508322,4061.5880878198905,-2368.9416886280928,1316.557097157287,-1165.7928736524443,-354.6031325605411,4299.0681781568874,2481.7179163045298,-1603.2919415324154,1603.2919415324154,-2481.7179163045298,7935.0049579545421,0.0
390012.02908761695,3802225.878295721,-22500.0,-2628.3737569365858,3625.1205075618082,-1014.8301621301647,1215.8494999179318,-753.56817738504026,-262.33616536898438,3900.8124403947104,2855.8810411826926,-2124.3141667079026,2124.3141667079026,-2855.8810411826926,7067.3130051241251,0.0
395012.02908761695,3802225.878295721,-22500.0,-2708.2995818773265,3088.3893050997608,151.72469301693843,1081.8008362948858,-389.19386168852498,-179.10271846990554,3550.557005232341,3031.9273975683755,-2486.8633320973304,2486.8633320973304,-3031.9273975683755,6318.4453337224886,0.0
310012.02908761695,3807225.878295721,-22500.0,-2731.752197305359,-5086.6223732394747,-9355.2764246796669,-1799.1634146390249,-3414.3186978348899,-907.60963503589051,6806.7313507022045,-8829.3207502778205,1795.0987912117243,-1795.0987912117243,8829.3207502778205,13475.373342738094,0.0
315012.02908761695,3807225.878295721,-22500.0,-2213.9805532283649,-4868.6493942262432,-10720.90210153258,-1700.4695501963668,-3829.3617413907364,-999.5961236346219,7292.2958607228829,-9437.6637850848165,2591.9957868255542,-2591.9957868255542,9437.6637850848165,14420.512533481373,0.0
320012.02908761695,3807225.878295721,-22500.0,-1653.1786778384192,-4431.9398663600041,-12020.789671286931,-1535.8871836894511,-4218.2885846864274,-1084.2958148796902,7725.220908287105,-9833.6812474239905,3367.0780966133239,-3367.0780966133239,9833.6812474239905,15267.414275458821,0.0
325012.02908761695,3807225.878295721,-22500.0,-1090.3813928059312,-3765.7261832232502,-13173.458319220144,-1303.8779709786295,-4557.9473256782348,-1156.8597287937855,8083.2491501545373,-9959.7791842585211,4061.8870540368853,-4061.8870540368853,9959.7791842585211,15974.007961458514,0.0
330012.02908761695,3807225.878295721,-22500.0,-573.94532310362024,-2878.4858212503027,-14091.246152621055,-1008.3262558745195,-4824.0530441680894,-1212.3431863096675,8344.6947368505826,-9770.2603141387699,4613.3704132435169,-4613.3704132435169,9770.2603141387699,16499.006887829899,0.0
335012.02908761695,3807225.878295721,-22500.0,-154.22622354993183,-1801.5195300619821,-14689.112721031521,-659.30683338723668,-4993.5740226095722,-1246.1854164859251,8490.5718252031293,-9239.6939305097167,4961.2063094154564,-4961.2063094154564,9239.6939305097167,16805.701900116681,0.0
340012.02908761695,3807225.878295721,-22500.0,123.45330877320471,-589.59909098410458,-14895.397680291913,-273.06762611527893,-5047.5316138135759,-1254.7452013988636,8507.3162969560781,-8370.0894776510813,5056.5956941842542,-5056.5956941842542,8370.0894776510813,16866.109905205289,0.0
345012.02908761695,3807225.878295721,-22500.0,226.399200328169,682.28758616043058,-14662.854577188999,128.97535004113138,-4973.7771100086538,-1235.8081455691661,8391.0331020278863,-7195.014808611616,4870.9861192120652,-4870.9861192120652,7195.014808611616,16664.890678275366,0.0
350012.02908761695,3807225.878295721,-22500.0,141.06262578898259,1926.2879251631789,-13977.715046515725,522.23728671044205,-4769.2003147201431,-1188.9696321294741,8155.7191144121944,-5779.0892137514829,4402.755202477344,-4402.755202477344,5779.0892137514829,16202.351829567542,0.0
355012.02908761695,3807225.878295721,-22500.0,-123.23396835833287,3052.2544645019148,-12864.539276227108,881.71193306237831,-4440.8472590125766,-1115.8068357816624,7826.3698796054559,-4212.1726721369378,3679.9883599350119,-3679.9883599350119,4212.1726721369378,15495.927877409938,0.0
360012.02908761695,3807225.878295721,-22500.0,-534.58403930035627,3979.644973244418,-11385.273810524664,1185.0001365597175,-4005.6002127465417,-1019.7900496972115,7412.4327652736783,-2598.8384111553896,2758.2121413684063,-2758.2121413684063,2598.8384111553896,14579.710936542648,0.0
365012.02908761695,3807225.878295721,-22500.0,-1043.0320530594638,4648.2585046926342,-9632.2888743934691,1415.0251400975415,-3488.3902430566131,-905.93555006693305,6927.8345546390592,-1045.0721268139141,1713.2030788362517,-1713.2030788362517,1045.0721268139141,13502.003353269447,0.0
370012.02908761695,3807225.878295721,-22500.0,-1588.4323482500783,5025.5025276203205,-7716.6515510899053,1561.8981109627975,-2919.2526715007007,-780.25920089569399,6396.4969057049984,355.07800591951991,630.30255947413616,-630.30255947413616,-355.07800591951991,12321.225150431685,0.0
375012.02908761695,3807225.878295721,-22500.0,-2109.7951664723632,5108.749561909256,-5754.100808346594,1623.5952179808739,-2329.8046425693165,-649.12894663649058,5846.2085484930385,1530.140088386695,-407.39182819060011,407.39182819060011,-1530.140088386695,11100.799211547635,0.0
380012.02908761695,3807225.878295721,-22500.0,-2553.9908547376263,4922.6775086148664,-3851.6064861484551,1605.4111335175273,-1749.8215289598379,-518.63074298705305,5304.5580973376891,2437.2489830627737,-1329.433771456027,1329.433771456027,-2437.2489830627737,9903.7131744569797,0.0
385012.02908761695,3807225.878295721,-22500.0,-2882.0550951802534,4512.707881516104,-2096.9609656985108,1518.4308031976191,-1204.4963135756732,-394.0461010482411,4795.9447786351066,3062.9756877474065,-2085.1052057942952,2085.1052057942952,-3062.9756877474065,8787.2730686988743,0.0
390012.02908761695,3807225.878295721,-22500.0,-3072.1928160851885,3936.4141679182567,-552.79055826012018,1377.4421613682753,-712.73571508597752,-279.5051782795814,4339.2349464351937,3419.6753557779175,-2646.3214216936958,2646.3214216936958,-3419.6753557779175,7798.2482177463144,0.0
395012.02908761695,3807225.878295721,-22500.0,-3119.5301185422072,3254.8653353600307,744.86135615876424,1198.7502927000364,-286.56805494602952,-177.83441408261012,3946.1256007528309,3538.9315780048437,-3006.6405248430965,3006.6405248430965,-3538.9315780048437,6968.4321682123336,0.0
400012.02908761695,3807225.878295721,-22500.0,-3033.3888582426389,2525.4276859728434,1784.2083287896658,998.26982886150006,68.494153690684229,-90.580359121553514,3620.4492523424424,3463.9183850089407,-3177.4424090181606,3177.4424090181606,-3463.9183850089407,6311.0344527509724,0.0
405012.02908761695,3807225.878295721,-22500.0,-2833.1896125861017,1796.8426301719592,2573.0054054088378,790.12262670336122,352.43173514041916,-18.164248768840807,3358.6907606367377,3242.2295929340403,-3182.6531879385179,3182.6531879385179,-3242.2295929340403,5819.2931071073863,0.0
305012.02908761695,3812225.878295721,-22500.0,-3846.9479575968494,-5806.519262797774,-8321.3725588671186,-2187.9638784757749,-3312.5422325997606,-946.09050643214277,6941.7718853004299,-8731.007757240237,735.68991959144478,-735.68991959144478,8731.007757240237,13778.333759393401,0.0
310012.02908761695,3812225.878295721,-22500.0,-3355.3393590997825,-5873.4537593012983,-9930.9020962051291,-2170.6960029407323,-3832.5860047749238,-1068.04017325525,7574.0006995818867,-9703.2725449374684,1634.640379430055,-1634.640379430055,9703.2725449374684,15006.809428446604,0.0
315012.02908761695,3812225.878295721,-22500.0,-2757.5886665215112,-5711.9615450971114,-11578.361185473159,-2079.0467968503035,-4354.825673468813,-1188.0997581657612,8178.1871728539454,-10518.42955487881,2590.8410750761318,-2590.8410750761318,10518.42955487881,16181.896324706899,0.0
320012.02908761695,3812225.878295721,-22500.0,-2088.3895881948024,-5283.2915925140933,-13180.002709165297,-1903.4204098822133,-4853.4655355152026,-1300.4296342891691,8726.7387871638421,-11095.08627175417,3545.680189229859,-3545.680189229859,11095.08627175417,17252.867312882896,0.0
325012.02908761695,3812225.878295721,-22500.0,-1397.9843422442179,-4565.1844267191927,-14632.816496623436,-1639.4457628127993,-5297.918513039117,-1398.3637695696993,9190.2113943614549,-11353.413084175545,4425.2066303043794,-4425.2066303043794,11353.413084175545,18164.406297247606,0.0
330012.02908761695,3812225.878295721,-22500.0,-748.81660913759822,-3559.9871269962414,-15821.657205100717,-1290.0210948325223,-5655.0150180669852,-1474.9181371804389,9539.1921045783038,-11226.167352677148,5146.1145148749738,-5146.1145148749738,11226.167352677148,18860.644404256978,0.0
335012.02908761695,3812225.878295721,-22500.0,-208.69163749991608,-2300.9598750870468,-16630.879199028077,-866.75620735429629,-5892.3165367795973,-1523.4885855649154,9747.2025384649351,-10671.051628598036,5625.5090423612164,-5625.5090423612164,10671.051628598036,19290.420517766463,0.0
340012.02908761695,3812225.878295721,-22500.0,159.07684851922187,-854.64583145519703,-16959.619261877353,-390.30164758722339,-5982.2542120495818,-1538.6699307512117,9794.6455046832216,-9682.1009124019365,5793.5071681150484,-5793.5071681150484,9682.1009124019365,19413.378130883066,0.0
345012.02908761695,3812225.878295721,-22500.0,306.95165308787006,682.53880361050869,-16738.235909061579,110.84308756210142,-5906.3957326901946,-1517.0512258130123,9674.8108082385825,-8297.0226851176685,5606.4232495543347,-5606.4232495543347,8297.0226851176685,19205.881969470523,0.0
350012.02908761695,3812225.878295721,-22500.0,213.34231533487863,2194.1529715870925,-15942.513036701746,603.12699527092468,-5658.9995755057525,-1457.8382190877915,9403.6107827113356,-6597.8014608350131,5057.4580132424126,-5057.4580132424126,6597.8014608350131,18665.802753845375,0.0
355012.02908761695,3812225.878295721,-22500.0,-111.19976448438658,3558.9378165922244,-14601.812710171862,1052.0179251183665,-5248.9393343500124,-1363.1494219599329,9009.164520744911,-4703.0735290512257,4181.6955760526071,-4181.6955760526071,4703.0735290512257,17815.05420342855,0.0
360012.02908761695,3812225.878295721,-22500.0,-623.93435755786061,4668.4734869045806,-12798.365106408699,1426.6011633820015,-4699.3636990114301,-1237.8930124186386,8505.6200728020849,-2752.9369353838993,3053.3166088102271,-3053.3166088102271,2752.9369353838993,16699.122025448651,0.0
365012.02908761695,3812225.878295721,-22500.0,-1256.576154407185,5443.2263728860653,-10657.133227693299,1703.7185422368736,-4045.0136957539498,-1089.230886033507,7914.3411215161805,-889.23573728551764,1775.0412530775529,-1775.0412530775529,889.23573728551764,15383.502024009076,0.0
370012.02908761695,3812225.878295721,-22500.0,-1927.1534875841671,5843.1551086223053,-8328.2281734873122,1870.7435278297344,-3327.6958045019796,-925.725955266965,7268.3724382817636,764.22099728464377,462.09788532318356,-462.09788532318356,-764.22099728464377,13947.542209177316,0.0
375012.02908761695,3812225.878295721,-22500.0,-2554.0237073806093,5870.5549464937667,-5965.9835768617495,1926.4409934570112,-2590.8991436763158,-756.34235646628736,6605.1403175670366,2116.9753837142175,-775.34654913413226,775.34654913413226,-2116.9753837142175,12476.729979411246,0.0
380012.02908761695,3812225.878295721,-22500.0,-3068.5294378518056,5565.1356422613972,-3709.4208876777475,1879.895110148781,-1874.6862173077889,-589.4872895286652,5960.9315620282223,3119.7970391388812,-1847.1598060218325,1847.1598060218325,-3119.7970391388812,11054.53549481482,0.0
385012.02908761695,3812225.878295721,-22500.0,-3423.5429931964086,4993.4024237420981,-1667.959049955904,1747.9645662567063,-1211.7980215005966,-432.25341496248831,5366.6337222541752,3764.4540543358235,-2692.6409800212887,2692.6409800212887,-3764.4540543358235,9754.5956028525488,0.0
390012.02908761695,3812225.878295721,-22500.0,-3596.7046234688401,4235.5478697914823,85.731986536935281,1552.0054076904651,-625.47919912601026,-289.95452016613785,4844.4773080142513,4076.9108437589243,-3283.3135771852462,3283.3135771852462,-4076.9108437589243,8633.508574494248,0.0
395012.02908761695,3812225.878295721,-22500.0,-3588.7796251575865,3372.9951674045715,1515.9418739353632,1314.6165871938979,-129.04413418657859,-165.97046744110455,4406.0183089889169,4106.7584892094119,-3619.958288065282,3619.958288065282,-4106.7584892094119,7724.4555339807403,0.0
400012.02908761695,3812225.878295721,-22500.0,-3418.6528147569734,2478.787959257018,2618.9120332287307,1056.9744495559355,273.16519808470963,-61.856368185116871,4051.8015751524663,3915.8322144218291,-3725.8868219810111,3725.8868219810111,-3915.8322144218291,7032.9230998165694,0.0
405012.02908761695,3812225.878295721,-22500.0,-3116.8335846891559,1611.7530274673168,3414.9552221429294,797.04373558283692,583.9628019123727,22.36725615473495,3773.0306226973248,3568.2832080816211,-3638.737061335984,3638.737061335984,-3568.2832080816211,6537.3058133750919,0.0
410012.02908761695,3812225.878295721,-22500.0,-2719.0878616002828,814.27003883146131,3939.8750156485171,548.6905460008694,811.17452756777016,87.833345024240813,3554.9512950508106,3123.3282431654916,-3402.6631256610845,3402.6631256610845,-3123.3282431654916,6196.4273999824609,0.0
415012.02908761695,3812225.878295721,-22500.0,-2261.2360131303335,112.81956142830207,4237.2338713144181,321.54643811069434,965.57955010057299,136.43456294094347,3380.8540565359212,2630.9367002136432,-3062.0678488363728,3062.0678488363728,-2630.9367002136432,5961.8065800225195,0.0
300012.02908761695,3817225.878295721,-22500.0,-5036.2345497383449,-6170.7118368516913,-6817.3182889696645,-2513.0952097470149,-3042.519279111023,-948.33521372978544,6901.2729804764604,-8075.4817659896144,-584.9171897648539,584.9171897648539,8075.4817659896144,13715.496283908376,0.0
305012.02908761695,3817225.878295721,-22500.0,-4670.6958391068547,-6567.7471239058168,-8553.5368732660027,-2603.136806859713,-3645.1531993338085,-1098.9681915396859,7657.9743813846535,-9373.8535957128515,310.46003364783337,-310.46003364783337,9373.8535957128515,15208.498928362498,0.0
310012.02908761695,3817225.878295721,-22500.0,-4139.1690426425739,-6765.3343107599349,-10447.508547871101,-2620.6601497256293,-4287.1545378240453,-1255.7645092336161,8429.9478603452935,-10610.833855728317,1350.669617998471,-1350.669617998471,10610.833855728317,16713.783823773767,0.0
315012.02908761695,3817225.878295721,-22500.0,-3457.5660764139479,-6697.6020897743738,-12431.152224947515,-2546.99189336675,-4944.8430411486861,-1412.7275760420646,9182.7427919156653,-11693.124645087053,2492.1197109016894,-2492.1197109016894,11693.124645087053,18178.165192861186,0.0
320012.02908761695,3817225.878295721,-22500.0,-2663.3835254318974,-6305.8005223235587,-14405.011932410218,-2366.613094391264,-5585.7566895602877,-1562.1086887299823,9879.9101363585687,-12513.919108736405,3666.0998521717029,-3666.0998521717029,12513.919108736405,19537.230369286386,0.0
325012.02908761695,3817225.878295721,-22500.0,-1816.9619401784341,-5549.6477302882422,-16239.878308992826,-2070.3642780801251,-6169.6141663603794,-1694.7418216440435,10482.238269567051,-12963.103060251211,4780.0415011581572,-4780.0415011581572,12963.103060251211,20718.244044691452,0.0
330012.02908761695,3817225.878295721,-22500.0,-998.42770679709508,-4419.7562245067093,-17784.654524551024,-1658.7313190830912,-6651.0110267158288,-1800.7254940031335,10949.557315010483,-12942.243032863254,5724.1585687090092,-5724.1585687090092,12942.243032863254,21645.283249161232,0.0
335012.02908761695,3817225.878295721,-22500.0,-299.21900466316663,-2948.4472077780051,-18881.470032025234,-1144.4645900123414,-6983.9926846945045,-1870.4434733213523,11244.608111146406,-12382.780710423902,6384.2111542985022,-6384.2111542985022,12382.780710423902,22246.568138524355,0.0
340012.02908761695,3817225.878295721,-22500.0,191.61662661491414,-1215.4325831540677,-19387.210360055426,-553.63639465269841,-7128.1361261601623,-1895.810754254552,11338.638538643117,-11264.015247654514,6659.4667567333508,-6659.4667567333508,11264.015247654514,22463.320824653925,0.0
345012.02908761695,3817225.878295721,-22500.0,404.27390925368724,654.98044672338472,-19198.303879723306,75.627402935941873,-7055.2158791782576,-1871.5452804445729,11219.861766125534,-9626.1168076534523,6482.8041419366173,-6482.8041419366173,9626.1168076534523,22258.950025367485,0.0
350012.02908761695,3817225.878295721,-22500.0,304.26120016032456,2506.9347538557404,-18273.220339209798,697.05332572339512,-6754.9835449153115,-1796.184976386701,10905.303037581509,-7573.2246636911541,5837.9926619207063,-5837.9926619207063,7573.2246636911541,21626.717691091522,0.0
355012.02908761695,3817225.878295721,-22500.0,-97.145150996199476,4175.1247597683941,-16646.379223113527,1262.3232357370673,-6238.527078025475,-1672.5990722912118,10428.145528037317,-5263.6512849591163,4768.6996344817489,-4768.6996344817489,5263.6512849591163,20594.16636238564,0.0
360012.02908761695,3817225.878295721,-22500.0,-742.01035335751703,5511.4612070035673,-14428.229010044963,1728.1783322861568,-5537.9908382472104,-1507.8140890804204,9809.8832649419237,-2887.6658854141315,3375.2662051806519,-3375.2662051806519,2887.6658854141315,19222.76051018923,0.0
365012.02908761695,3817225.878295721,-22500.0,-1535.6201008709354,6409.5658608846088,-11790.313695046185,2062.8521471633289,-4702.4960047543036,-1312.1762006129688,9082.199884985841,-637.72381974236384,1798.9665104150013,-1798.9665104150013,637.72381974236384,17602.673182276227,0.0
370012.02908761695,3817225.878295721,-22500.0,-2364.7413651630291,6820.5360023507828,-8938.3357601993266,2250.2642150868824,-3791.0339488142722,-1097.9983381623895,8291.0871107701623,1321.4382844239572,197.45570080807113,-197.45570080807113,-1321.4382844239572,15843.29045443301,0.0
375012.02908761695,3817225.878295721,-22500.0,-3119.0319045652632,6756.1578455053377,-6080.3359126624655,2291.0624525912913,-2864.0914232851874,-877.99837669797614,7487.484128213473,2875.1690130616398,-1281.8518773851574,1281.8518773851574,-2875.1690130616398,14061.326441617439,0.0
380012.02908761695,3817225.878295721,-22500.0,-3709.6590864962895,6279.8723580644883,-3397.9247270907163,2200.5617382445885,-1975.9269423619357,-663.8421115937042,6719.4065708639373,3968.9973958004716,-2523.5545974303573,2523.5545974303573,-3968.9973958004716,12368.320896095051,0.0
385012.02908761695,3817225.878295721,-22500.0,-4080.7645596823245,5489.400312463812,-1026.7104581446868,2004.4666139004776,-1169.0313341977076,-465.04642753223214,6025.7429527028262,4605.9093583025315,-3456.5420880321412,3456.5420880321412,-4605.9093583025315,10858.737249143989,0.0
390012.02908761695,3817225.878295721,-22500.0,-4212.3166687301245,4496.6086904974873,951.59660708814874,1733.689991620101,-471.47465620784789,-288.37436237116179,5431.7479999938005,4833.9903991245455,-4055.7191934660232,4055.7191934660232,-4833.9903991245455,9599.1042778113588,0.0
395012.02908761695,3817225.878295721,-22500.0,-4115.6649658157075,3409.6514417599406,2506.5551019983727,1419.5120773959768,103.01412145818041,-137.72187709270437,4946.8145399314571,4729.447454819765,-4335.259600618032,4335.259600618032,-4729.447454819765,8619.1103657558688,0.0
400012.02908761695,3817225.878295721,-22500.0,-3824.7069051881203,2320.4452096693649,3649.2671491166211,1089.9123761818462,552.97058147361474,-14.396268975509029,4565.2588366817963,4379.7807320032971,-4337.0998455619774,4337.0998455619774,-4379.7807320032971,7907.9103904496978,0.0
405012.02908761695,3817225.878295721,-22500.0,-3385.7928858218884,1298.2898863104904,4419.5601999951359,767.394858347276,886.06952815042632,82.362542625901568,4270.2560295164367,3870.3169966622681,-4118.3990697393319,4118.3990697393319,-3870.3169966622681,7420.2542620390841,0.0
410012.02908761695,3817225.878295721,-22500.0,-2848.7330277767555,388.76153890876043,4873.3621377338059,468.20272609417981,1115.7972713733723,154.76687558152292,4039.7017828001626,3275.4209296458762,-3740.6464237977084,3740.6464237977084,-3275.4209296458762,7092.5673746763559,0.0
415012.02908761695,3817225.878295721,-22500.0,-2260.1599188515625,-383.79849286444954,5072.280248939076,202.57853290564677,1258.5031451656489,205.88928732485221,3851.804836077069,2654.2042672341149,-3261.7475645610684,3261.7475645610684,-2654.2042672341149,6861.5178919048176,0.0
420012.02908761695,3817225.878295721,-22500.0,-1659.5261030154015,-1011.940244307305,5076.1730538572692,-24.342830257533681,1331.1231596673174,239.16637872630278,3688.6927725523847,2049.7224005233452,-2731.2962185066949,2731.2962185066949,-2049.7224005233452,6676.4637658418142,0.0
290012.02908761695,3822225.878295721,-22500.0,-6104.8100531704613,-5287.0440086815743,-3523.5020431898142,-2477.5182293308462,-2047.7768348509123,-752.98300571298444,5941.7777645386732,-5446.4376291548233,-2584.1203493410658,2584.1203493410658,5446.4376291548233,11676.619906373504,0.0
295012.02908761695,3822225.878295721,-22500.0,-6148.3365431863458,-6067.6793480559754,-4955.2711221901618,-2723.763904331393,-2607.5359503418354,-907.96672284248007,6708.6024213542842,-6849.4830426931621,-2034.3846736044234,2034.3846736044234,6849.4830426931621,13256.597435086022,0.0
300012.02908761695,3822225.878295721,-22500.0,-6014.8257512398386,-6788.5304462167687,-6663.1110422926677,-2935.9824920132487,-3253.5856556774452,-1081.7985937844162,7543.5035100585847,-8372.145423560456,-1272.6040922722518,1272.6040922722518,8372.145423560456,14960.712382626782,0.0
305012.02908761695,3822225.878295721,-22500.0,-5677.4587204652089,-7380.4346833158197,-8641.3624075954485,-3091.0685882704829,-3979.7697776422692,-1271.8761032131508,8441.3327562939539,-9957.1311316220635,-290.93172355476509,290.93172355476509,9957.1311316220635,16758.397049616746,0.0
310012.02908761695,3822225.878295721,-22500.0,-5123.171186918421,-7760.6802714490177,-10856.059207263777,-3162.8118928154672,-4770.5293780723077,-1473.3365831000319,9380.3051676108116,-11518.991092467966,897.11952628529616,-897.11952628529616,11518.991092467966,18603.221614592832,0.0
315012.02908761695,3822225.878295721,-22500.0,-4360.4681369455939,-7839.0715635480901,-13236.041762111339,-3124.1424759801034,-5598.6531716337959,-1678.6938294836327,10318.29053876459,-12943.455736606018,2248.8984091229077,-2248.8984091229077,12943.455736606018,20431.316293830576,0.0
320012.02908761695,3822225.878295721,-22500.0,-3426.611181024768,-7528.7530080404676,-15666.34886555399,-2950.6671615969108,-6423.9540789817593,-1877.7429022483539,11206.580549976763,-14092.047496962503,3686.7379242115867,-3686.7379242115867,14092.047496962503,22161.569138073461,0.0
325012.02908761695,3822225.878295721,-22500.0,-2391.8367926157043,-6761.7949627218477,-17986.997945116069,-2625.3516656978013,-7193.728732375529,-2057.8984774848736,11992.507518066763,-14813.932132023559,5096.7214971118901,-5096.7214971118901,14813.932132023559,23698.536129783686,0.0
330012.02908761695,3822225.878295721,-22500.0,-1357.7649829689524,-5507.901699599719,-20000.512817458646,-2143.737329908125,-7845.8156918872073,-2205.0878793235261,12620.838630325954,-14965.792330191864,6335.0445421980703,-6335.0445421980703,14965.792330191864,24938.761397659757,0.0
335012.02908761695,3822225.878295721,-22500.0,-447.5721226955788,-3792.5255285198887,-21490.781893031195,-1518.57245415631,-8314.7498373451799,-2305.2282417601805,13038.62156097236,-14438.298938873659,7244.0605248906741,-7244.0605248906741,14438.298938873659,25780.79997638378,0.0
340012.02908761695,3822225.878295721,-22500.0,212.75622902887216,-1708.7587284547669,-22253.226282924934,-782.345275608115,-8540.7291903050918,-2346.1460021230091,13203.08505587766,-13184.540161939589,7677.6858685477309,-7677.6858685477309,13184.540161939589,26138.248314578166,0.0
345012.02908761695,3822225.878295721,-22500.0,519.65182279717078,583.09881070717142,-22132.218233237265,13.747828724606174,-8480.0563270938455,-2319.6104002951724,13093.471553350017,-11242.815456585926,7532.1456100078858,-7532.1456100078858,11242.815456585926,25953.9722139798,0.0
350012.02908761695,3822225.878295721,-22500.0,417.67225451714842,2872.3553446643446,-21057.333530444077,805.19129755710242,-8114.7288986638378,-2223.0280625464829,12726.454063457188,-8745.1331619354205,6774.2959662971462,-6774.2959662971462,8745.1331619354205,25212.752073005599,0.0
355012.02908761695,3822225.878295721,-22500.0,-82.563194558638415,4930.3288031756865,-19067.304662619401,1523.4077473608552,-7458.3383316187856,-2060.3140593600237,12143.066588162401,-5905.0879230611208,5457.9210678502677,-5457.9210678502677,5905.0879230611208,23948.94548949811,0.0
360012.02908761695,3822225.878295721,-22500.0,-901.52680937929961,6551.4264565657977,-16312.463560162581,2106.9471858292463,-6556.1663818957613,-1841.6677999549133,11376.124664003441,-2985.0649452726466,3720.6175415417047,-3720.6175415417047,2985.0649452726466,22246.878013252033,0.0
365012.02908761695,3822225.878295721,-22500.0,-1905.7096396319923,7591.3940141134717,-13032.13463034097,2511.6953882131775,-5478.7782663799171,-1582.2131070424011,10472.0817579874,-250.20283608677084,1759.8221793268926,-1759.8221793268926,250.20283608677084,20232.795339834331,0.0
370012.02908761695,3822225.878295721,-22500.0,-2936.3759115244593,7991.2544264727385,-9512.5488137666453,2717.3263278908153,-4310.6663366716057,-1299.8324013750034,9495.6407422996235,2077.7727800258026,-205.60461654961568,205.60461654961568,-2077.7727800258026,18060.013278691942,0.0
375012.02908761695,3822225.878295721,-22500.0,-3842.9482849949527,7780.4105207350958,-6037.387580276717,2728.4431729771914,-3136.9482532725524,-1012.6979770519113,8516.9264580191611,3853.7338135083482,-1976.5537702980139,1976.5537702980139,-3853.7338135083482,15890.110012414798,0.0
380012.02908761695,3822225.878295721,-22500.0,-4510.708457753426,7060.0347301529137,-2844.8239870697353,2570.64183307037,-2031.5308687928753,-737.04397255975505,7599.7671831243388,5021.5886313726551,-3405.6429611083818,3405.6429611083818,-5021.5886313726551,13873.263788319147,0.0
385012.02908761695,3822225.878295721,-22500.0,-4875.8379646298627,5974.2879052169519,-100.97996686205636,2283.2422288144217,-1049.2691431070734,-485.58927247688979,6792.4980142561335,5606.1383812367067,-4412.7290770350291,4412.7290770350291,-5606.1383812367067,12129.697801326331,0.0
390012.02908761695,3822225.878295721,-22500.0,-4926.3626978618449,4679.231057183214,2107.3263245023982,1911.0489602699704,-223.01883719370792,-266.78812936825972,6121.8692954423022,5690.9280698815719,-4983.4140511399683,4983.4140511399683,-5690.9280698815719,10733.19916808491,0.0
395012.02908761695,3822225.878295721,-22500.0,-4692.3114745085913,3317.4670679916298,3763.9553943184333,1497.1881603221934,435.02765440405642,-84.856391618774211,5591.2827406519409,5391.0894940840399,-5155.2766942462777,5155.2766942462777,-5391.0894940840399,9699.7138882939016,0.0
400012.02908761695,3822225.878295721,-22500.0,-4230.5790943054408,2002.5123964408831,4905.6086851835844,1078.1954467257635,929.222622001329,59.630193500255935,5184.3355532445858,4828.7890081691321,-4998.6334423468261,4998.6334423468261,-4828.7890081691321,8988.1985519899263,0.0
405012.02908761695,3822225.878295721,-22500.0,-3609.5884849670629,812.9614391534941,5601.4931949309257,681.59952052049073,1275.2229353426944,168.83063364654328,4872.807334392799,4115.5568051853916,-4597.7750502961717,4597.7750502961717,-4115.5568051853916,8518.9308516658348,0.0
410012.02908761695,3822225.878295721,-22500.0,-2897.0233617477343,-205.92567951921879,5935.2460669782085,325.58854579893961,1494.935913514762,246.66486073089348,4625.8636803996214,3342.453603439877,-4036.2879028970438,4036.2879028970438,-3342.453603439877,8202.1702943419295,0.0
415012.02908761695,3822225.878295721,-22500.0,-2151.8750811974387,-1036.342513348764,5991.4506036954263,20.058131056273101,1612.4167499874297,297.94195372575399,4416.9184580411347,2576.8397259028629,-3387.673808747712,3387.673808747712,-2576.8397259028629,7961.6949488638547,0.0
420012.02908761695,3822225.878295721,-22500.0,-1420.5721623495349,-1680.492365622496,5847.1246263399717,-231.655093123596,1650.9862411211502,327.67919940597181,4226.6870946717108,1863.6230183411267,-2710.820654078761,2710.820654078761,-1863.6230183411267,7744.7053754759509,0.0
425012.02908761695,3822225.878295721,-22500.0,-736.20955417996322,-2153.4296295584177,5567.4285364986326,-430.8878204818343,1631.5022713677727,340.63507741051433,4043.1884615223353,1228.9044382416469,-2049.084275017658,2049.084275017658,-1228.9044382416469,7520.7431903859424,0.0
290012.02908761695,3827225.878295721,-22500.0,-7002.4312553431828,-5449.0098108278034,-2917.5999367197046,-2776.4133229377385,-2035.8814383930051,-823.26788212148927,6362.3753671347531,-5133.9322439046355,-3426.2312339632299,3426.2312339632299,5133.9322439046355,12420.227175586429,0.0
295012.02908761695,3827225.878295721,-22500.0,-7185.3802073424449,-6425.8416812818859,-4432.7085158162818,-3108.0915120949908,-2673.9990883545856,-1010.5620749847199,7248.074278129232,-6725.5294050567363,-2924.1941318616091,2924.1941318616091,6725.5294050567363,14248.30408121236,0.0
300012.02908761695,3827225.878295721,-22500.0,-7165.6344505228371,-7375.5246701265341,-6297.2765563353341,-3411.5000814321411,-3428.753627531858,-1224.7981571696707,8226.0312464310027,-8506.2726598696809,-2162.4767061658299,2162.4767061658299,8506.2726598696809,16256.320445110556,0.0
305012.02908761695,3827225.878295721,-22500.0,-6898.8006052796691,-8216.8655562637177,-8523.1325773988701,-3657.4054581290175,-4298.0926336561206,-1463.7230777957145,9291.313665819629,-10420.43691563758,-1116.2814119745881,1116.2814119745881,10420.43691563758,18414.890059712823,0.0
310012.02908761695,3827225.878295721,-22500.0,-6353.9329471916917,-8846.1489532067553,-11089.457300558021,-3810.6921221870862,-5268.1346614767517,-1722.0090320867189,10428.704854318476,-12374.383735910866,215.34073217370224,-215.34073217370224,12374.383735910866,20673.688694840694,0.0
315012.02908761695,3827225.878295721,-22500.0,-5525.0204481484543,-9142.5834716049703,-13928.616490467983,-3832.8161271845911,-6309.2352756654363,-1990.5425255458642,11595.70162878908,-14232.090836100462,1797.1876350140756,-1797.1876350140756,14232.090836100462,22957.930451179982,0.0
320012.02908761695,3827225.878295721,-22500.0,-4443.097771412904,-8980.7740656887199,-16913.300259731754,-3686.327708189795,-7372.912619948288,-2256.0420416908341,12729.515806446043,-15817.174450128394,3546.5929461063743,-3546.5929461063743,15817.174450128394,25166.87617772575,0.0
325012.02908761695,3827225.878295721,-22500.0,-3185.7286786104646,-8251.3163855726707,-19849.538424709277,-3341.5354918563421,-8391.0114967643658,-2501.2959261510118,13759.077239610793,-16925.176197853434,5327.1516220903004,-5327.1516220903004,16925.176197853434,27175.977021052306,0.0
330012.02908761695,3827225.878295721,-22500.0,-1879.2062796163527,-6888.3069231642548,-22481.401617065603,-2784.6542294219321,-9278.6498062992414,-2706.277746600781,14607.97874661214,-17348.801684554266,6952.6385657517394,-6952.6385657517394,17348.801684554266,28844.137238481089,0.0
335012.02908761695,3827225.878295721,-22500.0,-688.62200226285836,-4899.0465182997295,-24512.952055014848,-2025.8339183738381,-9942.189200022216,-2850.2647874019522,15200.285117744823,-16915.745990002957,8205.8233863068399,-8205.8233863068399,16915.745990002957,30027.10556565041,0.0
340012.02908761695,3827225.878295721,-22500.0,207.00366750651801,-2387.2390900800838,-25649.680595310783,-1104.5636004448454,-10292.331701523848,-2914.7973100657537,15471.492452047905,-15533.373159745299,8873.711483653753,-8873.711483653753,15533.373159745299,30596.528061638564,0.0
345012.02908761695,3827225.878295721,-22500.0,652.38271675748683,441.2257118023179,-25655.138447773104,-89.684910547054344,-10260.609942070529,-2886.9703371653386,15385.268766887622,-13228.541611644008,8794.6336923228064,-8794.6336923228064,13228.541611644008,30462.265250198867,0.0
350012.02908761695,3827225.878295721,-22500.0,557.56000909048203,3298.7673189629545,-24410.010122560187,927.86171935816139,-9815.4991753783124,-2762.2728024153798,14954.931342403082,-10167.209890097609,7905.1969105564895,-7905.1969105564895,10167.209890097609,29593.464504834483,0.0
355012.02908761695,3827225.878295721,-22500.0,-70.738061766654425,5863.9117029878771,-21954.460931255231,1849.2266910746457,-8973.0955236877035,-2546.116429540461,14233.276270553108,-6640.9244195914134,6270.2265965494635,-6270.2265965494635,6640.9244195914134,28032.462606283214,0.0
360012.02908761695,3827225.878295721,-22500.0,-1121.8854703039192,7845.8915385957598,-18495.85211402777,2585.6394997403372,-7798.1179898334531,-2253.5082772620954,13270.81335188744,-3017.6719223984737,4081.1633276196062,-4081.1633276196062,3017.6719223984737,25896.661555831051,0.0
365012.02908761695,3827225.878295721,-22500.0,-2404.2622369400046,9046.022503835673,-14374.295907845873,3075.0114979976497,-6393.7809962584115,-1906.8332306627217,12135.83000809234,330.87571038607496,1618.9759991026726,-1618.9759991026726,-330.87571038607496,23366.286536277723,0.0
370012.02908761695,3827225.878295721,-22500.0,-3691.7120402512428,9394.9486895014143,-9994.9921018672339,3292.0648243736841,-4883.1276805637353,-1532.3156767402252,10920.602608277899,3102.5646413069553,-807.57889994350876,807.57889994350876,-3102.5646413069553,20660.316433345037,0.0
375012.02908761695,3827225.878295721,-22500.0,-4776.7984793099267,8954.2352099503933,-5749.4809710013405,3249.2559380208281,-3387.4173336732961,-1156.0755349966471,9722.829253747128,5114.7945237220938,-2927.0936748858098,2927.0936748858098,-5114.7945237220938,18005.813652800207,0.0
380012.02908761695,3827225.878295721,-22500.0,-5512.4416652796081,7885.5789258757386,-1950.6403804873607,2989.2433802680293,-2007.7550940974336,-800.71730081034832,8627.5176994591166,6318.55127039937,-4552.8550069801204,4552.8550069801204,-6318.55127039937,15606.139288300139,0.0
385012.02908761695,3827225.878295721,-22500.0,-5830.7287595021708,6402.4851387786593,1202.477740232119,2572.3869648434106,-814.13986878611922,-483.09633901956823,7693.1743983660872,6778.9093011746154,-5601.0791868017586,5601.0791868017586,-6778.9093011746154,13611.304353365547,0.0
390012.02908761695,3827225.878295721,-22500.0,-5738.4981841360295,4722.1324699877059,3627.6331858724302,2063.5939082410255,157.09896505294802,-213.47332823315475,6944.0723785583978,6635.6041344295536,-6081.5870645009072,6081.5870645009072,-6635.6041344295536,12093.267249872559,0.0
395012.02908761695,3827225.878295721,-22500.0,-5297.4140355238524,3030.0989718642986,5338.7916292515074,1521.8531833931349,899.20878908806981,4.1167864551897448,6370.8881982076518,6059.8874721797647,-6071.2634191512925,6071.2634191512925,-6059.8874721797647,11034.73007605935,0.0
400012.02908761695,3827225.878295721,-22500.0,-4598.6890555494847,1462.4129187547287,6414.6618883803312,993.97334035460597,1427.2573377355777,170.68753715445385,5940.1883756644111,5219.4930698176067,-5682.5847346999089,5682.5847346999089,-5219.4930698176067,10344.328304011264,0.0
405012.02908761695,3827225.878295721,-22500.0,-3740.4850457240409,102.75751540525572,6967.3084733897758,512.39350356939633,1769.559574425143,290.77131552144812,5608.8894588062221,4256.7289803524727,-5036.3658180923576,5036.3658180923576,-4256.7289803524727,9897.239567170418,0.0
410012.02908761695,3827225.878295721,-22500.0,-2812.0455111919464,-1010.5030784307044,7117.2355841341596,95.986959647662005,1960.2127697963178,370.91163801157938,5337.0535511730477,3279.1295769156277,-4243.0068360226542,4243.0068360226542,-3279.1295769156277,9577.8732110675446,0.0
415012.02908761695,3827225.878295721,-22500.0,-1885.163223898456,-1872.9222835350579,6976.994725802715,-247.4634801890372,2033.6186653839527,418.41145155367701,5094.7424576231633,2359.2534776890843,-3392.5510883518682,3392.5510883518682,-2359.2534776890843,9302.8866476599687,0.0
420012.02908761695,3827225.878295721,-22500.0,-1011.5702847562368,-2502.1721772527508,6642.5224743884582,-518.22494816965502,2021.0762538936592,440.43198351405294,4863.1503621151078,1539.6780361623005,-2551.6714482531497,2551.6714482531497,-1539.6780361623005,9023.4251967616001,0.0
425012.02908761695,3827225.878295721,-22500.0,-224.18299729069511,-2928.0487379837396,6190.1979943182314,-721.73516359728103,1949.0921678424961,443.43688926536123,4632.571016372417,840.00545872425255,-1765.0873307253287,1765.0873307253287,-840.00545872425255,8717.0881330792745,0.0
430012.02908761695,3827225.878295721,-22500.0,459.68021570246543,-3185.0700993064147,5677.477685002008,-866.24825884827044,1838.9087043878703,432.91848399098353,4399.5049511359166,263.83821613676565,-1059.215844781748,1059.215844781748,-263.83821613676565,8378.2869571584815,0.0
285012.02908761695,3832225.878295721,-22500.0,-7426.2351458989979,-4352.4852766436925,-924.98871888901385,-2645.7392766200746,-1378.8078503967192,-698.33396292191799,5886.6253869816228,-3101.1586339556097,-4555.0704526985337,4555.0704526985337,3101.1586339556097,11283.910775090611,0.0
290012.02908761695,3832225.878295721,-22500.0,-7960.5206251716254,-5463.483150695025,-2109.8646803737006,-3073.5602851807407,-1954.4680142432446,-886.16123480878036,6778.6357333473716,-4582.1226418463802,-4401.3748306514453,4401.3748306514453,4582.1226418463802,13123.878675732909,0.0
295012.02908761695,3832225.878295721,-22500.0,-8339.5943948567256,-6657.987646748762,-3669.7438279232429,-3511.1741667698457,-2670.7566055393677,-1110.269697195479,7794.3791087902709,-6351.8391086728598,-3998.6554459597492,3998.6554459597492,6351.8391086728598,15221.071808609069,0.0
300012.02908761695,3832225.878295721,-22500.0,-8496.4772917233859,-7876.7655788547227,-5661.2280330343019,-3932.8758354471838,-3541.6636948522369,-1372.1991343976915,8935.6524120842951,-8399.6930989568664,-3287.6221554384542,3287.6221554384542,8399.6930989568664,17571.507146620072,0.0
305012.02908761695,3832225.878295721,-22500.0,-8363.3151074142606,-9028.9562716823002,-8123.0223947920631,-4302.8639885406601,-4572.6621891382874,-1670.71653393424,10199.223688403014,-10679.27264855602,-2218.7652955995209,2218.7652955995209,10679.27264855602,20151.382623909267,0.0
310012.02908761695,3832225.878295721,-22500.0,-7882.5977916883103,-9989.0081408286078,-11058.863135234804,-4575.2619421375966,-5755.0348367609449,-2000.5148206221627,11573.754473339966,-13095.273514708118,-766.6456342055526,766.6456342055526,13095.273514708118,22910.081017908215,0.0
315012.02908761695,3832225.878295721,-22500.0,-7023.0859282881202,-10599.590189522762,-14416.277727435299,-4696.3353622191898,-7059.4100055054678,-2350.9231969931661,13022.11391178271,-15492.569261068642,1051.8506595438776,-1051.8506595438776,15492.569261068642,25763.482445007983,0.0
320012.02908761695,3832225.878295721,-22500.0,-5798.9253710990379,-10684.22450753564,-18064.130626838847,-4609.8631460435563,-8429.6920782610432,-2704.970248454571,14470.523675750181,-17652.349848987331,3157.920626350402,-3157.920626350402,17652.349848987331,28589.253455775422,0.0
325012.02908761695,3832225.878295721,-22500.0,-4287.8694433121727,-10072.893659954649,-21775.128557255739,-4266.257045311836,-9779.4698287278807,-3039.2940930656914,15824.343892987288,-19301.867589376336,5395.4147726259198,-5395.4147726259198,19301.867589376336,31226.652564336244,0.0
330012.02908761695,3832225.878295721,-22500.0,-2641.5208087259421,-8641.1184086520134,-25222.647286327829,-3634.9944474042363,-10993.645596966129,-3325.4153865611806,16977.626099403056,-20144.109902786648,7527.9255130838901,-7527.9255130838901,20144.109902786648,33483.711582225958,0.0
335012.02908761695,3832225.878295721,-22500.0,-1078.6134309045065,-6357.4902695789096,-28002.743824582227,-2718.2716988199586,-11938.004934519184,-3532.7145421774817,17820.643557923919,-19910.149471133453,9257.8341854601094,-9257.8341854601094,19910.149471133453,35154.299986202634,0.0
340012.02908761695,3832225.878295721,-22500.0,146.06642727809606,-3326.9950391557131,-29689.026906557352,-1561.871868193135,-12478.001521554866,-3633.0002644739475,18254.90839774099,-18428.610983331106,10273.435680647548,-10273.435680647548,18428.610983331106,36045.692071613856,0.0
345012.02908761695,3832225.878295721,-22500.0,797.28804452454756,188.93867420478023,-29917.986878795062,-258.09578199491693,-12504.895568013999,-3605.8923026660586,18217.224095174013,-15695.024996788155,10320.701001038806,-10320.701001038806,15695.024996788155,36013.822195800938,0.0
350012.02908761695,3832225.878295721,-22500.0,727.31280238688009,3794.3438825525309,-28486.396749449315,1063.4778219614529,-11963.243176916001,-3443.6407540209152,17711.340197522353,-11914.043342868816,9281.9502287987198,-9281.9502287987198,11914.043342868816,34999.004375243945,0.0
355012.02908761695,3832225.878295721,-22500.0,-68.18812449835562,7029.2288723236179,-25427.695617429737,2257.9102215264893,-10870.637704774301,-3153.8254547324414,16806.688699510523,-7488.1671465041863,7231.7077662770525,-7231.7077662770525,7488.1671465041863,33051.663780671683,0.0
360012.02908761695,3832225.878295721,-22500.0,-1433.1915779282808,9473.5069429329342,-21032.145003077563,3194.4952657919034,-9321.1114314900115,-2758.875403224793,15582.55114291903,-2943.5017986759185,4440.5959917099744,-4440.5959917099744,2943.5017986759185,30338.097398733164,0.0
365012.02908761695,3832225.878295721,-22500.0,-3087.0069393470235,10848.558507971376,-15793.37543576349,3784.5303046966092,-7468.7483835759958,-2292.3505591985167,14140.629681725457,1188.4489885315263,1316.7735705835769,-1316.7735705835769,-1188.4489885315263,27121.370856928916,0.0
370012.02908761695,3832225.878295721,-22500.0,-4701.5566215864856,11076.875836221483,-10296.321794338466,3997.5920152304548,-5496.1161845633023,-1793.0658104109821,12614.681948400437,4490.3434139518931,-1696.2570507844318,1696.2570507844318,-4490.3434139518931,23721.059824744872,0.0
375012.02908761695,3832225.878295721,-22500.0,-5988.5572345929122,10278.571719042138,-5088.3159149650082,3861.3474057956978,-3578.2284550654463,-1298.7282756095774,11142.515396827137,6735.7823316760714,-4225.3764767761895,4225.3764767761895,-6735.7823316760714,20461.457182526228,0.0
380012.02908761695,3832225.878295721,-22500.0,-6762.5903091438659,8713.4409724167726,-579.44245004948016,3446.9978220464059,-1853.6551100066272,-840.73034992392274,9836.9764496623338,7901.6975718935355,-6038.2912581984547,6038.2912581984547,-7901.6975718935355,17618.44662820311,0.0
385012.02908761695,3832225.878295721,-22500.0,-6962.1467008655636,6698.6553072467486,3001.6393503394884,2847.4965404336449,-409.70479281377374,-441.0710899055598,8765.1563337553889,8125.3800141236288,-7061.3756307581471,7061.3756307581471,-8125.3800141236288,15371.112186752522,0.0
390012.02908761695,3832225.878295721,-22500.0,-6632.3673130370071,4534.4273795295294,5597.8268393081707,2156.545778498506,717.88605073548956,-111.59885639054244,7940.1806653304484,7634.5610574126704,-7352.8726355426106,7352.8726355426106,-7634.5610574126704,13766.955045777608,0.0
395012.02908761695,3832225.878295721,-22500.0,-5886.7109482350616,2456.8896912172395,7279.8813530008028,1453.6949091041947,1535.1411656787679,144.88406036266687,7329.0150977036346,6679.695406783314,-7053.5625956119929,7053.5625956119929,-6679.695406783314,12721.726356776782,0.0
400012.02908761695,3832225.878295721,-22500.0,-4865.9594284814457,621.05795628359442,8192.7310730635563,797.09269924925604,2075.7623704954699,332.42967747678188,6873.3893534498038,5485.8835422346747,-6336.6314108195929,6336.6314108195929,-5485.8835422346747,12068.888515345932,0.0
405012.02908761695,3832225.878295721,-22500.0,-3706.4005056722949,-893.84847215900413,8508.7222839082315,222.66216033061048,2387.493410759831,459.4301825306195,6512.9931777543952,4228.462305667892,-5369.8345395084998,5369.8345395084998,-4228.462305667892,11632.851828164852,0.0
410012.02908761695,3832225.878295721,-22500.0,-2521.0808790483052,-2067.4836169818718,8395.1956072746907,-252.71682641298227,2521.5180420376141,536.34368990355938,6200.3829996008353,3027.634274319114,-4293.6383476647043,4293.6383476647043,-3027.634274319114,11279.471086953024,0.0
415012.02908761695,3832225.878295721,-22500.0,-1392.6280249670326,-2918.6302089303981,7996.5707565377843,-626.33317449323295,2525.5978126758778,573.95623178670155,5905.2395158656964,1954.653019950606,-3213.0020077723921,3213.0020077723921,-1954.653019950606,10928.306202258418,0.0
420012.02908761695,3832225.878295721,-22500.0,-373.93041634456955,-3487.8156396780914,7427.572854216487,-904.70564975371099,2440.4994099512223,582.24861732795296,5611.9092357926975,1042.9406626129012,-2198.2138997186626,2198.2138997186626,-1042.9406626129012,10542.118412526337,0.0
425012.02908761695,3832225.878295721,-22500.0,507.03721483904258,-3824.3418384572469,6773.4919336760249,-1099.4466580752423,2298.8087810356851,569.79398080012049,5314.7835483662057,299.75362894216846,-1290.4146611912647,1290.4146611912647,-299.75362894216846,10111.172855410734,0.0
430012.02908761695,3832225.878295721,-22500.0,1240.9965501812594,-3977.8180961123921,6094.0485729590137,-1224.2187200652907,2125.2171617731847,543.55018992268538,5014.0702335825454,-283.84937996390812,-508.65619362895865,508.65619362895865,283.84937996390812,9640.4448873325,0.0
435012.02908761695,3832225.878295721,-22500.0,1831.3947934953137,-3993.3657029875303,5428.5360270285564,-1292.7325527538512,1937.5570197266406,508.90545988217809,4712.7620064724688,-725.48343469265239,143.34259988458746,-143.34259988458746,725.48343469265239,9141.2442747510504,0.0
280012.02908761695,3837225.878295721,-22500.0,-7299.6592688791234,-2902.6831041750397,810.10613135534641,-2332.5825203533286,-701.97225835711424,-542.9348267065734,5340.624795872649,-984.73568905337515,-5244.0764918841924,5244.0764918841924,984.73568905337515,9985.1888485553936,0.0
285012.02908761695,3837225.878295721,-22500.0,-8153.5483034620675,-3997.6415226194858,34.864395912017621,-2815.1029260409837,-1168.5061416429296,-717.238041510887,6187.1176008861912,-2191.6276483423699,-5463.1757456020505,5463.1757456020505,2191.6276483423699,11716.282770304066,0.0
290012.02908761695,3837225.878295721,-22500.0,-8938.3502522190065,-5268.1699685155418,-1082.5004661130527,-3346.8885495062104,-1781.4569288927139,-933.82547504579361,7180.0222954725596,-3735.1176063213525,-5494.287857583643,5494.287857583643,3735.1176063213525,13758.308334241485,0.0
295012.02908761695,3837225.878295721,-22500.0,-9582.3726134708959,-6691.2786641908951,-2628.9523114127983,-3912.1506766159487,-2569.1303152617611,-1198.422388201669,8332.8001213630851,-5651.5962842840645,-5259.4715916731302,5259.4715916731302,5651.5962842840645,16136.270837297991,0.0
300012.02908761695,3837225.878295721,-22500.0,-9998.2337227490771,-8213.4356326394791,-4693.2715289775042,-4483.4576076118665,-3557.4009843100525,-1515.1223736048494,9654.2931011159853,-7954.9965760180039,-4673.0330915982286,4673.0330915982286,7954.9965760180039,18861.449397338598,0.0
305012.02908761695,3837225.878295721,-22500.0,-10088.719083204096,-9739.9801999187512,-7352.6350342447904,-5018.931448728541,-4764.2218555420013,-1884.8190034052002,11146.887188413566,-10620.060368214045,-3651.7543169470359,3651.7543169470359,10620.060368214045,21922.765872642747,0.0
310012.02908761695,3837225.878295721,-22500.0,-9759.2148709170579,-11126.263557626176,-10651.280205956758,-5460.6475125621891,-6191.7492605963635,-2303.2095865932465,12804.160672309919,-13561.979796294672,-2132.3066795311634,2132.3066795311634,13561.979796294672,25276.264596707802,0.0
315012.02908761695,3837225.878295721,-22500.0,-8938.1760497886462,-12174.796456351354,-14570.64667127125,-5735.6788643574982,-7816.3044598723827,-2758.5769346539691,14596.775936550455,-16615.477870637715,-96.503507173765684,96.503507173765684,16615.477870637715,28833.54764138996,0.0
320012.02908761695,3837225.878295721,-22500.0,-7605.3282425267153,-12644.682205979623,-18993.267920372789,-5761.6578236659989,-9577.4918030597946,-3229.8484489929142,16446.80711913095,-19519.823906436046,2397.4805663179104,-2397.4805663179104,19519.823906436046,32451.453096818357,0.0
325012.02908761695,3837225.878295721,-22500.0,-5823.3731238782575,-12280.289115888483,-23667.612336636223,-5458.4919537993374,-11369.310596638787,-3685.7181862190623,18233.106641288294,-21919.982160455711,5184.4019466599129,-5184.4019466599129,21919.982160455711,35926.547894886651,0.0
330012.02908761695,3837225.878295721,-22500.0,-3763.4414988333201,-10863.873433447028,-28187.756419525147,-4766.6889052933202,-13037.850027887691,-4085.8224962701188,19809.627058949281,-23396.49328992458,7974.1648052283354,-7974.1648052283354,23396.49328992458,38999.602064498977,0.0
335012.02908761695,3837225.878295721,-22500.0,-1708.9496453844624,-8289.1774471920562,-32007.402978487957,-3670.041295261361,-14391.018750946127,-4384.7802881353919,21017.146418744403,-23533.982792776653,10364.221813252065,-10364.221813252065,23533.982792776653,41375.428382077087,0.0
340012.02908761695,3837225.878295721,-22500.0,-21.364199103261761,-4639.5325477810084,-34507.359734704412,-2216.6573011724586,-15224.46868403603,-4539.2203367432285,21703.714757877504,-22026.828246920089,11898.175342066748,-11898.175342066748,22026.828246920089,42761.688241469594,0.0
345012.02908761695,3837225.878295721,-22500.0,939.72970869512619,-238.52222029401571,-35121.958273751552,-528.9800286582431,-15362.852687143617,-4516.6574004842905,21759.715222856343,-18799.136722900461,12173.329851653851,-12173.329851653851,18799.136722900461,42924.501595328889,0.0
350012.02908761695,3837225.878295721,-22500.0,928.10964399601653,4365.0654366748968,-33501.252621519219,1206.4973132419605,-14707.513253763775,-4303.8229305533387,21166.463040183298,-14092.799193152037,10973.620501119287,-10973.620501119287,14092.799193152037,41750.247148318245,0.0
355012.02908761695,3837225.878295721,-22500.0,-87.185264142891356,8500.0855966546478,-29651.987817802565,2773.1674472480213,-13273.94393488423,-3911.5076191052754,20014.897611725301,-8469.4232634864566,8375.7465902763033,-8375.7465902763033,8469.4232634864566,39294.479987240986,0.0
360012.02908761695,3837225.878295721,-22500.0,-1883.0337807593303,11544.259966956348,-23986.668294917334,3974.2359362258021,-11201.212244017555,-3373.8191985207409,18432.855241668527,-2697.8887076055771,4768.8326995872285,-4768.8326995872285,2697.8887076055771,35797.154348844801,0.0
365012.02908761695,3837225.878295721,-22500.0,-4038.5155293597109,13098.450308760692,-17239.554499185324,4680.7691321373713,-8724.9059423783965,-2741.7808045292199,16575.618623923772,2443.7211833745696,760.13117324844768,-760.13117324844768,-2443.7211833745696,31652.427206358538,0.0
370012.02908761695,3837225.878295721,-22500.0,-6067.8917486828495,13085.518366779856,-10274.307940276014,4858.5866036843208,-6121.844539463923,-2073.3596386383206,14640.853035016145,6370.4179393489785,-3000.101514758514,3000.101514758514,-6370.4179393489785,27338.503878873813,0.0
375012.02908761695,3837225.878295721,-22500.0,-7567.6640459285281,11732.922440760249,-3866.1586050378451,4564.6334511691866,-3648.1690987111742,-1423.1277681818472,12825.345658076529,8810.35559865094,-5995.3786317508984,5995.3786317508984,-8810.35559865094,23326.634778409752,0.0
380012.02908761695,3837225.878295721,-22500.0,-8312.2930680623394,9461.2509979938804,1452.5733365859801,3918.3224451152837,-1493.307386419458,-834.36183716647042,11276.892340312033,9805.5853870269093,-7947.4995878722466,7947.4995878722466,-9805.5853870269093,19988.660197361914,0.0
385012.02908761695,3837225.878295721,-22500.0,-8270.8400628114177,6742.0954016140395,5441.0580385870862,3063.0763954565182,238.6024552938625,-335.03585358910254,10063.683217572347,9620.5960803175567,-8823.8277962581724,8823.8277962581724,-9620.5960803175567,17517.529932680631,0.0
390012.02908761695,3837225.878295721,-22500.0,-7561.0110128558808,3984.6661500926925,8107.8536785784208,2133.0195612834827,1522.122665199875,62.364823507944898,9170.6059931293039,8618.7854873920824,-8773.1636701257466,8773.1636701257466,-8618.7854873920824,15887.483058756699,0.0
395012.02908761695,3837225.878295721,-22500.0,-6378.1820212713501,1477.9556967931212,9624.0357443429966,1232.8283770941787,2389.2604535743026,358.27098870630022,8524.7284891954096,7158.6378063774919,-8036.7821269990727,8036.7821269990727,-7158.6378063774919,14896.00408272258,0.0
400012.02908761695,3837225.878295721,-22500.0,-4931.4773352703032,-616.73153996393046,10234.742497715157,431.09857789687157,2904.7205327132247,562.12130277984488,8035.3444593128916,5532.3188356478349,-6871.5408820060675,6871.5408820060675,-5532.3188356478349,14278.919456591273,0.0
405012.02908761695,3837225.878295721,-22500.0,-3402.2668436341746,-2242.8927743587169,10193.152934435177,-236.71043266296621,3145.0209945623546,688.35224007780812,7625.7128592603467,3944.5856928280709,-5501.2369085688997,5501.2369085688997,-3944.5856928280709,13816.22924252572,0.0
410012.02908761695,3837225.878295721,-22500.0,-1925.7008513395724,-3415.4430475425083,9722.1911309924089,-760.63858543246135,3184.3185952230074,753.0803541573938,7245.4584085210599,2518.192530423029,-4095.4631705088896,4095.4631705088896,-2518.192530423029,13371.545303617015,0.0
415012.02908761695,3837225.878295721,-22500.0,-588.85951964681715,-4189.5141552611694,8998.8660321425868,-1147.6224406034901,3086.7049215831694,771.79641680240331,6868.4933674807125,1311.5960131578504,-2767.7190688939613,2767.7190688939613,-1311.5960131578504,12881.021323383107,0.0
420012.02908761695,3837225.878295721,-22500.0,562.07759780386459,-4636.892126281974,8153.0830808204755,-1414.039000463044,2903.3426517107146,758.04580124735185,6485.5304416131257,339.06381473041574,-1583.7337406585855,1583.7337406585855,-339.06381473041574,12327.335169843454,0.0
425012.02908761695,3837225.878295721,-22500.0,1511.4511845998827,-4830.7974500569135,7273.8079395361983,-1580.1830598094389,2672.6070751533971,722.88440748982646,6096.8275674936076,-411.92751558964466,-573.31483557228614,573.31483557228614,411.92751558964466,11717.500982733307,0.0
430012.02908761695,3837225.878295721,-22500.0,2263.9841658513114,-4837.500127382229,6417.7745859756487,-1666.6662241007921,2421.7521119622429,674.85193707989697,5707.0208743768562,-967.72800426479921,258.15502007194033,-258.15502007194033,967.72800426479921,11068.533758061332,0.0
435012.02908761695,3837225.878295721,-22500.0,2836.4528923401222,-4712.6956673601981,5618.0631644610894,-1692.3677576438145,2169.1117839074927,620.23468227253443,5322.0191247721486,-1359.8561666431769,920.28920034843441,-920.28920034843441,1359.8561666431769,10399.49995110594,0.0
275012.02908761695,3842225.878295721,-22500.0,-6588.3759942642801,-1285.9634469726423,2129.330064927065,-1865.4731687026119,-72.49948418943508,-370.94943430436751,4802.6064848433762,970.43339795815155,-5388.534592264512,5388.534592264512,-970.43339795815155,8710.3352222826215,0.0
280012.02908761695,3842225.878295721,-22500.0,-7665.8766039671627,-2221.9135530426579,1770.3916425275479,-2350.9713441723857,-400.55661853758966,-519.08484858132624,5559.202481435892,147.6331106228472,-5932.46761005594,5932.46761005594,-147.6331106228472,10225.164146257188,0.0
285012.02908761695,3842225.878295721,-22500.0,-8777.7914577346328,-3384.926674157553,1148.3498686651824,-2917.7631680655727,-861.70086006107545,-710.84112005480324,6468.9726009960486,-998.86258746158182,-6383.2883052605684,6383.2883052605684,998.86258746158182,12069.427362435903,0.0
290012.02908761695,3842225.878295721,-22500.0,-9867.8008748766006,-4790.5047968357376,168.10412053991712,-3563.7375454500766,-1492.9065627269333,-955.47869387313517,7556.7810962653748,-2539.8297638622885,-6666.1890177644527,6666.1890177644527,2539.8297638622885,14294.735099228241,0.0
295012.02908761695,3842225.878295721,-22500.0,-10855.010788576799,-6434.1988753401629,-1284.2731527116325,-4277.0578954438743,-2335.5134608259859,-1262.3302817621482,8846.5137254397123,-4542.6425206142267,-6684.962326310857,6684.962326310857,4542.6425206142267,16948.445281125547,0.0
300012.02908761695,3842225.878295721,-22500.0,-11632.096865157053,-8278.2799363052709,-3336.4070567165509,-5031.5143201630644,-3431.917752650189,-1639.4790024534809,10358.459377231935,-7057.6760296133307,-6324.2240804077264,6324.2240804077264,7057.6760296133307,20066.079999367164,0.0
305012.02908761695,3842225.878295721,-22500.0,-12068.295167055903,-10235.217581008317,-6116.802079013356,-5781.3919158051476,-4819.2924657572048,-2091.6700051165626,12106.335192924455,-10097.323976443897,-5458.1802903237731,5458.1802903237731,10097.323976443897,23660.235792596282,0.0
310012.02908761695,3842225.878295721,-22500.0,-12020.81246313896,-12150.210619508865,-9730.6632868529305,-6456.9933940245373,-6519.3810516413387,-2617.3776234263496,14094.109237546807,-13607.083815243694,-3969.4491662711898,3969.4491662711898,13607.083815243694,27705.635432852741,0.0
315012.02908761695,3842225.878295721,-22500.0,-11358.48086595418,-13787.906065257119,-14221.158722964943,-6962.8830194061793,-8523.9001986767507,-3205.1966323908637,16304.476251706168,-17430.797814510588,-1781.0639836598903,1781.0639836598903,17430.797814510588,32120.804771261559,0.0
320012.02908761695,3842225.878295721,-22500.0,-10000.020610431247,-14832.328705775033,-19515.704582130053,-7181.9302983947618,-10776.418465529616,-3830.1595413131272,18664.308043996054,-21277.055623401757,1097.7635755311057,-1097.7635755311057,21277.055623401757,36748.52041808729,0.0
325012.02908761695,3842225.878295721,-22500.0,-7964.6418918064855,-14912.742004413067,-25363.646529757061,-6988.7906969422111,-13154.127345048651,-4451.2073950689346,21027.756150433692,-24701.075779259598,4517.7106055002823,-4517.7106055002823,24701.075779259598,41339.959537655428,0.0
330012.02908761695,3842225.878295721,-22500.0,-5423.6139658933398,-13668.378062487125,-31283.162885312489,-6275.430899294578,-15456.39882736545,-5011.5749417045681,23197.176736059875,-27123.853192488674,8143.3221313751237,-8143.3221313751237,27123.853192488674,45550.617552349999,0.0
335012.02908761695,3842225.878295721,-22500.0,-2729.2548711315035,-10856.911124540295,-36549.457560442519,-4987.6142812819708,-17410.333691521202,-5443.9079815739842,24941.86476330494,-27912.78795486148,11443.454847708626,-11443.454847708626,27912.78795486148,48958.86984944791,0.0
340012.02908761695,3842225.878295721,-22500.0,-388.49360255394492,-6490.0926230326086,-40264.941696098962,-3164.307370589815,-18703.724078222167,-5680.9251551114712,26025.496887341847,-26535.864108625174,13753.311540304807,-13753.311540304807,26535.864108625174,51117.393180380721,0.0
345012.02908761695,3842225.878295721,-22500.0,1045.5047774619063,-947.11345010248488,-41539.513909952955,-963.79946756790093,-19049.155181945232,-5670.1818594670949,26257.782389080472,-22766.40705849107,14429.627696533851,-14429.627696533851,22766.40705849107,51639.958966105842,0.0
350012.02908761695,3842225.878295721,-22500.0,1155.4974543637272,5010.0483908253609,-39761.268690305747,1343.3721155216983,-18267.788654947937,-5388.773684244542,25571.335851237836,-16863.444629853184,13075.552708925539,-13075.552708925539,16863.444629853184,50309.94764746329,0.0
355012.02908761695,3842225.878295721,-22500.0,-150.14020891557823,10381.089787398865,-34862.994954926748,3426.410400892717,-16362.664690845779,-4852.2801952225627,24079.745407114096,-9616.905158691141,9746.4520222401225,-9746.4520222401225,9616.905158691141,47176.265540117914,0.0
360012.02908761695,3842225.878295721,-22500.0,-2548.2112867809751,14216.335062516357,-27439.783718178078,4980.8775480595714,-13543.44761741103,-4113.6287580196422,21994.70212413793,-2179.4777127985903,5011.9600473748651,-5011.9600473748651,2179.4777127985903,42592.136586090535,0.0
365012.02908761695,3842225.878295721,-22500.0,-5389.8795030006977,15928.846776898694,-18616.094732598307,5815.3527865493797,-10180.848906156156,-3251.6873699640209,19562.904421970532,4277.268163397378,-198.58604229013667,198.58604229013667,-4277.268163397378,37166.831188883574,0.0
370012.02908761695,3842225.878295721,-22500.0,-7938.9288638309836,15465.593450030468,-9701.4888777180295,5897.5496167430711,-6705.6639590671111,-2353.8975561440716,17083.528387357797,8920.1223053695903,-4908.8999493488927,4908.8999493488927,-8920.1223053695903,31637.603409489511,0.0
375012.02908761695,3842225.878295721,-22500.0,-9628.5803407392468,13253.781375988248,-1808.1247955712961,5341.1144913938006,-3498.3107099941526,-1499.2537142755755,14840.519771150219,11445.43948568927,-8401.723554998347,8401.723554998347,-11445.43948568927,26701.229309308208,0.0
380012.02908761695,3842225.878295721,-22500.0,-10205.297017422219,9980.5584977624985,4389.6581736819971,4347.8348327055455,-814.91221894626642,-746.56611462548335,13020.843260112488,12040.315134783628,-10370.82794808536,10370.82794808536,-12040.315134783628,22846.628775025783,0.0
385012.02908761695,3842225.878295721,-22500.0,-9720.3051094383136,6344.5630186822827,8688.2821457104037,3138.8137187736347,1231.6081916500116,-129.82508350257638,11672.766216218073,11190.260940628074,-10889.145377076851,10889.145377076851,-11190.260940628074,20228.041775537542,0.0
390012.02908761695,3842225.878295721,-22500.0,-8422.1291001200734,2888.6337876386219,11238.045016829283,1902.761944705833,2646.9699647225493,340.2675910420304,10722.34294756368,9462.7843369276452,-10267.148599773733,10267.148599773733,-9462.7843369276452,18653.291183230387,0.0
395012.02908761695,3842225.878295721,-22500.0,-6630.0144753334425,-57.791559682820754,12378.117413136984,771.61445864820996,3512.0475387430552,670.94594722216948,10036.450480184712,7355.187269049884,-8897.6116386702597,8897.6116386702597,-7355.187269049884,17737.956542720462,0.0
400012.02908761695,3842225.878295721,-22500.0,-4640.5514020819992,-2356.792735636453,12497.869993757615,-180.97258242068347,3941.0042808933486,880.68410024257753,9488.625052905847,5227.4528285370279,-7145.0435754473283,7145.0435754473283,-5227.4528285370279,17115.504146768886,0.0
405012.02908761695,3842225.878295721,-22500.0,-2680.8320106851961,-4005.676721239483,11951.504654981818,-928.34297027390551,4051.1029557499414,993.03292305265279,8992.2867023713188,3298.3271188842268,-5291.7396342520551,5291.7396342520551,-3298.3271188842268,16546.946447758852,0.0
410012.02908761695,3842225.878295721,-22500.0,-898.25937609757045,-5078.9167355163736,11020.885345286806,-1475.6259497172487,3945.6233553189877,1031.9901547510208,8502.2566234916649,1673.1543787240194,-3526.7096686556856,3526.7096686556856,-1673.1543787240194,15918.774546727978,0.0
415012.02908761695,3842225.878295721,-22500.0,629.08667700896228,-5683.4537195212988,9909.8822337612692,-1845.8994712635897,3707.016574165656,1019.1392836545958,8002.5443822616407,379.80994643382598,-1957.9937353470755,1957.9937353470755,-379.80994643382598,15199.282794487375,0.0
420012.02908761695,3842225.878295721,-22500.0,1874.517207543571,-5930.1969484481569,8754.5066194851661,-2069.8526856357726,3396.446190768052,972.30229331377018,7493.4141568570631,-599.66048529646412,-633.28883172120948,633.28883172120948,599.66048529646412,14398.527468469971,0.0
425012.02908761695,3842225.878295721,-22500.0,2844.8693147482059,-5918.851475402369,7638.3150069645653,-2179.114958503882,3056.5356199446451,905.25601710057765,6982.2298103325274,-1305.833485707911,439.71748480938044,-439.71748480938044,1305.833485707911,13542.817901512566,0.0
430012.02908761695,3842225.878295721,-22500.0,3566.0424843766323,-5731.7803132051613,6607.4640671901616,-2202.5508777041432,2715.2215316509241,828.07032371692856,6478.1492937848079,-1786.9236325985723,1276.948048544825,-1276.948048544825,1786.9236325985723,12661.159350569422,0.0
435012.02908761695,3842225.878295721,-22500.0,4072.6648515750026,-5433.1548251464046,5683.1223216337394,-2164.6160663970613,2389.5546500954347,747.72699016831268,5989.5279325794581,-2090.1773490334826,1906.2006432886001,-1906.2006432886001,2090.1773490334826,11779.11594923801,0.0
440012.02908761695,3842225.878295721,-22500.0,4401.4237687291316,-5070.7520082996016,4870.7544396783751,-2084.985562744434,2088.9309868041755,668.80132658549167,5522.9588296119009,-2257.6184477395659,2359.5035525299841,-2359.5035525299841,2257.6184477395659,10916.709483719578,0.0
275012.02908761695,3847225.878295721,-22500.0,-6517.1664590701102,-381.57624609878638,2955.8147753949652,-1732.183727393664,271.97525489037287,-310.75887960168507,4993.4355277686909,2158.1010982963526,-5741.6017967412217,5741.6017967412217,-2158.1010982963526,8895.1548770207046,0.0
280012.02908761695,3847225.878295721,-22500.0,-7808.4681836585751,-1285.1515950959472,2791.8936037245508,-2268.5248991505582,-15.061993783099922,-463.8108160167842,5777.6316350499355,1495.700411903144,-6512.7817446071203,6512.7817446071203,-1495.700411903144,10433.109636268402,0.0
285012.02908761695,3847225.878295721,-22500.0,-9201.3437366584021,-2462.5267155550423,2383.9448856409745,-2915.226639356239,-445.01035550917908,-668.19462335616879,6735.8078140880807,490.03224054601424,-7240.1380599476743,7240.1380599476743,-490.03224054601424,12347.323844361605,0.0
290012.02908761695,3847225.878295721,-22500.0,-10644.731429198871,-3952.7633135461829,1622.5543901149326,-3678.4493054872173,-1065.4998148999691,-936.96742204784493,7903.8306694724033,-956.17344806615665,-7844.7092871726963,7844.7092871726963,956.17344806615665,14714.309991760714,0.0
295012.02908761695,3847225.878295721,-22500.0,-12055.533365118936,-5779.3665978461559,367.50338623048663,-4554.5589867362469,-1933.5178675134177,-1284.3518180623637,9319.632635914013,-2947.8041242401173,-8216.0778507995547,8216.0778507995547,2947.8041242401173,17612.215686004707,0.0
300012.02908761695,3847225.878295721,-22500.0,-13311.683361123223,-7933.9740594222258,-1551.5960176611493,-5523.6078869128369,-3113.046667365893,-1724.3087629351819,11020.437534299168,-5584.346901710268,-8209.8007892370097,8209.8007892370097,5584.346901710268,21112.700232322968,0.0
305012.02908761695,3847225.878295721,-22500.0,-14249.309359804874,-10353.429967682032,-4326.3665529391365,-6541.1141056555189,-4668.9074390137866,-2267.9576482586763,13039.034504533256,-8936.4079478797448,-7651.5176732436075,7651.5176732436075,8936.4079478797448,25267.814755938529,0.0
310012.02908761695,3847225.878295721,-22500.0,-14669.120041327005,-12891.172045182062,-8146.3174257015598,-7529.130759107803,-6654.8164822980034,-2919.5230812333748,15399.513465760308,-13008.617645371662,-6353.383845111628,6353.383845111628,13008.617645371662,30090.360719025684,0.0
315012.02908761695,3847225.878295721,-22500.0,-14359.032542944948,-15287.651097315773,-13153.773421926871,-8369.0824610838026,-9093.7616818400202,-3670.7643865638097,18106.794058892927,-17688.054466723195,-4149.7151150039681,4149.7151150039681,17688.054466723195,35526.898957937345,0.0
320012.02908761695,3847225.878295721,-22500.0,-13140.417169190863,-17150.922157053868,-19371.021115726868,-8900.9398821033265,-11950.093270264742,-4494.482022335962,21106.595581555855,-22683.295770364581,-957.66618336577267,957.66618336577267,22683.295770364581,41424.615751026555,0.0
325012.02908761695,3847225.878295721,-22500.0,-10941.331200911205,-17967.001085410193,-26600.592387112858,-8935.3582151581231,-15096.107987652696,-5338.7822591694658,24238.131952581174,-27470.506849809455,3137.6861560098841,-3137.6861560098841,27470.506849809455,47497.068174394648,0.0
330012.02908761695,3847225.878295721,-22500.0,-7888.2669389629082,-17166.779969071224,-34316.350406725658,-8285.936454134795,-18282.146444354097,-6125.0823501027035,27243.132197894382,-31279.461130225201,7789.7368419874765,-7789.7368419874765,31279.461130225201,53300.336521270932,0.0
335012.02908761695,3847225.878295721,-22500.0,-4385.7447059283686,-14273.244206913751,-41591.11513752296,-6824.8683740588922,-21127.370607928144,-6753.5980035737084,29790.747419509822,-33167.687401669282,12329.223888522531,-12329.223888522531,33167.687401669282,58238.817047389362,0.0
340012.02908761695,3847225.878295721,-22500.0,-1125.9339776320562,-9125.4470153766251,-47137.39651470261,-4554.1349399940354,-23154.101118867999,-7118.961854466269,31511.977903507046,-32228.083980850526,15802.7491423667,-15802.7491423667,32228.083980850526,61624.687187918709,0.0
345012.02908761695,3847225.878295721,-22500.0,1039.8582267182355,-2114.3678523450931,-49543.230460959603,-1666.5847242341276,-23883.25194550255,-7134.8343627837285,32075.007478926418,-27928.245249688291,17178.637075066479,-17178.637075066479,27928.245249688291,62808.809879827837,0.0
350012.02908761695,3847225.878295721,-22500.0,1392.1047483248833,5710.7514023360072,-47718.683620382129,1444.2244477509473,-22982.373059015408,-6760.5520578332253,31310.21801839914,-20474.54350970461,15722.594265919561,-15722.594265919561,20474.54350970461,61372.760699845923,0.0
355012.02908761695,3847225.878295721,-22500.0,-297.2454179732016,12824.869599541616,-41411.215117306521,4260.3914003575064,-20414.033112966106,-6018.548342995141,29341.917814643988,-10979.863610452137,11404.603634947538,-11404.603634947538,10979.863610452137,57323.199716151503,0.0
360012.02908761695,3847225.878295721,-22500.0,-3555.6941195387376,17725.30554773051,-31490.34740522748,6294.4979218877443,-16500.751283983838,-4992.9745198345045,26525.978910487516,-1224.5262404373111,5073.4922030092621,-5073.4922030092621,1224.5262404373111,51190.883571579252,0.0
365012.02908761695,3847225.878295721,-22500.0,-7349.3894092470591,19519.897477919672,-19739.800119102652,7254.3496994980314,-11847.149491096088,-3808.5681894751797,23276.984951203707,6965.267966242408,-1799.0799594941845,1799.0799594941845,-6965.267966242408,43953.984303574507,0.0
370012.02908761695,3847225.878295721,-22500.0,-10531.347124938058,18240.211682506833,-8209.3138192873503,7126.178709070784,-7145.5876765334669,-2599.1003083393193,20061.879642989468,12382.352536774475,-7705.8342256294727,7705.8342256294727,-12382.352536774475,36790.419164683437,0.0
375012.02908761695,3847225.878295721,-22500.0,-12308.890379222939,14693.73356377042,1488.1737472834616,6135.5227701096464,-2969.6925019391442,-1478.7542654184224,17292.727672945006,14748.031372048543,-11655.613615993403,11655.613615993403,-14748.031372048543,30746.305502914496,0.0
380012.02908761695,3847225.878295721,-22500.0,-12450.940662176656,10013.428825763696,8546.3002042079843,4626.6378292308373,344.1368723214751,-525.34846843848391,15186.488676356954,14556.817173169604,-13380.614535954986,13380.614535954986,-14556.817173169604,26421.170211050729,0.0
385012.02908761695,3847225.878295721,-22500.0,-11196.146836278913,5221.0910562936788,12917.502428424312,2938.1252700625218,2701.361047247653,223.29649201904783,13722.10432886383,12672.405840590913,-13189.315464495736,13189.315464495736,-12672.405840590913,23792.361922630316,0.0
390012.02908761695,3847225.878295721,-22500.0,-9017.7687256657991,999.6952340785989,15030.139919634279,1326.7272915979693,4181.0797744232887,763.52570946075161,12718.332423587763,9956.0599015532989,-11668.083978022469,11668.083978022469,-9956.0599015532989,22349.027448030858,0.0
395012.02908761695,3847225.878295721,-22500.0,-6409.9391959212871,-2326.4060518909537,15489.924637861519,-54.04335723861692,4950.9771932930462,1115.450063214445,11964.171477021897,7064.1859424968261,-9423.9459248416224,9423.9459248416224,-7064.1859424968261,21475.85393604156,0.0
400012.02908761695,3847225.878295721,-22500.0,-3766.6030468834119,-4700.5888420977608,14879.196813325643,-1139.8269578532897,5200.3135970592175,1311.994606304693,11305.036281277122,4402.8498676013387,-6943.6358130681219,6943.6358130681219,-4402.8498676013387,20738.309924635931,0.0
405012.02908761695,3847225.878295721,-22500.0,-1345.5993431540903,-6221.2974466134992,13664.378451531604,-1927.998155033519,5100.4798442097672,1389.8865870070119,10659.061519268897,2168.9082604922623,-4553.6334826916336,4553.6334826916336,-2168.9082604922623,19925.676248007272,0.0
410012.02908761695,3847225.878295721,-22500.0,717.44605634749871,-7052.5134130603601,12177.104450219329,-2451.0017354183478,4788.4469039143914,1383.6070170570451,9997.4085030704609,417.12094865572863,-2437.3570457959759,2437.3570457959759,-417.12094865572863,18977.81072686804,0.0
415012.02908761695,3847225.878295721,-22500.0,2376.6610791305129,-7367.6454752225827,10631.624294481502,-2756.2832234442699,4364.504222478683,1322.2006433732245,9320.1397747420669,-879.26755288453558,-672.86545883704036,672.86545883704036,879.26755288453558,17909.366797849707,0.0
420012.02908761695,3847225.878295721,-22500.0,3642.9556714609134,-7320.9928429989159,9153.6168094652803,-2893.5446155433733,3896.9981220819996,1228.2518186378104,8639.2378745774367,-1785.0454136890803,729.40955208978528,-729.40955208978528,1785.0454136890803,16762.254877998024,0.0
425012.02908761695,3847225.878295721,-22500.0,4557.924583996707,-7037.2043890778705,7807.9092671132721,-2907.888569305192,3429.3839873732172,1118.2019135375781,7969.2078916348464,-2376.1588220205786,1796.9772077894247,-1796.9772077894247,2376.1588220205786,15581.699095969521,0.0
430012.02908761695,3847225.878295721,-22500.0,5175.9327325726908,-6610.6262274628052,6620.4984856808042,-2836.944334732842,2987.1212825291054,1003.3148644447018,7322.7918276350792,-2725.2230888946588,2574.9062272492492,-2574.9062272492492,2725.2230888946588,14406.238525859862,0.0
435012.02908761695,3847225.878295721,-22500.0,5553.1282594934128,-6109.1663435151368,5594.3306069128093,-2710.3515285665999,2583.4038565362048,890.82873109408433,6709.6008043961046,-2895.0239152510135,3113.21239278642,-3113.21239278642,2895.0239152510135,13264.860162557714,0.0
440012.02908761695,3847225.878295721,-22500.0,5741.4764809705866,-5579.5732798311801,4719.8188109347284,-2550.4521691930627,2223.4980314288846,785.03487939418642,6136.3068506510199,-2936.6341974437546,3459.8420861245177,-3459.8420861245177,2936.6341974437546,12177.334454247059,0.0
445012.02908761695,3847225.878295721,-22500.0,5786.0653209108159,-5052.5882006072761,3981.4746326093832,-2373.4691570054015,1907.8296176231404,688.17552791727894,5607.8089939998517,-2889.8979429162719,3657.2962727147078,-3657.2962727147078,2889.8979429162719,11155.755244964124,0.0
270012.02908761695,3852225.878295721,-22500.0,-4840.4095378363827,1285.988601345671,3561.5153610074904,-1030.8003020380097,793.98651594006549,-111.30330925478685,4571.7297793001062,3643.4556482656049,-4944.4392605718749,4944.4392605718749,-3643.4556482656049,7953.8282578093449,0.0
275012.02908761695,3852225.878295721,-22500.0,-6132.2651815364798,728.44217295661042,3750.3679642545872,-1479.285550990591,675.17767438298506,-217.62809753194014,5220.290138399826,3457.1518345815775,-5881.7578090778525,5881.7578090778525,-3457.1518345815775,9149.946291435328,0.0
280012.02908761695,3852225.878295721,-22500.0,-7620.7774477215298,-75.692069372724347,3818.5547787616379,-2048.5814592914685,454.86256840341906,-367.86555799900475,6017.5798224738974,3028.620655032345,-6889.8171718663643,6889.8171718663643,-3028.620655032345,10664.076597368781,0.0
285012.02908761695,3852225.878295721,-22500.0,-9295.6813581226415,-1190.2492124626872,3683.6810232406715,-2759.6640769593514,88.949560330720885,-576.35736630415397,7003.9251637162188,2259.7722667372796,-7925.07372082441,7925.07372082441,-2259.7722667372796,12587.3049530015,0.0
290012.02908761695,3852225.878295721,-22500.0,-11121.256738574673,-2682.3469204021867,3228.4428607587997,-3630.7173733277127,-480.7723114927179,-860.65655038906289,8227.5816878481473,1027.8953871085478,-8913.3453179665848,8913.3453179665848,-1027.8953871085478,15026.043104862849,0.0
295012.02908761695,3852225.878295721,-22500.0,-13024.242719489204,-4612.7015026970366,2291.8067298122705,-4671.8787764728277,-1328.5190729353685,-1241.2235056370907,9743.9461968776268,-812.56027263840861,-9739.3973582208855,9739.3973582208855,812.56027263840861,18098.532971835299,0.0
300012.02908761695,3852225.878295721,-22500.0,-14880.240756855221,-7018.1504046109058,662.37052016483051,-5877.021397405545,-2544.4302484446625,-1740.1712445888966,11613.397161662666,-3420.7501778170299,-10237.237402641598,10237.237402641598,3420.7501778170299,21927.312243024051,0.0
305012.02908761695,3852225.878295721,-22500.0,-16501.590659905905,-9883.509015616848,-1921.2033768218835,-7212.0187908620373,-4230.3059802628359,-2378.431719134654,13897.666364650733,-6947.3645145420305,-10185.326465611266,10185.326465611266,6947.3645145420305,26625.317788498469,0.0
310012.02908761695,3852225.878295721,-22500.0,-17632.867214735168,-13100.933451223216,-5754.2792197263216,-8599.7839538296175,-6487.8371658256146,-3170.6129535388786,16655.218906179674,-11492.921446889268,-9314.2476715360172,9314.2476715360172,11492.921446889268,32272.508556531928,0.0
315012.02908761695,3852225.878295721,-22500.0,-17964.349383267578,-16418.689087124454,-11122.347816500178,-9904.285808845465,-9395.1058819904047,-4116.986882527277,19931.859076143239,-17039.994198886452,-7338.2864714046282,7338.2864714046282,17039.994198886452,38879.653901638572,0.0
320012.02908761695,3852225.878295721,-22500.0,-17177.85841582331,-19389.582608432727,-18213.77727620443,-10919.152942072071,-12967.41541627571,-5192.8086358893706,23717.544165408934,-23357.871189115333,-4025.0962017633065,4025.0962017633065,23357.871189115333,46337.2756758748,0.0
325012.02908761695,3852225.878295721,-22500.0,-15039.662663436171,-21344.075990732472,-26977.129355346176,-11371.259204745538,-17101.907601487084,-6336.871069607304,27861.673934842893,-29892.169260862189,685.33616910735873,-685.33616910735873,29892.169260862189,54352.387763119179,0.0
330012.02908761695,3852225.878295721,-22500.0,-11544.504448261203,-21432.77298846401,-36928.953861979506,-10954.05018997892,-21514.352511476747,-7443.8043722990069,32046.842163888348,-35679.325225278561,6517.7710786821026,-6517.7710786821026,35679.325225278561,62385.471380544965,0.0
335012.02908761695,3852225.878295721,-22500.0,-7083.2930727500252,-18797.588101194811,-46962.257161555121,-9404.8003734082085,-25692.716684694806,-8367.1607550590215,35810.160753719429,-39365.81660538898,12700.038269019265,-12700.038269019265,39365.81660538898,69616.999484334403,0.0
340012.02908761695,3852225.878295721,-22500.0,-2549.3784579757894,-12912.917151299924,-55279.077749796721,-6626.4156800422952,-28911.830503647692,-8940.3259519640815,38577.524838297999,-39443.47186382248,17911.697807086006,-17911.697807086006,39443.47186382248,74992.752511873186,0.0
345012.02908761695,3852225.878295721,-22500.0,762.40221793700846,-4044.9002796509903,-59637.810880703721,-2820.8724309718077,-30361.094180452754,-9016.7868153998807,39766.875793028565,-34777.964903727174,20505.454939986568,-20505.454939986568,34777.964903727174,77404.76030000273,0.0
350012.02908761695,3852225.878295721,-22500.0,1591.5401171109997,6405.7061285083482,-58059.256096786849,1444.7695175485003,-29403.047449041584,-8519.8153763725641,38995.433799823819,-25327.506942173237,19108.583182255152,-19108.583182255152,25327.506942173237,76028.188723934523,0.0
355012.02908761695,3852225.878295721,-22500.0,-599.85948505984118,16061.528381359885,-49838.965439296262,5336.3717276341031,-25884.104200266716,-7479.4751027959819,36351.437491183446,-12637.88128455697,13437.925787151729,-13437.925787151729,12637.88128455697,70727.517743288234,0.0
360012.02908761695,3852225.878295721,-22500.0,-5121.6678645449929,22437.009224122863,-36254.089178800517,8037.3362706200396,-20309.819697626604,-6033.6322363628906,32431.545166565189,443.95512898685683,4777.0422949549829,-4777.0422949549829,-443.95512898685683,62315.234710769248,0.0
365012.02908761695,3852225.878295721,-22500.0,-10257.7224831695,24115.893147090992,-20259.282940801539,9083.8140617203844,-13712.823722600408,-4387.1339101917547,27979.959753103929,10944.54193249896,-4443.0511302954737,4443.0511302954737,-10944.54193249896,52436.729610323338,0.0
370012.02908761695,3852225.878295721,-22500.0,-14161.293700430924,21366.870327140496,-5188.5835746811053,8526.0850996733679,-7252.5509334909475,-2750.0779382644969,23756.319221095677,17085.399462682231,-11816.490395739716,11816.490395739716,-17085.399462682231,43056.313708850052,0.0
375012.02908761695,3852225.878295721,-22500.0,-15749.081075644317,15743.256248893555,6608.1514297660997,6817.3958755607082,-1805.9025165670325,-1287.2333915334109,20354.721045724633,18786.346554113476,-16006.917033682879,16006.917033682879,-18786.346554113476,35755.123490672617,0.0
380012.02908761695,3852225.878295721,-22500.0,-14961.811497569297,9124.4820193650921,14302.35525279668,4551.0149800681047,2216.7210166535706,-96.212542517162731,17970.469725778057,17179.240591630412,-16974.229859497027,16974.229859497027,-17179.240591630412,31128.658914729145,0.0
385012.02908761695,3852225.878295721,-22500.0,-12431.207931901285,2957.6201359168958,18265.704744760074,2235.6424208195281,4812.1220871538762,789.26744932024064,16410.81879641773,13757.513354347204,-15513.997826577208,15513.997826577208,-13757.513354347204,28669.845439315126,0.0
390012.02908761695,3852225.878295721,-22500.0,-8992.613661027588,-1988.3016961994854,19434.270584540503,197.80108470449989,6214.2086571312711,1383.3350689484816,15325.881660589597,9769.7711531705463,-12656.021056316138,12656.021056316138,-9769.7711531705463,27360.898027820574,0.0
395012.02908761695,3852225.878295721,-22500.0,-5357.4683719885734,-5504.5708820227774,18805.316748628095,-1412.2845095519672,6736.3030906371414,1728.9085992543139,14427.717499217255,6009.9838445152518,-9277.0800945938372,9277.0800945938372,-6009.9838445152518,26378.934809882106,0.0
400012.02908761695,3852225.878295721,-22500.0,-1996.0329615030466,-7713.9017146645338,17189.274237597794,-2569.6999169035971,6673.9781445511217,1880.925228447787,13559.712883617949,2863.5682895671735,-5967.6810967060983,5967.6810967060983,-2863.5682895671735,25311.559573826646,0.0
405012.02908761695,3852225.878295721,-22500.0,848.43973874549863,-8877.798746285227,15150.307595642595,-3320.3404349508623,6263.550161280943,1894.1959284782006,12666.921111964095,439.82640313845809,-3051.4204359375553,3051.4204359375553,-439.82640313845809,24039.485410208123,0.0
410012.02908761695,3852225.878295721,-22500.0,3096.7886701979819,-9278.6271954512904,13038.09473264346,-3739.9650047245559,5675.0130231758658,1816.3074573789727,11748.489098095375,-1303.9206877493677,-658.80865440793355,658.80865440793355,1303.9206877493677,22584.440552143151,0.0
415012.02908761695,3852225.878295721,-22500.0,4769.2043657307377,-9163.4406693728524,11045.866578719848,-3909.0109775070509,5020.9827295482846,1684.7351544304479,10824.372507948587,-2476.0555472254214,1198.1335578091339,-1198.1335578091339,2476.0555472254214,21015.433568654971,0.0
420012.02908761695,3852225.878295721,-22500.0,5935.907996246242,-8725.8483068450987,9264.5293213455552,-3899.6984876950855,4370.4401708605001,1526.7763229208363,9917.9682831924856,-3200.4668555205508,2569.4724748995732,-2569.4724748995732,3200.4668555205508,19404.715007436986,0.0
425012.02908761695,3852225.878295721,-22500.0,6685.1765434691988,-8107.0444226879163,7723.5394125791927,-3771.0656791488773,3761.8415651088039,1360.9686397384603,9048.9243327544737,-3591.7163631550843,3530.8050360270904,-3530.8050360270904,3591.7163631550843,17811.331219517575,0.0
430012.02908761695,3852225.878295721,-22500.0,7105.0734097405384,-7404.4286523927194,6418.4880420313466,-3568.4197824970565,3213.6211252290191,1199.014969888515,8231.2411233722232,-3745.3787233343874,4162.1817267997967,-4162.1817267997967,3745.3787233343874,16277.516545944225,0.0
435012.02908761695,3852225.878295721,-22500.0,7274.4448386816284,-6681.8677895294059,5328.3837677071833,-3324.8886043541961,2731.8444299650109,1047.6596694081882,7473.873363039178,-3736.394116242499,4537.4039726237561,-4537.4039726237561,3736.394116242499,14830.30509308352,0.0
440012.02908761695,3852225.878295721,-22500.0,7259.5357958187151,-5978.9675309784398,4425.7993979064868,-3063.6978446443854,2315.4297251195749,910.25563434096887,6782.1962449692628,-3621.0768634817368,4719.608004370536,-4719.608004370536,3621.0768634817368,13484.72359163832,0.0
445012.02908761695,3852225.878295721,-22500.0,7113.6907136811888,-5318.5129775408332,3682.449669331731,-2800.4635889298352,1959.5339251155156,787.96198720162624,6157.5960225603039,-3440.3911824770985,4760.3216654260905,-4760.3216654260905,3440.3911824770985,12247.04080218287,0.0
270012.02908761695,3857225.878295721,-22500.0,-3971.7733753566636,2402.2147046421483,4061.9531302246683,-645.77329852632158,1161.4310687968748,5.4939276663158427,4865.3517417580397,4723.9351522395773,-4630.3053837569296,4630.3053837569296,-4723.9351522395773,8427.1514355482905,0.0
275012.02908761695,3857225.878295721,-22500.0,-5341.2204762498523,2022.9182810177786,4449.8367937844541,-1078.6313498340855,1125.8860454728333,-85.243938171240728,5516.9978333278204,4803.1835987256018,-5716.4296288055393,5716.4296288055393,-4803.1835987256018,9570.7008407625981,0.0
280012.02908761695,3857225.878295721,-22500.0,-6979.9890720961303,1398.4161060456315,4773.7886113914146,-1651.0188159165407,1000.3536187270212,-221.63439757950934,6316.1769224653326,4681.5646231289575,-6945.9492457908818,6945.9492457908818,-4681.5646231289575,11019.839548966176,0.0
285012.02908761695,3857225.878295721,-22500.0,-8902.8760342242749,446.6481077151484,4959.1876064598673,-2395.456871558591,736.91105437451768,-421.05995654809635,7309.3040729789736,4253.3905741993794,-8293.8317871751096,8293.8317871751096,-4253.3905741993794,12882.731708361574,0.0
290012.02908761695,3857225.878295721,-22500.0,-11102.072293765963,-928.7775927501765,4891.1719114352236,-3345.8192716754093,268.59595345951925,-705.93259435952621,8556.172692979806,3376.7194606135754,-9703.2044464160281,9703.2044464160281,-3376.7194606135754,15296.516415771102,0.0
295012.02908761695,3857225.878295721,-22500.0,-13531.442912830133,-2832.1854154257417,4399.6286635622437,-4532.3682908415813,-495.48562230573469,-1104.0704174551122,10131.247752269142,1868.6293385663039,-11069.764967941108,11069.764967941108,-1868.6293385663039,18426.997502434187,0.0
300012.02908761695,3857225.878295721,-22500.0,-16085.761808061225,-5360.5312155701713,3242.8457278188562,-5972.727275182001,-1674.0969433244436,-1648.1141071485704,12123.564509482894,-493.47624743247434,-12223.296660211077,12223.296660211077,493.47624743247434,22463.642047470126,0.0
305012.02908761695,3857225.878295721,-22500.0,-18576.559502328684,-8573.8687427998357,1094.2081232298249,-7657.142712189132,-3414.2961729914209,-2373.0554168276608,14634.905520679244,-3957.5457085017597,-12909.698880231888,12909.698880231888,3957.5457085017597,27607.222140472164,0.0
310012.02908761695,3857225.878295721,-22500.0,-20710.097555916851,-12445.506137767641,-2458.6419695930595,-9526.7691512033834,-5883.7342982975979,-3310.5583347532915,17776.812916766485,-8758.7469938082522,-12781.539516270013,12781.539516270013,8758.7469938082522,34045.521396305267,0.0
315012.02908761695,3857225.878295721,-22500.0,-22079.590709925265,-16787.60905168275,-7885.0143153703857,-11445.502362686908,-9247.5794128996458,-4478.5698260796944,21664.640872755095,-15043.271415323159,-11412.282599753167,11412.282599753167,15043.271415323159,41910.214752842927,0.0
320012.02908761695,3857225.878295721,-22500.0,-22193.160928334262,-21155.84703821479,-15625.826742043757,-13170.253941059391,-13620.523803676186,-5865.2673097774732,26376.600538459206,-22739.934717282486,-8358.3279670642642,8358.3279670642642,22739.934717282486,51206.753644129698,0.0
325012.02908761695,3857225.878295721,-22500.0,-20568.367574083324,-24755.831468083103,-25917.464324521123,-14332.65315377357,-18984.996043807241,-7408.4989708581024,31826.904590144575,-31376.280209473221,-3299.5763544139663,3299.5763544139663,31376.280209473221,61711.482130467884,0.0
330012.02908761695,3857225.878295721,-22500.0,-16924.808308482516,-26409.966674971703,-38498.202678939153,-14456.715622901131,-25075.638334709565,-8976.2507331486013,37669.017184942422,-39869.781205612184,3717.8940418340571,-3717.8940418340571,39869.781205612184,72841.472337149607,0.0
335012.02908761695,3857225.878295721,-22500.0,-11478.005953373868,-24693.596834446766,-52219.295512507626,-13047.236687092845,-31254.910056453751,-10359.628959417254,43287.569152566648,-46396.365718974514,11957.477308895104,-11957.477308895104,46396.365718974514,83530.162817233606,0.0
340012.02908761695,3857225.878295721,-22500.0,-5248.4308977268429,-18382.396642768432,-64711.1100050034,-9778.6278765183051,-36450.902889897865,-11294.01285625492,47805.441853708602,-48546.132432044498,19719.153912344264,-19719.153912344264,48546.132432044498,92192.624112345729,0.0
345012.02908761695,3857225.878295721,-22500.0,-133.74368320874527,-7270.4138112726341,-72467.210381728451,-4766.8153792533494,-39281.497420961219,-11519.966413662401,50199.33509698727,-44041.956284495689,24431.177552954825,-24431.177552954825,44041.956284495689,96922.773208561179,0.0
350012.02908761695,3857225.878295721,-22500.0,1639.9277183532834,6929.90630248043,-71838.279164012798,1204.2510545840548,-38482.129747122315,-10876.932097256087,49638.160939886788,-32091.391816479827,23508.87253772435,-23508.87253772435,32091.391816479827,96057.517388054679,0.0
355012.02908761695,3857225.878295721,-22500.0,-1184.427023051928,20449.386247908493,-61013.859056007474,6749.7173139516372,-33573.413015424892,-9391.3970961113428,46036.450953222622,-14723.823163368803,15978.145524327248,-15978.145524327248,14723.823163368803,89042.840064205389,0.0
360012.02908761695,3857225.878295721,-22500.0,-7628.2312974637862,28947.056293645775,-41837.762377142637,10415.016562756729,-25356.450524130312,-7297.5927496200802,40378.856862896959,3324.2761688919318,3786.3414692616352,-3786.3414692616352,-3324.2761688919318,77134.784578537685,0.0
365012.02908761695,3857225.878295721,-22500.0,-14691.12620442659,30039.220742478159,-19475.410859328396,11419.492350626713,-15704.855297093551,-4955.8149567809378,34086.702906280021,16932.889140958148,-8830.8644171801352,8830.8644171801352,-16932.889140958148,63264.906304778953,0.0
370012.02908761695,3857225.878295721,-22500.0,-19279.020337582973,24627.689045298997,390.5378138867332,10003.560309781496,-6666.2087727002045,-2714.8576061189478,28464.448361129798,23450.482796202406,-17877.223956188682,17877.223956188682,-23450.482796202406,50877.805777621084,0.0
375012.02908761695,3857225.878295721,-22500.0,-20017.940307753881,15780.967815938431,14382.539856058598,7104.3664991131991,411.3408673977849,-812.24767905190151,24336.044068426498,23487.396107256216,-21688.277100770945,21688.277100770945,-23487.396107256216,42315.566003007501,0.0
380012.02908761695,3857225.878295721,-22500.0,-17416.467612105072,6603.4736385676752,22051.427386664705,3750.7191132676835,5127.7027680109022,645.3529226345488,21707.901733184408,19478.299638652199,-20942.873989205902,20942.873989205902,-19478.299638652199,37722.45142124519,0.0
385012.02908761695,3857225.878295721,-22500.0,-12875.252204122242,-1006.8953412903487,24734.711176550365,670.91189109513061,7749.3129497030304,1651.320503924265,20035.501754669407,13905.224445034648,-17381.031087805615,17381.031087805615,-13905.224445034648,35549.03977747458,0.0
390012.02908761695,3857225.878295721,-22500.0,-7749.6018849662678,-6403.2337406050865,24221.460220556899,-1778.8818913750695,8812.2673255873415,2259.0080232722657,18758.613050592612,8431.7575651300594,-12673.517120585357,12673.517120585357,-8431.7575651300594,34173.100987442784,0.0
395012.02908761695,3857225.878295721,-22500.0,-2948.9264743042122,-9711.0524548481462,22013.655740253111,-3516.5257436925435,8855.8605482292314,2549.5861117903064,17557.062107477159,3862.6703325043945,-7957.309567741675,7957.309567741675,-3862.6703325043945,32732.206714480049,0.0
400012.02908761695,3857225.878295721,-22500.0,1071.677212206788,-11371.613939478286,19128.96883568,-4610.2260882769679,8309.596834288217,2609.5430966620315,16319.140940686806,422.64073951179603,-3832.325887945668,3832.325887945668,-422.64073951179603,30976.001721756573,0.0
405012.02908761695,3857225.878295721,-22500.0,4176.3829849158019,-11870.516154853869,16163.571449177889,-5187.8779570703609,7473.8270278639257,2516.7225498794555,15040.94428010061,-1964.7134184140652,-520.87733771049648,520.87733771049648,1964.7134184140652,28937.618910795351,0.0
410012.02908761695,3857225.878295721,-22500.0,6409.8712420862566,-11620.50207671791,13421.056035071771,-5385.0828490110052,6539.7586206647502,2333.6214691497762,13756.4306995157,-3492.1778638246178,1971.391813556693,-1971.391813556693,3492.1778638246178,26735.047235791593,0.0
415012.02908761695,3857225.878295721,-22500.0,7898.4502158087562,-10931.301872532358,11026.378084432161,-5320.8735232178669,5618.8940098721951,2106.0636119698415,12503.807303275775,-4370.637640631161,3741.5552925633006,-3741.5552925633006,4370.637640631161,24486.423167169494,0.0
420012.02908761695,3857225.878295721,-22500.0,8791.2819635831984,-10017.794079917863,9005.7496175190681,-5089.7032155632551,4769.5189190534165,1865.0413528917968,11313.30815730159,-4786.2057287577718,4921.5934999393157,-4921.5934999393157,4786.2057287577718,22283.020963375402,0.0
425012.02908761695,3857225.878295721,-22500.0,9230.1851344378065,-9020.2415473607762,7336.4083779394314,-4761.6562242711998,4016.7529333414691,1629.856361982582,10204.893359397773,-4887.1092673227977,5643.0953609443313,-5643.0953609443313,4887.1092673227977,20186.018849118995,0.0
430012.02908761695,3857225.878295721,-22500.0,9336.8043913469883,-8024.9397263075816,5975.1941891287588,-4386.0679167855196,3366.354504569721,1411.3509473612226,9189.729318284637,-4784.3433108627896,6021.6234500396831,-6021.6234500396831,4784.3433108627896,18231.284276918625,0.0
435012.02908761695,3857225.878295721,-22500.0,9209.356363732797,-7081.3209347536331,4873.8682921545405,-3996.070787209876,2813.675061050812,1214.6689553665842,8272.234397158616,-4557.5656055349682,6151.8700247277775,-6151.8700247277775,4557.5656055349682,16435.996394529062,0.0
440012.02908761695,3857225.878295721,-22500.0,8923.9486363809865,-6214.6727141561651,3986.5570494469534,-3612.8104666347881,2349.1308132846698,1041.3502115821927,7450.0323037472936,-4262.0406286404168,6108.0696630262109,-6108.0696630262109,4262.0406286404168,14804.480214889878,0.0
445012.02908761695,3857225.878295721,-22500.0,8537.785630382532,-5435.1125495518045,3272.8793999166437,-3248.9378019184264,1961.3985360920067,890.81483822285645,6714.6306560792254,-3934.9510643223252,5946.6418902635896,-5946.6418902635896,3934.9510643223252,13332.824314343572,0.0
265012.02908761695,3862225.878295721,-22500.0,-1607.6494595989639,3581.6911911821771,3864.3750719312961,142.29938546108454,1435.3760372644467,189.79489952971124,4703.5252982083875,5278.422669716113,-2988.6688830294561,2988.6688830294561,-5278.422669716113,8250.1754458897612,0.0
270012.02908761695,3862225.878295721,-22500.0,-2687.7322109199449,3590.5462372876764,4405.6071801945336,-123.88423411237605,1538.048413477532,155.64260063389258,5261.6972467526311,5723.0671574111539,-3966.9816439612018,3966.9816439612018,-5723.0671574111539,9167.8846527051574,0.0
275012.02908761695,3862225.878295721,-22500.0,-4053.9645981096182,3451.2443436428512,4982.3917145723444,-504.53630641737504,1603.4383461641894,91.718690363971845,5924.5859538896348,6102.7840704667815,-5147.5922654084279,5147.5922654084279,-6102.7840704667815,10275.725316774848,0.0
280012.02908761695,3862225.878295721,-22500.0,-5757.2108295245826,3092.6293645341771,5563.7972882739668,-1036.1671434559762,1599.9644013505995,-16.240688468539727,6725.7383003806826,6349.0421028356495,-6547.972667554538,6547.972667554538,-6349.0421028356495,11650.066431409788,0.0
285012.02908761695,3862225.878295721,-22500.0,-7844.7185764619926,2420.0504702066037,6092.3531119358995,-1763.4116350687887,1479.5114203314063,-188.06230138597971,7712.5971727142969,6359.2614549426999,-8170.9618299211907,8170.9618299211907,-6359.2614549426999,13402.262566852272,0.0
290012.02908761695,3862225.878295721,-22500.0,-10349.639000399327,1312.1299300858548,6469.2211520356241,-2738.3133438572304,1170.5348181017034,-450.69698199906338,8951.3475633245544,5984.8700080809322,-9991.7388958971933,9991.7388958971933,-5984.8700080809322,15689.0018323399,0.0
295012.02908761695,3862225.878295721,-22500.0,-13273.780206495214,-378.86557473666903,6533.4674870652543,-4017.0429930683408,569.39138987346325,-839.70997408789219,10532.104580247003,5018.3263607615881,-11938.386757118733,11938.386757118733,-5018.3263607615881,18720.619516092465,0.0
300012.02908761695,3862225.878295721,-22500.0,-16561.408642108931,-2818.5031514145403,6035.0841212488021,-5651.9667177856636,-469.43016599929001,-1400.1143028427234,12573.578982732201,3182.4177279623345,-13864.962352795113,13864.962352795113,-3182.4177279623345,22764.037665772343,0.0
305012.02908761695,3862225.878295721,-22500.0,-20062.980937754619,-6166.0530933577038,4603.8759261733794,-7676.0736556598613,-2141.9945375430507,-2185.414129646626,15226.444122996574,129.01302492664036,-15517.993298289843,15517.993298289843,-129.01302492664036,28136.616984655833,0.0
310012.02908761695,3862225.878295721,-22500.0,-23491.117526423674,-10523.836437519909,1721.9276200400438,-10076.095612529172,-4697.4379462863862,-3252.9276022038453,18676.021417494532,-4539.2461642891922,-16502.166587688647,16502.166587688647,4539.2461642891922,35185.932685826119,0.0
315012.02908761695,3862225.878295721,-22500.0,-26378.729050696213,-15846.73187614818,-3281.9569931305164,-12751.138308753907,-8424.4097970315979,-4652.5579879865027,23145.336306194982,-11202.158817517917,-16260.407908889883,16260.407908889883,11202.158817517917,44246.201272670383,0.0
320012.02908761695,3862225.878295721,-22500.0,-28063.327904370708,-21801.260897604996,-11179.703264571279,-15457.336099215523,-13604.830208405776,-6405.8243519587841,28868.946099718942,-20078.91289333822,-14099.381119685084,14099.381119685084,20078.91289333822,55555.323268914908,0.0
325012.02908761695,3862225.878295721,-22500.0,-27742.868324735093,-27579.745624759475,-22672.703984930529,-17748.893203207463,-20411.681648292892,-8473.4432658915975,35930.955111666291,-30975.187046116891,-9312.8830184738363,9312.8830184738363,30975.187046116891,69110.239008983393,0.0
330012.02908761695,3862225.878295721,-22500.0,-24673.212787824868,-31719.693128693747,-38018.921646320312,-18945.710679587024,-28727.75957279505,-10715.068072961938,44049.718014660895,-42908.916607430176,-1474.8434342852379,1474.8434342852379,42908.916607430176,84441.152589258214,0.0
335012.02908761695,3862225.878295721,-22500.0,-18584.827660549276,-32073.104750944396,-56388.899887583888,-18188.955725342756,-37885.292327661416,-12854.986434154707,52489.199609839758,-53688.278062527555,9038.7026946353799,-9038.7026946353799,53688.278062527555,100314.71920653652,0.0
340012.02908761695,3862225.878295721,-22500.0,-10321.906022547442,-26220.453474418431,-75022.851910965153,-14678.255312152207,-46402.241797322909,-14480.698929812994,59971.589046058769,-59725.799989171312,20362.022947374309,-20362.022947374309,59725.799989171312,114467.56890987778,0.0
345012.02908761695,3862225.878295721,-22500.0,-2416.2066792587011,-12714.750232278209,-88689.926520970446,-8167.0159563613488,-51948.189506626681,-15111.084539810861,64718.897279760262,-56714.5360888996,28717.789414008606,-28717.789414008606,56714.5360888996,123652.81465298592,0.0
350012.02908761695,3862225.878295721,-22500.0,1252.8506794487375,6865.7470418682424,-90654.673739473685,399.8509546955184,-51939.125613450095,-14363.120472356435,64950.511559314837,-41899.962181706534,29277.466924853594,-29277.466924853594,41899.962181706534,124460.99689471012,0.0
355012.02908761695,3862225.878295721,-22500.0,-2277.8339718080156,26558.976468350291,-76357.863709488942,8664.8887427389127,-44968.299541935135,-12184.75094641024,60018.522134075814,-17464.622234200568,19226.947765301516,-19226.947765301516,17464.622234200568,115151.70680793656,0.0
360012.02908761695,3862225.878295721,-22500.0,-11785.145868141111,38274.473555948272,-48228.132433580235,13816.195715401864,-32280.308501711614,-8989.2903038088207,51511.457033232116,8379.5548546530772,1421.0642704877514,-1421.0642704877514,-8379.5548546530772,97628.480096261323,0.0
365012.02908761695,3862225.878295721,-22500.0,-21660.579602203317,37662.445687633532,-15928.306679970932,14418.160131571962,-17555.881543429958,-5493.2509490918774,42288.426358624136,26149.719391987703,-16238.420701989991,16238.420701989991,-26149.719391987703,77493.369580443745,0.0
370012.02908761695,3862225.878295721,-22500.0,-26468.528387220231,27350.178194051252,10291.998928432531,11272.645039236249,-4664.8362109972941,-2342.861968157019,34728.399520842569,31922.631997067285,-26796.589952449212,26796.589952449212,-31922.631997067285,61131.892987128107,0.0
375012.02908761695,3862225.878295721,-22500.0,-24884.845392282445,13596.246810389697,25899.991524016761,6400.7667485714746,4369.8263212657948,124.18084513726396,29825.963327432684,28381.288049414248,-28712.440872843825,28712.440872843825,-28381.288049414248,51664.698858952841,0.0
380012.02908761695,3862225.878295721,-22500.0,-18972.444348377208,1359.6265634377203,32024.269462142314,1567.5171942116617,9503.6117992765885,1848.0236362386233,26961.487913293684,20552.617419202445,-24589.253220922514,24589.253220922514,-20552.617419202445,47500.044786193881,0.0
385012.02908761695,3862225.878295721,-22500.0,-11490.567683221325,-7331.1678855165101,31998.774485303526,-2308.6853986418014,11677.719813942676,2913.005906601385,25010.648912110017,12258.490377564231,-17832.25819304906,17832.25819304906,-12258.490377564231,45373.113699376932,0.0
390012.02908761695,3862225.878295721,-22500.0,-4361.6782076113659,-12479.389547278541,28860.012446356075,-4994.5472521597176,11966.656138055441,3453.4889772051315,23262.046081230001,5347.5037940063967,-10838.482926634151,10838.482926634151,-5347.5037940063967,43321.69290287784,0.0
395012.02908761695,3862225.878295721,-22500.0,1505.9904923054264,-14893.541936254305,24597.675558804225,-6609.6858813737945,11215.591983292623,3610.3704809629944,21469.993036430609,306.84010072342653,-4802.2592288794076,4802.2592288794076,-306.84010072342653,40779.23223367492,0.0
400012.02908761695,3862225.878295721,-22500.0,5885.3503688234623,-15474.912513667934,20287.081255729994,-7393.5411375438389,9986.5480241824407,3510.9520309280219,19621.972548569724,-3025.2291240602999,-107.47829004213395,107.47829004213395,3025.2291240602999,37800.113674156615,0.0
405012.02908761695,3862225.878295721,-22500.0,8893.1916139656169,-14952.009944037001,16414.043609918619,-7589.6852902250102,8615.4245417434813,3258.8161140434395,17777.142994490747,-5020.5463201409784,3280.2136511651988,-3280.2136511651988,5020.5463201409784,34595.65144437721,0.0
410012.02908761695,3862225.878295721,-22500.0,10775.395283376081,-13837.156846181613,13138.905120903806,-7401.6803681138254,7284.5097957088956,2930.7272854937119,15997.818557826497,-6057.3344282071012,5563.6891464590699,-5563.6891464590699,6057.3344282071012,31362.613717581284,0.0
415012.02908761695,3862225.878295721,-22500.0,11796.146503712613,-12461.688648183323,10462.625272611489,-6983.4732475353367,6080.7166165696581,2578.7387848263265,14329.125835220344,-6447.8808851009007,6984.3826871476222,-6984.3826871476222,6447.8808851009007,28241.111282032085,0.0
420012.02908761695,3862225.878295721,-22500.0,12190.181539709505,-11026.082862908659,8319.0191360149529,-6443.9997848096846,5035.6693192989196,2235.0323082391565,12797.353415489893,-6425.9430392896529,7764.7614995094182,-7764.7614995094182,6425.9430392896529,25316.510446892898,0.0
425012.02908761695,3862225.878295721,-22500.0,12147.783985505719,-9643.2754011439247,6621.7188414185493,-5856.2537261808902,4151.1664204370572,1917.3466225385489,11413.720039305494,-6156.5316171224349,8088.4885982453961,-8088.4885982453961,6156.5316171224349,22632.435435623524,0.0
430012.02908761695,3862225.878295721,-22500.0,11815.019116435715,-8370.6742187728833,5286.0054008086872,-5266.6012553397677,3414.4920951078179,1633.7653169001474,10178.160892067304,-5751.3868271461233,8098.2261609606594,-8098.2261609606594,5751.3868271461233,20204.071349887454,0.0
435012.02908761695,3862225.878295721,-22500.0,11299.82175717594,-7231.9614310544839,4237.5041670625469,-4702.6431310102816,2807.126068649944,1386.3811568030906,9081.9227261428932,-5283.5298299191636,7900.4738628512714,-7900.4738628512714,5283.5298299191636,18028.560517128481,0.0
440012.02908761695,3862225.878295721,-22500.0,10679.63070846856,-6231.3164687627404,3414.5121059818975,-4179.3084409148323,2309.4347342226629,1173.872495470983,8111.5931421215082,-4798.9853292947901,7572.4834867971967,-7572.4834867971967,4798.9853292947901,16092.51891400501,0.0
445012.02908761695,3862225.878295721,-22500.0,10008.564467945382,-5362.3520669225572,2767.4547953601314,-3703.2937743274692,1902.9859216436409,993.18906385525133,7253.5152145713519,-4325.5058873100679,7168.9890359565743,-7168.9890359565743,4325.5058873100679,14377.100562570395,0.0
450012.02908761695,3862225.878295721,-22500.0,9323.4300171952982,-4613.5428784560427,2257.2485377449884,-3276.1581560834611,1571.5190232532154,840.58765222527404,6495.3086307706444,-3878.7712960649233,6727.9227465777212,-6727.9227465777212,3878.7712960649233,12861.229267197734,0.0
265012.02908761695,3867225.878295721,-22500.0,-4.9156264839036652,4525.5415007710335,3897.8188579151984,719.01618533057592,1707.8735820607303,340.91745057914426,5184.4047767628654,5863.1961907472505,-1951.1946706157714,1951.1946706157714,-5863.1961907472505,9259.8201528980444,0.0
270012.02908761695,3867225.878295721,-22500.0,-945.54824456660094,4775.3360970256272,4542.66780800164,544.22844645464795,1898.1310346729701,340.41886403030674,5784.6773144323597,6544.764244925329,-2895.1097327585358,2895.1097327585358,-6544.764244925329,10238.423907731585,0.0
275012.02908761695,3867225.878295721,-22500.0,-2197.0961566374012,4927.7793001135969,5275.7467255157926,261.59736727689602,2076.5336176833398,316.47812317407011,6482.428923595251,7235.2061447085916,-4084.2488470746839,4084.2488470746839,-7235.2061447085916,11374.013907654366,0.0
280012.02908761695,3867225.878295721,-22500.0,-3835.0402015063005,4915.1735941078477,6086.6128618022103,-170.96588305852282,2216.9347094353493,254.85157262848151,7305.5497804503848,7883.1663471523952,-5561.535738489436,5561.535738489436,-7883.1663471523952,12723.86764632525,0.0
285012.02908761695,3867225.878295721,-22500.0,-5942.7686366629832,4640.5205246288815,6943.7530739283302,-808.52443875200186,2276.0205954043481,134.63878195934396,8295.4920761117737,8402.9061573090094,-7364.7697956317597,7364.7697956317597,-8402.9061573090094,14380.052741908816,0.0
290012.02908761695,3867225.878295721,-22500.0,-8604.2287952368024,3968.9566556852833,7779.0204878892146,-1721.0016552013187,2184.3643174622612,-74.231414142161611,9514.623752091913,8657.9694088541692,-9514.9287561441706,9514.9287561441706,-8657.9694088541692,16488.795353984922,0.0
295012.02908761695,3867225.878295721,-22500.0,-11888.952604475642,2719.958040324695,8463.4487621798016,-2993.3359539629996,1833.8159114594807,-414.01844322189788,11056.463099082996,8439.9011847834518,-11996.140786913722,11996.140786913722,-8439.9011847834518,19274.730288732309,0.0
300012.02908761695,3867225.878295721,-22500.0,-15825.211234947677,664.3982832813607,8771.48048277198,-4721.5586857238468,1060.7005729350487,-942.31903619967215,13058.664464532285,7443.2811431434002,-14723.803154315656,14723.803154315656,-7443.2811431434002,23065.270299660308,0.0
305012.02908761695,3867225.878295721,-22500.0,-20356.403376220398,-2465.3602664877526,8331.6786761918738,-7000.7359864007576,-374.52787031889926,-1734.3478125528286,15717.898454337079,5242.1999770247221,-17497.757963725904,17497.757963725904,-5242.1999770247221,28306.21270019556,0.0
310012.02908761695,3867225.878295721,-22500.0,-25277.136609152294,-6937.8753794639788,6566.2879899187155,-9898.4717751933622,-2807.5263147633905,-2882.2107779312532,19306.65391848069,1280.99544508898,-19940.720874121726,19940.720874121726,-1280.99544508898,35558.310532060124,0.0
315012.02908761695,3867225.878295721,-22500.0,-30151.185560822611,-12934.90510280848,2632.9241273121211,-13405.414192386919,-6680.1319283893999,-4487.2254553838084,24195.858463674504,-5094.6074497404679,-21431.084192949158,21431.084192949158,5094.6074497404679,45464.15951070661,0.0
320012.02908761695,3867225.878295721,-22500.0,-34228.137041956696,-20383.872783213261,-4595.6509969295075,-17354.091054265511,-12518.522998542419,-6639.2041465175225,30866.046134952201,-14519.98494050806,-21058.388810270175,21058.388810270175,14519.98494050806,58667.241886571384,0.0
325012.02908761695,3867225.878295721,-22500.0,-36404.107909461964,-28682.308768655254,-16436.762379929114,-21303.461058521138,-20839.322150198808,-9375.3237267058685,39747.401553674848,-27337.518812304297,-17663.984835634416,17663.984835634416,27337.518812304297,75643.412799992133,0.0
330012.02908761695,3867225.878295721,-22500.0,-35322.448593560592,-36314.90166247786,-34045.861353361921,-24407.161143816564,-31920.819435129288,-12613.48658651227,50838.717648566482,-43078.413838121043,-10083.92948919937,10083.92948919937,43078.413838121043,96377.370752062066,0.0
335012.02908761695,3867225.878295721,-22500.0,-29788.960137818365,-40466.904712478834,-57583.335418808179,-25333.862291858488,-45364.46362790397,-16063.627261827729,63455.878834446121,-59645.017459429044,2218.680298151623,-2218.680298151623,59645.017459429044,119809.5474503864,0.0
340012.02908761695,3867225.878295721,-22500.0,-19744.139147369915,-37021.234017990158,-84671.850861170562,-22415.420544663568,-59428.079616756266,-19138.537128413933,75930.091212037121,-72363.345463238918,17933.428491360282,-17933.428491360282,72363.345463238918,143071.49728555005,0.0
345012.02908761695,3867225.878295721,-22500.0,-7823.6935686936267,-21879.428043914377,-108381.09686168891,-14355.605264618674,-70394.978483874162,-20929.879186058417,85311.038930102062,-73810.976798980046,32282.028880383194,-32282.028880383194,73810.976798980046,160892.43852671009,0.0
350012.02908761695,3867225.878295721,-22500.0,-341.53414375995447,5173.0182329262152,-116719.81571729844,-1757.8346273923396,-72937.532566678943,-20416.588483798689,87844.725470846402,-56642.032897815829,36677.121431263447,-36677.121431263447,56642.032897815829,166312.39633162817,0.0
355012.02908761695,3867225.878295721,-22500.0,-4307.0360282420843,35285.038211166349,-98249.016910288352,11387.339585500898,-62944.220678961239,-17097.772076831061,81210.937257358863,-21278.743791491997,23490.910363988794,-23490.910363988794,21278.743791491997,154263.2575930052,0.0
360012.02908761695,3867225.878295721,-22500.0,-19004.047206168569,52250.730722107415,-54919.803004599577,19058.695485188466,-42084.284663499122,-11711.802278160756,67848.680925779132,17610.216196663427,-3796.2369839684279,3796.2369839684279,-17610.216196663427,127272.95113027171,0.0
365012.02908761695,3867225.878295721,-22500.0,-32996.83939072433,47170.567550166968,-6424.4242253244674,18246.428960751156,-18367.064227135976,-5978.1899713350649,53810.312686536403,40678.736594275484,-29080.99722627534,29080.99722627534,-40678.736594275484,96975.155983555189,0.0
370012.02908761695,3867225.878295721,-22500.0,-36227.640379976881,27694.70802786999,27465.804346227,11519.848866807331,263.61659817719021,-1319.5897657775608,43649.44304898454,42581.593250504469,-39637.560047222541,39637.560047222541,-42581.593250504469,75837.541492325021,0.0
375012.02908761695,3867225.878295721,-22500.0,-29182.288902075052,6942.5616048697148,42247.794072998833,3452.0574778698833,11170.874682748134,1845.9134264224908,37967.185380003284,32007.171793363381,-36257.038546284086,36257.038546284086,-32007.171793363381,66357.907875466743,0.0
380012.02908761695,3867225.878295721,-22500.0,-17722.633745332205,-8066.5248012525944,43827.15780394803,-3131.1268948534339,15815.39002245928,3737.3397791958519,34619.14462771306,18726.210744142809,-26183.01174906607,26183.01174906607,-18726.210744142809,62474.382150091951,0.0
385012.02908761695,3867225.878295721,-22500.0,-6504.2325529451718,-16528.721474802591,39088.004552844155,-7489.8924448433154,16630.384785888196,4701.0369168916031,31853.964909064845,7650.2164970057693,-15186.589269609174,15186.589269609174,-7650.2164970057693,59253.162846889238,0.0
390012.02908761695,3867225.878295721,-22500.0,2446.1201555325106,-20102.615491265966,32392.349599975132,-9905.7575403425617,15504.874690194592,5024.5683716823605,29070.836784844498,-51.679412177361883,-5929.6791328656382,5929.6791328656382,51.679412177361883,55264.194690959419,0.0
395012.02908761695,3867225.878295721,-22500.0,8775.4693390763277,-20649.9836435373,25832.042204468475,-10913.349796295475,13587.191953647609,4928.1301595300365,26235.942992037897,-4796.7254779100858,921.68718382041743,-921.68718382041743,4796.7254779100858,50613.788220686365,0.0
400012.02908761695,3867225.878295721,-22500.0,12830.736369293338,-19552.887195894938,20188.902871915689,-10998.43177847058,11492.28787022834,4580.4991169158884,23456.461551815129,-7380.5603423291832,5570.1451151071178,-5570.1451151071178,7380.5603423291832,45705.321218756813,0.0
405012.02908761695,3867225.878295721,-22500.0,15137.690174080823,-17690.137819050928,15624.249639327503,-10527.631991223749,9516.2305094542571,4106.2242797391245,20831.317969032589,-8525.682261549955,8477.059295667179,-8477.059295667179,8525.682261549955,40869.174295107172,0.0
410012.02908761695,3867225.878295721,-22500.0,16190.173952228773,-15573.809075746885,12048.657943896002,-9755.5614170947865,7779.8509598490555,3590.5083921924229,18421.031970988271,-8773.8984329399918,10107.882958428081,-10107.882958428081,8773.8984329399918,36310.381110633891,0.0
415012.02908761695,3867225.878295721,-22500.0,16386.97864633083,-13481.003986785763,9295.3299988072376,-8849.5847892900565,6313.4266222535152,3086.2213876354572,16252.142197510952,-8497.6849627283227,10849.024613427642,-10849.024613427642,8497.6849627283227,32134.300247826086,0.0
420012.02908761695,3867225.878295721,-22500.0,16027.521817176481,-11547.852367612557,7193.3140389682458,-7914.2212931049671,5103.9964802664608,2622.2787823256499,14327.45051802833,-7940.2145945894254,10994.803685085149,-10994.803685085149,7940.2145945894254,28380.182958495363,0.0
425012.02908761695,3867225.878295721,-22500.0,15326.911954745541,-9829.7569950669968,5593.9806969056372,-7010.8331838795066,4120.7993580460152,2211.4751257584085,12634.691630405703,-7254.1017052194693,10758.789600843265,-10758.789600843265,7254.1017052194693,25047.228681083598,0.0
430012.02908761695,3867225.878295721,-22500.0,14434.815155514269,-8338.0879533141033,4377.1935792659797,-6172.3037716588151,3328.3386356683168,1856.7000667144002,11153.380683250425,-6531.4876349591714,10291.018654873709,-10291.018654873709,6531.4876349591714,22112.337216450342,0.0
435012.02908761695,3867225.878295721,-22500.0,13452.443220317729,-7061.7541729390277,3449.4454386678044,-5413.4146473300825,2692.5981372162446,1555.3266536044293,9860.268222751949,-5825.3695348500351,9694.1977475374515,-9694.1977475374515,5825.3695348500351,19541.367946263737,0.0
440012.02908761695,3867225.878295721,-22500.0,12446.284975099268,-5979.5591289913864,2739.4686388124883,-4737.9528955618271,2183.619795184426,1302.0676149127012,8732.7068061833579,-5164.0740600724685,9036.9786855843631,-9036.9786855843631,5164.0740600724685,17296.113844250169,0.0
445012.02908761695,3867225.878295721,-22500.0,11458.481642098874,-5066.9930215993836,2193.5651805736657,-4143.3835807195328,1776.200606400108,1090.6903912495727,7749.870617212684,-4560.7615757094063,8364.0478550806238,-8364.0478550806238,4560.7615757094063,15338.313327965539,0.0
450012.02908761695,3867225.878295721,-22500.0,10514.437027243206,-4299.7925611246119,1771.5099321556056,-3623.8428642592498,1449.7077207280079,914.97376189303077,6893.0063637206113,-4019.5524877440175,7703.5330193712407,-7703.5330193712407,4019.5524877440175,13631.851621813787,0.0
260012.02908761695,3872225.878295721,-22500.0,2420.4107031002795,4855.7526985041923,3151.610839099731,1389.5837262158955,1683.1816783190552,467.04939402932018,5177.8486316199233,5406.0350035777828,40.697739221912798,-40.697739221912798,-5406.0350035777828,9529.2027676915895,0.0
265012.02908761695,3872225.878295721,-22500.0,1958.8029282860616,5354.2779753613859,3735.729053430799,1401.9810591573885,1933.5145381366108,515.34516460928762,5770.2178372287499,6196.39685748789,-564.41669336091036,564.41669336091036,-6196.39685748789,10531.995089779817,0.0
270012.02908761695,3872225.878295721,-22500.0,1266.4018198474655,5856.9546560975186,4436.1007427777377,1357.5307670522236,2209.5597831477676,558.52183187784306,6444.5583770500907,7083.9468549115154,-1379.0683976522801,1379.0683976522801,-7083.9468549115154,11656.703563270534,0.0
275012.02908761695,3872225.878295721,-22500.0,267.57820262254666,6330.6215572495494,5269.411807441069,1225.5990326523975,2503.5108605902128,588.84582663430706,7215.8864620458098,8060.462321397159,-2460.0497660765991,2460.0497660765991,-8060.462321397159,12924.933727324918,0.0
280012.02908761695,3872225.878295721,-22500.0,-1132.8630280929963,6721.0105656831529,6247.8210123094805,962.74647921245673,2798.2466398175793,593.81550596453474,8104.8397078413054,9100.5135340183697,-3874.2144372240773,3874.2144372240773,-9100.5135340183697,14370.072761073123,0.0
285012.02908761695,3872225.878295721,-22500.0,-3051.3875675808354,6942.7951211295849,7371.4981698077954,508.33805689839335,3060.9290295990177,553.74716241432895,9141.729143879973,10149.501032073784,-5695.9243801256125,5695.9243801256125,-10149.501032073784,16048.299933400654,0.0
290012.02908761695,3872225.878295721,-22500.0,-5624.3559755655579,6866.3345983063136,8615.0407343001061,-220.59070940612435,3232.8694700086053,438.33852595180247,10373.86172844105,11105.300557445786,-7999.7698415112573,7999.7698415112573,-11105.300557445786,18059.001617008071,0.0
295012.02908761695,3872225.878295721,-22500.0,-9000.1804457301405,6301.3681880669546,9903.8317540885273,-1334.5166587331012,3213.8477548726296,201.92936952753706,11878.305905411142,11791.191678726249,-10844.817651774531,10844.817651774531,-11791.191678726249,20579.958346114461,0.0
300012.02908761695,3872225.878295721,-22500.0,-13319.378652039381,4979.9080974295357,11074.712419212778,-2974.8125001428948,2838.6229256561796,-222.70755511971794,13782.97449307438,11918.213343765668,-14244.716514438076,14244.716514438076,-11918.213343765668,23921.400629910382,0.0
305012.02908761695,3872225.878295721,-22500.0,-18674.161909384173,2544.8849864066856,11814.010403789407,-5311.3199810808601,1843.4330159214796,-931.82699845487411,16298.898650239169,11037.602497723581,-18116.149524245942,18116.149524245942,-11037.602497723581,28594.442633943174,0.0
310012.02908761695,3872225.878295721,-22500.0,-25036.978470869817,-1440.7327595821575,11566.910760201361,-8526.3666366185425,-178.01910942412096,-2058.2077304726736,19766.050686101582,8490.9724961743377,-22197.946362546023,22197.946362546023,-8490.9724961743377,35371.955301654845,0.0
315012.02908761695,3872225.878295721,-22500.0,-32148.387248208375,-7436.304798209313,9419.4867439186819,-12771.80040638199,-3823.889040256478,-3775.3301501491028,24718.070943494131,3380.9611896315782,-25938.119282199557,25938.119282199557,-3380.9611896315782,45305.957459092526,0.0
320012.02908761695,3872225.878295721,-22500.0,-39363.582560480856,-15771.28503924844,3975.7076767064877,-18078.610631053376,-9919.7024316532206,-6291.0358751035174,31966.985552596369,-5387.6620702882537,-28362.012726110643,28362.012726110643,5387.6620702882537,59671.240931056047,0.0
325012.02908761695,3872225.878295721,-22500.0,-45480.301110128588,-26333.318103086101,-6702.6998291208874,-24192.847113934909,-19492.20078832666,-9817.6979434561381,42533.765514309038,-18903.567635352945,-27969.410951115762,27969.410951115762,18903.567635352945,79803.907019639795,0.0
330012.02908761695,3872225.878295721,-22500.0,-48620.575881694727,-38019.071019894029,-24935.978458922764,-30312.645618931569,-33580.261582255021,-14498.353378376842,57101.414945311866,-37724.026560953265,-22775.899725058531,22775.899725058531,37724.026560953265,106737.69606463045,0.0
335012.02908761695,3872225.878295721,-22500.0,-46360.803125287392,-47892.379044255817,-52704.866199831122,-34728.770991607773,-52689.377109797002,-20254.915986898242,75490.4278874757,-60778.161730633481,-10760.106904504442,10760.106904504442,60778.161730633481,140410.81073112856,0.0
340012.02908761695,3872225.878295721,-22500.0,-36619.061950940581,-50221.524124507814,-89677.575735433304,-34516.931200966399,-75579.106509552003,-26496.082389804178,96033.426910333714,-83409.047352407637,8707.6024678791146,-8707.6024678791146,83409.047352407637,178135.49603576498,0.0
345012.02908761695,3872225.878295721,-22500.0,-20256.435711764789,-36584.794380061234,-129052.65639301061,-25960.596271549941,-97205.054530954803,-31642.114832110961,114398.00593141055,-94922.150958394326,31611.069192442665,-31611.069192442665,94922.150958394326,212393.97251401859,0.0
350012.02908761695,3872225.878295721,-22500.0,-5514.5565802961919,-673.75239375786532,-152075.21951797939,-7327.2685426110147,-107097.1202591804,-32874.832746783468,123097.15885063932,-79091.294833238004,44900.72763038041,-44900.72763038041,79091.294833238004,229761.79043239556,0.0
355012.02908761695,3872225.878295721,-22500.0,-8192.9944768266396,47816.620247171209,-130861.19822918033,15450.446586243093,-93240.485702514197,-27599.108444334764,115015.06729487961,-27190.265320306742,29230.555274105547,-29230.555274105547,27190.265320306742,216102.69148206618,0.0
360012.02908761695,3872225.878295721,-22500.0,-32380.456741742251,74354.911583783818,-59811.806556690775,27999.295511088265,-56010.062423553049,-16951.024593278238,93141.143144387592,35461.561717809076,-15337.60321203045,15337.60321203045,-35461.561717809076,172519.61637774477,0.0
365012.02908761695,3872225.878295721,-22500.0,-52002.094668081583,57406.438702926294,16252.239335553821,22712.157848574501,-15203.448527874531,-6077.4759806149032,71090.375406882769,63785.658074853702,-51964.11960256911,51964.11960256911,-63785.658074853702,125541.34357445152,0.0
370012.02908761695,3872225.878295721,-22500.0,-47740.503944594922,20936.314429228583,56185.913518606605,8385.7061910426964,11270.158252953561,1248.0020563729468,57683.965528858578,53611.913696255309,-56513.929233426337,56513.929233426337,-53611.913696255309,100081.82369008505,0.0
375012.02908761695,3872225.878295721,-22500.0,-29199.809861184145,-7829.6924015957184,63312.314382755954,-4344.8649019209142,22336.852542544628,5040.3164372922965,50860.419786812563,30767.670594308485,-41049.663653347641,41049.663653347641,-30767.670594308485,91107.646823358285,0.0
380012.02908761695,3872225.878295721,-22500.0,-9900.4891645469434,-22946.006055226921,55497.076792588836,-12145.680517797797,24294.281139409395,6678.5508043894961,45909.243851199542,11420.123205320222,-22158.460672905054,22158.460672905054,-11420.123205320222,85206.947340916799,0.0
385012.02908761695,3872225.878295721,-22500.0,4663.5028193476628,-28312.728633566818,44038.916691621132,-15829.666845095793,22269.331076383769,7163.6749508687672,41098.176950612498,-1036.1475658209715,-6973.6012019453556,6973.6012019453556,1036.1475658209715,78118.915449156179,0.0
390012.02908761695,3872225.878295721,-22500.0,14062.845878499838,-28380.454790510808,33443.059074619305,-16907.901032933689,18961.870090232747,7007.4574573444206,36337.093220341631,-7910.9084894824155,3374.6719758756676,-3374.6719758756676,7910.9084894824155,70105.246932077411,0.0
395012.02908761695,3872225.878295721,-22500.0,19432.299572469292,-26022.221186612409,24913.252018750783,-16519.497301995725,15558.941982855788,6487.5857675198931,31836.1163036035,-11132.98405354619,9746.2905123747169,-9746.2905123747169,11132.98405354619,62007.638260706117,0.0
400012.02908761695,3872225.878295721,-22500.0,22015.871793918857,-22795.086137281105,18431.218466048067,-15377.099008361347,12514.213998292316,5784.6594324383404,27741.153621499776,-12183.341912157535,13286.2097406465,-13286.2097406465,12183.341912157535,54370.476901897222,0.0
405012.02908761695,3872225.878295721,-22500.0,22789.765708713847,-19468.414691878632,13632.353561469643,-13902.518111512858,9956.2938039802411,5022.4594292736319,24107.583758966357,-12028.020210842138,14940.236992702683,-14940.236992702683,12028.020210842138,47445.903127836013,0.0
410012.02908761695,3872225.878295721,-22500.0,22443.117168396147,-16387.990769714161,10119.820102742895,-12338.873578413335,7877.7636760683909,4280.0032794710487,20933.147368544818,-11256.243192520942,15392.144455261307,-15392.144455261307,11256.243192520942,41310.440789039545,0.0
415012.02908761695,3872225.878295721,-22500.0,21440.702057747767,-13682.966193349288,7558.2233798959778,-10820.929450233794,6220.342159860048,3601.2055579107482,18185.970295370724,-10213.412906054122,15109.641758630647,-15109.641758630647,10213.412906054122,35949.139400396452,0.0
420012.02908761695,3872225.878295721,-22500.0,20087.660750559946,-11376.430545400932,5688.7443432058017,-9417.7023783382738,4912.7972909492219,3005.2340880930269,15821.544833286378,-9094.6740519079904,14403.197085519929,-14403.197085519929,9094.6740519079904,31303.757963328604,0.0
425012.02908761695,3872225.878295721,-22500.0,18579.695917688488,-9443.0738868554108,4319.7291557149065,-8158.7759462276554,3887.0926700937998,2495.7295247486986,13792.243812937115,-8004.9528890935781,13474.36277018544,-13474.36277018544,8004.9528890935781,27298.792596295141,0.0
430012.02908761695,3872225.878295721,-22500.0,17038.912122236208,-7838.6574004210916,3312.0718693168878,-7050.7959215356032,3084.3480094902029,2067.7271368580696,12052.355381901018,-6996.1086331123497,12451.089128055397,-12451.089128055397,6996.1086331123497,23855.185711712369,0.0
435012.02908761695,3872225.878295721,-22500.0,15538.628758879791,-6514.6368116761214,2565.7609392270133,-6087.8009442535949,2456.1386476261978,1712.2557146296604,10560.410390653868,-6089.5257417003277,11412.382404600969,-11412.382404600969,6089.5257417003277,20897.355613581181,0.0
440012.02908761695,3872225.878295721,-22500.0,14120.251656999963,-5424.9526579469029,2009.1375575592531,-5257.5559132559156,1963.7752782514754,1419.0934608273146,9279.8917282225211,-5289.6508380489522,10405.111890872826,-10405.111890872826,5289.6508380489522,18356.431699579549,0.0
445012.02908761695,3872225.878295721,-22500.0,12804.679578058114,-4528.8093620977561,1590.8577543812241,-4545.3428074640078,1576.8818314430166,1178.2721588650052,8179.1944624262442,-4592.0237523728774,9455.351884905218,-9455.351884905218,4592.0237523728774,16171.491071626835,0.0
450012.02908761695,3872225.878295721,-22500.0,11599.887512509385,-3791.4031837069047,1274.0450138176589,-3936.1101244005813,1271.8494886849448,980.78876401962918,7231.233239952744,-3987.938262268236,8575.9185940738898,-8575.9185940738898,3987.938262268236,14289.613248338968,0.0
260012.02908761695,3877225.878295721,-22500.0,4387.8309817298195,5303.0369835224565,2811.5164754419893,2025.6736404996332,1783.452241357134,619.48040695845145,5760.0106671740677,5324.1795425026448,1544.874137574725,-1544.874137574725,-5324.1795425026448,10814.98489745567,0.0
265012.02908761695,3877225.878295721,-22500.0,4244.6144869143018,5978.5564054724546,3375.7109171737739,2176.2838091844555,2085.9421070213089,709.034250290317,6448.9105291231508,6207.0855963644435,1156.8906592967569,-1156.8906592967569,-6207.0855963644435,12028.081721145028,0.0
270012.02908761695,3877225.878295721,-22500.0,3915.2947780930772,6718.2216057572377,4071.8871655425251,2300.9544932956101,2436.109763895598,805.33841210345133,7233.0200611416076,7239.2719874223912,578.80277561336652,-578.80277561336652,-7239.2719874223912,13389.321005355903,0.0
275012.02908761695,3877225.878295721,-22500.0,3322.5101580646647,7507.5228198185096,4929.7811782517783,2374.5707977577608,2834.8477829245903,903.94739323375654,8125.8591052260472,8435.2115585847969,-254.38484293226475,254.38484293226475,-8435.2115585847969,14914.207782185842,0.0
280012.02908761695,3877225.878295721,-22500.0,2362.3538537008412,8315.1744583995151,5982.1614085932551,2358.7060165051466,3276.8170987247486,996.28394361116557,9143.390471251063,9800.7572739554362,-1425.9908257174793,1425.9908257174793,-9800.7572739554362,16620.575075730649,0.0
285012.02908761695,3877225.878295721,-22500.0,897.50885526268178,9082.6554058682868,7260.9940320804953,2195.6104202624083,3744.7099641867721,1067.0451082808211,10305.747242093132,11323.399264215859,-3040.046892400539,3040.046892400539,-11323.399264215859,18532.63084047251,0.0
290012.02908761695,3877225.878295721,-22500.0,-1249.2716681996835,9708.5646663410553,8788.5944893116321,1799.9855640574294,4199.3800780578667,1090.1811727228524,11641.255293454129,12955.535470441933,-5221.0886652311247,5221.0886652311247,-12955.535470441933,20691.582562627085,0.0
295012.02908761695,3877225.878295721,-22500.0,-4298.742292752956,10026.21312095949,10559.383596976129,1048.2211260967297,4563.1756465033059,1022.7321411228395,13195.491143437703,14586.787819631032,-8107.7922626813397,8107.7922626813397,-14586.787819631032,23180.891381022026,0.0
300012.02908761695,3877225.878295721,-22500.0,-8510.3830496627488,9773.7576106431479,12504.853477656399,-234.5479782976949,4692.3853955192963,795.51070516093637,15050.905838630137,16000.168499899997,-11833.969729167575,11833.969729167575,-16000.168499899997,26181.553818995308,0.0
305012.02908761695,3877225.878295721,-22500.0,-14159.312751280495,8559.4157912584578,14430.300238534926,-2287.4344209241244,4332.9759005949136,299.27998664589302,17367.235139571239,16806.858022664848,-16486.248412299334,16486.248412299334,-16806.858022664848,30080.9442892406,0.0
310012.02908761695,3877225.878295721,-22500.0,-21478.854474071573,5832.4873448590915,15908.050726343594,-5420.6845197046314,3052.5328668079928,-635.12705394432021,20459.346753605663,16358.349397557433,-22023.186170412257,22023.186170412257,-16358.349397557433,35652.745346311727,0.0
315012.02908761695,3877225.878295721,-22500.0,-30547.174704720961,887.51657577213052,16112.655938471606,-10002.304069051721,142.91033981551431,-2263.7703311640516,24936.240939267176,13648.200532426057,-28139.084646845531,28139.084646845531,-13648.200532426057,44271.373230432429,0.0
320012.02908761695,3877225.878295721,-22500.0,-41097.212696966228,-7044.3251461610325,13598.04299290959,-16396.570670467121,-5502.0093207169393,-4962.2055509415695,31928.622883952296,7245.6104127180643,-34064.781055590247,34064.781055590247,-7245.6104127180643,58026.913931915944,0.0
325012.02908761695,3877225.878295721,-22500.0,-52241.691105688573,-18529.687120595467,6056.9196042950934,-24805.414609375588,-15500.637030040751,-9255.5348904402163,43276.8709833229,-4646.9701567464981,-38324.404402298009,38324.404402298009,4646.9701567464981,79607.081286569039,0.0
330012.02908761695,3877225.878295721,-22500.0,-62123.03560000885,-33369.787246188462,-9823.5538759555238,-34928.619232661644,-31991.650843926698,-15821.220278097038,60967.091559957531,-23849.224810610864,-38508.574103850486,38508.574103850486,23849.224810610864,111931.15538007182,0.0
335012.02908761695,3877225.878295721,-22500.0,-67531.461894071806,-49529.665474205693,-38147.268528367415,-45285.429988985896,-57278.131416115037,-25385.419544412387,86167.300055481319,-51256.044500183722,-31207.4451752186,31207.4451752186,51256.044500183722,157338.86696197567,0.0
340012.02908761695,3877225.878295721,-22500.0,-63871.577749971315,-61176.868580429058,-82445.585234203449,-51969.434386804132,-92414.930682539984,-38225.585816363491,118392.99500972951,-84508.672401576041,-12687.969146954383,12687.969146954383,84508.672401576041,215478.33260202443,0.0
345012.02908761695,3877225.878295721,-22500.0,-47291.84936636105,-56006.104661389742,-140824.81375023045,-47249.254975743876,-133198.4241128561,-52507.022739109452,152983.27383168467,-112957.84045316139,17615.600560279694,-17615.600560279694,112957.84045316139,278605.11653265462,0.0
350012.02908761695,3877225.878295721,-22500.0,-22427.901964592369,-15862.30613605653,-193579.59401629315,-21790.411908559036,-162661.94860267724,-61173.518776380617,177360.44416840954,-110616.83795373756,47454.449910578791,-47454.449910578791,110616.83795373756,325144.24434136582,0.0
355012.02908761695,3877225.878295721,-22500.0,-16727.585989780993,64028.448679370784,-182888.3141631436,21141.034305396515,-148073.34642563053,-52970.179328440412,172169.95485061407,-39392.975536706857,37138.971607204119,-37138.971607204119,39392.975536706857,319871.41469564213,0.0
360012.02908761695,3877225.878295721,-22500.0,-59835.660146609516,111937.15289920208,-56032.20321331091,45135.967488631031,-74313.293011863789,-27385.563072064248,135558.46948292729,72755.172836694168,-42310.675136912447,42310.675136912447,-72755.172836694168,247412.59946459919,0.0
365012.02908761695,3877225.878295721,-22500.0,-83445.06957013371,60621.338455428864,68347.940549081701,24857.737850621172,1204.7668593948574,-3245.7360117882199,100123.93109500353,98141.887233024812,-92539.645574235852,92539.645574235852,-98141.887233024812,173730.44806529654,0.0
370012.02908761695,3877225.878295721,-22500.0,-53636.231197124391,-3594.0575005505762,99088.942882261908,-4982.9094415253758,33999.702219708961,8121.5588630450748,82292.337820437344,56503.635670380565,-71357.621890713781,71357.621890713781,-56503.635670380565,145904.80922006298,0.0
375012.02908761695,3877225.878295721,-22500.0,-15618.075515993092,-34375.451646218884,84376.058560213743,-21893.796169445515,38886.657409967913,11166.055453534515,71725.807194265042,17929.397000731049,-34241.042112035444,34241.042112035444,-17929.397000731049,132504.74282641549,0.0
380012.02908761695,3877225.878295721,-22500.0,10381.755741476218,-42331.415676352874,62345.241433599542,-27780.264375108385,34118.164218720114,11220.052751250019,62129.045049290406,-3772.9440775600383,-6857.0192739386548,6857.0192739386548,3772.9440775600383,117645.94624206523,0.0
385012.02908761695,3877225.878295721,-22500.0,24646.997546126637,-40407.08118835096,43985.237616078077,-28072.554646005239,27503.733143986694,10432.620075563269,53065.848001701379,-13716.415795812956,9306.8148051907465,-9306.8148051907465,13716.415795812956,101895.36159198357,0.0
390012.02908761695,3877225.878295721,-22500.0,31225.990960600047,-35183.729963852231,30618.922049270917,-26041.644239389323,21465.742190405752,9377.7567227500767,44982.58375572964,-17254.820549753553,17738.196377097513,-17738.196377097513,17254.820549753553,87149.13090867456,0.0
395012.02908761695,3877225.878295721,-22500.0,33331.775367763737,-29410.939872928695,21308.393905600584,-23216.931293357688,16534.077369411323,8218.3095746930812,38058.334942044683,-17609.914423719962,21494.161562191959,-21494.161562191959,17609.914423719962,74199.151470208511,0.0
400012.02908761695,3877225.878295721,-22500.0,32969.857648797246,-24107.676608919151,14911.917353404546,-20265.210706261059,12671.760801236112,7049.1039203478758,32240.397558722176,-16500.989246386904,22562.999010711035,-22562.999010711035,16500.989246386904,63144.250198116701,0.0
405012.02908761695,3877225.878295721,-22500.0,31314.303666748885,-19574.978553273573,10524.771803518404,-17472.096981341881,9702.5307187450071,5943.5219557047931,27387.095458423064,-14810.833760928619,22142.427357145229,-22142.427357145229,14810.833760928619,53816.481739789393,0.0
410012.02908761695,3877225.878295721,-22500.0,29042.548319006895,-15830.88280600474,7504.4910040982631,-14953.055227788755,7439.6215613399154,4948.6560002413853,23344.363995344771,-12981.277379398667,20939.747232154925,-20939.747232154925,12981.277379398667,45979.821295693153,0.0
415012.02908761695,3877225.878295721,-22500.0,26543.53977460802,-12791.699237695077,5411.9230258632879,-12743.103380389763,5721.2828875633068,4085.527301065576,19973.21208831948,-11223.856962579317,19370.016234585586,-19370.016234585586,11223.856962579317,39402.733804136151,0.0
420012.02908761695,3877225.878295721,-22500.0,24037.414422556885,-10346.662008963654,3950.8144670574679,-10837.636873499641,4417.2499450847581,3355.8299078321525,17155.896804018601,-9630.1204881591075,17674.354319797625,-17674.354319797625,9630.1204881591075,33879.733995998387,0.0
425012.02908761695,3877225.878295721,-22500.0,21644.186369282546,-8387.6953173324455,2921.8566244971598,-9213.0039013611386,3426.2278324850404,2749.7759290103049,14794.949081865823,-8229.8577830239046,15989.575150281908,-15989.575150281908,8229.8577830239046,29235.128299886554,0.0
430012.02908761695,3877225.878295721,-22500.0,19424.065906224168,-6820.00153087949,2190.6557429475656,-7837.6459249324671,2670.9540468422283,2252.2410240676259,12810.353189351577,-7022.1222879173329,14389.657316569013,-14389.657316569013,7022.1222879173329,25321.1023522174,0.0
435012.02908761695,3877225.878295721,-22500.0,17401.731676615909,-5564.539169853324,1666.1617205816701,-6678.2555079481499,2093.1562940563808,1846.7147625293378,11136.631074747929,-5991.8126425906503,12910.858167519278,-12910.858167519278,5991.8126425906503,22014.384943502781,0.0
440012.02908761695,3877225.878295721,-22500.0,15581.143795649872,-4557.1613820636858,1286.3048139685984,-5703.0307648862845,1649.1503730114046,1517.4734228039226,9720.2283515055642,-5118.4154777652693,11567.06869713886,-11567.06869713886,5118.4154777652693,19212.685199045758,0.0
445012.02908761695,3877225.878295721,-22500.0,13954.650609252596,-3746.6009676053523,1008.4769016379234,-4883.2237725374107,1306.2761856672546,1250.5777301479577,8517.3169932337678,-4380.4891655052361,10359.253618752695,-10359.253618752695,4380.4891655052361,16831.384351484052,0.0
450012.02908761695,3877225.878295721,-22500.0,12508.609296822966,-3092.2442846575686,803.21552682241031,-4193.7124244056422,1040.1267340443228,1034.1840104861199,7492.0091606058004,-3757.836193918075,9281.2751931997736,-9281.2751931997736,3757.836193918075,14800.648614636002,0.0
255012.02908761695,3882225.878295721,-22500.0,6207.5631427233648,4802.3936088248811,1946.5858772620243,2415.7355718386561,1524.2503002071151,663.7067144705029,5682.764839614556,4191.812490882895,3249.238461575032,-3249.238461575032,-4191.812490882895,10905.701731870467,0.0
260012.02908761695,3882225.878295721,-22500.0,6522.6557769162127,5501.675647652085,2342.2266243321305,2703.9372567291725,1804.049892251501,779.71466107881099,6387.4081116644211,4940.9474199185861,3252.7640704966975,-3252.7640704966975,-4940.9474199185861,12204.602615391319,0.0
265012.02908761695,3882225.878295721,-22500.0,6773.2827555636741,6309.4406474993229,2839.7069272503154,3015.3675612763632,2139.8454521786102,915.42064980382236,7195.6098250527602,5843.2782032518226,3159.9415430600898,-3159.9415430600898,-5843.2782032518226,13681.611256783701,0.0
270012.02908761695,3882225.878295721,-22500.0,6913.4127723448992,7236.8791054923813,3468.2442026297995,3342.8024441807825,2541.4234401723743,1072.4887359713639,8122.5790216389405,6929.996218897626,2925.5572046138441,-2925.5572046138441,-6929.996218897626,15358.364287123915,0.0
275012.02908761695,3882225.878295721,-22500.0,6876.16342538353,8291.0379812444899,4265.2100831800581,3671.9828000025677,3018.3628564186197,1251.2804231298862,9184.8523030909128,8236.0845425354273,2486.8551417302092,-2486.8551417302092,-8236.0845425354273,17256.185196585342,0.0
280012.02908761695,3882225.878295721,-22500.0,6565.4377065282806,9469.8268896441241,5277.4991516290393,3977.3663353857596,3577.9700072755709,1449.5091248651979,10399.899794544386,9798.0720564419025,1757.5789224991122,-1757.5789224991122,-9798.0720564419025,19394.311286699223,0.0
285012.02908761695,3882225.878295721,-22500.0,5844.7623646024176,10753.39844259953,6561.9374951575328,4215.5823322031783,4221.140698621457,1659.9329637646133,11785.570666901463,11648.669136542105,620.74876389663041,-620.74876389663041,-11648.669136542105,21787.671207387739,0.0
290012.02908761695,3882225.878295721,-22500.0,4523.1154824863606,12089.716006129258,8182.9540635083877,4315.4771725343853,4934.4438298392797,1866.4533655698033,13359.743278140115,13805.569772466823,-1079.1087215954904,1079.1087215954904,-13805.569772466823,24445.350545470093,0.0
295012.02908761695,3882225.878295721,-22500.0,2338.4189849149193,13371.165112473067,10203.800453008578,4163.195736148421,5675.3886199319641,2037.531943465711,15141.433703468563,16249.775988075477,-3542.1495740464834,3542.1495740464834,-16249.775988075477,27373.567973127134,0.0
300012.02908761695,3882225.878295721,-22500.0,-1058.144272952966,14398.337040876864,12663.895285779146,3580.4304777075763,6345.5706437724175,2115.0357084860966,17157.114148842506,18885.919877897191,-7012.5668647932616,7012.5668647932616,-18885.919877897191,30594.354313242216,0.0
305012.02908761695,3882225.878295721,-22500.0,-6108.6406591408295,14828.025166195595,15528.537249322197,2294.2552517316012,6742.7451553713945,1995.1467425994581,19462.558416553453,21473.81406016988,-11760.133820285624,11760.133820285624,-21473.81406016988,34209.522029844375,0.0
310012.02908761695,3882225.878295721,-22500.0,-13327.878072275453,14108.535427389681,18588.023753609632,-100.75227973026898,6477.6560087684866,1495.3660078102262,22206.826729494969,23519.441408018229,-18023.88342841178,18023.88342841178,-23519.441408018229,38578.737699713907,0.0
315012.02908761695,3882225.878295721,-22500.0,-23224.759011349335,11423.649210351639,21274.808456262213,-4180.0911816262851,4836.0628788005697,297.47599347359983,25802.088371296366,24122.678072908464,-25888.03545239634,25888.03545239634,-24122.678072908464,44730.96292331822,0.0
320012.02908761695,3882225.878295721,-22500.0,-36125.955102156375,5704.7988662507469,22373.92720035516,-10701.883257278852,566.40636314227197,-2149.2629852801542,31331.148058799168,21813.353991956035,-35061.741019855741,35061.741019855741,-21813.353991956035,55056.397460438689,0.0
325012.02908761695,3882225.878295721,-22500.0,-51878.308485726506,-4177.9897643459644,19650.622864309964,-20539.228711314721,-8408.7697633547705,-6785.7600297149911,41292.218216121495,14477.429671586155,-44568.886408300001,44568.886408300001,-14477.429671586155,73853.72647204122,0.0
330012.02908761695,3882225.878295721,-22500.0,-69441.750512701256,-18920.633885226722,9512.1728559626099,-34424.751738390725,-25310.825294798553,-15183.338556760094,59662.072211220097,-459.84737674548887,-52411.36803993152,52411.36803993152,459.84737674548887,106980.64391060658,0.0
335012.02908761695,3882225.878295721,-22500.0,-86291.809474381487,-37879.583128253478,-13171.096404283811,-52239.579940748044,-54705.1081393575,-29846.647483849567,90150.969021256387,-25457.808289642482,-55195.241694908727,55195.241694908727,25457.808289642482,160856.58413194254,0.0
340012.02908761695,3882225.878295721,-22500.0,-97315.708501483008,-57191.883650629308,-55036.11810972901,-70966.843873016303,-101981.48023440136,-54160.669940312604,135358.51212408062,-61460.618564031349,-47559.729464187403,47559.729464187403,61460.618564031349,240723.12757609147,0.0
345012.02908761695,3882225.878295721,-22500.0,-95001.421843181204,-65294.89341167661,-122156.63852209608,-79743.736439862521,-169195.24251451908,-89492.560737423555,193836.90512289957,-103166.47946654999,-23503.330489305336,23503.330489305336,103166.47946654999,344479.16881907481,0.0
350012.02908761695,3882225.878295721,-22500.0,-77092.282793503357,-40137.192900087852,-211412.32139259559,-56633.161228591307,-241153.22771907385,-123472.84523806654,252670.99140637903,-131341.19345247827,14995.496547399009,-14995.496547399009,131341.19345247827,450425.08337796218,0.0
355012.02908761695,3882225.878295721,-22500.0,-46878.365577090051,66844.864782781573,-277514.2248646816,19798.599583147345,-261181.42459011884,-118703.07507693554,280341.03458667092,-81712.950674094725,44394.567166443972,-44394.567166443972,81712.950674094725,510895.49422861688,0.0
360012.02908761695,3882225.878295721,-22500.0,-129370.62969094518,185590.93105440203,-16554.404969095176,84236.380959033806,-91366.729618060592,-44764.069958161759,223107.32481882218,164599.73507155545,-116951.82507584666,116951.82507584666,-164599.73507155545,400004.62547075213,0.0
365012.02908761695,3882225.878295721,-22500.0,-118050.5183494107,18678.452025767743,178028.78552644257,4067.6421001664203,57763.580824515491,15592.680599632673,158424.14084731048,125382.43545871027,-147666.17819692098,147666.17819692098,-125382.43545871027,277598.01539705094,0.0
370012.02908761695,3882225.878295721,-22500.0,-23977.79769622684,-59208.985258870984,141342.26000305338,-45781.917547904981,72610.58388387227,26326.317543352852,126632.8134150332,28492.133510837266,-55631.548421147141,55631.548421147141,-28492.133510837266,232737.83675828777,0.0
375012.02908761695,3882225.878295721,-22500.0,27303.89876649201,-68136.288632914191,91610.792596604413,-55614.354701757293,57642.364260488939,22522.435195754948,103378.47395665252,-11897.194689382955,-604.51303195501987,604.51303195501987,11897.194689382955,194010.7661019105,0.0
380012.02908761695,3882225.878295721,-22500.0,47948.708895937409,-59198.411549229873,57822.67096660089,-51292.892733882472,42043.108153406894,17858.098211994911,83368.945595938014,-24958.944007718164,24278.840926345409,-24278.840926345409,24958.944007718164,158142.84897321081,0.0
385012.02908761695,3882225.878295721,-22500.0,53613.544756928444,-47562.927681272799,36650.836569654333,-43792.096534772521,30221.051128014002,14472.222268301599,67005.802962392132,-27163.690781142417,33709.422028954839,-33709.422028954839,27163.690781142417,128201.82909454651,0.0
390012.02908761695,3882225.878295721,-22500.0,52642.331590885027,-37215.777572297266,23507.356506908327,-36535.965114330538,21801.560122760293,11981.590685296134,54161.761918419215,-25343.66064919249,35846.68386574465,-35846.68386574465,25343.66064919249,104417.86036762506,0.0
395012.02908761695,3882225.878295721,-22500.0,48970.933245735476,-28882.854980263757,15284.692570570445,-30302.489877264848,15848.487828891801,9967.150373393044,44192.777862543335,-22257.787244879917,34686.656789051012,-34686.656789051012,22257.787244879917,85750.051808754142,0.0
400012.02908761695,3882225.878295721,-22500.0,44382.703644392954,-22397.547204213006,10078.164195531206,-25115.590110486828,11613.287083096367,8250.1238719574085,36415.143794750569,-19005.101625275758,32132.880761970064,-32132.880761970064,19005.101625275758,71026.667613856858,0.0
405012.02908761695,3882225.878295721,-22500.0,39676.747693638841,-17409.881512455198,6739.4359503019969,-20835.56992757674,8575.1122119044794,6777.0728046090417,30278.602669202752,-16003.324576606979,29095.340649520054,-29095.340649520054,16003.324576606979,59295.031481579208,0.0
410012.02908761695,3882225.878295721,-22500.0,35205.742077108385,-13585.377079769874,4572.1309766766581,-17312.128478026199,6378.3776855966134,5530.172687759612,25378.37688051429,-13385.89832895212,26011.544433695206,-26011.544433695206,13385.89832895212,49848.325849474408,0.0
415012.02908761695,3882225.878295721,-22500.0,31114.906727842746,-10649.809686594559,3148.8658060565981,-14414.316784096367,4778.4071178031818,4492.5862595053868,21422.880586755778,-11167.520118715473,23087.832729384034,-23087.832729384034,11167.520118715473,42171.067524984013,0.0
420012.02908761695,3882225.878295721,-22500.0,27449.785610964951,-8389.8543605941104,2203.8852205769813,-12032.135641974181,3604.9254978162148,3641.675878965073,18200.36054865344,-9315.6261163331437,20413.612918766572,-20413.612918766572,9315.6261163331437,35883.097764627273,0.0
425012.02908761695,3882225.878295721,-22500.0,24207.106353163072,-6643.0045159001393,1569.8273658712303,-10073.66985222736,2738.3238016103064,2951.2161422995396,15554.20611169774,-7782.0311346946501,18017.851885187309,-18017.851885187309,7782.0311346946501,30698.599371558219,0.0
430012.02908761695,3882225.878295721,-22500.0,21360.181162546098,-5286.5010221473822,1140.0238668032569,-8462.3542279199355,2093.9577022982858,2394.7675169711665,13366.315657644931,-6516.8591359377961,15898.377260976464,-15898.377260976464,6516.8591359377961,26398.628784558354,0.0
435012.02908761695,3882225.878295721,-22500.0,18872.225751949292,-4227.8743947691437,845.72570195491051,-7134.7602273301663,1611.5563547316124,1947.9953021744184,11546.116950057372,-5474.3435815216326,14037.666869178309,-14037.666869178309,5474.3435815216326,22812.938372167006,0.0
440012.02908761695,3882225.878295721,-22500.0,16703.5000806483,-3397.4568440295193,642.15593743377894,-6038.6796130240273,1247.9552732713528,1589.7688056092093,10023.193785389949,-4614.8125517048484,12411.516639427877,-12411.516639427877,4614.8125517048484,19807.626813024352,0.0
445012.02908761695,3882225.878295721,-22500.0,14815.083417126674,-2742.6542030934311,499.86152603415582,-5131.3916986649328,972.06126625101751,1302.4158010410683,8742.191800826522,-3904.920929116458,10993.776713659223,-10993.776713659223,3904.920929116458,17276.447449456569,0.0
450012.02908761695,3882225.878295721,-22500.0,13170.799550312464,-2223.6449575388874,399.2901010858954,-4378.1126752202845,761.3458620627141,1071.5142774887083,7659.2232989570739,-3317.1441111376107,9758.895443761583,-9758.895443761583,3317.1441111376107,15134.542166232683,0.0
455012.02908761695,3882225.878295721,-22500.0,11738.033835584059,-1810.1620991214434,327.34959837621352,-3750.611418250428,599.38592105474527,885.47739419443644,6739.2328512727909,-2828.9955605108748,8683.1686912909972,-8683.1686912909972,2828.9955605108748,13313.741409165672,0.0
255012.02908761695,3887225.878295721,-22500.0,8048.2670510518838,4663.1765631263597,1478.7972245039796,2970.4995389578262,1450.429722813157,788.53693608570165,6218.4390144381823,3567.1257044031718,4788.337463928463,-4788.337463928463,-3567.1257044031718,12090.80335862332,0.0
260012.02908761695,3887225.878295721,-22500.0,8727.2020194675224,5399.4777631414063,1784.9377634510706,3394.9408094825244,1731.3682109497759,941.13207820684102,7032.091470347721,4248.0573660684659,5086.11932634197,-5086.11932634197,-4248.0573660684659,13630.767416833722,0.0
265012.02908761695,3887225.878295721,-22500.0,9424.6423768100685,6271.3570199289106,2176.3511287633787,3881.2431545235263,2074.6556413149688,1125.5556663525986,7975.2529551726839,5084.1790282177053,5350.8002199892589,-5350.8002199892589,-5084.1790282177053,15406.26037206872,0.0
270012.02908761695,3887225.878295721,-22500.0,10114.321791886548,7303.5626901356591,2680.9905791065776,4434.2298748505946,2494.3964708127746,1347.8660108347253,9069.7030738468966,6114.4825200001605,5550.3653331848427,-5550.3653331848427,-6114.4825200001605,17453.380744525239,0.0
275012.02908761695,3887225.878295721,-22500.0,10752.972950725205,8523.0738464443821,3336.7219973271403,5055.5550910331949,3006.9939533046909,1614.4933067015199,10339.946553281079,7387.4343476286167,5636.6525977532065,-5636.6525977532065,-7387.4343476286167,19810.846603623344,0.0
280012.02908761695,3887225.878295721,-22500.0,11271.615045169112,9956.9510312095335,4194.7038681212034,5740.547758898575,3630.4847638396172,1931.5320075666275,11812.677031765646,8962.2060490146723,5538.0817815231367,-5538.0817815231367,-8962.2060490146723,22517.691511464589,0.0
285012.02908761695,3887225.878295721,-22500.0,11562.672542086892,11627.599593559407,5323.4582772951599,6472.8233885006066,4382.5503976123646,2303.2845067024264,13515.406397786533,10908.713911825052,5149.4185753309694,-5149.4185753309694,-10908.713911825052,25608.759131625571,0.0
290012.02908761695,3887225.878295721,-22500.0,11461.294947855185,13543.266674647608,6813.0138553985989,7215.1981885615933,5275.8245079331209,2729.4468134188728,15473.69579006763,13304.56902348212,4317.8611086883429,-4317.8611086883429,-13304.56902348212,29106.769804461248,0.0
295012.02908761695,3887225.878295721,-22500.0,10719.061850181433,15680.01509936724,8777.1168634465866,7894.4516530763412,6307.7948658339665,3199.7722128168671,17706.179091011018,16225.035267539572,2825.2583414791061,-2825.2583414791061,-16225.035267539572,33009.534526144904,0.0
300012.02908761695,3887225.878295721,-22500.0,8969.229706148797,17949.109073580083,11348.188978857743,8375.9999740616604,7440.0317518424681,3683.908327927184,20216.66524705938,19718.318861119446,368.36430475590168,-368.36430475590168,-19718.318861119446,37272.154851870357,0.0
305012.02908761695,3887225.878295721,-22500.0,5686.7461610289274,20141.360042828026,14652.432576890797,8422.6024211132772,8556.5909625788081,4111.643962527618,22984.383742552021,23752.197499480542,-3455.3197163986824,3455.3197163986824,-23752.197499480542,41790.859606947131,0.0
310012.02908761695,3887225.878295721,-22500.0,157.52751452448251,21840.93357057108,18738.206629543649,7629.8301209701131,9382.6588424770744,4333.476669731057,25961.965881816839,28109.864719858459,-9135.8642336486737,9135.8642336486737,-28109.864719858459,46421.041975148255,0.0
315012.02908761695,3887225.878295721,-22500.0,-8504.2451375525034,22316.669675463931,23408.338498010376,5334.2371373204187,9330.8857576966257,4040.6073772546897,29124.384724283038,32210.955859344991,-17170.392948820314,17170.392948820314,-32210.955859344991,51147.897753796802,0.0
320012.02908761695,3887225.878295721,-22500.0,-21218.164060294843,20454.821316181482,27891.284349141886,507.54122729166272,7229.1642509898102,2603.542138962523,32735.874691147685,34867.84581684108,-27848.971471441873,27848.971471441873,-34867.84581684108,56763.501869880922,0.0
325012.02908761695,3887225.878295721,-22500.0,-38608.709865093078,14920.439220018467,30344.145938124573,-8305.703896402465,892.24025399636605,-1243.3090671587488,38397.406023673742,34121.673732733638,-40880.886944038393,40880.886944038393,-34121.673732733638,66718.957996746947,0.0
330012.02908761695,3887225.878295721,-22500.0,-60576.464677414995,4842.4986652239249,27448.290985638465,-22889.032451718125,-13430.404773320863,-9992.671893069295,51373.696207044733,27555.315508105199,-55056.554627925536,55056.554627925536,-27555.315508105199,89652.952090037477,0.0
335012.02908761695,3887225.878295721,-22500.0,-86110.186646882197,-9009.2506898308329,14714.388929266108,-44920.664413668346,-41630.364252184736,-28445.524117952373,79630.74653357749,13424.20026947216,-68389.226444912987,68389.226444912987,-13424.20026947216,138467.15484491707,0.0
340012.02908761695,3887225.878295721,-22500.0,-112711.70260916206,-23318.01819522529,-12915.706642459831,-74332.733077304074,-92509.077351884538,-65457.395613498244,130531.51957262027,-8363.2333299230231,-78002.126462444459,78002.126462444459,8363.2333299230231,226621.85116544389,0.0
345012.02908761695,3887225.878295721,-22500.0,-133681.74141186092,-28005.489331707427,-63060.931998494052,-101040.63279170603,-177367.00460422583,-133209.61044310796,209562.6892879426,-34319.564117146743,-77904.439295006785,77904.439295006785,34319.564117146743,363747.01792383794,0.0
350012.02908761695,3887225.878295721,-22500.0,-171707.30743729783,3895.0372960395871,-133299.58867696484,-92513.904366030227,-292271.85440590873,-222914.45256693295,309831.55222030997,-38215.54759836934,-88770.193601755804,88770.193601755804,38215.54759836934,536707.15132623212,0.0
355012.02908761695,3887225.878295721,-22500.0,-312264.55120614247,-26013.666802088555,-313158.21522648365,-117292.89966265997,-521741.62624497944,-340247.1081231928,535333.57909384603,-136650.32795151108,-131362.84285442525,131362.84285442525,136650.32795151108,927741.77135032916,0.0
360012.02908761695,3887225.878295721,-22500.0,-441235.11308216501,275599.79194593074,421356.54123995581,187274.75140049029,79695.891461417981,-13158.041601804991,550717.57267453428,510335.12708457682,-499863.74980357842,499863.74980357842,-510335.12708457682,954040.96914834843,0.0
365012.02908761695,3887225.878295721,-22500.0,19597.855864600017,-142564.00541118431,265441.77385071543,-147811.73996785318,177189.32431657295,97549.200793068536,280920.93402645836,19362.354174850891,-53286.526167025993,53286.526167025993,-19362.354174850891,517743.53537859209,0.0
370012.02908761695,3887225.878295721,-22500.0,90478.783542637335,-111177.4389876459,130363.79850060845,-132857.25265488858,105831.10151016169,64459.563044738621,192746.48658375948,-34792.046202210811,38126.086835118185,-38126.086835118185,34792.046202210811,356287.34886521264,0.0
375012.02908761695,3887225.878295721,-22500.0,102610.12336450059,-82376.209932881713,71063.396677126424,-104540.11943728891,65976.456750871002,39879.883117644567,141338.90606948,-43764.859931528874,62471.70091016998,-62471.70091016998,43764.859931528874,262970.44207062578,0.0
380012.02908761695,3887225.878295721,-22500.0,96859.858353587158,-59713.343586264207,40275.652184014645,-79147.712204198018,42244.929133524005,26108.464284326641,105268.6823924777,-40528.524442612921,65328.951899077379,-65328.951899077379,40528.524442612921,197606.05770700341,0.0
385012.02908761695,3887225.878295721,-22500.0,85568.779779656994,-43163.465446563037,23397.221271195402,-60126.458080826022,27871.344945822486,18778.786286576313,79905.964826539683,-34292.94379779778,60409.129846154654,-60409.129846154654,34292.94379779778,151456.36556221388,0.0
390012.02908761695,3887225.878295721,-22500.0,73810.355035527769,-31400.452498746879,13832.378890752445,-46456.063543391967,18876.584312307881,14450.037043283257,61983.586725926296,-28091.401463686081,53389.218619760097,-53389.218619760097,28091.401463686081,118583.86195093632,0.0
395012.02908761695,3887225.878295721,-22500.0,63224.984957070184,-23053.527235363228,8282.2145952820683,-36525.340086209246,13052.734280010296,11481.236913560639,49079.167269701575,-22748.211299871182,46367.693007040871,-46367.693007040871,22748.211299871182,94662.542676466866,0.0
400012.02908761695,3887225.878295721,-22500.0,54135.10269583785,-17084.685765108778,5005.7116456132444,-29125.323890759828,9173.7773642041575,9217.8195886406102,39551.595927957715,-18368.368137059202,40013.954573077659,-40013.954573077659,18368.368137059202,76795.104868066555,0.0
405012.02908761695,3887225.878295721,-22500.0,46444.702918872317,-12772.55975808457,3047.2333638479267,-23474.886905631669,6533.0316503858194,7410.0484500098573,32338.138590730909,-14847.468763797744,34474.648210405838,-34474.648210405838,14847.468763797744,63116.611807291571,0.0
410012.02908761695,3887225.878295721,-22500.0,39960.236905823025,-9625.2112192335753,1866.4516658638397,-19078.755361782401,4704.3794980315633,5949.7078132983625,26755.328199854874,-12037.830073013123,29718.720603561866,-29718.720603561866,12037.830073013123,52426.969422300943,0.0
415012.02908761695,3887225.878295721,-22500.0,34489.445519256282,-7305.8992433494359,1150.8537541899905,-15612.604079358776,3420.5252716502105,4772.9321489640297,22355.927107275544,-9799.8468876134721,25662.009476221123,-25662.009476221123,9799.8468876134721,43935.348512462537,0.0
420012.02908761695,3887225.878295721,-22500.0,29865.372805992669,-5581.6124467034169,716.43328158292093,-12853.57555340125,2508.5635200724837,3830.0699386551482,18838.4459342312,-8015.3728305077493,22210.828632080254,-22210.828632080254,8015.3728305077493,37102.308295458635,0.0
425012.02908761695,3887225.878295721,-22500.0,25948.213711303808,-4289.193954450433,453.27984314230474,-10641.543409712705,1854.0446283468914,3078.3530233485103,15992.827406841156,-6588.7540002862879,19276.697454646848,-19276.697454646848,6588.7540002862879,31546.599376568491,0.0
430012.02908761695,3887225.878295721,-22500.0,22621.867031853504,-3313.0981436243701,294.96146093258278,-8857.5173294363194,1379.8642926021671,2480.8378376595119,13668.143450299915,-5444.1042853987783,16780.83507060957,-16780.83507060957,5444.1042853987783,26990.251693971197,0.0
435012.02908761695,3887225.878295721,-22500.0,19789.985727903044,-2570.6645641308764,200.94095769079189,-7411.0642792836343,1033.3454671495199,2006.3884234242105,11753.095274679006,-4521.820093226539,14654.991067789881,-14654.991067789881,4521.820093226539,23225.488219770017,0.0
440012.02908761695,3887225.878295721,-22500.0,17372.517667247575,-2002.1985430781424,146.29375855506476,-6232.4507020989795,778.0672665079228,1629.4178892348882,10163.84257671561,-3775.2863864827987,12840.891897161655,-12840.891897161655,3775.2863864827987,20093.947030724594,0.0
445012.02908761695,3887225.878295721,-22500.0,15302.926935810821,-1564.2298355686983,115.61374782561668,-5267.4165112684004,588.58638490010583,1329.315929689094,8836.1760297260771,-3168.1061657100709,11289.254856793639,-11289.254856793639,3168.1061657100709,17473.163896266058,0.0
450012.02908761695,3887225.878295721,-22500.0,13525.873993693353,-1224.8443533180744,99.34779270814019,-4473.4705516358981,446.95547264214269,1089.7101481322643,7720.2508445343801,-2671.8386421965797,9958.6355364299125,-9958.6355364299125,2671.8386421965797,15267.323023025787,0.0
455012.02908761695,3887225.878295721,-22500.0,11995.301771156219,-960.43359908685125,91.569852156931489,-3817.1743218605216,340.400322278852,897.71146446170098,6776.9443583742432,-2264.2157396967532,8814.3028564559972,-8814.3028564559972,2264.2157396967532,13400.745460617765,0.0
250012.02908761695,3892225.878295721,-22500.0,8885.4833307059725,3670.5415790701295,838.83538304995238,3028.9900103487735,1088.7274900859343,754.53269093687925,5945.281019010692,2278.8398371493049,5763.2430403816916,-5763.2430403816916,-2278.8398371493049,11701.835529707303,0.0
255012.02908761695,3892225.878295721,-22500.0,9829.9429115591211,4259.8118428804792,995.82904908809019,3502.9808306594441,1299.2533037210094,907.53840302146318,6737.3423484678497,2720.3905153733072,6328.0252584008213,-6328.0252584008213,-2720.3905153733072,13234.202845107677,0.0
260012.02908761695,3892225.878295721,-22500.0,10881.025671002932,4966.1905907502205,1197.1771234783632,4063.3895065510947,1558.3360062654729,1095.9925388596971,7662.5675986381548,3267.5701548409925,6941.1584417563881,-6941.1584417563881,-3267.5701548409925,15019.147789619632,0.0
265012.02908761695,3892225.878295721,-22500.0,12044.001976348542,5816.2563664444178,1458.5938471794348,4726.6546710277034,1878.4275320777226,1328.6536701059836,8746.6813955689104,3949.935574930138,7597.8049949259457,-7597.8049949259457,-3949.935574930138,17103.771426070285,0.0
270012.02908761695,3892225.878295721,-22500.0,13319.15519924213,6842.7963611972746,1802.2060549440419,5511.6968276200359,2275.1907890907723,1616.3381197018002,10020.496250538514,4806.26514570784,8286.4975702026932,-8286.4975702026932,-4806.26514570784,19543.611930780989,0.0
275012.02908761695,3892225.878295721,-22500.0,14697.68876630056,8085.9051478238307,2259.4239779766376,6439.624780900107,2768.1184709950348,1972.2249569413548,11520.639276503029,5887.5601542811892,8985.0173175799173,-8985.0173175799173,-5887.5601542811892,22403.225201659669,0.0
280012.02908761695,3892225.878295721,-22500.0,16155.061314879262,9593.814786117473,2875.1413574672697,7532.7443932318911,3381.0118669945264,2412.0451229772179,13290.082855400646,7260.888737602163,9653.9661820032525,-9653.9661820032525,-7260.888737602163,25755.87112855681,0.0
285012.02908761695,3892225.878295721,-22500.0,17640.127339469247,11422.805362913865,3713.8211093415621,8812.1895941750008,4141.9566266442007,2953.9630362878524,15378.070369657984,9014.0563018605699,10226.736025104119,-10226.736025104119,-9014.0563018605699,29681.211619850765,0.0
290012.02908761695,3892225.878295721,-22500.0,19057.583378560961,13634.769271722966,4868.0581727296985,10292.935707729588,5081.9908102576746,3617.7808295973537,17838.613679191745,11260.586215037963,10594.020697885788,-10594.020697885788,-11260.586215037963,34259.026962140713,0.0
295012.02908761695,3892225.878295721,-22500.0,20239.855531974747,16289.418379036435,6469.8822335906671,11973.796016312663,6230.7073119266497,4422.6881289145476,20725.791117536377,14143.203883104523,10580.325986093418,-10580.325986093418,-14143.203883104523,39555.138020512415,0.0
300012.02908761695,3892225.878295721,-22500.0,20903.193535201543,19424.973280083566,8703.3615560662784,13817.840262072279,7604.9130662894686,5381.805999465787,24082.192456690405,17830.714258749143,9909.8904362940884,-9909.8904362940884,-17830.714258749143,45592.565719559854,0.0
305012.02908761695,3892225.878295721,-22500.0,20583.062824600889,23015.502462561952,11811.481131777147,15714.796785894519,9181.7253072273124,6489.3265553332685,27913.28648374047,22495.512825013382,8162.2289468561685,-8162.2289468561685,-22495.512825013382,52295.951106267901,0.0
310012.02908761695,3892225.878295721,-22500.0,18551.940169159923,26885.124122841364,16074.484764125958,17411.103313100492,10836.949923786824,7689.7877748262335,32134.760569050373,28243.071806512256,4729.5496272316668,-4729.5496272316668,-28243.071806512256,59391.92997162274,0.0
315012.02908761695,3892225.878295721,-22500.0,13754.654031579643,30557.467763174063,21698.155774217488,18388.799607316792,12207.640610292035,8803.8479358759632,36475.251139049367,34938.763856677986,-1175.5055963004415,1175.5055963004415,-34938.763856677986,66255.084837903662,0.0
320012.02908761695,3892225.878295721,-22500.0,4882.6453328513835,33064.360236882778,28477.044107788784,17688.843989095472,12400.47703105766,9351.9247188964018,40338.144611495743,41865.528468966586,-10332.871707681519,10332.871707681519,-41865.528468966586,71770.307245673946,0.0
325012.02908761695,3892225.878295721,-22500.0,-9148.8986970038204,32955.416622524346,35044.813587776087,13759.933361409854,9441.4126390438632,8158.7166333302284,42820.277072688063,47281.219998935368,-22929.414109657548,22929.414109657548,-47281.219998935368,74708.477110527136,0.0
330012.02908761695,3892225.878295721,-22500.0,-28114.369488697332,29312.132759504722,37866.11179551114,4642.7852287166879,-503.90073735225025,2553.673962017896,44387.661840540379,48602.057664852007,-37589.415711901602,37589.415711901602,-48602.057664852007,76899.232930499944,0.0
335012.02908761695,3892225.878295721,-22500.0,-49722.479615423283,24908.606821872709,31790.796296956687,-11005.427794412954,-23532.326440567311,-13067.33614570964,53281.650085475514,45251.849319746187,-51469.98880511264,51469.98880511264,-45251.849319746187,94266.210472516294,0.0
340012.02908761695,3892225.878295721,-22500.0,-72103.355729119299,29326.856143162804,16066.688234161764,-32124.55100399474,-67354.222181626566,-49894.348922545316,85265.468643385218,44776.731407956046,-64507.165252106643,64507.165252106643,-44776.731407956046,159984.23382236998,0.0
345012.02908761695,3892225.878295721,-22500.0,-93384.739721734164,50743.558843500337,-1795.1111898855829,-48943.678335058597,-146118.08124609519,-129142.48826115248,171561.18792867876,57808.002813920044,-79041.700055416135,79041.700055416135,-57808.002813920044,303158.33120895841,0.0
350012.02908761695,3892225.878295721,-22500.0,-75098.496660129254,117681.34359680612,-48080.39125289314,31197.787091051003,-297404.06108461786,-244350.0796217579,336138.08299550723,87544.386109630839,-60687.535871231485,60687.535871231485,-87544.386109630839,586313.10898091481,0.0
355012.02908761695,3892225.878295721,-22500.0,-513536.6374920602,457293.79649634875,303233.53375370003,372170.14391949307,-491387.66788802622,-175352.82961490127,859365.91270230222,614465.31767791265,-545118.15761531249,545118.15761531249,-614465.31767791265,1507492.4780407199,0.0
360012.02908761695,3892225.878295721,-22500.0,-38558.090548481057,223147.29152739825,693100.49869632395,-664086.88138690393,111070.84056707509,708082.05824427272,788584.47976446245,578648.01141120971,-308561.78740229784,308561.78740229784,-578648.01141120971,1433854.46234168,0.0
365012.02908761695,3892225.878295721,-22500.0,245764.26598331728,-33423.847793574154,183898.01441767407,-339463.93196303071,131366.05137493854,215754.54232463517,364694.82593441312,43826.630942288684,117254.81050606871,-117254.81050606871,-43826.630942288684,635374.92078337993,0.0
370012.02908761695,3892225.878295721,-22500.0,199595.52302648226,-62339.477416280264,79925.04768724936,-217496.04064883976,83567.921030211175,108725.87454816005,240348.59632426337,-32331.070034146687,124883.33650656982,-124883.33650656982,32331.070034146687,431540.15845398081,0.0
375012.02908761695,3892225.878295721,-22500.0,165524.20776139124,-49470.599264841025,39502.547913919785,-146309.3492856127,50089.295140957482,57102.093520590381,166896.600217425,-39785.410575815433,112726.20825240035,-112726.20825240035,39785.410575815433,305059.64811741124,0.0
380012.02908761695,3892225.878295721,-22500.0,134234.97680739683,-35420.124867730323,20345.492480157845,-100687.80017812039,30719.44101996021,33378.820694721086,119017.51939574323,-34831.525287359967,94901.827515292433,-94901.827515292433,34831.525287359967,220601.97296499691,0.0
385012.02908761695,3892225.878295721,-22500.0,108247.9268063018,-24830.935189865188,10549.167346908085,-71763.04988953234,19390.248743641299,22177.296814911162,87473.4082535169,-28213.726446006964,78068.939459851012,-78068.939459851012,28213.726446006964,164230.58310054566,0.0
390012.02908761695,3892225.878295721,-22500.0,87867.760940885812,-17379.540938245467,5366.7855986554232,-53014.873344789907,12539.722222659655,16190.287955209931,66256.457601438655,-22342.537689895322,64095.652207252075,-64095.652207252075,22342.537689895322,125857.93281266051,0.0
395012.02908761695,3892225.878295721,-22500.0,72104.811522490738,-12207.338178082791,2593.8489334203528,-40350.91484366139,8265.4915189547773,12433.911530521702,51545.100027303728,-17611.434541781633,52935.599262114221,-52935.599262114221,17611.434541781633,98899.999400434914,0.0
400012.02908761695,3892225.878295721,-22500.0,59829.655221090048,-8611.0714702085825,1117.4220849764554,-31414.025479356711,5529.5440154565295,9761.8062803745579,40995.771835146501,-13913.44031019931,44068.792542245355,-44068.792542245355,13913.44031019931,79303.359417198764,0.0
405012.02908761695,3892225.878295721,-22500.0,50135.759304089297,-6094.6999442096458,348.7138186391478,-24867.789523159856,3742.0822814326893,7727.8136100412248,33187.684690875212,-11047.68969316286,36976.356055240918,-36976.356055240918,11047.68969316286,64610.246431065119,0.0
410012.02908761695,3892225.878295721,-22500.0,42366.888982339471,-4320.8178050564838,-32.220529059573288,-19934.60183797593,2554.7756745825986,6136.8584476997657,27250.112923483452,-8826.7838288430303,31246.92272499235,-31246.92272499235,8826.7838288430303,53309.780103961275,0.0
415012.02908761695,3892225.878295721,-22500.0,36059.667264718344,-3061.2183726180174,-201.94686381596625,-16139.526771626603,1755.2073281691141,4882.7246521779925,22634.889618127196,-7099.1919179177276,26573.728602210431,-26573.728602210431,7099.1919179177276,44443.093416798169,0.0
420012.02908761695,3892225.878295721,-22500.0,30884.034403087233,-2160.8455458326785,-258.70134934612923,-13175.871814587563,1210.4668544804022,3893.399159588233,18984.344550896789,-5748.1134685358375,22729.716131442496,-22729.716131442496,5748.1134685358375,37376.682630678311,0.0
425012.02908761695,3892225.878295721,-22500.0,26599.700831471517,-1513.5196534189552,-257.25269846820936,-10835.167894089831,835.65149782411959,3113.6114256270434,16056.172163442046,-4685.0597952745629,19544.832579273549,-19544.832579273549,4685.0597952745629,31674.868462182043,0.0
430012.02908761695,3892225.878295721,-22500.0,23027.315234395162,-1045.8843821758503,-227.99677893480469,-8969.7249398278163,575.5819169083594,2499.1521019052798,13680.389272057244,-3843.3048347435115,16889.484664085096,-16889.484664085096,3843.3048347435115,27027.200784861499,0.0
435012.02908761695,3892225.878295721,-22500.0,20029.969558711517,-706.81350568772882,-187.57950226001472,-7471.6664032964954,393.86537226688432,2014.5542269263406,11734.1421578229,-3172.5009052884743,14663.271978732562,-14663.271978732562,3172.5009052884743,23206.000917902598,0.0
440012.02908761695,3892225.878295721,-22500.0,17501.204268140478,-460.36784831068923,-144.87316809417442,-6260.4615955618929,266.18625572307104,1631.607590597828,10126.436960995663,-2634.5307385330434,12787.326464420377,-12787.326464420377,2634.5307385330434,20040.472423167379,0.0
445012.02908761695,3892225.878295721,-22500.0,15357.024801226418,-281.07770079197428,-104.36750560539411,-5275.0536397204705,176.1083283917568,1328.0927567589647,8788.5294912423742,-2200.4018060972148,11199.006842253442,-11199.006842253442,2200.4018060972148,17400.212456923269,0.0
450012.02908761695,3892225.878295721,-22500.0,13530.418147914541,-150.75292294254774,-68.105030619753819,-4468.62141320301,112.4033054204568,1086.6435713220712,7667.6535988968144,-1847.9448147677504,9848.1300086221127,-9848.1300086221127,1847.9448147677504,15184.275293410601,0.0
455012.02908761695,3892225.878295721,-22500.0,11967.454720489302,-56.308576037657573,-36.787388865046651,-3804.943717944886,67.326100457939546,893.75546916473058,6722.7846380658257,-1560.1132776123445,8694.2169062932808,-8694.2169062932808,1560.1132776123445,13313.646282611902,0.0
250012.02908761695,3897225.878295721,-22500.0,10229.30882986176,3094.0476645417853,474.40593742258636,3414.6109257003918,899.5862772643851,837.4574528378223,6340.9816834205658,1411.2536814436094,6964.8319063684412,-6964.8319063684412,-1411.2536814436094,12564.802710340055,0.0
255012.02908761695,3897225.878295721,-22500.0,11451.60073437463,3595.9228010736456,549.26766392815352,3985.1598161660359,1072.8077499037374,1014.8849886914077,7216.7735837316422,1696.2614337922323,7775.8809362401526,-7775.8809362401526,-1696.2614337922323,14279.025834204849,0.0
260012.02908761695,3897225.878295721,-22500.0,12851.614853821357,4201.3998357205901,646.65908388863704,4671.1761146836834,1286.4098720326904,1236.0946972499869,8248.2621377791129,2053.7721919316814,8697.3437284906977,-8697.3437284906977,-2053.7721919316814,16293.981582061417,0.0
265012.02908761695,3897225.878295721,-22500.0,14456.222678771948,4936.0494443428697,775.81491548605425,5499.3031714152921,1551.1005558698148,1513.053870215442,9468.5501237589506,2505.9322546867984,9742.7597061831675,-9742.7597061831675,-2505.9322546867984,18672.167672611897,0.0
270012.02908761695,3897225.878295721,-22500.0,16294.845876026378,5832.6265850282598,950.4025620969287,6502.7739405513003,1880.5988023332618,1861.1535622554966,10918.73901894558,3082.7765090892335,10925.173763684337,-10925.173763684337,-3082.7765090892335,21490.304834425515,0.0
275012.02908761695,3897225.878295721,-22500.0,18398.275475537863,6933.2431622752174,1190.9081456155475,7722.9927372828097,2292.4280362153613,2300.1542656490838,12650.005256581269,3825.4427234482209,12255.19595831368,-12255.19595831368,-3825.4427234482209,24842.419840682531,0.0
280012.02908761695,3897225.878295721,-22500.0,20796.072959444355,8292.1446526281288,1528.4254660485872,9211.3850543868175,2808.8228922489993,2855.3524971687812,14726.189243467188,4790.8242094684474,13737.470996232882,-13737.470996232882,-4790.8242094684474,28843.240174979172,0.0
285012.02908761695,3897225.878295721,-22500.0,23511.286230890237,9979.1218178268773,2010.7440504115789,11031.386621792508,3457.6537572774455,3558.9956260588874,17226.868439443453,6058.3377020025,15364.321247972053,-15364.321247972053,-6058.3377020025,33631.404168826448,0.0
290012.02908761695,3897225.878295721,-22500.0,26550.212803507275,12083.284067910583,2712.1657710988084,13260.207788564512,4273.0989843784928,4451.9801346886261,20250.636043871629,7739.6512767928207,17104.454330694774,-17104.454330694774,-7739.6512767928207,39371.314200674489,0.0
295012.02908761695,3897225.878295721,-22500.0,29882.91557110069,14716.024355086327,3749.2808135288169,15989.310019696588,5295.3703718151291,5585.8457043405515,23917.474629701312,9992.1787831936999,18882.987469544689,-18882.987469544689,-9992.1787831936999,46250.673351593083,0.0
300012.02908761695,3897225.878295721,-22500.0,33406.686770320215,18009.507256436154,5305.7035896721582,19320.847124211377,6567.6910318297378,7024.9088665878971,28367.029027357854,13035.969280812809,20546.53613428487,-20546.53613428487,-13035.969280812809,54466.739539388604,0.0
305012.02908761695,3897225.878295721,-22500.0,36879.276846572844,22100.393374711915,7668.1126479651557,23353.285105823343,8125.6219233382326,8847.5379567609289,33744.35302386518,17168.533720142826,21804.256594297767,-21804.256594297767,-17168.533720142826,64185.028660253542,0.0
310012.02908761695,3897225.878295721,-22500.0,39804.020141670924,27072.409760742663,11267.994371102975,28140.4565165891,9964.7883804404009,11142.126893125369,40152.216950233167,22755.27793740623,22137.048697388884,-22137.048697388884,-22755.27793740623,75433.450000934215,0.0
315012.02908761695,3897225.878295721,-22500.0,41261.475652725399,32797.196857639334,16687.960286907801,33592.006345080161,11946.521531120565,13981.512513687454,47521.193994520516,30124.511025578657,20692.530944746024,-20692.530944746024,-30124.511025578657,87852.630120138041,0.0
320012.02908761695,3897225.878295721,-22500.0,39777.132195645332,38567.999442417575,24469.534060509533,39269.747121345164,13527.658454611905,17324.505453553127,55297.862618512772,39181.86716205487,16299.012799656404,-16299.012799656404,-39181.86716205487,100162.62132516506,0.0
325012.02908761695,3897225.878295721,-22500.0,33674.719865466912,42503.759437854802,34239.482917714471,44109.453250867708,13033.927459096167,20709.040344235596,61822.896024840513,48411.528411250009,8088.6684351929616,-8088.6684351929616,-48411.528411250009,109279.64326371506,0.0
330012.02908761695,3897225.878295721,-22500.0,23165.656737565205,41583.22458756571,42304.01357666804,46622.773961285944,6028.5015651138438,22495.150501719581,63741.625397380587,53364.69269110504,-2194.7928419477867,2194.7928419477867,-53364.69269110504,110440.61761378663,0.0
335012.02908761695,3897225.878295721,-22500.0,15207.95407554574,36095.288986444299,38736.075107870565,47832.452699090703,-16798.570810959576,18750.395744458572,60288.649608176303,48184.017240440764,-6304.4799981780234,6304.4799981780234,-48184.017240440764,110008.13867393062,0.0
340012.02908761695,3897225.878295721,-22500.0,25160.503525590524,43403.504631273463,15367.204888221737,60842.293141947855,-67497.776939537522,4089.4458297816018,91908.601454947304,41012.238240856583,7228.334951308796,-7228.334951308796,-41012.238240856583,175380.55545721782,0.0
345012.02908761695,3897225.878295721,-22500.0,52531.594170473662,112571.05586456279,16023.572885199144,126654.04251458032,-147598.79865534272,-18561.306538641962,197374.16370993829,95753.11273949797,16962.073627464997,-16962.073627464997,-95753.11273949797,394066.31221385323,0.0
350012.02908761695,3897225.878295721,-22500.0,-72375.798622376271,248351.19375435504,262698.94801713596,313114.53209016443,-316093.32720393903,2508.8040172919809,511528.10998252279,356384.22206825495,-175207.15735708302,175207.15735708302,-356384.22206825495,933644.95486008166,0.0
355012.02908761695,3897225.878295721,-22500.0,-1288584.4510953864,775408.38683050626,1266420.4963679099,-308463.80037937942,433232.44759744959,-67739.055112595757,1586558.8911143797,1503570.8887843136,-1486218.7711257781,1486218.7711257781,-1503570.8887843136,2748007.1040881691,0.0
360012.02908761695,3897225.878295721,-22500.0,-112946.05553377421,-80211.428133905749,240437.02211155824,-242735.81739231292,288204.89557944646,252095.07671588787,426509.35100290127,77197.659326320805,-152449.99577450732,152449.99577450732,-77197.659326320805,757881.98637501826,0.0
365012.02908761695,3897225.878295721,-22500.0,102631.78708837584,14451.479774274967,160258.75267179293,-280595.28731914918,55487.290707408429,220633.97816345084,292401.72390709387,90367.329912624089,13275.771760199365,-13275.771760199365,-90367.329912624089,506467.645508883,0.0
370012.02908761695,3897225.878295721,-22500.0,176616.35999705351,16325.599232597839,66920.059374278324,-220665.77564300463,26878.916508388644,119884.82461880449,225779.89519021707,31278.959258756237,99385.575548278255,-99385.575548278255,-31278.959258756237,397587.30307486339,0.0
375012.02908761695,3897225.878295721,-22500.0,166123.92615811678,6703.4044828563792,28117.487800179228,-152454.11864797733,17573.351185714702,62638.124852798435,163139.8297696065,2242.3088107006988,107699.79930340205,-107699.79930340205,-2242.3088107006988,293702.96394512139,0.0
380012.02908761695,3897225.878295721,-22500.0,137636.46756530838,2463.1749281768089,12136.039708934435,-104480.33763233649,11286.28762535484,35859.673833682478,117591.75366195101,-7215.6220965537941,93931.248226938478,-93931.248226938478,7215.6220965537941,215602.89280949373,0.0
385012.02908761695,3897225.878295721,-22500.0,110729.75145071853,1234.7020117954814,5038.6824642640167,-73666.61968421613,6951.8134152000284,23218.223488153533,86569.975269620627,-9189.7596394517532,77490.773649390525,-77490.773649390525,9189.7596394517532,161274.77116520927,0.0
390012.02908761695,3897225.878295721,-22500.0,89154.245852613094,1108.6889191407608,1753.4891660867384,-53808.920884419116,4119.5057549119547,16570.893523713818,65485.985579900975,-8648.9079736533567,63260.275533534688,-63260.275533534688,8648.9079736533567,123710.12022012399,0.0
395012.02908761695,3897225.878295721,-22500.0,72522.728993133685,1275.2657362825753,236.86994235122387,-40553.944557183357,2336.1934005431267,12519.482138601516,50840.52887734081,-7420.850219644657,51865.391623352334,-51865.391623352334,7420.850219644657,97176.995073059472,0.0
400012.02908761695,3897225.878295721,-22500.0,59710.645393917788,1449.5294697808342,-423.14524414906822,-31323.846708352918,1239.7513514026975,9722.84485767968,40355.314657746872,-6144.0310644735,42890.05272748584,-42890.05272748584,6144.0310644735,77867.589677390002,0.0
405012.02908761695,3897225.878295721,-22500.0,49717.362807009042,1554.2674913476098,-662.87155818294116,-24646.496220360787,577.78316430002519,7643.2668292408744,32615.690634452207,-5017.410525539899,35792.08200353539,-35792.08200353539,5017.410525539899,63397.892877083708,0.0
410012.02908761695,3897225.878295721,-22500.0,41801.456154646774,1585.4175525925821,-699.73514552720519,-19667.383310359561,185.64433274794777,6042.3678880229345,26746.45936439262,-4081.2941944824961,30120.630359085841,-30120.630359085841,4081.2941944824961,52281.179607842343,0.0
415012.02908761695,3897225.878295721,-22500.0,35439.453362828404,1559.7666466229246,-644.15849571501803,-15869.369096990091,-40.625246960015239,4793.4323372963963,22195.353841620079,-3322.5188571147937,25537.997207629713,-25537.997207629713,3322.5188571147937,43568.345339003223,0.0
420012.02908761695,3897225.878295721,-22500.0,30262.336456919373,1496.304783526768,-552.2466923689226,-12922.995695266507,-165.66012043994522,3814.8300811899699,18602.514183700365,-2713.3953230025236,21797.018222151033,-21797.018222151033,2713.3953230025236,36631.28186283086,0.0
425012.02908761695,3897225.878295721,-22500.0,26005.601239255306,1410.6057543817574,-451.95715322840812,-10607.754592592679,-229.36898913888467,3046.9112130798549,15724.96249611329,-2225.5787896204674,18715.844436943247,-18715.844436943247,2225.5787896204674,31038.260107481161,0.0
430012.02908761695,3897225.878295721,-22500.0,22475.236967868044,1313.949467001064,-356.53568638224618,-8769.7611895164355,-256.33066873843438,2443.5998785630327,13392.931951083518,-1834.3991912980755,16158.565128912,-16158.565128912,1834.3991912980755,26482.09173954506,0.0
435012.02908761695,3897225.878295721,-22500.0,19525.677836065293,1213.9366228305355,-271.57360966368014,-7298.1119436635836,-261.66635568353286,1968.7529868861466,11484.22733556716,-1519.6926372254866,14021.824580096345,-14021.824580096345,1519.6926372254866,22737.888361867492,0.0
440012.02908761695,3897225.878295721,-22500.0,17045.490002902727,1115.4015620901025,-198.75147943026457,-6110.9376727140179,-254.66493995639797,1594.0294240818212,9908.6657865506932,-1265.4269338017511,12225.743510210026,-12225.743510210026,1265.4269338017511,19637.219334528731,0.0
445012.02908761695,3897225.878295721,-22500.0,14947.961794004137,1021.2324988822452,-137.8371687872168,-5146.7335644968871,-241.01261267165773,1297.3123224378073,8598.3203193377049,-1059.0118259582741,10707.752098365136,-10707.752098365136,1059.0118259582741,17051.692453895139,0.0
450012.02908761695,3897225.878295721,-22500.0,13164.713514039184,933.00445809700591,-87.743323530636275,-4358.6779796198298,-224.16509666177461,1061.4214870832002,7501.158822528545,-890.60359595442424,9418.287489716713,-9418.287489716713,890.60359595442424,14882.049524844682,0.0
455012.02908761695,3897225.878295721,-22500.0,11641.240717062405,851.43471239669668,-47.078611674076768,-3710.7564840850441,-206.19434343577225,873.05250476982224,6576.7690474866367,-752.50839508916943,8317.7283754713426,-8317.7283754713426,752.50839508916943,13050.677234205676,0.0
250012.02908761695,3902225.878295721,-22500.0,11360.50631413749,2334.8642129389086,182.67470179666816,3738.9618228632276,659.63003014435697,907.24405467368399,6693.1955821856527,458.38046051822857,8012.0996465573971,-8012.0996465573971,-458.38046051822857,13302.985402913571,0.0
255012.02908761695,3902225.878295721,-22500.0,12815.687064124038,2699.8188539461239,190.45917225738151,4390.2478465838303,779.83702566157297,1105.0681236151008,7641.4604107129535,559.56736949179685,9038.4260739409237,-9038.4260739409237,-559.56736949179685,15172.345691029066,0.0
260012.02908761695,3902225.878295721,-22500.0,14508.973379560764,3138.7143958676634,202.16511511388416,5181.3856133392746,926.52562536106586,1353.6060890131237,8765.8589745776335,689.80330950196731,10230.578862893522,-10230.578862893522,-689.80330950196731,17384.111648076992,0.0
265012.02908761695,3902225.878295721,-22500.0,16486.271024561433,3669.9549670702827,221.03347718652387,6147.7252992151934,1106.2568752259224,1667.4889700540184,10106.383281193348,859.28646506523364,11619.302230891124,-11619.302230891124,-859.28646506523364,20014.593276880343,0.0
270012.02908761695,3902225.878295721,-22500.0,18803.181404788305,4317.432721387022,252.58588286569676,7334.8343320100421,1327.2594731651268,2065.9045673644682,11713.96661880678,1082.4993205249175,13241.131831602275,-13241.131831602275,-1082.4993205249175,23159.868101385513,0.0
275012.02908761695,3902225.878295721,-22500.0,21526.975574259352,5112.4912917634447,306.20246498954003,8801.843552145976,1599.7889805075661,2574.0742935070889,13654.024047071152,1380.357401011287,15139.106304777313,-15139.106304777313,-1380.357401011287,26941.538304126378,0.0
280012.02908761695,3902225.878295721,-22500.0,24738.748884424425,6096.7329211414317,397.84347762997822,10626.076344244368,1936.497031945046,3225.2350371122079,16011.364301238138,1783.6242799528954,17363.134218065657,-17363.134218065657,-1783.6242799528954,31514.339009034189,0.0
285012.02908761695,3902225.878295721,-22500.0,28535.383306774525,7326.0998642343202,554.82484905035381,12909.52561536885,2352.7595746672046,4063.3521606551344,18897.024147678105,2338.4779627645639,19969.387865581128,-19969.387865581128,-2338.4779627645639,37076.138786446973,0.0
290012.02908761695,3902225.878295721,-22500.0,33030.372500958038,8876.8398971533952,824.32618103946515,15788.066616005584,2866.8723563456538,5146.9954059999591,22457.787944726602,3115.7431021390566,23017.400719653313,-23017.400719653313,-3115.7431021390566,43880.971695263412,0.0
295012.02908761695,3902225.878295721,-22500.0,38350.983501152543,10854.076075749324,1288.813617480874,19444.619076167648,3499.9618256100894,6555.2607449322577,26889.176231909787,4226.4007122361236,26561.87660491783,-26561.87660491783,-4226.4007122361236,52255.293296276075,0.0
300012.02908761695,3902225.878295721,-22500.0,44625.458207644653,13403.224860922783,2094.4235984355296,24127.616546905057,4275.3060486286822,8397.6117353119771,32452.085709426996,5847.6094301574412,30632.57679187187,-30632.57679187187,-5847.6094301574412,62615.793925893136,0.0
305012.02908761695,3902225.878295721,-22500.0,51944.937191987883,16721.328768425807,3503.5963093797986,30174.915701554997,5215.9667681195433,10831.497371209533,39490.181763941808,8264.8180512614199,35187.739924597903,-35187.739924597903,-8264.8180512614199,75480.4102751069,0.0
310012.02908761695,3902225.878295721,-22500.0,60264.401630885819,21052.624789311471,5991.465216431523,38036.827837472192,6335.7550940440096,14094.854279347879,48434.211281933065,11932.073847893789,40010.546481032608,-40010.546481032608,-11932.073847893789,91443.354308584778,0.0
315012.02908761695,3902225.878295721,-22500.0,69166.618767819469,26607.502523843526,10410.294759598773,48268.506980956474,7600.2365791623088,18562.863763303678,59744.869570454932,17523.188517637453,44493.060188499614,-44493.060188499614,-17523.188517637453,111024.63539591919,0.0
320012.02908761695,3902225.878295721,-22500.0,77367.524763153342,33203.306448945841,18199.598016009757,61392.359189984869,8754.8610923890883,24823.550886328081,73648.849732060175,25811.519733683508,47252.840226951856,-47252.840226951856,-25811.519733683508,134153.5743295023,0.0
325012.02908761695,3902225.878295721,-22500.0,81995.590601520598,39081.041668949147,31279.835380142049,77383.835050379188,8598.5453880151545,33660.010523590296,89313.91712742277,36731.722811883141,45797.738538392165,-45797.738538392165,-36731.722811883141,158825.69963611601,0.0
330012.02908761695,3902225.878295721,-22500.0,79097.437700710972,38179.980363882743,49823.288414295057,94608.765863320368,2214.9264201064552,45392.169054671314,103284.1343733004,45886.98108968568,37988.005542490733,-37988.005542490733,-45886.98108968568,179573.47804813148,0.0
335012.02908761695,3902225.878295721,-22500.0,71321.240792195254,19575.392143643079,63936.390554196332,110922.63290470243,-27181.221271145958,57280.770248170622,115833.1648050567,38713.479079409488,30428.773015096725,-30428.773015096725,-38713.479079409488,201060.98534408887,0.0
340012.02908761695,3902225.878295721,-22500.0,80201.135560312308,-11194.111978019318,54392.43517999223,141418.9163193804,-119242.07480622093,61851.553204567143,185533.59147541737,6993.5330768128442,44250.127018755054,-44250.127018755054,-6993.5330768128442,321805.97979975177,0.0
345012.02908761695,3902225.878295721,-22500.0,107374.80201110934,-27441.479302523076,66541.066932609887,274207.00231498672,-345018.23692060588,82604.519350756833,441683.90753853216,-3953.5828926972026,62674.662931156854,-62674.662931156854,3953.5828926972026,765643.38552724291,0.0
350012.02908761695,3902225.878295721,-22500.0,-595462.69920716772,272641.54047964962,773101.14605431817,774141.0101612272,-859040.08022340236,806379.95181813417,1430254.294354382,714581.84702440351,-728347.6371919997,728347.6371919997,-714581.84702440351,2480796.5184126212,0.0
355012.02908761695,3902225.878295721,-22500.0,-550145.955805148,15064.188472876082,175407.34571927783,5938.2894033627945,713436.36568452348,-327606.17842853005,756596.97064846079,168553.12338535002,-453122.45180065697,453122.45180065697,-168553.12338535002,1393645.578503117,0.0
360012.02908761695,3902225.878295721,-22500.0,-127435.84323432021,-22253.301270566375,136194.96452884728,-140914.17341126001,139541.25139100367,131025.89877182769,249599.12945542071,72212.827239437815,-136852.87964896357,136852.87964896357,-72212.827239437815,433170.31366185535,0.0
365012.02908761695,3902225.878295721,-22500.0,23399.25194161923,30132.69092035685,116084.87336416956,-175487.76433225782,10375.420860932663,138505.18653595052,187053.11707738647,88593.976637982123,-30460.91014304561,30460.91014304561,-88593.976637982123,326505.87601366616,0.0
370012.02908761695,3902225.878295721,-22500.0,97192.297281427847,51606.947359266655,70336.93482946475,-158886.17858072388,-11058.124752246114,89750.691029408656,167095.60144540152,72479.877171134925,35657.23010352772,-35657.23010352772,-72479.877171134925,290977.44175658328,0.0
375012.02908761695,3902225.878295721,-22500.0,115719.49864534066,44497.211820644858,35743.536217234963,-121706.10021168897,-9383.8821612444899,52271.602037010111,132955.80981630975,44591.427153907243,62817.551944148676,-62817.551944148676,-44591.427153907243,236619.49487294664,0.0
380012.02908761695,3902225.878295721,-22500.0,107476.62948616866,33036.764145757392,17369.44987060735,-88587.886635531453,-6565.7592103712832,31746.979866553407,101382.4303499105,25306.445732514567,65541.963540556739,-65541.963540556739,-25306.445732514567,184330.00413015988,0.0
385012.02908761695,3902225.878295721,-22500.0,91988.003934828623,24122.60167296504,8353.0911128254775,-64662.592590967826,-4948.0338937052666,21131.039138321681,77200.880647375074,14378.302848722284,59197.746418068542,-59197.746418068542,-14378.302848722284,143011.51535363766,0.0
390012.02908761695,3902225.878295721,-22500.0,76807.03627758869,18000.654056191353,3948.8958320733559,-48215.300611067578,-4030.6765396661767,15256.162872855777,59656.098519387982,8431.8599588310499,50913.359932054504,-50913.359932054504,-8431.8599588310499,112282.19718859646,0.0
395012.02908761695,3902225.878295721,-22500.0,63930.11995724446,13823.999507604793,1780.2120254469482,-36817.019881239816,-3402.6814293365032,11589.057625528696,46974.710478734545,5150.5123919151374,43141.149791912365,-43141.149791912365,-5150.5123919151374,89575.26514428579,0.0
400012.02908761695,3902225.878295721,-22500.0,53460.324029256692,10891.910091737152,713.919527323289,-28696.222464157643,-2896.4595487622205,9034.281395104048,37658.092266688691,3275.9069377466549,36489.208053416369,-36489.208053416369,-3275.9069377466549,72553.645932107014,0.0
405012.02908761695,3902225.878295721,-22500.0,45015.083204035749,8758.7709002069769,202.14302736088209,-22733.532251608554,-2460.0390288327649,7126.7068274755475,30658.294096627571,2160.3548273320048,30957.378184967318,-30957.378184967318,-2160.3548273320048,59536.40208139766,0.0
410012.02908761695,3902225.878295721,-22500.0,38173.167853953411,7155.9796837373442,-27.484303578396421,-18240.757486057137,-2080.3364358571107,5653.3735307115658,25282.126135824172,1469.5319583943001,26386.680049327551,-26386.680049327551,-1469.5319583943001,49389.601462926912,0.0
415012.02908761695,3902225.878295721,-22500.0,32585.321184620596,5919.9212728884995,-113.91403765161662,-14786.487973847352,-1753.3652462887912,4499.8922111758566,21073.223840612503,1026.2071985231578,22603.644473299144,-22603.644473299144,-1026.2071985231578,41351.411208292222,0.0
420012.02908761695,3902225.878295721,-22500.0,27982.875819588553,4947.2879521826735,-129.34792702502855,-12089.570183072605,-1475.4313484833037,3592.6862809317331,17725.48077579329,732.9044168053897,19458.533126684233,-19458.533126684233,-732.9044168053897,34899.094444558941,0.0
425012.02908761695,3902225.878295721,-22500.0,24162.464240895191,4169.9316686910888,-111.62862521669717,-9958.8512929789067,-1241.6420103618834,2878.1007087742141,15027.839686583719,533.82597952223114,16830.340245676911,-16830.340245676911,-533.82597952223114,29663.500648147801,0.0
430012.02908761695,3902225.878295721,-22500.0,20969.292475641931,3540.9577169358199,-80.521446834455219,-8259.3785302243705,-1046.3699533966917,2314.6414099892822,12830.508936092252,395.77085689027081,14622.947808402361,-14622.947808402361,-395.77085689027081,25376.476407206574,0.0
435012.02908761695,3902225.878295721,-22500.0,18284.044252330528,3026.9018291128987,-46.144010847662955,-6892.9787053849959,-883.9241069145412,1869.6368652218464,11024.33566669263,298.27425390432472,12760.022598343136,-12760.022598343136,-298.27425390432472,21838.480483486175,0.0
440012.02908761695,3902225.878295721,-22500.0,16013.506025309009,2603.1768965496035,-13.434410814764174,-5786.6153842851063,-749.00674228945184,1517.3446121959091,9527.9768255454874,228.32701841889138,11180.623572968911,-11180.623572968911,-228.32701841889138,18898.142128759577,0.0
445012.02908761695,3902225.878295721,-22500.0,14083.962034300826,2251.3013410676908,15.440887239109969,-4885.0426118610212,-636.93622762379891,1237.571526585893,8279.6740455427625,177.43932719453642,9835.7733931846524,-9835.7733931846524,-177.43932719453642,16438.867973159908,0.0
450012.02908761695,3902225.878295721,-22500.0,12436.516111984267,1957.1353886778938,39.773874197481831,-4145.9488713580404,-543.71021210555602,1014.5534633503735,7231.8150768130199,139.94619285890803,8685.8614213636138,-8685.8614213636138,-139.94619285890803,14369.759822523347,0.0
250012.02908761695,3907225.878295721,-22500.0,12216.569942965787,1433.5151779803969,-3.5879336970223559,3985.4881686644048,380.19959543370118,960.60950105037,6991.5902089619376,-519.46897407424876,8841.861801787587,-8841.861801787587,519.46897407424876,13882.729942923586,0.0
255012.02908761695,3907225.878295721,-22500.0,13839.289647726204,1623.2593230927587,-36.763102220829431,4695.5941610084792,435.32167433206308,1173.4634832458528,7996.1477640667235,-611.16600240575735,10032.014219179917,-10032.014219179917,611.16600240575735,15869.327689391952,0.0
260012.02908761695,3907225.878295721,-22500.0,15741.836963384201,1844.6666752138751,-77.003440863799469,5562.6438799744365,498.63693853360002,1441.9378138123138,9192.1822362715047,-721.15224977290927,11428.876301430499,-11428.876301430499,721.15224977290927,18229.051747215835,0.0
265012.02908761695,3907225.878295721,-22500.0,17982.963333684151,2104.007949377135,-124.5510061067431,6627.8883871879898,570.69871259134948,1782.4565609961251,10624.982621272477,-853.12116846729805,13075.688434596435,-13075.688434596435,853.12116846729805,21048.323909355971,0.0
270012.02908761695,3907225.878295721,-22500.0,20635.968889338983,2409.0449599855324,-178.64111214320829,7945.1966969729347,651.47520883194807,2216.7098874190096,12352.885765044539,-1011.215686732794,15026.1041052726,-15026.1041052726,1011.215686732794,24437.463113301848,0.0
275012.02908761695,3907225.878295721,-22500.0,23792.942282180287,2769.5493221175484,-236.45144648257317,9585.5697153287601,739.76439140730326,2773.4270665854065,14451.932696003938,-1199.6997071598398,17346.974843161697,-17346.974843161697,1199.6997071598398,28538.53500924967,0.0
280012.02908761695,3907225.878295721,-22500.0,27570.492557990368,3198.1424590370407,-291.14641935194203,11643.636124500015,832.18382766073512,3490.7886316574641,17022.579794463294,-1422.1183960295766,20121.922738511566,-20121.922738511566,1422.1183960295766,33536.364921381479,0.0
285012.02908761695,3907225.878295721,-22500.0,32117.53196329809,3711.7763638276069,-328.21230905322636,14247.241767114107,921.47803018919171,4419.7912698207929,20199.566827448067,-1679.3472802069555,23455.818095768223,-23455.818095768223,1679.3472802069555,39674.277056612351,0.0
290012.02908761695,3907225.878295721,-22500.0,37625.83027911625,4334.4962437388422,-318.52796383744976,17572.071137191284,993.76194859196301,5629.1924363434946,24166.774236581023,-1965.2987946076464,27480.118457058739,-27480.118457058739,1965.2987946076464,47277.125340685125,0.0
295012.02908761695,3907225.878295721,-22500.0,44343.834847240294,5102.776631469701,-205.0215726164117,21864.690593413681,1024.1997378182568,7213.4252614587003,29180.016373237937,-2257.6604664238985,32358.264414397054,-32358.264414397054,2257.6604664238985,56785.620243820995,0.0
300012.02908761695,3907225.878295721,-22500.0,52592.791904419064,6075.9987048939192,123.66581358112273,27479.93866383388,970.63907135332192,9306.7889338259793,35602.35811651621,-2498.0032422240984,38287.986933031323,-38287.986933031323,2498.0032422240984,68807.915870082506,0.0
305012.02908761695,3907225.878295721,-22500.0,62778.258679990628,7356.6677398053716,886.86001527575922,34942.5485595645,765.0975946258161,12111.890360082951,43958.148901694658,-2549.0567480973659,45490.232879045201,-45490.232879045201,2549.0567480973659,84195.466683335675,0.0
310012.02908761695,3907225.878295721,-22500.0,75370.096204011934,9127.0042168726268,2525.6124234240065,45047.081052107198,304.07096287880324,15961.333128715683,55010.573239133781,-2102.8974627381576,54153.451679637597,-54153.451679637597,2102.8974627381576,104144.23555077343,0.0
315012.02908761695,3907225.878295721,-22500.0,90759.678191822692,11702.379586417364,5954.2065653736527,59004.810364701123,-561.31236603774812,21455.568231113295,69849.980751196039,-486.38259137902787,64240.677224800027,-64240.677224800027,486.38259137902787,130284.86159778851,0.0
320012.02908761695,3907225.878295721,-22500.0,108707.43869873318,15541.318061146154,13133.026348210304,78583.302406240808,-2052.5051468860797,29760.805286722927,89897.825075307963,3722.7485793845772,74895.660908894555,-74895.660908894555,-3722.7485793845772,164575.22113736422,0.0
325012.02908761695,3907225.878295721,-22500.0,126567.02400395028,20794.183750984481,28321.362257814224,105863.29766768248,-4686.4769386553298,43152.498419157811,116413.89436274636,13226.919219014548,82784.200738369749,-82784.200738369749,-13226.919219014548,208324.9257200924,0.0
330012.02908761695,3907225.878295721,-22500.0,134791.12765989781,24275.881809069091,59824.461178332502,141013.77929357314,-11015.075166745106,65376.304536129581,148184.81902106357,31057.734878094616,78600.658230248446,-78600.658230248446,-31057.734878094616,258884.58754094713,0.0
335012.02908761695,3907225.878295721,-22500.0,114795.42363378999,8538.9098981147599,113466.31981562359,174641.87568566314,-37130.502396175449,97800.727947667765,178855.80456160579,48502.50124828142,48983.94720903234,-48983.94720903234,-48502.50124828142,310035.6661480093,0.0
340012.02908761695,3907225.878295721,-22500.0,89775.196181799154,-29692.294523148721,152432.54265019071,200696.06979523075,-156024.59097125655,117797.55031207646,257298.14773475088,41330.290233927502,22449.910922233092,-22449.910922233092,-41330.290233927502,446618.45278157765,0.0
345012.02908761695,3907225.878295721,-22500.0,-28313.281944697199,205501.96158621676,413949.12243113515,423871.45213800058,-385647.28187442635,203021.83308898046,625985.52579928632,393050.17812016502,-184872.38739179776,184872.38739179776,-393050.17812016502,1121903.2115526113,0.0
350012.02908761695,3907225.878295721,-22500.0,-963151.16948434489,615260.75037270458,903316.9002379888,-363512.44637721003,539046.5035227997,-351776.0521014324,1304811.9002059987,1131205.7861738049,-1102167.9559974221,1102167.9559974221,-1131205.7861738049,2262773.7672978886,0.0
355012.02908761695,3907225.878295721,-22500.0,-70931.759066013066,-42083.198650726335,-112588.9382072603,-158166.5794137819,454569.61252492137,-84880.292576094245,483491.42452346528,-88856.01901539712,-5376.9193488916571,5376.9193488916571,88856.01901539712,837623.07206252916,0.0
360012.02908761695,3907225.878295721,-22500.0,-77764.618367211267,-60861.616130727612,32762.412813509873,-56988.981196600063,141921.38920982167,11332.914525569169,155296.01984648602,-24355.580424985346,-57916.872580308955,57916.872580308955,24355.580424985346,302634.42009524809,0.0
365012.02908761695,3907225.878295721,-22500.0,-28096.422431630406,12097.980102356712,77703.213267770741,-74771.924571706302,17315.865177385665,50521.217593423738,87568.045393154694,57033.92321502923,-49969.407537957602,49969.407537957602,-57033.92321502923,164826.2770425386,0.0
370012.02908761695,3907225.878295721,-22500.0,22973.630223746914,47065.541118533292,66789.692246685052,-83670.427957526961,-15924.882621005359,46447.985924021057,99733.689043803111,74746.044792534885,-14995.964807740947,14995.964807740947,-74746.044792534885,172774.01866899952,0.0
375012.02908761695,3907225.878295721,-22500.0,52318.479321060317,52095.750117416435,44551.398525102915,-75216.232042761869,-19190.57420160971,33052.664785201261,92397.380198076076,63087.21309084633,13307.148631521512,-13307.148631521512,-63087.21309084633,162791.40228926155,0.0
380012.02908761695,3907225.878295721,-22500.0,61729.598207669442,45164.439002899016,27192.983706005758,-61108.914205437017,-15966.963959763736,22782.234189062943,77229.145604256279,46313.104759423339,27454.092125726125,-27454.092125726125,-46313.104759423339,139469.61841199375,0.0
385012.02908761695,3907225.878295721,-22500.0,60446.005004608873,36201.511800868328,16283.42215382231,-48064.22140340793,-12483.660708718298,16406.242213107282,62455.585236535226,32699.883746464275,31905.546787028816,-31905.546787028816,-32699.883746464275,115215.4790781148,0.0
390012.02908761695,3907225.878295721,-22500.0,54998.454729834652,28430.059382964642,9854.2403757675456,-37740.942315187582,-9750.7313433886156,12432.289277948536,50292.710474386549,23116.176189659796,31550.667648792522,-31550.667648792522,-23116.176189659796,94400.390511888909,0.0
395012.02908761695,3907225.878295721,-22500.0,48547.039237081051,22357.140265145837,6101.1854857157632,-29904.067622497063,-7688.9062062937965,9741.7127608179926,40775.540569780183,16602.764745903522,29235.177033958862,-29235.177033958862,-16602.764745903522,77588.797070148023,0.0
400012.02908761695,3907225.878295721,-22500.0,42345.187357179399,17736.796913458144,3885.4719725884243,-23955.9890358677,-6114.2791568914981,7760.13605203302,33393.726960174659,12160.201159735136,26312.419016146312,-26312.419016146312,-12160.201159735136,64208.625640319922,0.0
405012.02908761695,3907225.878295721,-22500.0,36796.605614090491,14221.322691297186,2553.1486782565639,-19382.584963660716,-4892.5715204055841,6222.2705751421108,27626.740519459308,9077.0096456308747,23364.40483933828,-23364.40483933828,-9077.0096456308747,53535.380879187134,0.0
410012.02908761695,3907225.878295721,-22500.0,31971.199560025012,11521.878170915992,1735.8228190788923,-15814.322662968712,-3934.8394491008085,5000.6901544574139,23066.476177488523,6892.3992288291483,20620.076427259737,-20620.076427259737,-6892.3992288291483,44956.770230773225,0.0
415012.02908761695,3907225.878295721,-22500.0,27821.798896084867,9425.1845213806137,1224.3489138474051,-12995.218703288148,-3179.6058915693789,4023.6148972014344,19415.509986518719,5313.2405338041244,18154.667971313462,-18154.667971313462,-5313.2405338041244,38003.500058891208,0.0
420012.02908761695,3907225.878295721,-22500.0,24268.028783469803,7778.216741454482,897.9345180119094,-10745.803374205323,-2581.8053298278865,3241.9713149722106,16459.951942627195,4151.0846740729758,15978.226135004079,-15978.226135004079,-4151.0846740729758,32323.233862981397,0.0
425012.02908761695,3907225.878295721,-22500.0,21226.742928695392,6471.0575614544605,685.44666602886787,-8936.8017855421313,-2107.1086015667579,2617.6634216733974,14044.488019627166,3282.2356289174577,14074.179651562303,-14074.179651562303,-3282.2356289174577,27650.150691264174,0.0
430012.02908761695,3907225.878295721,-22500.0,18621.969290204732,5423.8284514389325,544.20374811085674,-7472.4975696231941,-1728.8925582809281,2119.6315109551533,12054.272736328461,2623.59821331082,12416.162690206129,-12416.162690206129,-2623.59821331082,23781.14756137471,0.0
435012.02908761695,3907225.878295721,-22500.0,16387.456197109786,4577.6690934741582,448.15681090585861,-6280.4610854215953,-1426.39665955029,1722.3980807107646,10402.771854978959,2118.1185264957048,10975.488734005336,-10975.488734005336,-2118.1185264957048,20559.085637807377,0.0
440012.02908761695,3907225.878295721,-22500.0,14466.560208602303,3888.6120204982221,381.16463148334134,-5305.0026312671698,-1183.423302975729,1405.2460556778988,9023.6607754995366,1725.8451025130053,9724.433385115437,-9724.433385115437,-1725.8451025130053,17861.048698146635,0.0
445012.02908761695,3907225.878295721,-22500.0,12811.288779546454,3323.408514444478,333.09238141363483,-4502.8163430113709,-987.34501068181396,1151.5189207375595,7865.3721286220343,1418.3187173417218,8637.5979871988093,-8637.5979871988093,-1418.3187173417218,15590.011811547434,0.0
450012.02908761695,3907225.878295721,-22500.0,11381.172296405512,2856.6451452197416,297.50039290433517,-3839.9572508704068,-828.3233708839997,947.95568679256405,6887.3574486896405,1174.9615925621761,7692.3836761482216,-7692.3836761482216,-1174.9615925621761,13668.828780527372,0.0
250012.02908761695,3912225.878295721,-22500.0,12753.336779728874,443.74882743775373,-62.055380437418492,4142.4553388283539,76.035144968295285,995.22518092528458,7206.3103130565059,-1458.9686421724409,9405.9978398907951,-9405.9978398907951,1458.9686421724409,14279.02465804418,0.0
255012.02908761695,3912225.878295721,-22500.0,14464.16658081057,436.43613402086891,-102.67406257206991,4885.2534870609816,59.106170302479505,1216.8220529118084,8246.961889882321,-1732.8537015248485,10693.190660850003,-10693.190660850003,1732.8537015248485,16336.830833993792,0.0
260012.02908761695,3912225.878295721,-22500.0,16472.445580681127,411.84582180051473,-150.78325254465275,5793.0131886891631,29.757228781330902,1496.5081213819124,9487.0692320056114,-2068.9087215174859,12207.554574714602,-12207.554574714602,2068.9087215174859,18784.315720366263,0.0
265012.02908761695,3912225.878295721,-22500.0,18841.069454985976,361.64108219289153,-206.21875693576786,6909.2002059380911,-18.366586868752041,1851.4248970123017,10974.399771085677,-2483.4763531733606,13997.426566162698,-13997.426566162698,2483.4763531733606,21712.785661660248,0.0
270012.02908761695,3912225.878295721,-22500.0,21648.66061754532,273.85860394392245,-267.4496113666379,8290.5650563864856,-94.858932816295777,2304.1536227966226,12770.682599117828,-2997.6216164460056,16123.062871148162,-16123.062871148162,2997.6216164460056,25239.292540275896,0.0
275012.02908761695,3912225.878295721,-22500.0,24994.287991784022,131.35270802673074,-330.29643602174605,10011.883897323965,-214.29139903811912,2884.4819265939923,14956.671726987794,-3638.4883903695954,18660.005723841266,-18660.005723841266,3638.4883903695954,29515.410057025569,0.0
280012.02908761695,3912225.878295721,-22500.0,29004.013808926386,-90.404674592255731,-385.61054494927896,12172.794612213478,-398.9463081739766,3631.7473400349427,17639.5597189906,-4440.9289798607933,21703.580960372547,-21703.580960372547,4440.9289798607933,34739.794535986854,0.0
285012.02908761695,3912225.878295721,-22500.0,33840.18819579541,-426.34889696508037,-415.06240662801929,14907.958829999259,-683.12366254087772,4598.0035941715896,20964.111919447125,-5449.2513203866038,25374.968576020441,-25374.968576020441,5449.2513203866038,41176.646242876326,0.0
290012.02908761695,3912225.878295721,-22500.0,39715.022569948131,-925.8075150074086,-383.44917567717232,18402.794848715945,-1119.9485356271018,5852.5270076536481,25129.921628113636,-6718.598105528401,29829.503550753056,-29829.503550753056,6718.598105528401,49183.782978373703,0.0
295012.02908761695,3912225.878295721,-22500.0,46910.845182708661,-1657.2837904497851,-224.4560276476401,22918.977704100947,-1792.1193344084045,7488.9390430703434,30419.004441928795,-8314.593577382313,35268.009590430214,-35268.009590430214,8314.593577382313,59256.842174646765,0.0
300012.02908761695,3912225.878295721,-22500.0,55810.639340036236,-2712.8746337526732,186.17468221182114,28837.842908816212,-2828.7364098679341,9638.3198460413259,37241.294803663608,-10307.7068587387,41951.790719112993,-41951.790719112993,10307.7068587387,72101.327784772497,0.0
305012.02908761695,3912225.878295721,-22500.0,66943.296915967672,-4208.3077759421158,1082.5694692764687,36737.702590095614,-4431.1963455288269,12497.416414965219,46211.542989276313,-12753.227773532133,50220.118664240414,-50220.118664240414,12753.227773532133,88753.346235672303,0.0
310012.02908761695,3912225.878295721,-22500.0,81045.694025533026,-6266.2472893082449,2913.1242011195104,47536.783113816775,-6911.5189674430303,16396.314653896374,58281.423037552071,-15632.859659054837,60501.517443449455,-60501.517443449455,15632.859659054837,110785.20058049135,0.0
315012.02908761695,3912225.878295721,-22500.0,99126.213537326388,-8946.0266846937575,6562.8076743752654,62763.570790036312,-10744.126990189898,21969.948386288932,74967.095697381796,-18691.421871093658,73281.722430861875,-73281.722430861875,18691.421871093658,140653.57123295203,0.0
320012.02908761695,3912225.878295721,-22500.0,122433.58061767713,-12008.843892724399,13870.053593455214,85070.489397700148,-16617.161678883793,30601.716843464677,98735.519986855143,-20971.035495998221,88885.223480350731,-88885.223480350731,20971.035495998221,182267.74607825335,0.0
325012.02908761695,3912225.878295721,-22500.0,151841.05433442048,-14199.083893233406,29002.719408302204,119180.44130533836,-25402.447358891899,45584.160136974424,133624.01276083343,-19412.795154031985,106480.55774673939,-106480.55774673939,19412.795154031985,241826.36715040857,0.0
330012.02908761695,3912225.878295721,-22500.0,183757.30522414719,-11545.98528659379,62854.138958218035,173208.26776513,-37798.714769073253,75287.248685329541,185890.98583273505,-4573.425287383463,119399.34295758608,-119399.34295758608,4573.425287383463,328570.27468710631,0.0
335012.02908761695,3912225.878295721,-22500.0,184245.23710216713,-1617.442596770878,147557.25043634849,253178.49844150583,-56688.079577190736,141333.05309155936,260367.31395484478,47121.912193979064,91816.083052217597,-91816.083052217597,-47121.912193979064,451175.82154495741,0.0
340012.02908761695,3912225.878295721,-22500.0,34814.788506071025,-65968.594849714413,297829.43625486799,289966.43049243354,-194584.4802828613,247027.71208501281,381208.05560046731,93684.119069166074,-58933.741908002521,58933.741908002521,-93684.119069166074,661273.34845678508,0.0
345012.02908761695,3912225.878295721,-22500.0,-949445.34896610247,434356.12337983475,969436.83949408052,260599.401211655,-811726.8834579658,459804.7098304503,1377560.3161891892,1015534.3417266762,-1090383.4334985083,1090383.4334985083,-1015534.3417266762,2389632.4432786913,0.0
350012.02908761695,3912225.878295721,-22500.0,-380466.05465272826,-11729.960316006218,-47704.128464826128,-96641.528805551774,619291.33195108455,-241661.42298380486,635255.16961420584,8492.8729155684414,-254440.08629540625,254440.08629540625,-8492.8729155684414,1123746.0217331084,0.0
355012.02908761695,3912225.878295721,-22500.0,-75515.829130866099,15310.331544996523,-100597.49024030783,-78559.354320475672,251478.74665838451,-72603.427253986592,264083.43481292756,-32325.508704720149,-22496.177975197705,22496.177975197705,32325.508704720149,457879.06149769627,0.0
360012.02908761695,3912225.878295721,-22500.0,-52193.798232115339,-22475.351115014091,-33511.664921419411,-14795.605122974666,119579.74377825361,-34752.24153448586,122167.92656209368,-31334.22238029855,-22255.769562916237,22255.769562916237,31334.22238029855,213066.8531236542,0.0
365012.02908761695,3912225.878295721,-22500.0,-50981.388676535695,-655.3177005374846,32014.802790090856,-12535.631517721422,34493.926959790653,-1360.0349922334476,54464.075749154814,23085.708220957862,-47725.598289833113,47725.598289833113,-23085.708220957862,96304.053165193007,0.0
370012.02908761695,3912225.878295721,-22500.0,-26238.606735637444,27151.894241826387,50304.268865837286,-25777.429147561401,-3429.7950732761474,12154.406569860997,53285.73300816612,53976.577888949229,-40847.504017732113,40847.504017732113,-53976.577888949229,92922.105876239759,0.0
375012.02908761695,3912225.878295721,-22500.0,326.89497106979525,39801.662151866534,44635.7397281218,-32444.010129204344,-15009.64494080622,14004.95411318231,57627.775758783333,58474.652274195476,-21775.966916839556,21775.966916839556,-58474.652274195476,100650.53730699586,0.0
380012.02908761695,3912225.878295721,-22500.0,17977.119503597663,40725.023582874899,33333.785221605678,-32310.172188663098,-16272.270696722655,12399.423595325239,53705.937396674628,50904.990140374372,-5236.8373999025825,5236.8373999025825,-50904.990140374372,96199.674552996366,0.0
385012.02908761695,3912225.878295721,-22500.0,26874.27517877414,36445.398831745733,23382.945103710565,-29090.055373172716,-14441.372033823434,10427.269000121145,46870.678842114263,40690.037278027521,5361.2298414571123,-5361.2298414571123,-40690.037278027521,85874.48050575376,0.0
390012.02908761695,3912225.878295721,-22500.0,30069.841348291968,30830.356659138532,16128.751635575665,-25103.818886618072,-12042.469651470476,8726.6604633685965,39875.138294991564,31511.113209712355,11116.439586016946,-11116.439586016946,-31511.113209712355,74360.871581620857,0.0
395012.02908761695,3912225.878295721,-22500.0,30133.435282741164,25491.273892294321,11169.056618165947,-21297.058175773662,-9818.2800721798922,7300.0742168567649,33661.54228005706,24211.456643121721,13763.288462599299,-13763.288462599299,-24211.456643121721,63618.351092826168,0.0
400012.02908761695,3912225.878295721,-22500.0,28649.962327098048,20918.305868811265,7839.1982255003022,-17951.482275356084,-7937.2035786014931,6083.4167075454679,28411.341905364927,18650.902608863125,14599.541861714712,-14599.541861714712,-18650.902608863125,54232.841867916548,0.0
405012.02908761695,3912225.878295721,-22500.0,26491.927382926522,17158.569771575767,5600.4335249456972,-15101.109011661971,-6399.3991755283441,5040.6638289019966,24048.691731526131,14467.254358143453,14435.794628435497,-14435.794628435497,-14467.254358143453,46246.072722828001,0.0
410012.02908761695,3912225.878295721,-22500.0,24117.204694254058,14115.970055814447,4080.1322473670143,-12703.161175526109,-5160.9499485862752,4153.9976558015178,20436.692340739821,11318.085953366248,13748.094246576195,-13748.094246576195,-11318.085953366248,39519.724674139798,0.0
415012.02908761695,3912225.878295721,-22500.0,21759.20370735594,11665.436660442198,3033.5074263715301,-10697.380027533336,-4170.802948259945,3409.5939078354622,17442.138980467658,8933.8306812132305,12810.444623819638,-12810.444623819638,-8933.8306812132305,33874.570233707018,0.0
420012.02908761695,3912225.878295721,-22500.0,19531.899902089168,9690.9921154677832,2301.948507156209,-9024.3952761246528,-3381.7314614317888,2792.2782545072691,14951.765932373617,7114.4756418588113,11779.170288721769,-11779.170288721769,-7114.4756418588113,29138.234821204493,0.0
425012.02908761695,3912225.878295721,-22500.0,17485.534820447781,8095.5452186446792,1782.4912726861864,-7630.8209718643639,-2753.3321639694414,2285.3525854290424,12873.118629653345,5714.3589881750704,10742.218412096387,-10742.218412096387,-5714.3589881750704,25159.219987134074,0.0
430012.02908761695,3912225.878295721,-22500.0,15636.198713246928,6800.9992288255853,1407.7181201552442,-6470.2842945882185,-2252.3291278581783,1871.9331108113522,11131.514367474532,4627.6535729679008,9747.4797616363721,-9747.4797616363721,-4627.6535729679008,21809.024488738665,0.0
435012.02908761695,3912225.878295721,-22500.0,13981.85435831989,5745.5707256004262,1132.984535037763,-5503.2281974826801,-1851.9203114594063,1536.1900717247506,9666.6537755932059,3777.1490980334993,8819.2085900541133,-8819.2085900541133,-3777.1490980334993,18980.3959963134,0.0
440012.02908761695,3912225.878295721,-22500.0,12511.250316783715,4880.6968916458472,928.36073611604013,-4696.3322058835693,-1530.8197785893335,1264.0787360081174,8429.7548633708866,3106.1284687590623,7967.7398656040123,-7967.7398656040123,-3106.1284687590623,16584.567998063176,0.0
445012.02908761695,3912225.878295721,-22500.0,11208.906146662963,4168.2523827368423,773.53063306466697,-4021.782039487096,-1272.2661548130918,1043.6034907860414,7381.2364442312319,2572.599191951922,7195.3005849268866,-7195.3005849268866,-2572.599191951922,14548.362429358751,0.0
450012.02908761695,3912225.878295721,-22500.0,10057.93695469784,3578.2749238336824,654.53360092046398,-3456.5244767660261,-1063.1276737450864,864.78312816707523,6488.9053047738898,2145.225184016721,6499.5452975979097,-6499.5452975979097,-2145.225184016721,12811.584539275575,0.0
250012.02908761695,3917225.878295721,-22500.0,12949.748357563203,-573.17947826774412,16.075387551649342,4204.127534929562,-236.18544708825127,1009.9339806471114,7319.2592150035653,-2300.8973027654947,9676.8510035275176,-9676.8510035275176,2300.8973027654947,14477.238314187343,0.0
255012.02908761695,3917225.878295721,-22500.0,14663.660826242542,-780.14960079027708,3.8420506079679804,4951.7428421129107,-326.24193380265763,1233.5987879642601,8371.0607943206978,-2728.0554649849573,10986.516872422733,-10986.516872422733,2728.0554649849573,16555.937013046558,0.0
260012.02908761695,3917225.878295721,-22500.0,16666.759404756238,-1052.7918238698478,-5.0375136744270996,5862.6542001364323,-449.22138459801727,1515.2482593751627,9622.3384307169163,-3251.1122922469085,12520.764860871484,-12520.764860871484,3251.1122922469085,19025.163334288711,0.0
265012.02908761695,3917225.878295721,-22500.0,19016.689125030516,-1413.3589553210022,-5.8491966036122136,6978.6163695548785,-618.12452742130563,1871.6227011190174,11120.116896834013,-3894.9218947233094,14324.561722441507,-14324.561722441507,3894.9218947233094,21975.209384822087,0.0
270012.02908761695,3917225.878295721,-22500.0,21783.979366379044,-1892.3575315604091,9.5952835915141623,8353.4946037360696,-851.60995750055872,2324.536077384837,12924.860315947766,-4691.4098608876247,16452.652781134042,-16452.652781134042,4691.4098608876247,25521.31910805939,0.0
275012.02908761695,3917225.878295721,-22500.0,25055.219143915765,-2531.8693773728933,55.306368428005271,10057.233068519728,-1176.7006847864236,2902.3485771748783,15115.188949964424,-5681.6163801931125,18971.678580333108,-18971.678580333108,5681.6163801931125,29811.981707932893,0.0
280012.02908761695,3917225.878295721,-22500.0,28937.180931831772,-3390.2941290205026,155.08249367152726,12181.389368202723,-1632.9020085849975,3641.7814412866546,17794.716782051477,-6918.2250190460318,21962.685403252992,-21962.685403252992,6918.2250190460318,35040.717434047816,0.0
285012.02908761695,3917225.878295721,-22500.0,33562.32959669397,-4549.1384018282779,349.2646853577512,14847.109209015474,-2278.5261256643912,4590.1283771045819,21102.262696121044,-8468.5513421158721,25524.066500152079,-25524.066500152079,8468.5513421158721,41463.351344154042,0.0
290012.02908761695,3917225.878295721,-22500.0,39096.467850437068,-6122.7225615080933,706.35077434744539,18217.136907555039,-3200.496007160355,5808.0294501952667,25227.617270012812,-10417.746885032877,29774.951127292468,-29774.951127292468,10417.746885032877,49424.276655041089,0.0
295012.02908761695,3917225.878295721,-22500.0,45749.804491976691,-8272.0462401508157,1343.2031967425262,22514.965975017356,-4529.7242619973104,7373.4364285354231,30436.799792887312,-12871.498653163504,34858.980239497876,-34858.980239497876,12871.498653163504,59398.100304787025,0.0
300012.02908761695,3917225.878295721,-22500.0,53793.661692991147,-11224.462824083068,2460.6389576819784,28057.392243932532,-6465.5872342386301,9388.9570031147105,37114.080354841994,-15956.406408076793,40948.195255815874,-40948.195255815874,15956.406408076793,72058.713816212025,0.0
305012.02908761695,3917225.878295721,-22500.0,63586.436124229767,-15301.299725491572,4407.1030342204704,35313.400085673318,-9315.7858794851873,11999.470431618951,45834.489570792553,-19813.797192586571,48246.02805541204,-48246.02805541204,19813.797192586571,88398.958505633476,0.0
310012.02908761695,3917225.878295721,-22500.0,75615.012635178631,-20955.84976758813,7794.8093600428238,45016.72864881024,-13563.856281597471,15440.195069004614,57493.751167484625,-24577.380584732506,56986.711432550968,-56986.711432550968,24577.380584732506,109947.32996699575,0.0
315012.02908761695,3917225.878295721,-22500.0,90564.111052357039,-28823.409438020284,13717.953469688511,58391.834597659137,-19991.685171437948,20171.434467889441,73552.334973671939,-30312.517801137761,67425.131288885052,-67425.131288885052,30312.517801137761,139180.61071998507,0.0
320012.02908761695,3917225.878295721,-22500.0,109453.56942230633,-39779.569268731684,24184.907608981532,77637.65100244309,-29928.914944670694,27254.043662872791,96534.40431946762,-36862.219881231198,79811.24902575172,-79811.24902575172,36862.219881231198,180376.66135550657,0.0
325012.02908761695,3917225.878295721,-22500.0,134011.89716858428,-54966.913004880269,43073.884373795605,107111.05694061097,-45853.927272868605,39414.719512562173,131233.78838968024,-43431.631731806898,94371.352483848052,-94371.352483848052,43431.631731806898,241673.40960729468,0.0
330012.02908761695,3917225.878295721,-22500.0,167919.46855299527,-75400.995306125769,78804.754208345577,157118.07589073639,-73168.964866776631,64532.081207047166,188526.36440864194,-47067.150620430708,111340.44066930798,-111340.44066930798,47067.150620430708,341456.20295740344,0.0
335012.02908761695,3917225.878295721,-22500.0,219614.18696672563,-96087.197645933469,155848.33195389603,261923.60354080953,-125893.8213933871,132816.46295354445,302281.56021470798,-32296.367498332402,128663.38275727915,-128663.38275727915,32296.367498332402,535838.71808536071,0.0
340012.02908761695,3917225.878295721,-22500.0,134420.18846290518,-26441.217009188822,445276.0111050866,586581.45560990402,-230182.27263146531,503384.88269928435,660671.28481592401,185377.79593267321,-33989.493143460335,33989.493143460335,-185377.79593267321,1145143.6270089275,0.0
345012.02908761695,3917225.878295721,-22500.0,-529845.85328984691,505660.02222347679,220296.7086097413,-331985.22684925317,647165.02007364389,-449187.81392232515,974309.11634446785,614569.72479603917,-538086.35510901047,538086.35510901047,-614569.72479603917,1692010.9309881222,0.0
350012.02908761695,3917225.878295721,-22500.0,-143662.49486636175,105144.42210703529,-169703.84759720514,-12643.128301567849,320747.45217428438,-210954.50566731981,338342.07908200927,13202.366046087023,-60494.439996603694,60494.439996603694,-13202.366046087023,587993.51237046346,0.0
355012.02908761695,3917225.878295721,-22500.0,-110601.2777990679,15277.315240612752,-112412.97608403466,29667.369269968938,186580.32725232269,-103579.12263371519,189516.11679111235,-35805.342990565077,-42453.584425687535,42453.584425687535,35805.342990565077,328393.99807875388,0.0
360012.02908761695,3917225.878295721,-22500.0,-85378.894460087395,-14855.280357839943,-50344.54706548297,34406.50995600786,106339.0444677038,-56229.686377501392,114050.69519870373,-30514.261637740219,-41074.024587592328,41074.024587592328,30514.261637740219,197972.97120431977,0.0
365012.02908761695,3917225.878295721,-22500.0,-73712.171904607487,-12338.788761312355,2736.0406804227787,26003.559877897969,47710.435274727453,-26095.931114668289,67551.28267011643,-567.21649220946347,-51661.442129851581,51661.442129851581,567.21649220946347,117412.13098131385,0.0
370012.02908761695,3917225.878295721,-22500.0,-55744.003590092863,5266.5550875373838,30174.300649949619,10847.175051037622,12372.394397785385,-8538.7978161462524,46360.938315224397,27476.259849222759,-51239.02547629847,51239.02547629847,-27476.259849222759,80311.375787507277,0.0
375012.02908761695,3917225.878295721,-22500.0,-33804.736870860732,19894.838718847197,36553.263111526685,-1585.1594663436626,-4402.6076772483602,-134.50361119153717,40673.127082673447,40907.194292187611,-40095.835204625917,40095.835204625917,-40907.194292187611,70484.490321053745,0.0
380012.02908761695,3917225.878295721,-22500.0,-14734.067078900296,26938.257101251049,32882.979125445301,-8818.3958778179294,-10618.10151779115,3378.817264101941,38140.977530397206,42656.459427911075,-26256.931863474176,26256.931863474176,-42656.459427911075,66944.090567087871,0.0
385012.02908761695,3917225.878295721,-22500.0,-1125.1824620588709,28272.740554657634,26378.115648597239,-12057.822347113281,-11902.939814985917,4647.4305387921031,34828.522690931452,38614.389904992706,-14425.947008556504,14425.947008556504,-38614.389904992706,62371.831101671793,0.0
390012.02908761695,3917225.878295721,-22500.0,7461.5116330007404,26572.842866646253,20150.414438267853,-12937.006816829828,-11183.280114830661,4903.408171658476,30994.927640428614,32729.092273702074,-5811.8968276178202,5811.8968276178202,-32729.092273702074,56530.127423083512,0.0
395012.02908761695,3917225.878295721,-22500.0,12359.838477511534,23648.886008487902,15108.425798484626,-12585.923517791933,-9788.5811116631194,4685.1224467982893,27167.569246293195,26888.091195873421,-66.074106027235757,66.074106027235757,-26888.091195873421,50279.473215622507,0.0
400012.02908761695,3917225.878295721,-22500.0,14809.892155837952,20462.35898975109,11288.467802050638,-11655.089568170022,-8282.2843493940345,4248.4356837461246,23627.707828014067,21784.679323090786,3535.6876960071895,-3535.6876960071895,-21784.679323090786,44228.83526834318,0.0
405012.02908761695,3917225.878295721,-22500.0,15720.36840352252,17451.546120620682,8471.6257950514319,-10496.272975598567,-6886.8630184034828,3729.9583654278754,20478.471315104161,17564.718780008894,5652.6132417335393,-5652.6132417335393,-17564.718780008894,38676.479648326102,0.0
410012.02908761695,3917225.878295721,-22500.0,15699.681478422788,14781.989074452022,6412.800310414249,-9294.9877833962873,-5676.1701782811106,3206.0312027285081,17733.154355906234,14162.740908454813,6780.8904862333011,-6780.8904862333011,-14162.740908454813,33729.49946153332,0.0
415012.02908761695,3917225.878295721,-22500.0,15139.791730707419,12489.69721256051,4907.5599145324504,-8145.936235220468,-4660.2446076155256,2717.3495940533135,15365.929546403242,11450.809684350214,7267.6933943032054,-7267.6933943032054,-11450.809684350214,29395.686914082951,0.0
420012.02908761695,3917225.878295721,-22500.0,14288.506852865554,10554.318249705431,3801.3920585716924,-7093.70102393667,-3823.2011741285528,2282.5480291803487,13336.544062061415,9297.3701087739228,7348.2585937562453,-7348.2585937562453,-9297.3701087739228,25636.069141698383,0.0
425012.02908761695,3917225.878295721,-22500.0,13300.328954663541,8934.4879708153658,2982.1527826178817,-6155.0125532658112,-3140.4232315423205,1907.058062872863,11601.665228077065,7587.2106617082945,7179.4121096394801,-7179.4121096394801,-7587.2106617082945,22392.591266039402,0.0
430012.02908761695,3917225.878295721,-22500.0,12269.970747368967,7584.1884869275673,2369.7848154485296,-5331.3595356794913,-2586.2786674637355,1589.0013572647526,10119.915529764225,6225.8134753680652,6864.6058535580114,-6864.6058535580114,-6225.8134753680652,19602.28676080587,0.0
435012.02908761695,3917225.878295721,-22500.0,11253.950699781626,6459.8358480106299,1907.4242947583809,-4616.2823781176912,-2137.3514478650418,1322.9340560527717,8853.9062718490568,5137.9800758782139,6471.3807618661167,-6471.3807618661167,-5137.9800758782139,17204.23140674529,0.0
440012.02908761695,3917225.878295721,-22500.0,10284.490665785732,5522.9577204641901,1554.6433250878306,-3999.6296407486584,-1773.5440687024623,1102.0848257430046,7770.8714671735224,4264.7763864093313,6043.2640300391804,-6043.2640300391804,-4264.7763864093313,15142.736999158877,0.0
445012.02908761695,3917225.878295721,-22500.0,9378.4573647317993,4740.8056110325115,1282.5783239479949,-3469.9952647978307,-1478.1870050170792,919.59081620351935,6842.6140396482924,3560.3316200625695,5607.7849384124793,-5607.7849384124793,-3560.3316200625695,13368.513220741876,0.0
450012.02908761695,3917225.878295721,-22500.0,8543.1417051766821,4086.0700529241326,1070.4973271177419,-3016.0675786883162,-1237.7299814717792,769.11436888531216,6045.1534119863536,2989.0306882393693,5181.866174270288,-5181.866174270288,-2989.0306882393693,11838.800455615605,0.0
250012.02908761695,3922225.878295721,-22500.0,12809.601370953575,-1555.3167276013123,225.07173637529232,4171.2075525611526,-539.56850338321681,1004.8288727904784,7326.1374464589308,-2996.6581057478265,9649.878237968127,-9649.878237968127,2996.6581057478265,14473.868893388766,0.0
255012.02908761695,3922225.878295721,-22500.0,14445.130087206589,-1945.4661430210149,273.8879727784302,4896.6616144370691,-697.97454123291482,1224.063603310587,8362.9514854614245,-3534.2991635912881,10908.296328823937,-10908.296328823937,3534.2991635912881,16523.004378851758,0.0
260012.02908761695,3922225.878295721,-22500.0,16337.883547819829,-2442.1736992114579,346.46588976352194,5774.7105524267999,-907.33954181274532,1498.7569623228526,9591.3196969129731,-4186.7752452390378,12366.810980706559,-12366.810980706559,4186.7752452390378,18948.106073749139,0.0
265012.02908761695,3922225.878295721,-22500.0,18532.176759047779,-3077.9518149041633,455.23754970428445,6841.9199372662142,-1185.9627577110991,1844.2510763862226,11054.564792974865,-4981.5274721273054,14059.41346683168,-14059.41346683168,4981.5274721273054,21832.830028865963,0.0
270012.02908761695,3922225.878295721,-22500.0,21079.176125747985,-3896.2416592531554,619.35905169313264,8144.2716320029067,-1559.4203303023746,2280.155131750666,12807.62057609751,-5952.7059494121113,16024.688030242343,-16024.688030242343,5952.7059494121113,25282.557783522581,0.0
275012.02908761695,3922225.878295721,-22500.0,24037.065302793373,-4955.3507407025472,868.55350509477717,9739.6069736433474,-2063.718491431805,2831.3246770445949,14920.738651769139,-7142.4921076528208,18305.274289459434,-18305.274289459434,7142.4921076528208,29430.954103952165,0.0
280012.02908761695,3922225.878295721,-22500.0,27470.479250445089,-6333.8402074875612,1249.3009787659805,11700.677775556247,-2749.9043546161656,3528.8576200357916,17484.672205425566,-8602.294056478022,20946.228583941833,-20946.228583941833,8602.294056478022,34448.947818294335,0.0
285012.02908761695,3922225.878295721,-22500.0,31448.589386837426,-8137.886776188755,1834.9208658124346,14119.008292039602,-3690.8470889002847,4410.9333858811096,20618.130086847403,-10393.348369125775,23991.392829349967,-23991.392829349967,10393.348369125775,40557.389814934591,0.0
290012.02908761695,3922225.878295721,-22500.0,36040.744599162914,-10511.258317361144,2742.1592617921378,17109.938968356139,-4991.2594715300347,5523.2414224192789,24478.827776557668,-12585.725175804433,27476.190404800403,-27476.190404800403,12585.725175804433,48045.518041544194,0.0
295012.02908761695,3922225.878295721,-22500.0,41307.599084282199,-13648.721131490265,4158.8376958872022,20819.632490625732,-6802.6352122135204,6918.8373799807459,29280.442962219091,-15253.721449691984,31413.937056206669,-31413.937056206669,15253.721449691984,57299.032238360975,0.0
300012.02908761695,3922225.878295721,-22500.0,47283.499342529452,-17813.817574612825,6390.5868804510046,25435.638779785553,-9345.8310951323638,8657.9954190361805,35319.525715204509,-18463.600591067643,35770.042726278363,-35770.042726278363,18463.600591067643,68844.721068184372,0.0
305012.02908761695,3922225.878295721,-22500.0,53940.40563178993,-23362.049432469292,9941.3900123075509,31203.876960366815,-12946.196768741191,10811.26150242161,43019.387039315836,-22245.417938554012,40412.236685700453,-40412.236685700453,22245.417938554012,83424.279847450438,0.0
310012.02908761695,3922225.878295721,-22500.0,61109.045219149266,-30770.40846506452,15656.506138538889,38455.540031611963,-18091.307616671798,13476.302801393444,53003.073873927649,-26531.218842440154,45009.582869181759,-45009.582869181759,26531.218842440154,102120.55814273446,0.0
315012.02908761695,3922225.878295721,-22500.0,68291.307058306571,-40672.439567578287,24989.136333399882,47640.644699349054,-25534.927667975324,16836.188808672785,66216.32264061668,-31017.025255232802,48810.944037368536,-48810.944037368536,31017.025255232802,126579.30938635611,0.0
320012.02908761695,3922225.878295721,-22500.0,74169.981356287622,-53883.881904605572,40544.01445059097,59321.155282486783,-36508.169738350778,21315.710675875838,84141.30816379319,-34826.471849672089,50105.415086435562,-50105.415086435562,34826.471849672089,159414.42712372306,0.0
325012.02908761695,3922225.878295721,-22500.0,75169.663418651937,-71293.3607691449,67356.791746736533,73869.794758053293,-53195.228115151411,27899.249041944691,109211.19963016103,-35530.698306898201,44710.365469637916,-44710.365469637916,35530.698306898201,205021.66188586527,0.0
330012.02908761695,3922225.878295721,-22500.0,60365.728375167004,-92553.612565594085,116514.83418873553,89591.798642558904,-79767.104956159033,38422.755432102065,145855.3197987962,-25371.89277457499,20771.272882360579,-20771.272882360579,25371.89277457499,271538.6755197153,0.0
335012.02908761695,3922225.878295721,-22500.0,-12805.730529356455,-101753.13438217984,215989.29448791259,90290.097405030261,-121965.3130931037,53306.405067253523,204708.6237137701,30172.110340808154,-65154.329192567078,65154.329192567078,-30172.110340808154,376479.04212551541,0.0
340012.02908761695,3922225.878295721,-22500.0,-269647.88028873911,126486.42687463331,301028.89030779299,-64291.85667283467,-73310.34497723011,12776.723806100059,326697.13148426794,305978.89011564408,-319929.47310144443,319929.47310144443,-305978.89011564408,566376.61462198838,0.0
345012.02908761695,3922225.878295721,-22500.0,-129161.03836842174,98809.477265525187,-366814.2572871435,-154.83852162464564,442682.42357874149,-239162.70200076414,459123.46233771212,-101237.03594341927,18834.775422222032,-18834.775422222032,101237.03594341927,812176.31322864827,0.0
350012.02908761695,3922225.878295721,-22500.0,-160050.31142891035,-20069.835811502548,-214467.84795614073,80244.352503607835,284757.37552692107,-158963.12389324105,297480.75858136971,-116278.4913206748,-36550.055257934728,36550.055257934728,116278.4913206748,516534.37865400192,0.0
355012.02908761695,3922225.878295721,-22500.0,-124373.42526549041,-35398.751068982885,-127857.46281437531,70927.060852635346,175460.92709281622,-94366.645319744071,192956.63843009344,-85981.267026825342,-38739.254845728588,38739.254845728588,85981.267026825342,335004.26793181326,0.0
360012.02908761695,3922225.878295721,-22500.0,-99030.665383630359,-39048.569888632454,-66752.407342780542,57543.929542283593,106618.33936647043,-57539.635148311201,128449.09276900526,-58513.724935938604,-41308.798566801968,41308.798566801968,58513.724935938604,223684.66226399873,0.0
365012.02908761695,3922225.878295721,-22500.0,-83330.551535357794,-31259.848272331947,-19891.588624567572,44075.592108279205,58241.599695766388,-33837.509082097757,85212.233472202657,-27977.037978843757,-47657.068845113681,47657.068845113681,27977.037978843757,149231.48323467746,0.0
370012.02908761695,3922225.878295721,-22500.0,-68174.115596795091,-15660.576731161493,9856.6165811030623,29561.702031693698,25915.56530062286,-18158.452480820921,56936.263494915314,-87.965960531455494,-49695.14591100601,49695.14591100601,87.965960531455494,100299.03366478253,0.0
375012.02908761695,3922225.878295721,-22500.0,-51028.166925861995,-289.93431349842865,23515.110445701306,16643.699120346908,6985.4940682332517,-8532.9642943166018,40982.832754599469,18530.91250717824,-44645.662958289882,44645.662958289882,-18530.91250717824,71920.04241059754,0.0
380012.02908761695,3922225.878295721,-22500.0,-34322.928368289009,10450.758919949003,26652.931364515978,7050.7782094428158,-2691.1577346349177,-3006.5139736135111,33056.505283093735,27462.34668394037,-35485.019261208407,35485.019261208407,-27462.34668394037,57338.90899879951,0.0
385012.02908761695,3922225.878295721,-22500.0,-20312.51476754414,16239.383544049684,24638.254467941759,766.87781900301684,-6905.3833645838422,15.294306342228879,28536.742198362732,29650.044152630209,-25658.927166811503,25658.927166811503,-29650.044152630209,49558.155923507737,0.0
390012.02908761695,3922225.878295721,-22500.0,-9718.6653381980395,18405.221375176345,20824.671948341333,-2973.7701837348336,-8218.5225676561204,1569.0762438565901,25180.114658480386,28159.18452359533,-17073.937918302596,17073.937918302596,-28159.18452359533,44282.751188115442,0.0
395012.02908761695,3922225.878295721,-22500.0,-2256.6518809300242,18379.783687447387,16849.883533892702,-4982.3444315968973,-8117.1556226354642,2271.8546117397527,22284.822401311016,25078.741704116452,-10328.868454382087,10328.868454382087,-25078.741704116452,39807.38947026158,0.0
400012.02908761695,3922225.878295721,-22500.0,2717.6274085542,17207.948843935708,13352.158145509071,-5886.2453631523167,-7398.7569129796066,2488.3784282138204,19677.48550143795,21575.340951359198,-5352.3162004277337,5352.3162004277337,-21575.340951359198,35666.408981875102,0.0
405012.02908761695,3922225.878295721,-22500.0,5858.8622319574988,15538.933921991673,10491.542778397659,-6117.7526699217342,-6470.5288493152575,2437.6989711570945,17326.647858309996,18213.795497826879,-1834.4803836347928,1834.4803836347928,-18213.795497826879,31800.543546352434,0.0
410012.02908761695,3922225.878295721,-22500.0,7707.8663753845585,13739.23131769159,8233.3104746602548,-5959.7396389104169,-5530.0831176364582,2251.8945347208082,15226.819312417632,15224.082998690687,566.11760114544541,-566.11760114544541,-15224.082998690687,28240.235615073852,0.0
415012.02908761695,3922225.878295721,-22500.0,8672.9467640606163,11999.216517010125,6480.6524715700689,-5591.9877866631241,-4665.4225892674822,2009.2183952442456,13369.650505209167,12667.402838394872,2145.7967777480007,-2145.7967777480007,-12667.402838394872,25013.109632006333,0.0
420012.02908761695,3922225.878295721,-22500.0,9048.500116250154,10407.128307169141,5129.9008590914236,-5125.9938844500875,-3908.580262424246,1754.2403771926222,11740.003475445001,10527.419869319539,3137.9303678109368,-3137.9303678109368,-10527.419869319539,22126.042624097674,0.0
425012.02908761695,3922225.878295721,-22500.0,9041.2501582331315,8994.8833577779424,4090.1857442269379,-4628.9412730370032,-3264.0970244995306,1510.7155920930572,10318.003001544654,8757.0586326187949,3717.5666046973329,-3717.5666046973329,-8757.0586326187949,19567.981191692154,0.0
430012.02908761695,3922225.878295721,-22500.0,8793.8377184055862,7764.8936170908637,3288.0700073853759,-4139.6876901233481,-2723.9896816258638,1289.8875032408416,9081.6783265552167,7301.1644778042846,4012.4282587836078,-4012.4282587836078,-7301.1644778042846,17316.462128446758,0.0
435012.02908761695,3922225.878295721,-22500.0,8403.3291062588723,6705.2453146387097,2666.4900613627215,-3679.2707385437502,-2275.4748002416363,1095.7697213920958,8008.9527788790729,6106.7093486726935,4114.1163522221414,-4114.1163522221414,-6106.7093486726935,15343.234821215776,0.0
440012.02908761695,3922225.878295721,-22500.0,7934.9032074847619,5798.0633814460034,2181.9856182098229,-3257.7454212905527,-1904.8178651173587,928.4251574048086,7078.898544924713,5126.8082629103892,4087.54693009007,-4087.54693009007,-5126.8082629103892,13618.202177802023,0.0
445012.02908761695,3922225.878295721,-22500.0,7431.6572340889288,5023.9439396975076,1801.7751641125026,-2878.5748253228694,-1599.1144744440778,785.93496270935918,6272.3908667692285,4321.7484834494817,3978.2913529999123,-3978.2913529999123,-4321.7484834494817,12111.840590191763,0.0
250012.02908761695,3927225.878295721,-22500.0,12360.031178671477,-2446.7266086151367,545.89701897629027,4050.477056557263,-818.70292180255421,981.18546455663136,7230.2820136490727,-3513.0681299876405,9343.1243216449366,-9343.1243216449366,3513.0681299876405,14276.204528914242,0.0
255012.02908761695,3927225.878295721,-22500.0,13847.490003975005,-2987.52585378596,680.516524129201,4730.0842737414159,-1035.6497832505061,1190.1811860538789,8227.654712694879,-4110.7580877429136,10485.536767880601,-10485.536767880601,4110.7580877429136,16249.090525664726,0.0
260012.02908761695,3927225.878295721,-22500.0,15542.068719880433,-3662.9558531569719,865.2141109230115,5544.2772248067295,-1317.2633199450922,1450.0862475629729,9401.6857308158087,-4825.6953330564083,11786.209129749388,-11786.209129749388,4825.6953330564083,18569.931821621696,0.0
265012.02908761695,3927225.878295721,-22500.0,17469.574074115961,-4510.1713461556401,1121.423375505819,6521.9495482698176,-1685.0365282303335,1774.0964247930231,10789.666199548023,-5681.7504555784108,13263.041206195987,-13263.041206195987,5681.7504555784108,21311.22884202261,0.0
270012.02908761695,3927225.878295721,-22500.0,19655.136075149298,-5577.191075901128,1480.6117868437632,7697.8342892508899,-2168.2320011130637,2178.5978193862566,12437.782635243477,-6706.5856525484214,14931.798332214546,-14931.798332214546,6706.5856525484214,24562.243029985628,0.0
275012.02908761695,3927225.878295721,-22500.0,22120.005340376745,-6925.9629855846424,1989.3535965950077,9113.1188250604901,-2806.8204268098252,2683.577059164194,14403.436134892556,-7931.0923575845281,16802.518368179946,-16802.518368179946,7931.0923575845281,28433.049991255146,0.0
280012.02908761695,3927225.878295721,-22500.0,24875.960014281274,-8636.0158084456234,2717.1429936709633,10815.637161659568,-3655.4993279097948,3312.7367232840475,16758.218629127237,-9387.5206431026163,18873.317988327221,-18873.317988327221,9387.5206431026163,33059.561490569627,0.0
285012.02908761695,3927225.878295721,-22500.0,27915.783129231699,-10808.489977460054,3768.5069450320966,12859.187231731727,-4789.1197970947378,4092.9591662132793,19591.770789710296,-11105.073365415361,21119.903114336856,-21119.903114336856,11105.073365415361,38609.779069815195,0.0
290012.02908761695,3927225.878295721,-22500.0,31197.212216625936,-13569.838977360641,5301.8840374332131,15301.195825420344,-6309.8402143996518,5052.5660489058455,23016.819318209433,-13100.681317007849,23477.925230743178,-23477.925230743178,13100.681317007849,45291.610408255801,0.0
295012.02908761695,3927225.878295721,-22500.0,34615.724832962311,-17073.425630540951,7559.1882642512719,18197.400259803278,-8356.2133913231064,6217.6551471283747,27175.782702811059,-15360.715830930294,25813.17212301966,-25813.17212301966,15360.715830930294,53362.662468201437,0.0
300012.02908761695,3927225.878295721,-22500.0,37957.397714958555,-21494.76246314124,10912.237406014627,21591.040144097806,-11113.982708493442,7605.9266227151302,32249.308718018448,-17805.524298802724,27870.40213586676,-27870.40213586676,17805.524298802724,63142.279106669579,0.0
305012.02908761695,3927225.878295721,-22500.0,40813.896655838093,-27010.213161164957,15935.718610329845,25490.946294648696,-14827.174087649055,9218.3829741897662,38466.480919243528,-20220.511703129621,29182.7688113371,-29182.7688113371,20220.511703129621,75024.772983068411,0.0
310012.02908761695,3927225.878295721,-22500.0,42420.422961423174,-33733.320057608871,23521.148295923715,29823.484653617528,-19804.604538158397,11031.708025085492,46113.912607783015,-22118.686659854586,28904.04039678886,-28904.04039678886,22118.686659854586,89487.476794114598,0.0
315012.02908761695,3927225.878295721,-22500.0,41327.865169986413,-41536.434891556433,35049.050734819968,34313.141853424218,-26404.569596129775,12996.06227711873,55533.650842281633,-22451.602241112691,25480.845251087536,-25480.845251087536,22451.602241112691,107069.27524563367,0.0
320012.02908761695,3927225.878295721,-22500.0,34713.943525825693,-49531.545457406719,52608.173773626499,38152.32866240546,-34928.058708724602,15027.367535674548,67086.952748011914,-18954.843934907894,15988.383481274239,-15988.383481274239,18954.843934907894,128245.3557159334,0.0
325012.02908761695,3927225.878295721,-22500.0,16997.744256353817,-54435.871600419479,78978.219694976331,39050.505035415168,-45103.053681481011,16870.536734348378,81077.838388454809,-6573.4259657099765,-5146.5616879713843,5146.5616879713843,6573.4259657099765,153025.99267929388,0.0
330012.02908761695,3927225.878295721,-22500.0,-21901.54045517393,-45171.39059952637,115053.22396875614,30676.593927961218,-53629.854277523729,17230.16489737876,97932.706269103015,25995.711047130026,-47421.647953250649,47421.647953250649,-25995.711047130026,180282.09011097293,0.0
335012.02908761695,3927225.878295721,-22500.0,-88274.649976143322,11101.126592460543,138872.37235538071,-1360.0574221646539,-42949.131908763709,10190.623588143997,120608.2726486271,95784.321937877045,-113283.5513407285,113283.5513407285,-95784.321937877045,211740.93665980248,0.0
340012.02908761695,3927225.878295721,-22500.0,-112534.73463902419,133496.37752258475,24937.286756811951,-56239.43641041407,44883.712040926934,-20906.549369802487,163358.21262798231,141976.15552230756,-112020.53555615446,112020.53555615446,-141976.15552230756,289299.29663681326,0.0
345012.02908761695,3927225.878295721,-22500.0,-38056.128532115545,99461.975628357977,-217110.00832782564,-34706.66273107945,183321.94365356644,-68147.511452232255,218155.54169323127,-28288.744380545417,30942.343679508289,-30942.343679508289,28288.744380545417,402107.34948756604,0.0
350012.02908761695,3927225.878295721,-22500.0,-51177.634953756242,-15918.052488000634,-225415.59179899085,28102.220254264754,196714.10107649854,-78314.295162140726,212267.59141219669,-130415.70116750964,43597.651568751477,-43597.651568751477,130415.70116750964,381556.93929510581,0.0
355012.02908761695,3927225.878295721,-22500.0,-72315.308220922394,-51713.386821759152,-151209.27435960583,50897.230220668367,148975.48943101961,-63803.343653152231,167771.37464012072,-118236.65028003365,8777.5251128590753,-8777.5251128590753,118236.65028003365,298904.25004347379,0.0
360012.02908761695,3927225.878295721,-22500.0,-76074.698139744301,-54413.595155241128,-88199.754383738618,51768.406765880602,100868.32838991187,-46675.594045850215,123859.01733923196,-85758.663941977225,-15224.95039116167,15224.95039116167,85758.663941977225,220937.70829810601,0.0
365012.02908761695,3927225.878295721,-22500.0,-72745.053445523459,-45427.969657143898,-41520.15023292102,44885.195223795956,62520.706805259273,-32048.801066331096,88658.258716862882,-52980.347723141036,-30444.13500310549,30444.13500310549,52980.347723141036,159129.20180571801,0.0
370012.02908761695,3927225.878295721,-22500.0,-65319.368518448537,-31142.604690345044,-9893.8629385710192,34946.691150614992,34551.048946618634,-20592.816135866186,62454.020399634755,-24357.616553465963,-38389.006586801537,38389.006586801537,24357.616553465963,112907.85391605427,0.0
375012.02908761695,3927225.878295721,-22500.0,-54606.577498688122,-16338.336448478913,8431.760865448392,24665.326761629822,15995.781896759723,-12309.14390381623,44523.142663392464,-2950.0219920811542,-39447.103870009989,39447.103870009989,2950.0219920811542,80561.150212040433,0.0
380012.02908761695,3927225.878295721,-22500.0,-42420.169492256275,-4241.9068854918914,16877.91359784305,15781.007278993173,4799.2897087539395,-6719.1109353985357,33363.903486408599,10561.558845963016,-35576.957120407424,35576.957120407424,-10561.558845963016,59531.717117445609,0.0
385012.02908761695,3927225.878295721,-22500.0,-30697.847354002726,4101.4304780973671,19220.029102449225,8950.9608080208764,-1349.3189884987507,-3143.3632224279836,26637.481150680764,17579.027482882226,-29312.175686083527,29312.175686083527,-17579.027482882226,46603.314584221756,0.0
390012.02908761695,3927225.878295721,-22500.0,-20629.554051109797,9066.992644831811,18387.985855124913,4105.4124819691533,-4351.8867647936577,-961.3614505946673,22322.050534821279,20169.109209837286,-22587.447696397347,22587.447696397347,-20169.109209837286,38675.739008813434,0.0
395012.02908761695,3927225.878295721,-22500.0,-12617.973167567394,11529.4425595841,16219.702987999553,873.58696256097141,-5529.0860102654651,299.68534809993139,19252.156452345367,20133.798317101009,-16472.809501582862,16472.809501582862,-20133.798317101009,33447.693353835188,0.0
400012.02908761695,3927225.878295721,-22500.0,-6575.7296815058526,12343.699485692747,13708.207766841033,-1160.702890588479,-5713.3501494044958,972.02655731723519,16850.135008369012,18737.04340520261,-11388.873795705231,11388.873795705231,-18737.04340520261,29569.884707156361,0.0
405012.02908761695,3927225.878295721,-22500.0,-2201.4243219272075,12167.301545856795,11321.24460035966,-2354.7694813936187,-5398.9499048577609,1279.9848758435573,14846.772649866012,16760.937808853439,-7387.7896945636894,7387.7896945636894,-16760.937808853439,26383.997416996441,0.0
410012.02908761695,3927225.878295721,-22500.0,854.41428901507732,11449.911459551904,9239.7700221057439,-2982.5684810643274,-4866.7095930469841,1371.0100718204508,13118.633883931925,14647.177087712549,-4353.8431538387304,4353.8431538387304,-14647.177087712549,23607.040705706149,0.0
415012.02908761695,3927225.878295721,-22500.0,2911.8465956926639,10477.480055243203,7503.2628126070867,-3241.8388232550351,-4269.3907453519168,1339.6394718298673,11606.249228986548,12623.594561520189,-2116.8229251948424,2116.8229251948424,-12623.594561520189,21126.192491870341,0.0
420012.02908761695,3927225.878295721,-22500.0,4235.020426608432,9421.8579791540342,6088.9420612032563,-3270.0058560238012,-3685.4001158393576,1244.8612078127092,10276.625617070067,10793.075741360393,-506.62038451746685,506.62038451746685,-10793.075741360393,18896.061989800895,0.0
425012.02908761695,3927225.878295721,-22500.0,5029.9860002168398,8380.5355565339287,4951.7398187792624,-3159.9789832680299,-3151.1775754239816,1122.3314330113467,9107.3319220488156,9189.6599561620824,624.88495914559189,-624.88495914559189,-9189.6599561620824,16894.271755121332,0.0
430012.02908761695,3927225.878295721,-22500.0,5452.0948719661128,7404.621607366661,4042.9762554720155,-2973.1067990576903,-2680.2222022497867,992.75301390340871,8080.2109247694398,7811.7981343561878,1398.1263738304428,-1398.1263738304428,-7811.7981343561878,15104.361362661561,0.0
435012.02908761695,3927225.878295721,-22500.0,5615.8876181255482,6517.3070940957923,3318.1709481013445,-2748.9530654677069,-2274.0468545295939,867.47706572708194,7179.1332854660359,6641.2386202666094,1907.2509464301897,-1907.2509464301897,-6641.2386202666094,13510.232197188414,0.0
440012.02908761695,3927225.878295721,-22500.0,5604.4991215347254,5725.5992836458554,2739.6137064938512,-2512.3503920616831,-1928.3633241213809,752.16358623279893,6389.3425263649879,5653.3498254570368,2224.0839339844088,-2224.0839339844088,-5653.3498254570368,12095.051614692731,0.0
445012.02908761695,3927225.878295721,-22500.0,5477.5422060141464,5027.5726601265442,2276.567981312573,-2278.3390429085571,-1636.4828598134902,649.11624885095944,5697.339724518607,4822.4943278816445,2402.5491064227158,-2402.5491064227158,-4822.4943278816445,10841.606964353665,0.0
250012.02908761695,3932225.878295721,-22500.0,11647.132253517513,-3202.9640274645194,949.36337544758089,3853.7366015699836,-1061.0622109984949,941.26657083221107,7040.4774182732217,-3834.6812914268689,8793.7547464732925,-8793.7547464732925,3834.6812914268689,13900.981777724754,0.0
255012.02908761695,3932225.878295721,-22500.0,12934.557064799052,-3850.9788862325308,1183.5200045939473,4468.8968922871754,-1323.1302843308308,1135.2946952328248,7977.5672585531775,-4441.1682278306907,9770.5700316970015,-9770.5700316970015,4441.1682278306907,15757.891666227668,0.0
260012.02908761695,3932225.878295721,-22500.0,14368.451265506477,-4646.1587617987225,1495.3243219190438,5195.7515769613992,-1658.1588366762937,1374.2214621456642,9071.1339847167255,-5152.0527855588243,10853.235195059831,-10853.235195059831,5152.0527855588243,17924.491204673195,0.0
265012.02908761695,3932225.878295721,-22500.0,15954.569087649883,-5624.166548004885,1914.3148875390521,6054.3197996236886,-2088.4406662277815,1668.6645651440431,10351.02245451248,-5982.7215603354398,12041.789105883678,-12041.789105883678,5982.7215603354398,20459.25074610228,0.0
270012.02908761695,3932225.878295721,-22500.0,17690.895739559513,-6828.8389920953641,2482.3170242518891,7066.7428934113759,-2643.3899648032802,2031.2743498964187,11852.934898611707,-6947.848151291766,13327.690563471193,-13327.690563471193,6947.848151291766,23431.65053668628,0.0
275012.02908761695,3932225.878295721,-22500.0,19561.863835952929,-8313.1931246362619,3258.8652989347311,8256.2438278825866,-3361.6940525425493,2476.6207838049568,13619.38100033356,-8058.5287799803164,14687.870995338097,-14687.870995338097,8058.5287799803164,26923.591623198528,0.0
280012.02908761695,3932225.878295721,-22500.0,21529.298855078581,-10139.610678976607,4329.0522667493487,9644.897381509094,-4293.8781163197227,3020.5612934442961,15700.595638761803,-9316.9584540951673,16075.419874509991,-16075.419874509991,9316.9584540951673,31030.411167475722,0.0
285012.02908761695,3932225.878295721,-22500.0,23518.355559114163,-12378.037122394235,5814.8142066561732,11249.383736108151,-5505.0862769272844,3678.655306465354,18155.232193042888,-10706.875520744799,17405.096019960321,-17405.096019960321,10706.875520744799,35860.944853363755,0.0
290012.02908761695,3932225.878295721,-22500.0,25395.800013002208,-15099.857723578152,7890.8793721756765,13073.404009830125,-7077.4593305859153,4462.9699095534997,21050.44496708806,-12176.767484461718,18530.935060978682,-18530.935060978682,12176.767484461718,41535.625332846932,0.0
295012.02908761695,3932225.878295721,-22500.0,26936.455537454884,-18362.844610822689,10806.59742441506,15094.592454744545,-9110.6164787644411,5376.4048996087122,24460.616464612485,-13610.702283933819,19211.743156314842,-19211.743156314842,13610.702283933819,48180.700463488814,0.0
300012.02908761695,3932225.878295721,-22500.0,27771.234698489665,-22177.964277390431,14913.817187884642,17242.245980622432,-11716.861043865887,6403.6093030527691,28463.434995084106,-14777.984047075126,19058.14392899071,-19058.14392899071,14777.984047075126,55914.953770549342,0.0
305012.02908761695,3932225.878295721,-22500.0,27306.364254715802,-26439.077749974818,20696.675290047086,19358.962753194166,-15003.602400352709,7497.8870951173913,33130.984233637886,-15246.340983583383,17451.964207134166,-17451.964207134166,15246.340983583383,64821.624101168753,0.0
310012.02908761695,3932225.878295721,-22500.0,24599.54941752223,-30775.085053430572,28784.447897722661,21131.928547805193,-19025.709880766924,8564.0405842694236,38511.909493002589,-14232.457780478158,13427.47264261789,-13427.47264261789,14232.457780478158,74891.144986333748,0.0
315012.02908761695,3932225.878295721,-22500.0,18186.470866791595,-34235.927948345081,39879.555119729339,21963.390718920757,-23664.955087128634,9435.1723316059288,44600.232759190927,-10350.051600195691,5518.4984838961082,-5518.4984838961082,10350.051600195691,85910.278592259172,0.0
320012.02908761695,3932225.878295721,-22500.0,5932.5088919191312,-34627.312499166022,54367.292209272957,20724.60602993632,-28322.358067329656,9825.7828023452785,51300.128598668525,-1233.4136139199991,-8324.1284403220816,8324.1284403220816,1233.4136139199991,97286.504901805572,0.0
325012.02908761695,3932225.878295721,-22500.0,-14595.185933997009,-27223.913083336061,70826.864125269567,15364.373203529909,-31119.555209906437,9186.9966379774487,58489.173107893745,16706.904627988923,-30159.923619804045,30159.923619804045,-16706.904627988923,108018.01898729287,0.0
330012.02908761695,3932225.878295721,-22500.0,-43183.167712940784,-3374.8340373689916,81201.617189648256,2826.3855045870014,-26981.032332489707,6296.0225230015139,66703.973808391223,46473.325781575171,-58481.05657934428,58481.05657934428,-46473.325781575171,118352.73019072048,0.0
335012.02908761695,3932225.878295721,-22500.0,-67063.911543188777,44192.504809292237,60263.574494828892,-17946.258418658341,-4889.811049850061,-1325.0945544329065,79665.089289920492,78945.835806979405,-76514.002376556353,76514.002376556353,-78945.835806979405,138059.37212484563,0.0
340012.02908761695,3932225.878295721,-22500.0,-56053.388776894419,89948.067687639807,-27196.106951897444,-34888.901929709675,45732.390903427629,-15946.660177502259,103927.37715519145,69285.478006317018,-46038.883351778444,46038.883351778444,-69285.478006317018,188366.52311925389,0.0
345012.02908761695,3932225.878295721,-22500.0,-19932.846212266501,70018.684993441522,-139014.3253854482,-24383.22151403514,103344.86633160169,-32887.128607154977,132370.86007732153,-13079.05491324461,21826.850063915539,-21826.850063915539,13079.05491324461,247664.19687827048,0.0
350012.02908761695,3932225.878295721,-22500.0,-14256.063348318028,6320.7767751528909,-174249.81918247193,5363.2396529584066,125310.05034693025,-41753.995947517462,142385.81690128782,-87597.084667476651,48572.645429137825,-48572.645429137825,87597.084667476651,263189.316877848,0.0
355012.02908761695,3932225.878295721,-22500.0,-31060.659204730418,-35987.058674689863,-143992.54330006868,27738.484881618602,112193.53502659586,-40720.286690054687,128896.67415301061,-105423.79330195345,33056.323503291307,-33056.323503291307,105423.79330195345,236033.22357020734,0.0
360012.02908761695,3932225.878295721,-22500.0,-45681.089115343224,-49982.845809220686,-97983.577723603681,36886.706058143543,86033.369209922661,-34512.485379452344,105516.58538506355,-90657.481039714767,9022.9806464074718,-9022.9806464074718,90657.481039714767,192941.43547602827,0.0
365012.02908761695,3932225.878295721,-22500.0,-52816.792207316787,-47890.048427331931,-57049.141942618371,37135.630878944467,59632.030212205405,-26769.082120269191,81706.74571537695,-65743.089690824345,-10536.012843318604,10536.012843318604,65743.089690824345,149973.70283849534,0.0
370012.02908761695,3932225.878295721,-22500.0,-53523.669350367491,-38206.306146203766,-26267.681313978224,32550.370765295847,37712.452619103315,-19340.724783983773,61274.925368882534,-40611.263017064732,-23226.580221853823,23226.580221853823,40611.263017064732,113155.22657592851,0.0
375012.02908761695,3932225.878295721,-22500.0,-49419.91035899354,-26124.011531871452,-5830.9077464177381,25934.954019714471,21464.901307853506,-13113.385917700072,45406.347537130081,-19632.596538438906,-29284.777334527418,29284.777334527418,19632.596538438906,84161.054514984149,0.0
380012.02908761695,3932225.878295721,-22500.0,-42341.836847299324,-14827.894129097465,6049.4244593558178,19139.712965001661,10437.402739367037,-8352.5825309883858,34071.717035030008,-4346.0582441225797,-30122.225372725472,30122.225372725472,4346.0582441225797,62750.330600557398,0.0
385012.02908761695,3932225.878295721,-22500.0,-34076.816204078459,-5832.5459913230388,11844.279822737146,13175.924985647869,3502.0631684837049,-4949.3369017777113,26417.808165041271,5511.4621862045296,-27629.602341885628,27629.602341885628,-5511.4621862045296,47741.548487277236,0.0
390012.02908761695,3932225.878295721,-22500.0,-25964.729436841964,551.71856752648682,13824.814282971331,8416.8476505087528,-543.74245700285496,-2639.8253460784003,21270.452390809143,11073.711415277387,-23505.344384614276,23505.344384614276,-11073.711415277387,37596.565933897306,0.0
395012.02908761695,3932225.878295721,-22500.0,-18774.573928086891,4651.2581697667829,13680.910149358882,4857.6897551382353,-2694.7234156748536,-1142.043693640486,17701.681878624659,13634.264438095883,-18940.340577413859,18940.340577413859,-13634.264438095883,30813.486085134813,0.0
400012.02908761695,3932225.878295721,-22500.0,-12812.051141216956,7004.1388986781067,12508.938362368943,2323.737953066634,-3672.8917568143006,-214.98622635373812,15107.48946990024,14288.389230101693,-14621.222468046057,14621.222468046057,-14288.389230101693,26167.00147812242,0.0
405012.02908761695,3932225.878295721,-22500.0,-8092.4242171311425,8133.1949238598318,10951.110308953506,594.96261311282478,-3962.7472093529937,326.63260531528243,13117.790050822092,13835.544594182433,-10865.934328275795,10865.934328275795,-13835.544594182433,22799.709266296391,0.0
410012.02908761695,3932225.878295721,-22500.0,-4484.6042969532291,8460.2893214243904,9350.2592536173834,-534.28217170627806,-3872.72461693696,616.74958998616034,11515.687059963977,12807.815539250201,-7767.0658861228621,7767.0658861228621,-12807.815539250201,20184.909521551985,0.0
415012.02908761695,3932225.878295721,-22500.0,-1804.1414798152698,8294.0361709759982,7869.796246233851,-1233.6217602085671,-3591.3529588192428,748.22124202780469,10177.559209578812,11536.067226869542,-5298.3160463341374,5298.3160463341374,-11536.067226869542,18028.872753129766,0.0
420012.02908761695,3932225.878295721,-22500.0,136.16025403992091,7846.6065226435567,6573.183935717213,-1633.7356732094565,-3229.5964516857703,783.38966814830337,9032.7740701810017,10213.786711064466,-3381.1653058090619,3381.1653058090619,-10213.786711064466,16176.952956673278,0.0
425012.02908761695,3932225.878295721,-22500.0,1503.1002739192438,7257.3123966219046,5472.0591326808653,-1831.0802669419647,-2849.9958963039157,762.97536746221567,8039.3594643858278,8946.3073127341468,-1922.0218029069815,1922.0218029069815,-8946.3073127341468,14548.872428097633,0.0
430012.02908761695,3932225.878295721,-22500.0,2435.39779483037,6613.9920130066548,4553.6237108815531,-1894.7741347149881,-2485.7182184698813,712.88943309091519,7170.483887060348,7784.9787297813891,-830.70722775393733,830.70722775393733,-7784.9787297813891,13101.303035734511,0.0
435012.02908761695,3932225.878295721,-22500.0,3043.7211573428044,5969.644709928335,3795.4221497540907,-1873.2441836557391,-2152.5925860338839,649.16453689119191,6407.3374052148283,6749.4622739128372,-28.253973264070282,28.253973264070282,-6749.4622739128372,11808.345189144387,0.0
440012.02908761695,3932225.878295721,-22500.0,3414.0126132262071,5354.4446961255371,3172.8810618810671,-1799.7901601337016,-1856.5425992420219,581.39327725834778,5735.5443213506715,5841.7254246962093,550.92645961858443,-550.92645961858443,-5841.7254246962093,10652.091906017569,0.0
445012.02908761695,3932225.878295721,-22500.0,3611.7911675038081,4784.0097664821869,2662.8354025391263,-1696.910104052582,-1598.0710918727259,515.05463199118253,5143.3762442699544,5054.5235813160098,959.57739147525103,-959.57739147525103,-5054.5235813160098,9618.3097221613134,0.0
250012.02908761695,3937225.878295721,-22500.0,10729.653444580785,-3794.5032011397416,1400.4918294888532,3596.262352937641,-1257.9162617694581,888.03777076665335,6769.4944037353152,-3963.4754621116381,8052.4569612151599,-8052.4569612151599,3963.4754621116381,13372.275971787887,0.0
255012.02908761695,3937225.878295721,-22500.0,11785.717605741136,-4501.5268010909485,1735.8781616966899,4134.4433423400887,-1549.7984819258768,1063.6798739721564,7630.2824835419406,-4532.8096064406527,8832.6665497756549,-8832.6665497756549,4532.8096064406527,15082.583669083519,0.0
260012.02908761695,3937225.878295721,-22500.0,12925.077802171951,-5352.7827234900797,2173.1901850800818,4759.1996334949054,-1917.2961038186559,1277.3748680810702,8624.1580209825988,-5182.0488505193107,9663.2169132537965,-9663.2169132537965,5182.0488505193107,17057.90559198277,0.0
265012.02908761695,3937225.878295721,-22500.0,14135.2897275502,-6377.1908484147343,2747.3543914893412,5481.7346445895773,-2381.2863140786867,1537.0479908088321,9773.1498949586858,-5915.3805979872577,10527.777889208197,-10527.777889208197,5915.3805979872577,19341.621205339852,0.0
270012.02908761695,3937225.878295721,-22500.0,15391.014931943251,-7607.403322146386,3506.0517538320651,6312.1562317956395,-2968.2354980045607,1851.5838578125545,11102.414831274653,-6731.530989845468,11396.786672727496,-11396.786672727496,6731.530989845468,21982.535670473095,0.0
275012.02908761695,3937225.878295721,-22500.0,16647.152076246341,-9078.2994375306425,4514.3639992472063,7257.2918251055389,-3711.2447429567164,2230.3174644633377,12640.282386613142,-7619.0317393649511,12220.565436111372,-12220.565436111372,7619.0317393649511,25034.070708176441,0.0
280012.02908761695,3937225.878295721,-22500.0,17828.890970275595,-10823.32555699437,5860.8325346812298,8316.9810011996306,-4650.7856842884657,2681.9030621034312,14417.974969172266,-8548.4675492587703,12919.348729731173,-12919.348729731173,8548.4675492587703,28552.140002185944,0.0
285012.02908761695,3937225.878295721,-22500.0,18817.561377159236,-12866.873933911034,7664.9645256182303,9478.0212878773618,-5834.4834755929469,3212.1510162939212,16468.52036345741,-9459.9959350260688,13369.093911198226,-13369.093911198226,9459.9959350260688,32590.796062403278,0.0
290012.02908761695,3937225.878295721,-22500.0,19430.970539056998,-15209.525041368699,10085.55409521507,10704.573894703564,-7314.636783074071,3820.2530713198416,18823.867517442872,-10243.604541715769,13381.829631936282,-13381.829631936282,10243.604541715769,37194.180313614343,0.0
295012.02908761695,3937225.878295721,-22500.0,19397.052131284541,-17800.65295032848,13327.489434592273,11923.37535847841,-9140.9398845963551,4492.6920297286988,21509.183177845607,-10708.531313333389,12679.606351874647,-12679.606351874647,10708.531313333389,42382.511905130064,0.0
300012.02908761695,3937225.878295721,-22500.0,18320.839727181894,-20488.954062550976,17640.487956369554,13001.519809997621,-11343.579324066111,5194.1735795032337,24533.990933264013,-10537.369820324966,10862.80747579478,-10862.80747579478,10537.369820324966,48128.807751819695,0.0
305012.02908761695,3937225.878295721,-22500.0,15649.126947085932,-22935.082598948091,23293.063460938811,13713.945385565532,-13897.571419313826,5855.287621824129,27880.005652578155,-9221.0130923428569,7379.210617915388,-7379.210617915388,9221.0130923428569,54322.287781603583,0.0
310012.02908761695,3937225.878295721,-22500.0,10651.279953295785,-24461.914087541692,30480.829324496048,13697.688361053721,-16650.958378435906,6357.2098182060154,31486.605602575644,-5978.1474713146463,1517.3700881884888,-1517.3700881884888,5978.1474713146463,60717.365793377139,0.0
315012.02908761695,3937225.878295721,-22500.0,2477.1966975600708,-23814.727968134808,39072.010739302859,12394.251991641255,-19183.985917016722,6513.3727512140986,35244.36318906668,303.7757852056784,-7502.3831425054705,7502.3831425054705,-303.7757852056784,66888.864683452441,0.0
320012.02908761695,3937225.878295721,-22500.0,-9530.3845681415332,-18850.600613498573,47974.843025531969,9007.4496451655232,-20542.443478511836,6043.4830105029605,39044.647407963334,10949.957145020715,-20133.298487106651,20133.298487106651,-10949.957145020715,72313.426017142134,0.0
325012.02908761695,3937225.878295721,-22500.0,-24848.898419677629,-6456.2022959870756,53752.127602989101,2611.048346146777,-18787.520300428274,4526.878144761261,43044.751349497499,26689.083354424954,-35320.98504587065,35320.98504587065,-26689.083354424954,77048.715006657643,0.0
330012.02908761695,3937225.878295721,-22500.0,-39592.816341867525,16019.479473237212,48414.132848903384,-7161.9685984307516,-10528.554346072297,1346.0185386920098,48438.159908770918,44950.38936921682,-47924.631661175168,47924.631661175168,-44950.38936921682,84110.720281255621,0.0
335012.02908761695,3937225.878295721,-22500.0,-44594.683621958386,45024.371647827131,19387.823276741896,-18165.922050434092,8337.4420281424536,-4188.6580105722351,58115.209131448573,54695.410100023815,-46380.855908690297,46380.855908690297,-54695.410100023815,102084.53555613048,0.0
340012.02908761695,3937225.878295721,-22500.0,-31864.804812207054,62897.432984838902,-38265.109360552953,-23755.522779009101,37887.689981425392,-12041.264093642973,73634.765957124109,37115.348466216092,-20310.633387491045,20310.633387491045,-37115.348466216092,135751.53897802517,0.0
345012.02908761695,3937225.878295721,-22500.0,-11430.123461563599,49481.625498450885,-100231.86538167534,-17185.070860769847,67752.98592251334,-20256.828136425502,90296.757356306203,-10579.766708964802,17957.195317456604,-17957.195317456604,10579.766708964802,170828.88632940859,0.0
350012.02908761695,3937225.878295721,-22500.0,-3907.042901277227,13114.13197317808,-129876.71578442575,-1312.9670173658835,83544.691897340555,-25777.496067873697,99402.682585904724,-58789.790113252995,39555.958365484606,-39555.958365484606,58789.790113252995,187221.58270044069,0.0
355012.02908761695,3937225.878295721,-22500.0,-11742.352138553577,-20078.656795525203,-121819.25127422181,14353.084115409249,81800.780325112399,-27186.144087431439,96474.261221796478,-81919.636085241917,36599.47306023023,-36599.47306023023,81919.636085241917,180435.64818753742,0.0
360012.02908761695,3937225.878295721,-22500.0,-24362.252493310309,-37963.920827618043,-94419.914274634211,24210.400540263563,69036.539179454368,-25215.536681791335,85120.099268923135,-80842.657287930211,21039.147045834412,-21039.147045834412,80842.657287930211,158837.54132917905,0.0
365012.02908761695,3937225.878295721,-22500.0,-34433.652262147014,-42261.142600380015,-63589.790164124854,27893.829305630366,52514.946824383907,-21307.32955248938,70493.009187945354,-66563.920088444487,3906.3922304225925,-3906.3922304225925,66563.920088444487,131798.18732392858,0.0
370012.02908761695,3937225.878295721,-22500.0,-39720.612677527926,-38108.811537238551,-36992.891317906826,27069.859338421113,36708.231092661532,-16727.750495292017,56028.645780306637,-47921.172808233416,-9712.3321812904069,9712.3321812904069,47921.172808233416,105219.07216782737,0.0
375012.02908761695,3937225.878295721,-22500.0,-40417.870626972152,-29952.362927333754,-17104.486717307835,23630.340843532158,23657.106136943763,-12347.394096621016,43481.871038662466,-30047.927488382691,-18375.297990015981,18375.297990015981,30047.927488382691,81991.675786884705,0.0
380012.02908761695,3937225.878295721,-22500.0,-37661.105670525198,-20874.030882202049,-3804.1391075329593,19113.922288403624,13877.433478835206,-8631.0028016680208,33533.980883458848,-15384.471543664022,-22434.972498851985,22434.972498851985,15384.471543664022,63143.652782414691,0.0
385012.02908761695,3937225.878295721,-22500.0,-32830.642340593964,-12659.012177924762,4159.646914142887,14551.435290028454,7073.6631430250272,-5724.9131482813018,26145.441372539364,-4613.3413418593464,-23023.535585987978,23023.535585987978,4613.3413418593464,48646.15089251208,0.0
390012.02908761695,3937225.878295721,-22500.0,-27141.676754015909,-6077.3780896172266,8307.4720232179261,10502.882747505671,2631.9478418592757,-3583.6997632193043,20810.591323462817,2580.1734994825692,-21414.216198457681,21414.216198457681,-2580.1734994825692,37934.507475052356,0.0
395012.02908761695,3937225.878295721,-22500.0,-21459.330425648452,-1249.0318444933184,9980.4654848362425,7185.9538490030054,-91.22656926683446,-2077.692458886741,16957.991907693704,6928.0527192578247,-18672.912523653191,18672.912523653191,-6928.0527192578247,30238.599864215928,0.0
400012.02908761695,3937225.878295721,-22500.0,-16290.847453348724,2035.9376243971249,10185.461001925498,4613.8054767345475,-1639.4521509586541,-1059.7937641802819,14140.353756367937,9219.4771516303008,-15546.354460655657,15546.354460655657,-9219.4771516303008,24780.596630357504,0.0
405012.02908761695,3937225.878295721,-22500.0,-11866.016244544475,4101.8893725713042,9603.3800720019317,2700.0619485300676,-2423.0977520226875,-397.78429147683187,12032.947718867863,10130.547358713489,-12487.608770911645,12487.608770911645,-10130.547358713489,20885.425695338847,0.0
410012.02908761695,3937225.878295721,-22500.0,-8234.4951599598371,5271.3943135760892,8659.986157219686,1324.1665760040328,-2731.1188296737973,14.635262868137815,10408.480654541709,10175.049512181813,-9731.6202655763846,9731.6202655763846,-10175.049512181813,18030.722322578516,0.0
415012.02908761695,3937225.878295721,-22500.0,-5345.8611696629705,5816.3940547222119,7603.6602749077083,365.99423577162952,-2757.3932397203553,257.45377850276458,9114.4268053338383,9714.7010728058212,-7371.7697117738808,7371.7697117738808,-9714.7010728058212,15850.231043944505,0.0
420012.02908761695,3937225.878295721,-22500.0,-3104.2147954143393,5946.5860946531502,6568.6789151557923,-279.01025186707426,-2627.2396608290801,388.25919092884845,8051.8803462591204,8990.2955250972318,-5419.1729203059276,5419.1729203059276,-8990.2955250972318,14106.958603329409,0.0
425012.02908761695,3937225.878295721,-22500.0,-1400.9229529735253,5814.7375455481051,5620.1039387358933,-695.42683361659169,-2419.0307308442689,447.19452264136669,7157.7435622981311,8154.6733750589701,-3842.6380144688314,3842.6380144688314,-8154.6733750589701,12655.993717062251,0.0
430012.02908761695,3937225.878295721,-22500.0,-132.01379997072507,5527.6825378745652,4783.175922665383,-948.63189885289114,-2180.1327405051065,461.53597033711708,6391.5551862206012,7300.2559700858837,-2593.1382640512261,2593.1382640512261,-7300.2559700858837,11411.329811387042,0.0
435012.02908761695,3937225.878295721,-22500.0,794.00998684106617,5157.6872851061653,4061.5280771576786,-1087.6292874807734,-1937.9965944803978,449.41254869065244,5726.6786170961386,6479.64213247931,-1617.5799540007829,1617.5799540007829,-6479.64213247931,10321.96296362312,0.0
440012.02908761695,3937225.878295721,-22500.0,1453.7823047408453,4752.1299539180081,3448.0028942336517,-1148.3416578418312,-1707.5919756198023,422.62237367167324,5144.8071467586842,5720.0745077980719,-865.83233636445357,865.83233636445357,-5720.0745077980719,9356.7334567347971,0.0
250012.02908761695,3942225.878295721,-22500.0,9671.9734474259003,-4207.8019746315922,1863.1846123286425,3295.0635675731933,-1404.6715091468291,824.84411807965182,6432.6594422254766,-3916.2807759691323,7176.8510435901671,-7176.8510435901671,3916.2807759691323,12718.960097966705,0.0
255012.02908761695,3942225.878295721,-22500.0,10485.839650135873,-4926.7736122416518,2290.4443870267705,3749.9442482019531,-1710.8861024677046,980.0532524005705,7206.5109304577572,-4412.2527923416965,7748.4765743116895,-7748.4765743116895,4412.2527923416965,14262.108391868142,0.0
260012.02908761695,3942225.878295721,-22500.0,11324.296577679508,-5773.9975845786721,2837.1179903813077,4266.4981752388321,-2090.2669269337644,1166.2323509188141,8089.0341589748095,-4956.889363555546,8318.5480365314088,-8318.5480365314088,4956.889363555546,16023.076354106741,0.0
265012.02908761695,3942225.878295721,-22500.0,12160.978158925518,-6768.2352021222114,3539.7917838927583,4848.1734498039241,-2560.5862086426246,1388.7656619224897,9095.1725271305986,-5542.8951983718662,8858.2695514449661,-8858.2695514449661,5542.8951983718662,18030.733507904788,0.0
270012.02908761695,3942225.878295721,-22500.0,12954.212449407754,-7927.0108012578803,4446.3613623202973,5495.0025546717607,-3143.196374216524,1653.1203033288284,10241.32404033973,-6153.7287645698034,9323.5343227081357,-9323.5343227081357,6153.7287645698034,20314.697019938962,0.0
275012.02908761695,3942225.878295721,-22500.0,13640.630794686882,-9262.9403097542145,5618.9776968833812,6200.9044392026162,-3862.9490539916351,1964.0995495891896,11545.329125191867,-6758.0088789106621,9648.6295975106186,-9648.6295975106186,6758.0088789106621,22903.060507827042,0.0
280012.02908761695,3942225.878295721,-22500.0,14126.756586063932,-10777.155110336113,7137.0349193256116,6949.5550267772524,-4747.2375942084655,2324.4864316446915,13025.407310357221,-7301.149063394324,9737.9779140367064,-9737.9779140367064,7301.149063394324,25818.484903577661,0.0
285012.02908761695,3942225.878295721,-22500.0,14278.436478647935,-12447.991683860169,9099.2475686897087,7708.2606591618196,-5823.2986346941998,2732.7508272945151,14696.275745645053,-7693.1589701041767,9455.8487515745983,-9455.8487515745983,7693.1589701041767,29071.830469737237,0.0
290012.02908761695,3942225.878295721,-22500.0,13908.645185338131,-14212.154604092955,11622.583837419736,8419.2055381842456,-7112.2464415588738,3179.4201886233332,16563.487438994704,-7791.517008293431,8614.7513432550695,-8614.7513432550695,7791.517008293431,32652.287951219681,0.0
295012.02908761695,3942225.878295721,-22500.0,12765.736251886301,-15934.319796581727,14833.248696833714,8987.5367995870802,-8617.2491730302318,3641.708451853146,18618.384736743981,-7378.5621146346421,6965.0330164411043,-6965.0330164411043,7378.5621146346421,36512.909734389548,0.0
300012.02908761695,3942225.878295721,-22500.0,10527.815374113532,-17359.996485034928,18839.799178159017,9266.3224099738218,-10301.608177584289,4076.2085211365493,20832.624140160406,-6135.1221569184436,4192.412844499313,-4192.412844499313,6135.1221569184436,40551.325224307344,0.0
305012.02908761695,3942225.878295721,-22500.0,6816.6030879679156,-18046.852200761394,23668.778565773053,9040.0115744669856,-12050.123026642003,4409.9970695327629,23152.752527666064,-3618.6866660197611,-60.821739406859479,60.821739406859479,3618.6866660197611,44589.152980638792,0.0
310012.02908761695,3942225.878295721,-22500.0,1260.2183799068541,-17276.697617569855,29126.165385444532,8012.2696117023452,-13604.367058655866,4531.4346909042542,25502.395576800474,728.26157959699503,-6116.5446988180383,6116.5446988180383,-728.26157959699503,48366.672019082005,0.0
315012.02908761695,3942225.878295721,-22500.0,-6336.0437974640063,-13978.79649742434,34523.8953362264,5814.7379770987118,-14461.804554148306,4282.9302225916981,27814.210936521231,7473.022487076425,-14054.664003191465,14054.664003191465,-7473.022487076425,51609.027929123877,0.0
320012.02908761695,3942225.878295721,-22500.0,-15614.211229593369,-6782.1249649047768,38202.711193288429,2078.7159019720248,-13740.671225263739,3458.5688710804698,30144.763881430164,16840.50321261313,-23267.281720709983,23267.281720709983,-16840.50321261313,54322.801165412595,0.0
325012.02908761695,3942225.878295721,-22500.0,-25015.559021237397,5484.0202356059135,36903.638762220129,-3340.4178124477012,-10071.975632797779,1812.2591243559953,32950.321474658973,27861.275583097758,-31690.442572274016,31690.442572274016,-27861.275583097758,57624.600558321465,0.0
330012.02908761695,3942225.878295721,-22500.0,-31170.156066019383,22285.601134751247,25609.485064053646,-9868.8478510349814,-1758.2305799068904,-901.39910719193995,37412.12010535103,36922.676171064901,-35062.955420824233,35062.955420824233,-36922.676171064901,64906.677537565469,0.0
335012.02908761695,3942225.878295721,-22500.0,-29736.195755622797,38886.717484959292,-285.85328585402863,-15563.618022697841,12286.81388824295,-4792.0513727463249,44959.454500594387,36920.328014417217,-27877.707955551043,27877.707955551043,-36920.328014417217,80442.6864953974,0.0
340012.02908761695,3942225.878295721,-22500.0,-19535.645608728315,45912.186394528951,-38861.505790454758,-17240.189891710928,30604.634219957006,-9559.177251714309,55349.073039804738,20727.919647528677,-8412.7123620979182,8412.7123620979182,-20727.919647528677,103398.31987761678,0.0
345012.02908761695,3942225.878295721,-22500.0,-6775.5519880470993,36176.482395481718,-77089.987379398372,-12648.573078701176,48095.598138776957,-14290.921850302826,65831.948564799386,-9951.2774556489112,15531.751006179113,-15531.751006179113,9951.2774556489112,125769.20982197106,0.0
350012.02908761695,3942225.878295721,-22500.0,-578.56407813373335,13599.840223324507,-98951.133461951948,-3088.2769050680881,58759.783079054148,-17787.264656203217,72589.537247283122,-41930.113897951203,31214.994455327291,-31214.994455327291,41930.113897951203,138643.61989885347,0.0
355012.02908761695,3942225.878295721,-22500.0,-3720.3974261239759,-10191.612655232851,-99257.83117378944,7462.174631978306,60172.045552148862,-19277.520395561554,72953.309372004893,-62100.10424531177,32955.343182909332,-32955.343182909332,62100.10424531177,138649.99809313312,0.0
360012.02908761695,3942225.878295721,-22500.0,-12255.195540976856,-26687.724963373043,-84287.937105019024,15620.853025222934,54168.582962291614,-18753.208362344569,67615.489071209551,-67069.51601404621,24369.013038461679,-24369.013038461679,67069.51601404621,128196.38695733245,0.0
365012.02908761695,3942225.878295721,-22500.0,-21253.153239159477,-33992.064185210082,-63081.861628330618,20115.104795280266,44239.396264094474,-16737.865776284398,58951.141439859006,-60724.38417727677,11805.727018944417,-11805.727018944417,60724.38417727677,111850.36191215903,0.0
370012.02908761695,3942225.878295721,-22500.0,-27820.820437649116,-34002.610098800535,-42098.075405419433,21242.969466752795,33392.168551445706,-13923.894829105651,49190.472995849195,-48548.523925430331,-121.28273067392365,121.28273067392365,48548.523925430331,93609.876607969287,0.0
375012.02908761695,3942225.878295721,-22500.0,-31047.888486056559,-29563.718513264146,-24584.458371904104,19966.084392124449,23498.157718701867,-10922.60374869732,39847.699196295602,-34852.676560100124,-9175.2932161699118,9175.2932161699118,34852.676560100124,76099.860883885951,0.0
380012.02908761695,3942225.878295721,-22500.0,-31211.680603325356,-23152.666178634787,-11531.988636415994,17324.358022338005,15411.242028182765,-8149.3126211388717,31766.422382661436,-22263.622741978455,-14810.421008130776,14810.421008130776,22263.622741978455,60715.401124354714,0.0
385012.02908761695,3942225.878295721,-22500.0,-29119.860783060125,-16486.257413353589,-2668.233653353901,14157.453263485662,9297.5905008041063,-5814.5312013314397,25267.164735583407,-12005.690359822031,-17421.887027319815,17421.887027319815,12005.690359822031,47983.217306414008,0.0
390012.02908761695,3942225.878295721,-22500.0,-25678.266360486734,-10536.874860989697,2823.0847771528483,11023.941408408524,4951.3193552288012,-3974.3081179169303,20255.507694280226,-4357.7414812407314,-17784.762424512497,17784.762424512497,4357.7414812407314,37894.622616237073,0.0
395012.02908761695,3942225.878295721,-22500.0,-21655.183279946443,-5712.7827244686187,5861.5092534832738,8229.8117856234167,2022.579552273434,-2593.7725387555756,16446.788106748059,924.0831612967504,-16702.823251120513,16702.823251120513,-924.0831612967504,30155.734419709825,0.0
400012.02908761695,3942225.878295721,-22500.0,-17596.818386358598,-2068.1726335424437,7251.4088752554726,5898.7394064398213,150.92147653255552,-1597.876285732661,13561.943944084991,4297.2290092624607,-14837.91029807413,14837.91029807413,-4297.2290092624607,24354.484656427034,0.0
405012.02908761695,3942225.878295721,-22500.0,-13835.124710245265,525.22074573227087,7609.47765295916,4042.7676753588248,-973.28403858283389,-903.0434860014899,11370.492815227131,6247.1921815791229,-12662.487870415434,12662.487870415434,-6247.1921815791229,20062.095680888451,0.0
410012.02908761695,3942225.878295721,-22500.0,-10535.466771127745,2264.1544029476154,7369.5303322786895,2616.2175974955421,-1591.0756303508517,-433.18287156206458,9688.7662200115337,7198.3221372478465,-10477.043948634324,10477.043948634324,-7198.3221372478465,16889.974284139404,0.0
415012.02908761695,3942225.878295721,-22500.0,-7750.7744726870451,3349.9699302100753,6817.6560513406976,1550.5981965831027,-1878.6944677281465,-125.73185580568361,8376.0022867827975,7484.8276520748122,-8450.8338762381627,8450.8338762381627,-7484.8276520748122,14517.712555591741,0.0
420012.02908761695,3942225.878295721,-22500.0,-5466.8401193900008,3959.0586296569172,6132.3402496800018,774.40281839113368,-1959.4397700891489,67.657102745775958,7328.8910391568097,7352.8464978439733,-6663.5662408580447,6663.5662408580447,-7352.8464978439733,12701.014160954926,0.0
425012.02908761695,3942225.878295721,-22500.0,-3634.7358028752014,4233.4318052931931,5418.8281238883492,222.78367041391408,-1916.6876329936167,182.82154839489863,6474.3305374485817,6975.026085483014,-5139.0943515721174,5139.0943515721174,-6975.026085483014,11265.614544775006,0.0
430012.02908761695,3942225.878295721,-22500.0,-2191.6676510052434,4281.428543014521,4734.9704555421449,-158.78358565365915,-1805.202377075537,245.53800266114732,5761.8340793354473,6467.7371055662761,-3869.4828988702893,3869.4828988702893,-6467.7371055662761,10093.584098713123,0.0
435012.02908761695,3942225.878295721,-22500.0,-1073.1595875199537,4182.6119361053561,4109.2307770107673,-414.05066289549939,-1659.9587964748901,273.92292605726334,5156.8688458500274,5906.5487942844011,-2830.7998387228108,2830.7998387228108,-5906.5487942844011,9107.9155160028076,0.0
255012.02908761695,3947225.878295721,-22500.0,9116.2033545531613,-5133.9457112311984,2805.6076227753401,3338.1218626645596,-1807.007678611285,889.11263295809351,6728.1755057002929,-4119.1540320455242,6593.0956432713738,-6593.0956432713738,4119.1540320455242,13337.465849925422,0.0
260012.02908761695,3947225.878295721,-22500.0,9670.2326160785833,-5926.8163776492838,3435.0294369805933,3747.9374364806436,-2180.0199326517927,1047.2774993313528,7495.298372474017,-4533.283113854246,6916.2097336095503,-6916.2097336095503,4533.283113854246,14874.382656084299,0.0
265012.02908761695,3947225.878295721,-22500.0,10164.730614827169,-6830.1508851095177,4227.0851315259915,4194.0312123051808,-2633.3816311305832,1232.7720680014274,8357.8109031873519,-4946.0639968213409,7158.2520494743449,-7158.2520494743449,4946.0639968213409,16599.017659487316,0.0
270012.02908761695,3947225.878295721,-22500.0,10549.726962019467,-7845.6918636281207,5224.5848941391314,4669.0518791380055,-3182.2775875839307,1448.2285919841313,9327.2638160030765,-5329.1100780109728,7268.2084627170088,-7268.2084627170088,5329.1100780109728,18524.931565660663,0.0
275012.02908761695,3947225.878295721,-22500.0,10755.387777677823,-8964.6169894596878,6479.5253523153251,5158.2830747485632,-3842.4142598324415,1694.8993852936721,10415.095353031746,-5637.364928231711,7175.6338268457293,-7175.6338268457293,5637.364928231711,20660.184309198648,0.0
280012.02908761695,3947225.878295721,-22500.0,10686.603843283559,-10159.681548925513,8052.6779198121894,5635.9262163753147,-4627.8526421946135,1971.3006544318227,11627.184875515677,-5801.8906219638266,6785.5546593127692,-6785.5546593127692,5801.8906219638266,23003.000959734145,0.0
285012.02908761695,3947225.878295721,-22500.0,10217.706952637524,-11373.155687685112,10010.375734199624,6060.1044147932162,-5546.8221516648746,2271.1188081472183,12960.861702932927,-5720.6043442551909,5973.7502652929943,-5973.7502652929943,5720.6043442551909,25535.582800477303,0.0
290012.02908761695,3947225.878295721,-22500.0,9189.1730125342237,-12498.993222488729,12415.549465254035,6366.5677482150959,-6594.1993173697501,2580.164436929208,14404.192766764558,-5247.4781109660471,4584.5352896135719,-4584.5352896135719,5247.4781109660471,28215.883688591697,0.0
295012.02908761695,3947225.878295721,-22500.0,7410.172405376904,-13357.839763633439,15307.746737688791,6461.5836962260619,-7738.7270407023707,2872.2563254375555,15933.558881909696,-4182.3826416811107,2435.4525724542236,-2435.4525724542236,4182.3826416811107,30968.022570262616,0.0
300012.02908761695,3947225.878295721,-22500.0,4674.3892436598526,-13665.008425452717,18663.182740683729,6215.6166161123083,-8902.4184581024037,3104.2096035067289,17511.535920260805,-2267.518803258683,-662.60665390501822,662.60665390501822,2267.518803258683,33674.544170814064,0.0
305012.02908761695,3947225.878295721,-22500.0,802.26505498562153,-12996.52513845145,22320.866401913459,5461.6520762268647,-9929.3754632421951,3210.6941419461959,19090.15529712502,795.92284147786631,-4854.6472727614173,4854.6472727614173,-795.92284147786631,36180.383188944295,0.0
310012.02908761695,3947225.878295721,-22500.0,-4269.6260868171466,-10771.278012476812,25856.685861658028,4006.2055208103275,-10542.735284834891,3100.6457948672569,20629.592738600692,5282.9852366805844,-10135.984028462999,10135.984028462999,-5282.9852366805844,38334.509378933042,0.0
315012.02908761695,3947225.878295721,-22500.0,-10327.100419673379,-6295.9236554146119,28393.381389894606,1668.1003570774412,-10294.898014314413,2658.0086470858682,22151.893539730023,11282.513852874299,-16162.041687400537,16162.041687400537,-11282.513852874299,40128.761573585682,0.0
320012.02908761695,3947225.878295721,-22500.0,-16639.623581973116,1030.4870065284013,28378.673815380142,-1630.8655980352498,-8534.676872695396,1750.6588451750465,23854.218432029331,18371.261530313102,-21965.358575682214,21965.358575682214,-18371.261530313102,42031.385784346283,0.0
325012.02908761695,3947225.878295721,-22500.0,-21736.257678351398,11209.467107979533,23504.256409039412,-5698.6088877589209,-4455.8524645277985,252.81806157403139,26255.049889644273,25108.336992779521,-25683.093695265357,25683.093695265357,-25108.336992779521,45490.320155668946,0.0
330012.02908761695,3947225.878295721,-22500.0,-23524.22191294553,22793.676831776469,11210.310469589063,-9848.9028071260327,2650.7931544736507,-1910.8131754869496,30146.732632729178,28598.989744292707,-24679.538252565198,24679.538252565198,-28598.989744292707,52854.833407059639,0.0
335012.02908761695,3947225.878295721,-22500.0,-20295.498838383184,32207.620778393488,-9647.3114568780729,-12790.302648421419,12834.084722907115,-4691.2287515179696,36004.40436323949,24947.302022715328,-16739.969385485387,16739.969385485387,-24947.302022715328,65479.990636623144,0.0
340012.02908761695,3947225.878295721,-22500.0,-12597.315370907978,34634.848816026963,-36332.113677114459,-12982.429609206722,24800.573923591997,-7829.0139590014824,43206.908443097993,11588.016748878275,-2417.1015621157558,2417.1015621157558,-11588.016748878275,81540.211646068841,0.0
345012.02908761695,3947225.878295721,-22500.0,-4116.364385640657,27269.543829283084,-61609.728924033887,-9594.724408557222,35864.052997082414,-10835.644602569933,50157.516255044749,-9490.3212328071968,13591.450981233877,-13591.450981233877,9490.3212328071968,96592.302121666697,0.0
350012.02908761695,3947225.878295721,-22500.0,570.93046019399264,12241.470468836958,-77508.68857402874,-3330.5649145895927,43140.542731439098,-13133.624853396681,55017.385388395458,-31569.494489343637,24891.454575206091,-24891.454575206091,31569.494489343637,106209.00787650977,0.0
355012.02908761695,3947225.878295721,-22500.0,-487.80285433477275,-4690.2734711569856,-80511.86734191612,3896.9669901257244,45166.058702842682,-14302.266700414246,56272.696415352482,-47572.076776174436,27927.504813815758,-27927.504813815758,47572.076776174436,108262.06348440885,0.0
360012.02908761695,3947225.878295721,-22500.0,-5880.3337423031089,-18267.178548778211,-72662.293337585812,10149.187356907178,42402.431503813277,-14239.790602291196,53831.300216261661,-54281.59033358821,23565.058877722659,-23565.058877722659,54281.59033358821,103322.00044927567,0.0
365012.02908761695,3947225.878295721,-22500.0,-12797.597844258558,-26137.235966808206,-58684.114804464465,14315.566958268608,36481.100048546694,-13144.584186004784,48729.53787559073,-52593.697865719252,15069.907932699793,-15069.907932699793,52593.697865719252,93523.550562546545,0.0
370012.02908761695,3947225.878295721,-22500.0,-18906.448966976546,-28512.487665513465,-43021.320441147276,16195.615977789383,29202.579651152439,-11381.278297488772,42262.60658573464,-45387.11772499817,5684.9533418426508,-5684.9533418426508,45387.11772499817,81263.617366633043,0.0
375012.02908761695,3947225.878295721,-22500.0,-22979.749848215637,-26857.431474403187,-28601.204897848551,16171.744218692516,21955.159236904681,-9334.3803691929115,35513.605050797822,-35654.207317983026,-2461.2579203024216,2461.2579203024216,35654.207317983026,68477.233859442713,0.0
380012.02908761695,3947225.878295721,-22500.0,-24744.554633385982,-22865.524844622782,-16833.859881613185,14852.765593323127,15565.043985617202,-7309.9438806754933,29224.846340798245,-25643.410968015996,-8411.7940973842906,8411.7940973842906,25643.410968015996,56442.42428499127,0.0
385012.02908761695,3947225.878295721,-22500.0,-24511.029223429436,-17941.102212324655,-8053.1625160096864,12832.568593725988,10379.957902964692,-5499.5668549631,23812.391484330514,-16700.163283876449,-12047.046983596239,12047.046983596239,16700.163283876449,45850.991684942979,0.0
390012.02908761695,3947225.878295721,-22500.0,-22836.706013157211,-13038.199475305046,-1985.0253116902163,10573.655752183473,6427.6887768825936,-3990.488328044391,19389.665090272865,-9423.9526893172442,-13708.205553093616,13708.205553093616,9423.9526893172442,36963.945529640761,0.0
395012.02908761695,3947225.878295721,-22500.0,-20299.633271615017,-8691.5449638288828,1899.1283782010723,8380.4115331432677,3564.6197563435467,-2796.1779529325731,15863.215743010889,-3914.5313937887995,-13907.101882988405,13907.101882988405,3914.5313937887995,29766.478296937727,0.0
400012.02908761695,3947225.878295721,-22500.0,-17380.296744479539,-5123.7610477506769,4164.9718090397582,6420.6465170412912,1582.2172706681961,-1888.0438046783834,13083.706709833106,3.7251527462649392,-13148.754621844637,13148.754621844637,-3.7251527462649392,24090.804666833072,0.0
405012.02908761695,3947225.878295721,-22500.0,-14423.45654025608,-2360.56296437021,5307.4964627683257,4763.7446014967027,269.81324667056151,-1219.4405224830243,10907.825240210237,2619.9326187436418,-11847.953245845458,11847.953245845458,-2619.9326187436418,19701.362487977247,0.0
410012.02908761695,3947225.878295721,-22500.0,-11645.939512447037,-322.98371055400952,5714.5187538313148,3417.4084727547397,-555.56889788691319,-740.57180970915692,9207.7994475493833,4238.8631362421893,-10307.292771622806,10307.292771622806,-4238.8631362421893,16348.25198322514,0.0
415012.02908761695,3947225.878295721,-22500.0,-9163.74664021848,1110.4702817818791,5668.3804437234121,2355.9214561541116,-1039.775868840072,-406.19061345567934,7874.3959651608529,5131.9908251113156,-8727.2063411610943,8727.2063411610943,-5131.9908251113156,13798.098763870894,0.0
420012.02908761695,3947225.878295721,-22500.0,-7022.3722389551795,2067.4328834966136,5363.6277355623461,1539.0576406046625,-1292.715165772235,-178.62297918124631,6818.4885247097191,5519.6811654497469,-7228.019443528472,7228.019443528472,-5519.6811654497469,11850.126163391375,0.0
425012.02908761695,3947225.878295721,-22500.0,-5222.7630263907286,2663.4542059441801,4928.2448717347552,923.37280644704265,-1393.9586782820052,-28.176763266357678,5970.4760804571142,5570.3248488999325,-5873.0384870560756,5873.0384870560756,-5570.3248488999325,10342.416590874338,0.0
430012.02908761695,3947225.878295721,-22500.0,-3740.7056990222773,2994.9695495749138,4442.7622670134469,468.17961490413927,-1399.3646327738218,67.685394870278458,5277.954161004709,5407.0892705684992,-4687.9844657849981,4687.9844657849981,-5407.0892705684992,9151.4431947436733,0.0
435012.02908761695,3947225.878295721,-22500.0,-2539.9853414699173,3138.3997547815193,3955.37112710152,138.1682068132321,-1347.1460143488007,125.61103377430825,4702.511939226556,5116.981062032628,-3675.5509095969496,3675.5509095969496,-5116.981062032628,8187.2705223091598,0.0
255012.02908761695,3952225.878295721,-22500.0,7747.6726277000616,-5145.4733383810117,3249.12293869318,2919.340735781574,-1843.1248314045599,795.16588679436779,6217.0258610466753,-3699.5359722846183,5433.0756362165021,-5433.0756362165021,3699.5359722846183,12348.472306518493,0.0
260012.02908761695,3952225.878295721,-22500.0,8050.0462817298148,-5846.9847976012534,3929.1494646446567,3229.7279825087317,-2195.1204447636528,926.27717997737307,6872.6185170841518,-3973.7279351385127,5538.6757008940458,-5538.6757008940458,3973.7279351385127,13663.24788874454,0.0
265012.02908761695,3952225.878295721,-22500.0,8252.587004676685,-6618.2912447659746,4766.3416157400461,3552.8354233289015,-2613.8466474140287,1076.7539103439044,7602.9544756094974,-4209.315826065701,5528.8496739305401,-5528.8496739305401,4209.315826065701,15112.895520009386,0.0
270012.02908761695,3952225.878295721,-22500.0,8304.3223756257958,-7447.3527170512989,5794.5406903580551,3876.7328330974046,-3108.2787260582209,1247.0722216342824,8415.5712640959027,-4370.8705631450803,5352.694811464572,-5352.694811464572,4370.8705631450803,16698.867519374962,0.0
275012.02908761695,3952225.878295721,-22500.0,8138.7084773609076,-8308.2598999211186,7051.0451917858072,4182.1690931286312,-3685.5394947336708,1435.9729504954955,9310.9030161281844,-4407.1561479683078,4944.4589650818107,-4944.4589650818107,4407.1561479683078,18415.268729687286,0.0
280012.02908761695,3952225.878295721,-22500.0,7671.5390841637409,-9153.720157722144,8573.3513401385899,4439.7424105606715,-4348.1251484714558,1639.2571817666624,10283.590916745716,-4246.1989099891616,4221.909271938257,-4221.909271938257,4246.1989099891616,20245.1468051101,0.0
285012.02908761695,3952225.878295721,-22500.0,6800.6941964473735,-9904.7068522893169,10392.139992172793,4606.547969670255,-5089.265478278111,1848.0696046402354,11323.273237555682,-3790.2148933272224,3086.8772087339189,-3086.8772087339189,3790.2148933272224,22155.957018919733,0.0
290012.02908761695,3952225.878295721,-22500.0,5410.021346088648,-10437.089372965667,12517.786950473026,4622.7128842385537,-5885.5368732293227,2046.6023203957222,12412.911269188369,-2912.0199832668986,1430.5625501691957,-1430.5625501691957,2912.0199832668986,24094.913847527558,0.0
295012.02908761695,3952225.878295721,-22500.0,3381.198924245004,-10566.19196406821,14916.30839156633,4408.8376171818409,-6685.699378745896,2209.29295522039,13527.951772867644,-1456.4560340802582,-852.03546277632393,852.03546277632393,1456.4560340802582,25986.39435317969,0.0
300012.02908761695,3952225.878295721,-22500.0,619.50112280129292,-10032.963600517069,17469.246033434327,3866.446599504653,-7394.9087585357438,2297.8811871788434,14639.002041132047,746.27023552647415,-3831.7614377927262,3831.7614377927262,-746.27023552647415,27736.869283241409,0.0
305012.02908761695,3952225.878295721,-22500.0,-2898.7072766296933,-8501.1116447892091,19911.78884470119,2885.2551432477512,-7854.4859813382536,2259.1751108660283,15722.559001336182,3843.2477983861836,-7489.8573112598888,7489.8573112598888,-3843.2477983861836,29259.669636545437,0.0
310012.02908761695,3952225.878295721,-22500.0,-7049.573102172686,-5584.8256884385,21747.950812295905,1363.3442500204023,-7820.3839818053675,2025.0421652501411,16787.720842888575,7879.222062079386,-11628.65649844033,11628.65649844033,-7879.222062079386,30544.095159121578,0.0
315012.02908761695,3952225.878295721,-22500.0,-11458.804665464189,-941.4969756075883,22158.666315595405,-751.64453624300882,-6950.0686964669121,1516.7949999578634,17927.737929214854,12654.241661519784,-15750.079436449108,15750.079436449108,-12654.241661519784,31805.00305728905,0.0
320012.02908761695,3952225.878295721,-22500.0,-15405.236283792117,5525.6588787089286,19961.07277379173,-3393.5834937374375,-4819.4309396156741,656.47630533856943,19388.844811085695,17516.178359324611,-18938.816805554339,18938.816805554339,-17516.178359324611,33712.603353860613,0.0
325012.02908761695,3952225.878295721,-22500.0,-17827.632051199605,13336.238927121753,13751.096876830601,-6287.0798411131555,-1006.4452698436193,-612.8042412265537,21587.352919753117,21156.117213660073,-19862.859707552598,19862.859707552598,-21156.117213660073,37485.073795794728,0.0
330012.02908761695,3952225.878295721,-22500.0,-17602.234849590652,21080.054026475882,2419.1174959449722,-8876.0171009194091,4719.8787418869315,-2296.9692960010416,24935.105476511282,21622.578369626885,-17095.405940131008,17095.405940131008,-21622.578369626885,44327.896713455644,0.0
335012.02908761695,3952225.878295721,-22500.0,-14199.879485537755,26398.785488278125,-13904.80582622058,-10366.512155442588,12119.152241665555,-4315.8591379543741,29468.176111914214,16902.171306730201,-9913.4450737730767,9913.4450737730767,-16902.171306730201,54300.711914194333,0.0
340012.02908761695,3952225.878295721,-22500.0,-8442.9495221510588,26777.115562168965,-32948.071887414037,-9987.1484497121728,20259.821811336282,-6478.3698644271426,34616.894433671005,6180.5855112483623,715.76025150616306,-715.76025150616306,-6180.5855112483623,65834.300753613163,0.0
345012.02908761695,3952225.878295721,-22500.0,-2566.5951246226982,21061.028130987244,-50489.432053167824,-7417.8440010774002,27632.08164602485,-8495.7016180907358,39425.357581851167,-8958.4818200167665,11912.14664761249,-11912.14664761249,8958.4818200167665,76380.512923296017,0.0
350012.02908761695,3952225.878295721,-22500.0,919.6662681983355,10525.266454053992,-62179.288139298209,-3082.9501428749068,32705.561516392132,-10051.813055885928,42934.698091954706,-24751.8951676992,20159.955805407262,-20159.955805407262,24751.8951676992,83542.691128963168,0.0
355012.02908761695,3952225.878295721,-22500.0,744.88250851700241,-1709.4794422292923,-65756.935832563264,1994.331077158371,34602.985514650529,-10907.764253081934,44293.50157213123,-37146.321558819458,23257.501798042707,-23257.501798042707,37146.321558819458,86000.887611091151,0.0
360012.02908761695,3952225.878295721,-22500.0,-2615.8291053202679,-12432.722689661026,-61796.132320059914,6681.9116137110914,33386.112833240077,-10980.321621382367,43244.536203422875,-43765.747276495516,21223.380399328405,-21223.380399328405,43765.747276495516,83778.392318769736,0.0
365012.02908761695,3952225.878295721,-22500.0,-7629.079518410369,-19707.344557413751,-52728.695022736625,10182.074105613707,29829.871960434997,-10352.065114111947,40219.908450807008,-44461.403095832204,15684.56755795597,-15684.56755795597,44461.403095832204,77873.039860537378,0.0
370012.02908761695,3952225.878295721,-22500.0,-12683.376524340996,-23108.052170445982,-41376.824733067195,12186.854022566167,24974.209202193753,-9219.5289686999822,35943.435865184016,-40598.692050425532,8703.5730199415721,-8703.5730199415721,40598.692050425532,69665.915442914207,0.0
375012.02908761695,3952225.878295721,-22500.0,-16668.469669000788,-23236.49642892649,-29992.762152265961,12790.994858488724,19759.301936421143,-7817.1821219077519,31129.975775851275,-34050.603022885523,1952.2518291144424,-1952.2518291144424,34050.603022885523,60462.733910070849,0.0
380012.02908761695,3952225.878295721,-22500.0,-19092.519863528967,-21117.955203508587,-19956.38389837302,12313.622007142605,14850.65188987184,-6353.848937641279,26348.401549506547,-26503.329110636863,-3574.4081329313121,3574.4081329313121,26503.329110636863,51268.216461003918,0.0
385012.02908761695,3952225.878295721,-22500.0,-19946.82096093148,-17774.687284562482,-11872.733615411909,11137.08970210306,10618.223928186131,-4979.1578064751411,21985.922299434191,-19160.73230209254,-7496.5715837530233,7496.5715837530233,19160.73230209254,42737.974572484127,0.0
390012.02908761695,3952225.878295721,-22500.0,-19502.91535018697,-14014.64830292503,-5812.5292551271104,9604.3573333164259,7196.4009080059259,-3778.3425145760189,18234.777724250143,-12718.906269966963,-9854.9819555206886,9854.9819555206886,12718.906269966963,35224.140693609676,0.0
395012.02908761695,3952225.878295721,-22500.0,-18138.231320791569,-10376.577721342788,-1549.663514482696,7973.9168789368314,4566.4172095288204,-2784.0702517152158,15112.748612315267,-7469.479034863678,-10912.496389329001,10912.496389329001,7469.479034863678,28854.010937623771,0.0
400012.02908761695,3952225.878295721,-22500.0,-16221.713776437113,-7160.6254309898977,1261.7870410050773,6414.2855728048353,2628.9056507569171,-1993.8220753416572,12557.874312253665,-3435.9680099561479,-11005.729671882818,11005.729671882818,3435.9680099561479,23608.020450348256,0.0
405012.02908761695,3952225.878295721,-22500.0,-14056.316309617316,-4491.0888353596838,2978.6359991652857,5018.7357806404552,1255.1500100324006,-1385.7155619322052,10491.884005233742,-493.68185230479594,-10455.898351291853,10455.898351291853,493.68185230479594,19382.714256297222,0.0
410012.02908761695,3952225.878295721,-22500.0,-11861.88064590077,-2379.9300104330719,3913.9208483178272,3826.2757176797145,317.53111525292849,-930.00475946146742,8835.2662643111125,1544.1406528787325,-9527.3487493668272,9527.3487493668272,-1544.1406528787325,16035.540384778407,0.0
415012.02908761695,3952225.878295721,-22500.0,-9780.8951317210594,-777.38252633794707,4317.7049466959597,2841.213842298253,-295.60207511414029,-596.17652985242819,7512.4031457261126,2873.3206327104772,-8416.9031354173421,8416.9031354173421,-2873.3206327104772,13413.817741281282,0.0
420012.02908761695,3952225.878295721,-22500.0,-7893.9884240617903,393.2254672857394,4377.4510149646821,2048.3283532005362,-674.91467795263191,-356.65594839777953,6455.4402298739133,3671.0652793788631,-7259.5335355554289,7259.5335355554289,-3671.0652793788631,11372.028981099409,0.0
425012.02908761695,3952225.878295721,-22500.0,-6237.1618536655333,1214.2408403476825,4227.1292449455959,1423.2916136681513,-890.44351779301394,-188.28337765992569,5606.5415915117283,4084.8824235155116,-6140.5029554827797,6140.5029554827797,-4084.8824235155116,9781.2157886311907,0.0
430012.02908761695,3952225.878295721,-22500.0,-4816.9138271553702,1762.3068547760579,3958.7583094409315,939.16964267970388,-994.36679564858321,-72.515203308233495,4918.4960802145906,4230.9844140694286,-5108.4190440748416,5108.4190440748416,-4230.9844140694286,8533.2317512197478,0.0
255012.02908761695,3957225.878295721,-22500.0,6436.6384182433076,-4993.6175479860767,3599.8561559609238,2510.4154533663532,-1827.2200649717272,701.87915667636582,5694.6676992663206,-3199.7617013933182,4322.0362608597225,-4322.0362608597225,3199.7617013933182,11331.281455763339,0.0
260012.02908761695,3957225.878295721,-22500.0,6529.484680753143,-5580.9879209373703,4297.5180860332484,2732.5804054483315,-2147.6985972093325,807.96260881101159,6251.9003457938161,-3338.344406820625,4248.9169782824665,-4248.9169782824665,3338.344406820625,12434.964290064163,0.0
265012.02908761695,3957225.878295721,-22500.0,6499.2467500141438,-6198.7130001377009,5136.9627853911388,2949.6815354277405,-2520.1348093625888,926.74878797091628,6867.7152658160394,-3409.8195037530199,4042.1657677292474,-4042.1657677292474,3409.8195037530199,13628.809814077695,0.0
270012.02908761695,3957225.878295721,-22500.0,6299.4237962134648,-6824.5524566889535,6141.0595439346725,3147.679330902793,-2947.9924882889745,1057.2215022180969,7539.344852736438,-3376.5940577628558,3656.2716067161577,-3656.2716067161577,3376.5940577628558,14906.199046936399,0.0
275012.02908761695,3957225.878295721,-22500.0,5873.2209393737057,-7421.5096151951748,7330.8830639350317,3306.116345593407,-3431.3046845619501,1196.5542456339458,8261.3441788298805,-3188.0634603279927,3036.3999477876218,-3036.3999477876218,3188.0634603279927,16253.066677841782,0.0
280012.02908761695,3957225.878295721,-22500.0,5154.2384299784026,-7931.7939911458534,8720.660079833815,3396.305021583521,-3963.8265062868031,1339.1342662365248,9025.7967644742494,-2778.282356929346,2119.6493557494896,-2119.6493557494896,2778.282356929346,17645.428476504578,0.0
285012.02908761695,3957225.878295721,-22500.0,4069.8182220880535,-8269.52757165601,10308.954650166645,3379.5845995637396,-4528.7287621991873,1475.2734110896888,9820.9378720905024,-2064.9530244467546,839.33812425295775,-839.33812425295775,2064.9530244467546,19047.162328433893,0.0
290012.02908761695,3957225.878295721,-22500.0,2549.042887212634,-8313.0240456664687,12064.177103557888,3206.2356335371574,-5092.4011748366029,1589.6361525409918,10630.887179515963,-951.73970302748478,-865.43114858779916,865.43114858779916,951.73970302748478,20409.40275038133,0.0
295012.02908761695,3957225.878295721,-22500.0,538.12020001849669,-7898.8689728377376,13902.164123754474,2816.1478345586488,-5596.0967778835848,1659.549094909941,11437.575207452914,662.61046915750262,-3031.8024777092478,3031.8024777092478,-662.61046915750262,21674.542768509033,0.0
300012.02908761695,3957225.878295721,-22500.0,-1973.650737516529,-6822.5785719462601,15653.962039159271,2143.070845010272,-5945.7122332013532,1653.5892569027187,12226.972343405978,2862.8347296901461,-5643.0538544648589,5643.0538544648589,-2862.8347296901461,22790.908166268953,0.0
305012.02908761695,3957225.878295721,-22500.0,-4915.0539655897028,-4854.6182531728209,17024.442219806398,1125.1247079039811,-6001.333063678856,1531.1851686572452,13003.083361413415,5675.9676394543285,-8583.4897611855013,8583.4897611855013,-5675.9676394543285,23749.019359747974,0.0
310012.02908761695,3957225.878295721,-22500.0,-8083.3622020854273,-1785.5472233327926,17549.366455862957,-275.19998470629344,-5570.7562421506091,1244.3333838318968,13813.315596804365,9003.0669193336853,-11580.27435346271,11580.27435346271,-9003.0669193336853,24654.413611383432,0.0
315012.02908761695,3957225.878295721,-22500.0,-11097.258871753615,2483.0894101981685,16573.379392298462,-2039.1449969331086,-4415.3554532601665,742.77316531147903,14782.863537567673,12523.590364898337,-14146.935002211008,14146.935002211008,-12523.590364898337,25839.639401410062,0.0
320012.02908761695,3957225.878295721,-22500.0,-13386.273270402949,7793.7114926559689,13295.209426755182,-4049.8211921369393,-2281.5418222783114,-16.224069283568664,16134.529117813148,15594.729044516462,-15567.809407481731,15567.809407481731,-15594.729044516462,27945.881073188848,0.0
325012.02908761695,3957225.878295721,-22500.0,-14275.031059847401,13560.395081079778,6948.2007758627251,-6052.8925368564278,1027.3451438338311,-1053.2330354355031,18138.933799761944,17213.039404019739,-14993.500584300707,14993.500584300707,-17213.039404019739,31770.489615056413,0.0
330012.02908761695,3957225.878295721,-22500.0,-13219.157769557838,18669.699706518459,-2834.5944969952743,-7649.1438638456575,5535.078012164302,-2348.9962414514193,20959.42556805511,16157.91464028108,-11721.580819917326,11721.580819917326,-16157.91464028108,37765.463304238263,0.0
335012.02908761695,3957225.878295721,-22500.0,-10167.227017799962,21629.879730598805,-15542.944883805814,-8360.03396800056,10963.814261707526,-3828.676984436383,24476.888806786308,11423.919137219384,-5647.2240626599723,5647.2240626599723,-11423.919137219384,45574.017604045075,0.0
340012.02908761695,3957225.878295721,-22500.0,-5845.8517148290639,21092.832870847385,-29492.334484983661,-7786.4541956231678,16674.598751290887,-5356.8139886969566,28255.073250416332,2863.5844566843393,2343.9809005681213,-2343.9809005681213,-2863.5844566843393,54052.710018883467,0.0
345012.02908761695,3957225.878295721,-22500.0,-1651.7391361220104,16580.666535389588,-42104.693498121342,-5808.6383541915457,21772.819512497132,-6752.8888451125886,31700.475908274981,-8358.1251613815693,10433.565725144799,-10433.565725144799,8358.1251613815693,61678.602643299746,0.0
350012.02908761695,3957225.878295721,-22500.0,947.26888325398795,8907.9760373017198,-50839.80562785091,-2699.6920561499173,25386.935081438998,-7830.5758427398187,34273.290674222197,-19983.531729460577,16555.558769527823,-16555.558769527823,19983.531729460577,67065.514885860452,0.0
355012.02908761695,3957225.878295721,-22500.0,1129.8535735703001,-109.7151147440139,-54240.801782423623,949.23767306150819,26980.373583374054,-8448.8108706437215,35494.30653389186,-29567.885916483665,19321.624842903129,-19321.624842903129,29567.885916483665,69381.873022931482,0.0
360012.02908761695,3957225.878295721,-22500.0,-974.12239671202008,-8475.7089239242996,-52379.263585253473,4455.2416586836762,26507.700558977645,-8551.3784773303014,35118.325136814747,-35458.7850320527,18526.315482414022,-18526.315482414022,35458.7850320527,68508.601346499418,0.0
365012.02908761695,3957225.878295721,-22500.0,-4529.1515778301746,-14762.183163939062,-46518.430045765061,7275.6568480406477,24347.430957119013,-8176.2608143324096,33307.694012725726,-37223.754808065481,14975.037343982191,-14975.037343982191,37223.754808065481,64917.064877809302,0.0
370012.02908761695,3957225.878295721,-22500.0,-8486.8927781941802,-18396.581143161573,-38400.31144729544,9128.7190240250802,21098.765953341699,-7433.5124710094724,30462.395120620949,-35447.376311877706,9929.6530652943238,-9929.6530652943238,35447.376311877706,59398.731748096761,0.0
375012.02908761695,3957225.878295721,-22500.0,-11982.514319475342,-19527.323416672247,-29632.38045392124,9987.8704519904386,17374.120955253446,-6466.1395501007519,27038.517689814562,-31235.003288456555,4590.0920885847481,-4590.0920885847481,31235.003288456555,52802.589200203613,0.0
380012.02908761695,3957225.878295721,-22500.0,-14505.519101617789,-18714.589162737564,-21373.714559208096,10002.133924905123,13665.615095601117,-5412.3947590412054,23443.83490047156,-25757.161602803382,-186.74047906467422,186.74047906467422,25757.161602803382,45862.763480049398,0.0
385012.02908761695,3957225.878295721,-22500.0,-15889.417069508103,-16642.456927203879,-14282.34808948,9401.451898749001,10296.367545169387,-4381.4185901060691,19994.206449563237,-19976.133205831597,-3944.2190380467719,3944.2190380467719,19976.133205831597,39123.447155646551,0.0
390012.02908761695,3957225.878295721,-22500.0,-16213.594333211271,-13932.08492255626,-8606.7441728721878,8422.394512322664,7431.3367902693863,-3444.5619467231127,16891.384273966782,-14547.896833334577,-6554.0401776593326,6554.0401776593326,14547.896833334577,32932.866557518224,0.0
395012.02908761695,3957225.878295721,-22500.0,-15690.021483912024,-11056.549394314892,-4322.3254851714619,7264.9493092431985,5116.2860105353311,-2638.2719112367035,14209.099673938807,-9837.3276068763735,-8101.3525034444492,8101.3525034444492,9837.3276068763735,27473.875306970094,0.0
400012.02908761695,3957225.878295721,-22500.0,-14572.409885458193,-8326.7757514116947,-1256.2556658909266,6076.1894382839973,3321.6305936325002,-1972.5972844487208,11938.907376136869,-5985.0751307928731,-8778.5813995312565,8778.5813995312565,5985.0751307928731,22807.009886468426,0.0
405012.02908761695,3957225.878295721,-22500.0,-13098.624397316635,-5915.2680371787246,821.38593119327481,4951.3265616189665,1979.0161716111313,-1440.6750600826078,10045.834734843085,-2984.4411505967864,-8808.6742138672489,8808.6742138672489,2984.4411505967864,18911.988318224896,0.0
410012.02908761695,3957225.878295721,-22500.0,-11462.579433180743,-3892.9670407223884,2141.4655369113038,3943.1906910775106,1006.8068339859328,-1026.6796918059849,8486.0451222371776,-746.8344664484971,-8399.5467687665769,8399.5467687665769,746.8344664484971,15721.336113613692,0.0
415012.02908761695,3957225.878295721,-22500.0,-9806.5975487695669,-2264.9975327359321,2907.1637054503358,3073.9721648390801,325.34089742299363,-711.43976897820539,7212.0094531798895,851.18221670954154,-7722.9443271679247,7722.9443271679247,-851.18221670954154,13144.73475829766,0.0
420012.02908761695,3957225.878295721,-22500.0,-8225.3842212874169,-999.17318582452776,3283.5363421978286,2345.9137608430974,-135.44107680692011,-475.88910351211211,6176.5679808694567,1938.3499745094105,-6909.1207282057057,6909.1207282057057,-1938.3499745094105,11085.197857551093,0.0
425012.02908761695,3957225.878295721,-22500.0,-6775.030718466669,-46.013783288726749,3397.4387038515574,1749.6535620067593,-433.30196244025325,-302.87658120533916,5336.01958668513,2632.6764704448697,-6050.0864449563696,6050.0864449563696,-2632.6764704448697,9448.9993969995157,0.0
430012.02908761695,3957225.878295721,-22500.0,-5483.0248113936832,648.58299773704073,3342.3530225299119,1270.1014173399249,-613.79656775570584,-177.89382735687809,4651.9500124215701,3034.4655799700404,-5206.4583802979096,5206.4583802979096,-3034.4655799700404,8151.2952653140401,0.0
260012.02908761695,3962225.878295721,-22500.0,5152.2487587394744,-5178.737754525182,4532.8953382888367,2271.2788339911285,-2051.4843479686288,695.89914310219683,5657.2010803919366,-2679.2057059486319,3089.1992648849696,-3089.1992648849696,2679.2057059486319,11226.863145356692,0.0
265012.02908761695,3962225.878295721,-22500.0,4949.1765130139429,-5638.1793758676586,5337.7252388657989,2401.1379372114125,-2371.5641190763904,787.0507343771261,6168.0183419523901,-2610.7664731552404,2741.572172260855,-2741.572172260855,2610.7664731552404,12191.307932058668,0.0
270012.02908761695,3962225.878295721,-22500.0,4575.6730751100213,-6065.1775268812844,6273.8423261882826,2499.4081751757626,-2728.249024962035,883.66965323230568,6712.3165674734937,-2420.9305588182128,2219.0246157285451,-2219.0246157285451,2420.9305588182128,13199.037918013402,0.0
275012.02908761695,3962225.878295721,-22500.0,3987.7945123779623,-6417.6605485228301,7347.099549517734,2546.7484581796771,-3116.3747485834165,982.12861072977125,7284.3080869614187,-2064.7220290205305,1480.5329920420957,-1480.5329920420957,2064.7220290205305,14232.644344779894,0.0
280012.02908761695,3962225.878295721,-22500.0,3138.8930605079927,-6635.7735700575313,8551.7960250392716,2517.8264754071392,-3523.9950991330261,1076.371456028291,7875.9448187838107,-1487.8606909519535,484.15694391965837,-484.15694391965837,1487.8606909519535,15267.35702915935,0.0
285012.02908761695,3962225.878295721,-22500.0,1984.828034339632,-6637.878685732835,9861.8410615738412,2380.84229795485,-3928.8521326326463,1157.0217287384949,8476.8983206056218,-628.81770009496779,-806.77452225360287,806.77452225360287,628.81770009496779,16271.152580166072,0.0
290012.02908761695,3962225.878295721,-22500.0,493.19607677824195,-6317.9174147303356,11217.835117235467,2098.0500321040549,-4293.7825477629785,1210.4085576284531,9075.8918318204633,575.22528477574201,-2412.9221993965621,2412.9221993965621,-575.22528477574201,17207.667483144625,0.0
295012.02908761695,3962225.878295721,-22500.0,-1342.0317411326112,-5546.6052398217844,12509.450882673438,1628.1776138110408,-4561.2653193732131,1217.6929392426944,9664.3965140282053,2175.8904724311105,-4322.0201745356208,4322.0201745356208,-2175.8904724311105,18045.015361914469,0.0
300012.02908761695,3962225.878295721,-22500.0,-3479.6693430496052,-4180.6124572618101,13553.789638399354,931.99367293641819,-4647.9293499014539,1154.4404303668289,10244.307741682163,4191.3105613924308,-6464.7675126354461,6464.7675126354461,-4191.3105613924308,18775.700237844714,0.0
305012.02908761695,3962225.878295721,-22500.0,-5805.4950379507818,-2085.7775977296155,14073.439244569223,-17.534514739977915,-4440.933531059748,991.17807698424758,10841.219693780127,6571.0505886596593,-8684.7288715389368,8684.7288715389368,-6571.0505886596593,19454.412719728454,0.0
310012.02908761695,3962225.878295721,-22500.0,-8107.1927436472852,818.69055339014437,13683.778535701014,-1219.4264488199128,-3799.7673791703487,695.63396754327664,11522.540060580426,9148.2324326529651,-10708.586918041756,10708.586918041756,-9148.2324326529651,20255.875814940591,0.0
315012.02908761695,3962225.878295721,-22500.0,-10063.525515217374,4490.975186720535,11907.854091551786,-2623.7847569200499,-2568.8975477508097,237.35049618024757,12411.629112609082,11587.085961790424,-12132.191573038039,12132.191573038039,-11587.085961790424,21528.635090639997,0.0
320012.02908761695,3962225.878295721,-22500.0,-11270.510604204113,8679.8567153426939,8245.8621160332732,-4110.1042782195591,-607.57818376024693,-404.9922734265844,13675.522015548067,13349.887274116154,-12449.440080075368,12449.440080075368,-13349.887274116154,23763.393071865019,0.0
325012.02908761695,3962225.878295721,-22500.0,-11330.604771741144,12852.084830015947,2324.7047887013573,-5475.0746311219273,2159.5747052496172,-1234.0692483333266,15462.406470929534,13727.470873341566,-11156.707215136828,11156.707215136828,-13727.470873341566,27385.85509916232,0.0
330012.02908761695,3962225.878295721,-22500.0,-10012.51832662406,16196.91520517298,-5876.8710175160313,-6445.9761314859043,5677.4881948700004,-2224.1191528207455,17804.050987846986,11985.56313755956,-7946.8963125393921,7946.8963125393921,-11985.56313755956,32464.231027899725,0.0
335012.02908761695,3962225.878295721,-22500.0,-7436.0106602573223,17780.284460106486,-15802.082793373875,-6734.5685320210241,9704.810305877214,-3314.3632525403805,20549.33219863665,7642.519083363004,-2945.9996150194443,2945.9996150194443,-7642.519083363004,38580.953272487168,0.0
340012.02908761695,3962225.878295721,-22500.0,-4167.7402614322755,16862.161225695912,-26242.082120832354,-6129.3703936348566,13807.050749794711,-4410.1257351558424,23382.616725232441,792.50846278664699,3140.878943516801,-3140.878943516801,-792.50846278664699,44939.890504185903,0.0
345012.02908761695,3962225.878295721,-22500.0,-1106.0412880025483,13256.484461545035,-35560.255716280903,-4592.8174428764232,17431.715542051235,-5395.1828496174421,25923.286517420947,-7723.3441398753112,9132.0300706749276,-9132.0300706749276,7723.3441398753112,50594.365312488422,0.0
350012.02908761695,3962225.878295721,-22500.0,847.96640012730438,7507.9025670878054,-42194.464504532501,-2307.6422967171657,20055.997427798822,-6154.8128910582509,27845.906908637975,-16479.690916216947,13751.205337175959,-13751.205337175959,16479.690916216947,54699.942161332321,0.0
355012.02908761695,3962225.878295721,-22500.0,1157.0959879696236,732.89490687932846,-45189.439799490814,365.17172785736807,21343.156258384333,-6602.9840367967927,28876.972939982152,-23937.180574940936,16101.314693953904,-16101.314693953904,23937.180574940936,56720.100565172084,0.0
360012.02908761695,3962225.878295721,-22500.0,-172.93089989762041,-5793.6863856216478,-44458.02996560969,3000.1805089518325,21228.885460242323,-6703.1503074880766,28825.495035623291,-28959.494012593379,15950.145806326123,-15950.145806326123,28959.494012593379,56518.339856202321,0.0
365012.02908761695,3962225.878295721,-22500.0,-2681.1937623489912,-11056.786857987776,-40666.820636413046,5232.6534730823932,19903.141820240067,-6474.1305005021295,27734.46885202355,-31097.54637894778,13695.099351657873,-13695.099351657873,31097.54637894778,54318.706679647679,0.0
370012.02908761695,3962225.878295721,-22500.0,-5699.7819429928795,-14522.586787073213,-34885.99379225236,6838.569741516153,17715.095674792839,-5979.7278143610047,25824.073825110787,-30557.979229957666,10099.368036695727,-10099.368036695727,30557.979229957666,50578.961099323002,0.0
375012.02908761695,3962225.878295721,-22500.0,-8599.8482960358342,-16132.228099926993,-28223.001920854695,7750.6456113513132,15058.295280758437,-5308.1193846253218,23381.962782079689,-27968.693654489889,5987.4488093518703,-5987.4488093518703,27968.693654489889,45844.502204728517,0.0
380012.02908761695,3962225.878295721,-22500.0,-10938.521240847922,-16157.964544919772,-21579.268840606466,8026.3319683968566,12281.457010354701,-4549.9982976628116,20690.962414438429,-24105.833660796998,2032.3009326878982,-2032.3009326878982,24105.833660796998,40632.812150379461,0.0
385012.02908761695,3962225.878295721,-22500.0,-12496.618876480181,-15028.654782426031,-15555.357236844829,7796.1272865470337,9642.0356335603865,-3782.4260954713236,17991.980371243666,-19688.566896419354,-1332.6333378676845,1332.6333378676845,19688.566896419354,35366.286504371979,0.0
390012.02908761695,3962225.878295721,-22500.0,-13243.956469604351,-13190.663021172655,-10463.938471836902,7215.0736417860689,7297.4391359799811,-3060.953368267511,15464.717177788685,-15271.523251167007,-3906.3977402394012,3906.3977402394012,15271.523251167007,30348.370795650437,0.0
395012.02908761695,3962225.878295721,-22500.0,-13275.349619728337,-11025.012926544257,-6396.1809224258941,6428.720002140697,5319.5405672710112,-2418.8946051630764,13205.098901016903,-11217.906000707881,-5664.892972765625,5664.892972765625,11217.906000707881,25768.833504430437,0.0
400012.02908761695,3962225.878295721,-22500.0,-12747.499216187625,-8814.1641985628012,-3300.0204877744673,5555.1920430736454,3718.4802713106351,-1870.9531001293722,11235.1295213097,-7721.3583251338687,-6693.7773893997573,6693.7773893997573,7721.3583251338687,21723.91322291729,0.0
405012.02908761695,3962225.878295721,-22500.0,-11831.219183157216,-6741.8036232249115,-1047.5486802484761,4679.8659067583267,2466.3551487183095,-1418.4938364018844,9546.0387338631299,-4848.2519887915632,-7130.8478211834581,7130.8478211834581,4848.2519887915632,18240.967782508127,0.0
410012.02908761695,3962225.878295721,-22500.0,-10682.050531748106,-4909.4880634238061,516.60110231224621,3857.7560634833389,1516.193941358606,-1054.6394576529603,8117.853227432679,-2581.7974277593316,-7125.5057768282695,7125.5057768282695,2581.7974277593316,15301.484128284199,0.0
415012.02908761695,3962225.878295721,-22500.0,-9426.3171006816992,-3358.5669595398522,1545.3861874289237,3119.4425449798223,815.05440194230982,-768.32098056477639,6923.8970158618631,-858.70676848963512,-6814.8897002516569,6814.8897002516569,858.70676848963512,12859.697812645782,0.0
420012.02908761695,3962225.878295721,-22500.0,-8157.7666508249313,-2090.8086276984686,2173.8689572250692,2477.7730858566538,311.92381839159896,-547.08912585511302,5934.0389241211387,404.36599106667245,-6312.8068989474577,6312.8068989474577,-404.36599106667245,10856.277896297848,0.0
425012.02908761695,3962225.878295721,-22500.0,-6940.2390430825699,-1084.8803352922878,2513.3768843068538,1933.8517367990853,-38.25907359396993,-378.83412752211512,5117.643085598922,1293.9090796052105,-5707.0042729368179,5707.0042729368179,-1293.9090796052105,9227.5956493741833,0.0
260012.02908761695,3967225.878295721,-22500.0,3942.1259980287568,-4687.8941642604832,4639.9865876620488,1855.0198365021643,-1920.193411405804,592.50883132147567,5094.6374832545434,-2037.3263445892114,2082.7309117369537,-2082.7309117369537,2037.3263445892114,10067.685407086301,0.0
265012.02908761695,3967225.878295721,-22500.0,3621.1947616175107,-4997.0938439336496,5381.91589755924,1916.1777813695769,-2186.481024726053,660.32987166772546,5510.7451628782601,-1858.6479520694547,1645.659817398709,-1645.659817398709,1858.6479520694547,10832.832849565943,0.0
270012.02908761695,3967225.878295721,-22500.0,3141.5356665548338,-5244.1316982012222,6219.3814850775079,1939.3038331667392,-2473.1966046090602,729.13912792932354,5945.3374306628875,-1554.1032085496774,1049.6598883512877,-1049.6598883512877,1554.1032085496774,11612.636683914132,0.0
275012.02908761695,3967225.878295721,-22500.0,2472.4689796229591,-5386.8335498346469,7145.6492315222085,1907.530388964122,-2771.8553167029245,795.07098181205708,6392.8811169965675,-1087.2105993270172,267.71407331314487,-267.71407331314487,1087.2105993270172,12389.937458812539,0.0
280012.02908761695,3967225.878295721,-22500.0,1585.6196355587731,-5369.421596029646,8140.1239771980263,1800.1006115627367,-3067.5086379982076,852.27212245908549,6846.5642450821597,-417.66489542653881,-722.98293243095941,722.98293243095941,417.66489542653881,13143.364652692037,0.0
285012.02908761695,3967225.878295721,-22500.0,460.53448425444708,-5121.3029589722128,9160.683701074322,1592.7257769672217,-3336.1333399512273,892.3355705129502,7299.2051523719292,494.80947288710229,-1934.4948124766488,1934.4948124766488,-494.80947288710229,13849.376515604399,0.0
290012.02908761695,3967225.878295721,-22500.0,-906.81776144007836,-4558.095662914393,10133.634216015229,1258.967959681883,-3541.5960595077795,903.76784746097599,7745.5023644445037,1683.028411079451,-3358.3335343112776,3358.3335343112776,-1683.028411079451,14487.668334864289,0.0
295012.02908761695,3967225.878295721,-22500.0,-2492.3580151944939,-3586.9536894946555,10941.751078690093,773.26001352590652,-3632.6067105066136,871.65307131008319,8186.4199042462169,3159.7954312466518,-4951.9744384658779,4951.9744384658779,-3159.7954312466518,15052.553398155516,0.0
300012.02908761695,3967225.878295721,-22500.0,-4229.6770453873405,-2119.0437344287675,11412.287463953511,116.25492125854809,-3540.564052643178,777.77416587694893,8636.4906797328913,4898.8963027616701,-6622.3616017998102,6622.3616017998102,-4898.8963027616701,15573.619146294874,0.0
305012.02908761695,3967225.878295721,-22500.0,-5995.900300491292,-92.369433460911026,11309.30274706027,-716.95982595830696,-3179.9006255909285,601.54465793965676,9133.8046775185012,6809.614673979745,-8209.2897255907155,8209.2897255907155,-6809.614673979745,16147.111270272149,0.0
310012.02908761695,3967225.878295721,-22500.0,-7603.4442698787016,2492.9723053449875,10338.270307242112,-1705.8975720188753,-2453.3382119093885,322.14289651848532,9749.1467228015354,8708.0551142053373,-9475.2857367962715,9475.2857367962715,-8708.0551142053373,16969.178783128977,0.0
315012.02908761695,3967225.878295721,-22500.0,-8807.3761312123388,5529.2244818471427,8174.6419335262099,-2792.5215945114569,-1264.9582713774942,-77.866429401334969,10584.708743835425,10294.663978003204,-10113.40217842017,10113.40217842017,-10294.663978003204,18337.405615218428,0.0
320012.02908761695,3967225.878295721,-22500.0,-9340.4206498364056,8756.0503002147962,4528.8531226944078,-3871.8195667309315,456.67346411105723,-607.47295333330646,11749.396526835029,11155.605535567147,-9787.7177034897959,9787.7177034897959,-11155.605535567147,20569.52480767075,0.0
325012.02908761695,3967225.878295721,-22500.0,-8983.6006531860057,11739.93975369176,-747.63016323099328,-4791.688431132392,2726.1211291034365,-1261.3830273778412,13309.324979063978,10811.699804244821,-8217.7173763258979,8217.7173763258979,-10811.699804244821,23843.625941628474,0.0
330012.02908761695,3967225.878295721,-22500.0,-7664.38880717333,13911.246075351068,-7532.9384078523572,-5369.8060794370449,5466.3624921006258,-2014.8531597709637,15237.491459474619,8832.6797526830705,-5299.9067189170537,5299.9067189170537,-8832.6797526830705,28069.69913102463,0.0
335012.02908761695,3967225.878295721,-22500.0,-5546.5671928285474,14683.980991752645,-15333.794603119721,-5431.6232333202934,8486.3738893595601,-2821.3219959750968,17395.404893750703,5005.6209725891258,-1226.9597548737088,1226.9597548737088,-5005.6209725891258,32883.28584203287,0.0
340012.02908761695,3967225.878295721,-22500.0,-3053.2890051580384,13644.380623130097,-23288.047277103593,-4863.4679635065668,11489.434553048981,-3615.0474664545927,19558.529889538484,-502.54199948900214,3466.0633318013079,-3466.0633318013079,502.54199948900214,37734.369173612096,0.0
345012.02908761695,3967225.878295721,-22500.0,-777.24618309887376,10735.413856808676,-30322.732812684597,-3661.4839526803012,14123.020604830181,-4319.910874147834,21476.093981987284,-7084.5205362975257,7991.3391600099048,-7991.3391600099048,7084.5205362975257,42013.835343624589,0.0
350012.02908761695,3967225.878295721,-22500.0,707.10222572964585,6333.2736112826497,-35437.569105063631,-1951.0351990577929,16060.859615409163,-4863.2984627969254,22941.282768677491,-13804.6558272369,11529.224010852653,-11529.224010852653,13804.6558272369,45185.513619763427,0.0
355012.02908761695,3967225.878295721,-22500.0,1042.1497580581633,1155.140774686359,-37993.021301223074,38.296620395651516,17086.240595531228,-5191.3065335796446,23793.298694431796,-19658.713830850265,13485.704430101021,-13485.704430101021,19658.713830850265,46894.592736466278,0.0
360012.02908761695,3967225.878295721,-22500.0,193.20103729222927,-3962.9890885491805,-37865.401838812497,2033.7696684188238,17140.973253950047,-5280.0982918484879,23894.801819127362,-23860.907024036129,13658.107898165636,-13658.107898165636,23860.907024036129,47022.032387551233,0.0
365012.02908761695,3967225.878295721,-22500.0,-1581.384644457992,-8305.5678601935706,-35411.546731276801,3789.35603368687,16322.349020512042,-5139.355846045265,23238.08937085978,-26025.317603123625,12239.911262366888,-12239.911262366888,26025.317603123625,45673.346121945302,0.0
370012.02908761695,3967225.878295721,-22500.0,-3857.3582501356705,-11430.400341826689,-31292.969022890142,5136.4229539109865,14837.139415947138,-4807.0524428719964,21943.556218895585,-26185.318560155371,9693.0961483373176,-9693.0961483373176,26185.318560155371,43117.189306136177,0.0
375012.02908761695,3967225.878295721,-22500.0,-6192.1257268677509,-13200.351268490153,-26261.558518322254,6001.8747404539608,12938.02110121427,-4338.2706885197767,20192.534036662215,-24686.146073158841,6573.0873034612305,-6573.0873034612305,24686.146073158841,39704.120973173878,0.0
380012.02908761695,3967225.878295721,-22500.0,-8232.5633416971432,-13723.102622050394,-20990.139147549071,6397.3724757874279,10867.044021883507,-3792.5099391402509,18178.334804693503,-22028.204951652635,3382.9947255753286,-3382.9947255753286,22028.204951652635,35793.041647131584,0.0
385012.02908761695,3967225.878295721,-22500.0,-9762.5174828651616,-13252.133571081886,-15981.276599932136,6392.4637802619127,8819.5836028544982,-3223.3580765834736,16078.019210763247,-18727.156340913847,492.0430696871008,-492.0430696871008,18727.156340913847,31700.190926225056,0.0
390012.02908761695,3967225.878295721,-22500.0,-10700.044587360157,-12092.511541435862,-11546.731227812441,6084.7782756081833,6930.3122531832651,-2672.4341282632895,14038.30777809334,-15222.644612412387,-1884.6661379181887,1884.6661379181887,15222.644612412387,27673.1647700381,0.0
395012.02908761695,3967225.878295721,-22500.0,-11066.263601538649,-10533.493495617056,-7832.0397838335621,5575.7866971130525,5275.6499273385152,-2167.5567481258677,12157.932380039394,-11837.914017332949,-3666.0704665989756,3666.0704665989756,11837.914017332949,23885.05540548552,0.0
400012.02908761695,3967225.878295721,-22500.0,-10945.832547784565,-8811.8111380472947,-4860.4405769016521,4955.3085034067863,3885.1782656273654,-1723.9197906953466,10475.77651987426,-8777.1663423544669,-4867.4231408163032,4867.4231408163032,8777.1663423544669,20441.375703392296,0.0
405012.02908761695,3967225.878295721,-22500.0,-10451.733615263742,-7099.5920620866164,-2578.1553751083679,4294.225960560274,2755.7847583688263,-1346.8093042375012,8997.539135566838,-6144.1670385394355,-5561.2458714591721,5561.2458714591721,6144.1670385394355,17393.140835638631,0.0
410012.02908761695,3967225.878295721,-22500.0,-9699.7690727471454,-5507.9142677240125,-891.70849523704499,3643.1655832997067,1864.6652924975481,-1034.6835293368817,7717.6629049811918,-3968.6838507992979,-5845.5142340690054,5845.5142340690054,3968.6838507992979,14751.382828026221,0.0
415012.02908761695,3967225.878295721,-22500.0,-8793.2700382883613,-4097.9854785947782,305.61546374995754,3034.6605271319463,1179.4420249307368,-781.91236813421324,6623.68682583174,-2232.2804161517201,-5821.7261371135519,5821.7261371135519,2232.2804161517201,12500.333671761304,0.0
420012.02908761695,3967225.878295721,-22500.0,-7816.0557202357058,-2894.4054992201832,1117.3654947128416,2486.8253678010833,665.11349794815396,-580.88394589870745,5698.2462994203333,-889.41281584814033,-5582.0504702931594,5582.0504702931594,889.41281584814033,10608.094404379144,0.0
425012.02908761695,3967225.878295721,-22500.0,-6830.9928206975192,-1897.3552405529417,1635.2960043060984,2007.2514693827993,288.2708409551251,-423.446371306934,4921.3867609602321,117.30506569516092,-5203.367827910356,5203.367827910356,-117.30506569516092,9034.539579476439,0.0
265012.02908761695,3972225.878295721,-22500.0,2514.6253798150174,-4325.5064972265955,5291.985582385043,1497.6605949573739,-1980.8987779258048,547.88199682805066,4902.6095631271528,-1183.599813293539,753.97334899325642,-753.97334899325642,1183.599813293539,9574.7075715551455,0.0
270012.02908761695,3972225.878295721,-22500.0,1983.0266165382013,-4419.6507585597037,6013.0931033066445,1467.1381531986513,-2202.8182015349835,594.53483493114618,5246.080441248253,-804.36053861264372,134.77126298259816,-134.77126298259816,804.36053861264372,10167.581087123886,0.0
275012.02908761695,3972225.878295721,-22500.0,1293.1385102789648,-4393.7989548101032,6779.2972408207625,1382.851323079808,-2421.9430828062941,635.42368970714881,5593.6989097491032,-277.19007291147904,-635.18058394664081,635.18058394664081,277.19007291147904,10741.951419884015,0.0
280012.02908761695,3972225.878295721,-22500.0,431.55942800126019,-4199.8947685279181,7560.4388440771781,1228.8258321511016,-2622.4146713802429,665.2720409196927,5940.7888057843802,424.46198150100201,-1563.2110060980422,1563.2110060980422,-424.46198150100201,11282.198251329288,0.0
285012.02908761695,3972225.878295721,-22500.0,-604.68196444239175,-3781.3698740947411,8306.2313383591245,987.72894162593445,-2780.9628292245447,676.93418316118459,6283.9735938964095,1322.1641077490349,-2643.5369163996111,2643.5369163996111,-1322.1641077490349,11775.012016731593,0.0
290012.02908761695,3972225.878295721,-22500.0,-1801.3267756159375,-3076.294218773402,8939.356101824349,642.55195242602167,-2865.1473295631477,661.16019208951923,6623.7742124883525,2425.1857562938908,-3849.4297556769557,3849.4297556769557,-2425.1857562938908,12216.132947307362,0.0
295012.02908761695,3972225.878295721,-22500.0,-3118.7105482276106,-2024.3415708661482,9348.5617747335182,179.52052523070148,-2832.0336584739998,606.57537058299306,6968.7996362528575,3719.7461137274709,-5123.765068762913,5123.765068762913,-3719.7461137274709,12622.134664659297,0.0
300012.02908761695,3972225.878295721,-22500.0,-4483.4573356638302,-579.14600390685086,9383.8813213250342,-407.48066931080848,-2628.0677021511251,500.05400284089421,7341.4759839752332,5154.7910486208411,-6369.3333072609848,6369.3333072609848,-5154.7910486208411,13048.179894798084,0.0
305012.02908761695,3972225.878295721,-22500.0,-5782.7080289318264,1272.8231810573204,8857.6622843400692,-1110.9523115095228,-2191.285672004497,327.69760049066429,7783.8094567598946,6625.6835307708079,-7441.9381238047936,7441.9381238047936,-6625.6835307708079,13608.342259137105,0.0
310012.02908761695,3972225.878295721,-22500.0,-6865.3113096312354,3487.4042235516795,7556.8262303830406,-1902.8734324483498,-1457.2661386177376,76.609117931228297,8358.9181575990078,7959.7708755409321,-8151.4478945543351,8151.4478945543351,-7959.7708755409321,14484.14994395372,0.0
315012.02908761695,3972225.878295721,-22500.0,-7555.7475101955006,5935.9346800728717,5272.5550691898243,-2728.4099323610944,-370.09928469850144,-262.46631221443317,9141.6212424140558,8911.3678868836814,-8277.7691966444745,8277.7691966444745,-8911.3678868836814,15894.855268096773,0.0
320012.02908761695,3972225.878295721,-22500.0,-7685.852969094045,8385.8665250023241,1851.5072418636478,-3503.0359456712331,1101.3335857890881,-691.81810519224427,10194.310461822628,9177.0237683752839,-7608.3353467409343,7608.3353467409343,-9177.0237683752839,18016.492313517207,0.0
325012.02908761695,3972225.878295721,-22500.0,-7144.423402104565,10503.576843985036,-2734.7284948530828,-4116.7770271492509,2943.7059370102174,-1203.3281190232397,11535.453604144885,8441.8957131254174,-5998.4039513643456,5998.4039513643456,-8441.8957131254174,20889.201935005727,0.0
330012.02908761695,3972225.878295721,-22500.0,-5934.349651089522,11895.036093769677,-8318.6177022981701,-4448.8144440508004,5081.4634160530841,-1775.8826802074393,13117.552204099753,6460.2279677969336,-3443.4385500003891,3443.4385500003891,-6460.2279677969336,24376.377783905984,0.0
335012.02908761695,3972225.878295721,-22500.0,-4214.1611644016293,12190.28200374066,-14495.527074552476,-4392.7187694202021,7369.1853498314158,-2374.8545650587753,14826.637345037516,3155.0390911074924,-136.96608903041852,136.96608903041852,-3155.0390911074924,28188.856958520468,0.0
340012.02908761695,3972225.878295721,-22500.0,-2295.0653885379884,11155.297322443801,-20648.220236358236,-3887.123104334768,9602.4521111980284,-2954.699687106322,16503.141855297574,-1300.0269480168643,3521.9603620263088,-3521.9603620263088,1300.0269480168643,31944.318002362095,0.0
345012.02908761695,3972225.878295721,-22500.0,-576.89697581366136,8789.5091753484539,-26054.04397206123,-2941.0972541396036,11550.321090916832,-3464.9619636006873,17978.034278877058,-6463.6462981584036,6996.2499043764901,-6996.2499043764901,6463.6462981584036,35239.077852987059,0.0
350012.02908761695,3972225.878295721,-22500.0,562.79630556535767,5359.203640342349,-30051.296070771397,-1642.2029906533498,13002.693570840709,-3858.7463843360956,19115.021429435154,-11702.411785193393,9742.7955516507263,-9742.7955516507263,11702.411785193393,37721.015080270503,0.0
355012.02908761695,3972225.878295721,-22500.0,881.45466324678705,1341.3874240025887,-32202.879673108258,-141.06257819810861,13816.844688934676,-4101.4996867566606,19815.991372406668,-16341.590362025858,11359.227693754827,-11359.227693754827,16341.590362025858,39149.949334919707,0.0
360012.02908761695,3972225.878295721,-22500.0,335.52675738172172,-2701.9519661908912,-32390.267786401237,1383.0811569176915,13945.943474324487,-4177.4240023672428,19985.006659684972,-19831.399549268801,11682.694812396263,-11682.694812396263,19831.399549268801,39430.481174364228,0.0
365012.02908761695,3972225.878295721,-22500.0,-927.9993958058418,-6264.7379622515518,-30806.141388007865,2762.6466867986883,13440.336827615232,-4091.5098240175403,19595.130590799425,-21862.234346876365,10803.868653101181,-10803.868653101181,21862.234346876365,38610.319745402077,0.0
370012.02908761695,3972225.878295721,-22500.0,-2638.1978649086464,-8998.5525405352419,-27863.841384460698,3873.5195420093391,12424.554611942563,-3866.7831540363491,18711.160160178573,-22394.148583624938,9004.0815098735729,-9004.0815098735729,22394.148583624938,36849.608336697638,0.0
375012.02908761695,3972225.878295721,-22500.0,-4487.9288735572463,-10749.553285649356,-24072.09130654141,4650.021782634105,11061.703360961596,-3538.0770345270657,17447.992563268039,-21609.548055526055,6654.8634903179473,-6654.8634903179473,21609.548055526055,34375.199321867796,0.0
380012.02908761695,3972225.878295721,-22500.0,-6207.8048981876855,-11537.638748540227,-19922.351979693736,5082.9248864127348,9518.3602635294592,-3144.5835859192375,15937.231594511888,-19825.144798973088,4122.4808593828839,-4122.4808593828839,19825.144798973088,31434.695251650912,0.0
385012.02908761695,3972225.878295721,-22500.0,-7608.5514100562368,-11502.945555705912,-15815.362757221945,5206.075826642782,7938.8602481048729,-2723.3294960533199,14306.52684696733,-17401.192083765964,1703.514230615312,-1703.514230615312,17401.192083765964,28260.373180514991,0.0
390012.02908761695,3972225.878295721,-22500.0,-8591.4141593630429,-10845.635058864798,-12030.773374186934,5078.7749866700897,6431.9064180130763,-2304.8357215978917,12669.214608076252,-14672.318457230442,-402.76109814642223,402.76109814642223,14672.318457230442,25046.867824910776,0.0
395012.02908761695,3972225.878295721,-22500.0,-9136.2290194356265,-9776.0595980268827,-8729.8528838975108,4769.5079918169749,5067.9337850879119,-1911.2151154916658,11115.314398271646,-11907.930180184201,-2092.8305768982609,2092.8305768982609,11907.930180184201,21941.750067869918,0.0
400012.02908761695,3972225.878295721,-22500.0,-9278.9294193119531,-8482.0962272165725,-5976.9773782266229,4343.9875796060769,3883.5551734625474,-1556.2323278477122,9693.4363264619351,-9298.7649030235098,-3340.5568722999492,3340.5568722999492,9298.7649030235098,19045.669273587562,0.0
405012.02908761695,3972225.878295721,-22500.0,-9087.734577041072,-7113.0536025564033,-3767.6158021108204,3858.1381972815293,2889.3470070039834,-1246.5700037055797,8417.2181749552201,-6961.2833338210421,-4172.9486674611817,4172.9486674611817,6961.2833338210421,16418.247862324268,0.0
410012.02908761695,3972225.878295721,-22500.0,-8643.3373973487942,-5775.9983162436065,-2054.8458534927472,3355.2503968370725,2078.1855347989708,-983.59358277969068,7288.5702044784393,-4951.3708787893502,-4647.3297495849638,4647.3297495849638,4951.3708787893502,14086.514453661572,0.0
415012.02908761695,3972225.878295721,-22500.0,-8025.041038725868,-4539.6330683529532,-770.52875213166703,2865.9999343618388,1432.5080076128902,-765.11357867837387,6303.8418920489548,-3280.8511928059379,-4833.4292296987614,4833.4292296987614,3280.8511928059379,12053.63728986246,0.0
420012.02908761695,3972225.878295721,-22500.0,-7302.6274374009954,-3441.6916248233715,159.78902098319662,2410.0780037404079,929.86165118392319,-586.87441393569202,5454.5755953808739,-1932.8878408643063,-4801.204720650996,4801.204720650996,1932.8878408643063,10306.712954298349,0.0
270012.02908761695,3977225.878295721,-22500.0,1072.6097615261492,-3633.0789790108997,5692.928220246421,1077.5619251529401,-1932.4533803889278,479.43505080035027,4617.936219851259,-182.44441074002097,-552.47504011794149,552.47504011794149,182.44441074002097,8872.6653760630907,0.0
275012.02908761695,3977225.878295721,-22500.0,403.63800882336199,-3480.1124469002157,6299.6024492470224,961.66690139864136,-2083.9430591575765,501.65426430069664,4887.5126817887822,364.31902690644603,-1273.3083613966317,1273.3083613966317,-364.31902690644603,9291.4216969514382,0.0
280012.02908761695,3977225.878295721,-22500.0,-393.64604280039055,-3163.9991757236871,6879.766154429356,784.68982198967569,-2206.9743176920492,512.06305674844623,5154.6035361199865,1053.1993080633731,-2105.5166338415238,2105.5166338415238,-1053.1993080633731,9676.1217422589089,0.0
285012.02908761695,3977225.878295721,-22500.0,-1310.6891825708744,-2642.4116731807144,7381.128743594255,535.11674272052085,-2280.5162757869994,504.82579668637027,5419.501682653342,1890.9997662087276,-3031.9040360172316,3031.9040360172316,-1890.9997662087276,10023.572190026684,0.0
290012.02908761695,3977225.878295721,-22500.0,-2323.2263246392749,-1873.525078329608,7729.9781160248285,203.14902922898418,-2277.0080096917582,472.74725795479185,5687.492002746576,2870.4568431429298,-4016.4132646900607,4016.4132646900607,-2870.4568431429298,10343.320909362687,0.0
295012.02908761695,3977225.878295721,-22500.0,-3386.2452679361463,-822.97491731904461,7828.1240385176152,-216.83710351688214,-2162.1239526226523,407.41362296835285,5972.2510627070042,3961.9884542342998,-4998.2845553530105,4998.2845553530105,-3961.9884542342998,10668.068849996396,0.0
300012.02908761695,3977225.878295721,-22500.0,-4430.0683920494594,525.61767429667032,7552.7371886625351,-722.96144815994899,-1895.6954835519971,299.63972966902401,6299.4836808248419,5104.1096404103191,-5887.4446310122712,5887.4446310122712,-5104.1096404103191,11066.183683184527,0.0
305012.02908761695,3977225.878295721,-22500.0,-5359.677496643787,2156.6208863604402,6761.7352753745463,-1301.8548940291967,-1434.4963450395571,140.33756578699098,6708.8156644819355,6194.2838460301509,-6563.5925098053021,6563.5925098053021,-6194.2838460301509,11649.966488456101,0.0
310012.02908761695,3977225.878295721,-22500.0,-6060.1482204185422,4006.4114843262623,5307.8852794490704,-1924.6672330812519,-737.60180671224794,-78.119593947953035,7250.5048017165755,7083.612908441557,-6882.4014860506486,6882.4014860506486,-7083.612908441557,12566.310135216734,0.0
315012.02908761695,3977225.878295721,-22500.0,-6411.0985882635778,5949.3225505243227,3064.2813261035103,-2544.2925584803561,225.29204839324126,-360.06299677980661,7973.9547152877749,7580.4925197122393,-6692.4838362003193,6692.4838362003193,-7580.4925197122393,13957.716681731436,0.0
320012.02908761695,3977225.878295721,-22500.0,-6311.5113074364253,7792.1390339573691,-38.682670718747865,-3095.5830723908398,1463.0366015427262,-704.42251698388225,8909.5103507107196,7469.1172567094645,-5865.2082927331276,5865.2082927331276,-7469.1172567094645,15903.997636330931,0.0
325012.02908761695,3977225.878295721,-22500.0,-5712.4000429041917,9285.4321246350082,-3969.9606449634134,-3500.4579891257222,2951.5278601096898,-1102.7661435088821,10051.176650481135,6546.8111898265679,-4335.1072605217314,4335.1072605217314,-6546.8111898265679,18379.464893654691,0.0
330012.02908761695,3977225.878295721,-22500.0,-4648.8861356834977,10158.229445920868,-8560.4085004706558,-3679.0479133097292,4625.0053636819512,-1538.0949184998562,11348.805942002404,4677.9930385641319,-2141.5786139574802,2141.5786139574802,-4677.9930385641319,21248.342042164197,0.0
335012.02908761695,3977225.878295721,-22500.0,-3257.9135996405075,10175.198560512577,-13489.241144185004,-3566.0327464232855,6374.6428036719017,-1985.0631216068214,12712.777072779578,1852.5735646501771,544.41440029231399,-544.41440029231399,-1852.5735646501771,24289.609719500579,0.0
340012.02908761695,3977225.878295721,-22500.0,-1767.6213072645737,9203.5110277161766,-18311.076324205143,-3128.5161000353178,8058.1489666397711,-2412.0955532686685,14029.029661199605,-1772.9693105860151,3426.5607445961878,-3426.5607445961878,1772.9693105860151,27234.489149514928,0.0
345012.02908761695,3977225.878295721,-22500.0,-453.08136430854319,7265.7127955343458,-22527.930294863399,-2379.4885574007076,9520.8619098421404,-2785.3973048365378,15181.366447212567,-5875.0589496495313,6131.4575581192321,-6131.4575581192321,5875.0589496495313,29808.576116490483,0.0
350012.02908761695,3977225.878295721,-22500.0,431.17594671850838,4553.9918887132826,-25690.134016115106,-1380.9896359921092,10623.961357995635,-3074.1784044752662,16077.771270930854,-10014.01641023111,8289.7933064423632,-8289.7933064423632,10014.01641023111,31774.037893614812,0.0
355012.02908761695,3977225.878295721,-22500.0,717.60459758007653,1394.7483660534087,-27493.105911424398,-234.3283271310932,11271.468607102644,-3255.8459172335811,16656.439121179163,-13725.079984951806,9623.3315747262259,-9623.3315747262259,13725.079984951806,32964.789491402487,0.0
360012.02908761695,3977225.878295721,-22500.0,365.11644417938328,-1825.6700545368308,-27835.557634211953,940.12088848778512,11427.296956107035,-3319.7311085324382,16850.157575189005,-16618.274711909664,10005.37173464895,-10005.37173464895,16618.274711909664,33306.770746620969,0.0
365012.02908761695,3977225.878295721,-22500.0,-541.69105498318868,-4746.3014123172507,-26821.461961446934,2026.8288212172108,11117.416448966878,-3268.3184801964885,16626.723061704099,-18452.212574197627,9474.5714712505469,-9474.5714712505469,18452.212574197627,32819.244262029824,0.0
370012.02908761695,3977225.878295721,-22500.0,-1828.20716773652,-7098.6641530876404,-24712.286597442431,2935.1632313852597,10418.029989328716,-3115.7573722359302,16019.937060282769,-19161.017878634106,8203.5374668974109,-8203.5374668974109,19161.017878634106,31599.037487872585,0.0
375012.02908761695,3977225.878295721,-22500.0,-3282.16162165684,-8738.6720060935586,-21853.128290852877,3610.5438954585388,9435.3106625927885,-2884.3170576681869,15103.212245075538,-18835.008217160022,6440.7560239017685,-6440.7560239017685,18835.008217160022,29794.361048948533,0.0
380012.02908761695,3977225.878295721,-22500.0,-4702.844989341882,-9643.1396207771668,-18599.274378794365,4035.7142516662402,8283.7018408659787,-2599.9603348383926,13966.373746257021,-17671.781362595259,4449.2563861646295,-4449.2563861646295,17671.781362595259,27576.185452804515,0.0
385012.02908761695,3977225.878295721,-22500.0,-5934.4268944904561,-9882.2010030903748,-15261.473172750662,4224.4336701184484,7068.2983098866316,-2288.2289799552523,12700.787122019336,-15918.866373001381,2459.3259105726993,-2459.3259105726993,15918.866373001381,25113.552928371253,0.0
390012.02908761695,3977225.878295721,-22500.0,-6879.9593708164384,-9582.2895652745865,-12076.369728815318,4211.3415992244136,5873.9340180209147,-1971.2381561635434,11391.168961710266,-13824.363277179778,642.30875696977,-642.30875696977,13824.363277179778,22556.202495429676,0.0
395012.02908761695,3977225.878295721,-22500.0,-7499.4993929515649,-8891.365029786999,-9199.3938103157489,4041.4411491520864,4760.9640213063094,-1666.058711993594,10112.057112093704,-11603.645836877447,-896.0509530495483,896.0509530495483,11603.645836877447,20025.08665792691,0.0
400012.02908761695,3977225.878295721,-22500.0,-7798.6577066780246,-7952.7994865397359,-6712.9418051077173,3761.4505076480441,3766.1376676830505,-1384.3399278203742,8916.4463255387454,-9422.935576492313,-2108.7085177738509,2108.7085177738509,9422.935576492313,17609.545489775192,0.0
405012.02908761695,3977225.878295721,-22500.0,-7813.6263344804847,-6889.5627410368352,-4642.2080849295753,3413.9339770173196,2906.4604890530995,-1132.7999772069172,7824.3835107658042,-7396.2501345350211,-2993.5963669029093,2993.5963669029093,7396.2501345350211,15369.100087764291,0.0
410012.02908761695,3977225.878295721,-22500.0,-7596.9369913686623,-5797.3628247368069,-2972.781707976369,3034.150508373622,2184.2214063524293,-914.17952182218414,6840.689461410102,-5590.8599557027719,-3578.3893656557725,3578.3893656557725,5590.8599557027719,13337.873734763307,0.0
415012.02908761695,3977225.878295721,-22500.0,-7206.1762819985252,-4744.1467627031871,-1666.3947053457355,2649.0319233239252,1591.9127861239047,-728.32643387664461,5966.3022846949734,-4036.8024522384749,-3907.0235506559202,3907.0235506559202,4036.8024522384749,11530.017354424454,0.0
275012.02908761695,3982225.878295721,-22500.0,-245.5580933416436,-2668.3896759882091,5752.0695705517965,630.35112577420557,-1769.094304106432,391.30039864582182,4270.7032567270116,849.51997510119031,-1695.1555142773484,1695.1555142773484,-849.51997510119031,8031.1585844452302,0.0
280012.02908761695,3982225.878295721,-22500.0,-958.03034398570639,-2275.9643282093034,6152.9403088947192,446.97289331179832,-1831.5111645031252,388.47659131202568,4479.350003000267,1495.4445122980164,-2416.5089979796467,2416.5089979796467,-1495.4445122980164,8307.0276188982534,0.0
285012.02908761695,3982225.878295721,-22500.0,-1745.9591466561503,-1703.9695783709226,6447.4661573423737,205.11146312512517,-1842.1600176967434,369.45210469055422,4689.8508939109943,2247.4124230352813,-3186.0394332765559,3186.0394332765559,-2247.4124230352813,8561.0822096705851,0.0
290012.02908761695,3982225.878295721,-22500.0,-2581.0652412754798,-926.95897692874189,6569.696814921198,-99.890455142005464,-1778.5615174508009,328.78225924345281,4910.8040589151497,3087.8467123153396,-3964.7625119254426,3964.7625119254426,-3087.8467123153396,8813.278217906216,0.0
295012.02908761695,3982225.878295721,-22500.0,-3419.3254400527726,70.363663681362567,6437.3020216644818,-468.44648942683773,-1614.2259977048684,260.4013574301207,5158.3804665848811,3979.594193033327,-4694.9796765309648,4694.9796765309648,-3979.594193033327,9105.7209604936506,0.0
300012.02908761695,3982225.878295721,-22500.0,-4199.9033263866122,1284.9909761017641,5953.9469877715264,-894.39006700712537,-1319.9835659070629,158.04992214724794,5457.9260341692689,4860.109633245328,-5298.9943683726715,5298.9943683726715,-4860.109633245328,9509.0958456464214,0.0
305012.02908761695,3982225.878295721,-22500.0,-4847.1135755327286,2685.9830711600953,5016.2020509334034,-1362.4860911339063,-866.66881282298687,15.979078016000511,5843.0707008606951,5637.2262546087914,-5681.3503307340707,5681.3503307340707,-5637.2262546087914,10120.988699540521,0.0
310012.02908761695,3982225.878295721,-22500.0,-5277.0470478957614,4205.035712161658,3526.5804540852832,-1846.3408550725769,-229.44974895971808,-170.05252232402128,6350.3789094127787,6189.0118983322045,-5736.5898358103696,5736.5898358103696,-6189.0118983322045,11047.941621087388,0.0
315012.02908761695,3982225.878295721,-22500.0,-5410.0244253532946,5730.2762778446013,1413.4104886817945,-2307.5581974085876,606.22651295911339,-401.54808514727978,7009.2597922139694,6370.8281353036364,-5364.1088309258375,5364.1088309258375,-6370.8281353036364,12371.511300977269,0.0
320012.02908761695,3982225.878295721,-22500.0,-5188.5910561256906,7107.493242472854,-1343.8345141374311,-2697.1749547235436,1637.6882104721019,-675.97555469811618,7830.2121701740507,6032.3969409211149,-4490.1027132578292,4490.1027132578292,-6032.3969409211149,14114.377434694317,0.0
325012.02908761695,3982225.878295721,-22500.0,-4598.1949678807014,8153.0739253484808,-4688.3864702294786,-2960.2725073917945,2838.5050049268598,-985.68929044959293,8796.4911981051337,5045.6433818119403,-3093.6223459588141,3093.6223459588141,-5045.6433818119403,16225.380252262034,0.0
330012.02908761695,3982225.878295721,-22500.0,-3684.6229010051343,8680.8085967772331,-8467.3932909017094,-3044.0030871750846,4154.5213005992164,-1317.4383229914299,9862.558861331705,3339.9690664787831,-1229.9808491026586,1229.9808491026586,-3339.9690664787831,18586.21735354554,0.0
335012.02908761695,3982225.878295721,-22500.0,-2560.3186773740558,8539.936791696935,-12430.467952925343,-2908.0619690107374,5504.8358250047932,-1652.818311700509,10959.33143797208,936.31320185090408,958.04376779793097,-958.04376779793097,-936.31320185090408,21030.269959235051,0.0
340012.02908761695,3982225.878295721,-22500.0,-1392.9459302817136,7655.5419202024477,-16253.18180330378,-2535.2158109310208,6789.3311448467848,-1969.8689162793096,12004.558331445,-2032.5440770802059,3250.0551843560352,-3250.0551843560352,2032.5440770802059,23366.112529991096,0.0
345012.02908761695,3982225.878295721,-22500.0,-375.08864673705114,6057.8392510856611,-19585.517566109665,-1938.5762206569743,7902.4442514671691,-2245.724721001639,12916.974250838111,-5327.0571676063155,5381.8946131282901,-5381.8946131282901,5327.0571676063155,25403.080426563356,0.0
350012.02908761695,3982225.878295721,-22500.0,317.87048843324567,3887.7933241348196,-22114.854129682575,-1162.6486028052777,8750.4246151640837,-2459.8696229006096,13633.461350611342,-8635.5448713197547,7096.8385651346189,-7096.8385651346189,8635.5448713197547,26976.666841762955,0.0
355012.02908761695,3982225.878295721,-22500.0,568.20106756288965,1374.1040941873948,-23625.131074096236,-277.00555941767453,9267.499526053487,-2597.2665314917049,14114.386713313615,-11630.963492683721,8198.8651608105829,-8198.8651608105829,11630.963492683721,27969.780497006941,0.0
360012.02908761695,3982225.878295721,-22500.0,340.69021085779872,-1212.2458125296234,-24033.721613403275,635.95126247273879,9426.324479205452,-2650.5806329348361,14311.472458774311,-14032.786975316607,8590.5882437250457,-8590.5882437250457,14032.786975316607,28325.569489978618,0.0
365012.02908761695,3982225.878295721,-22500.0,-315.63927579518247,-3611.0473412575116,-23395.894210781829,1495.5589232915424,9239.9888706836191,-2620.9425286072983,14192.977740633591,-15654.911753468477,8284.5423603971758,-8284.5423603971758,15654.911753468477,28049.364793995544,0.0
370012.02908761695,3982225.878295721,-22500.0,-1287.039744606868,-5617.2444730198922,-21879.076254858199,2235.6690724822879,8755.7950781340933,-2517.1331905545621,13775.555689083074,-16427.141638472483,7387.3614104143389,-7387.3614104143389,16427.141638472483,27200.400102574265,0.0
375012.02908761695,3982225.878295721,-22500.0,-2426.5836749748387,-7105.8758171120644,-19718.737834876349,2812.6183256348686,8043.5260007528641,-2353.5300658740848,13106.616291460226,-16388.627883381712,6065.8349324162782,-6065.8349324162782,16388.627883381712,25876.533714665416,0.0
380012.02908761695,3982225.878295721,-22500.0,-3586.5140328623152,-8035.4397077762715,-17170.794374773632,3207.4152741208627,7181.9886718299522,-2147.4426093077977,12247.872652555523,-15660.915598605756,4507.7323699236613,-4507.7323699236613,15660.915598605756,24196.335354349096,0.0
385012.02908761695,3982225.878295721,-22500.0,-4642.9316909698227,-8434.5230082650924,-14472.386610283695,3423.0204096249722,6247.1697936830578,-1916.5097682287412,11264.76101767758,-14412.207440661474,2888.3621488532981,-2888.3621488532981,14412.207440661474,22282.435560112001,0.0
390012.02908761695,3982225.878295721,-22500.0,-5509.1748169826315,-8379.6953695768989,-11816.920956529557,3478.6511731052651,5303.9617300752261,-1676.6533966674351,10219.864817053664,-12823.312977510584,1348.8006431923422,-1348.8006431923422,12823.312977510584,20248.639695232396,0.0
395012.02908761695,3982225.878295721,-22500.0,-6138.5402512172823,-7972.1465800750575,-9343.6721385818619,3403.1547400797272,4401.9409492702334,-1440.816337612647,9170.5476133981228,-11061.745323151841,-13.378424125497077,13.378424125497077,11061.745323151841,18191.737335871974,0.0
400012.02908761695,3982225.878295721,-22500.0,-6519.4269099034045,-7318.0856310575964,-7138.7650935233687,3229.0015765665662,3574.6084319615602,-1218.4692012523824,8166.7517172155103,-9266.1378041815115,-1143.3898113178147,1143.3898113178147,9266.1378041815115,16187.73547207125,0.0
405012.02908761695,3982225.878295721,-22500.0,-6666.5735299375283,-6515.1041448446013,-5243.1257835836777,2987.7370689938098,2840.9878890530085,-1015.7130334205449,7236.3931688325101,-7540.0119417618462,-2022.3538911067826,2022.3538911067826,7540.0119417618462,14291.529805833921,0.0
410012.02908761695,3982225.878295721,-22500.0,-6611.4285460991605,-5644.5593198244678,-3663.4191831047383,2707.107547277164,2208.4615159708624,-835.75452178644127,6385.8559619804619,-5952.4073236369695,-2657.7990519524392,2657.7990519524392,5952.4073236369695,12538.850780807043,0.0
275012.02908761695,3987225.878295721,-22500.0,-701.8130450571233,-1967.1428123429707,5173.9066444546079,374.70279767956271,-1483.7506573216408,301.46679366391254,3736.8191383369376,1197.7847773705005,-1946.9677942026326,1946.9677942026326,-1197.7847773705005,6947.6879847592727,0.0
280012.02908761695,3987225.878295721,-22500.0,-1322.0264047555142,-1534.7818453734126,5421.5669723431956,195.81249841635534,-1500.4352216300695,290.11087592130383,3903.8317988756667,1782.8214249480563,-2555.0519272211513,2555.0519272211513,-1782.8214249480563,7151.1573233741246,0.0
285012.02908761695,3987225.878295721,-22500.0,-1983.8323841020863,-950.96109219178709,5548.1980330118458,-28.872028086142183,-1466.5959926597061,264.42682406983135,4077.4937961775986,2437.4859962270352,-3176.9909911648606,3176.9909911648606,-2437.4859962270352,7349.8563336716734,0.0
290012.02908761695,3987225.878295721,-22500.0,-2658.8255407819156,-202.65160149980281,5497.4316656507581,-300.57257563733884,-1364.4698820391557,220.38858195436862,4268.2350731977849,3138.7644544027844,-3774.9745937549214,3774.9745937549214,-3138.7644544027844,7570.3608537533655,0.0
295012.02908761695,3987225.878295721,-22500.0,-3307.3535845400038,712.42669026291799,5202.8556850930045,-616.65845553312124,-1174.1906183842746,153.72179304863968,4492.5792299980558,3847.5715692627746,-4297.8288932867663,4297.8288932867663,-3847.5715692627746,7857.9805271639507,0.0
300012.02908761695,3987225.878295721,-22500.0,-3879.0772704647675,1779.9151126904776,4591.4809268438621,-969.09987042419618,-875.16317128019432,60.269651053733554,4773.1412665152639,4505.6693378461332,-4681.658151420379,4681.658151420379,-4505.6693378461332,8277.6706756656222,0.0
305012.02908761695,3987225.878295721,-22500.0,-4315.9923898318784,2962.6463986648027,3590.5862763209716,-1343.02083593412,-448.35866322414915,-63.466986340889115,5136.2135853090886,5034.4915439205988,-4853.3880876161647,4853.3880876161647,-5034.4915439205988,8906.2362589015829,0.0
310012.02908761695,3987225.878295721,-22500.0,-4558.7128981830638,4195.6189291167457,2138.5706572232266,-1715.762341609176,120.40281022507993,-219.62660519663638,5606.3154848980084,5337.5323411761519,-4738.2358868701676,4738.2358868701676,-5337.5323411761519,9813.5545011918366,0.0
315012.02908761695,3987225.878295721,-22500.0,-4556.2659206093986,5384.2343788505787,199.59500043878811,-2056.9990519081657,836.36459182875899,-408.18293037259144,6198.7409156550812,5308.0211119751139,-4271.5546626416863,4271.5546626416863,-5308.0211119751139,11038.989620112457,0.0
320012.02908761695,3987225.878295721,-22500.0,-4278.5520148838496,6408.2789123017546,-2219.6623517696657,-2330.4736182827837,1691.4986665450956,-626.16544405265336,6912.8013065826308,4842.9827457511055,-3414.2605589637988,3414.2605589637988,-4842.9827457511055,12575.135557048559,0.0
325012.02908761695,3987225.878295721,-22500.0,-3729.0726565510772,7133.6572288597836,-5054.6959131863432,-2497.7206969639924,2660.9083154887862,-867.09059976368428,7728.3961151070334,3863.1636604794589,-2169.203731380911,2169.203731380911,-3863.1636604794589,14365.460309140275,0.0
330012.02908761695,3987225.878295721,-22500.0,-2954.0485816899513,7432.1640403711544,-8174.4754085492787,-2523.6798343689638,3701.2574508387038,-1120.8198406886802,8606.830675003408,2335.775030908128,-593.94497038826091,593.94497038826091,-2335.775030908128,16312.565929707216,0.0
335012.02908761695,3987225.878295721,-22500.0,-2043.5243993992131,7206.6510621885736,-11384.785896087364,-2383.3929091430409,4752.4676500358337,-1374.029142287709,9495.2582349868735,294.30266330541212,1195.5398346899176,-1195.5398346899176,-294.30266330541212,18291.20856271332,0.0
340012.02908761695,3987225.878295721,-22500.0,-1121.3905566387552,6415.7217465821586,-14446.933043848465,-2068.2756310570767,5743.3300509184583,-1611.3677299769977,10333.773097969135,-2151.8106312537761,3034.5321014227616,-3034.5321014227616,2151.8106312537761,20163.23926446012,0.0
345012.02908761695,3987225.878295721,-22500.0,-324.63232489494061,5090.2375431861519,-17110.593066563702,-1590.1009682778481,6600.5741920103583,-1817.2061838107875,11064.677705534852,-4823.4891325683993,4733.2111432758857,-4733.2111432758857,4823.4891325683993,21793.612035277689,0.0
350012.02908761695,3987225.878295721,-22500.0,223.57207346081913,3335.0379005251875,-19154.100656148319,-981.15979377643532,7259.6675119315769,-1977.6841806036764,11644.267687105088,-7495.7641884296327,6109.6693368274364,-6109.6693368274364,7495.7641884296327,23066.171775884301,0.0
355012.02908761695,3987225.878295721,-22500.0,439.16855441478344,1313.6366455696741,-20421.674773080718,-290.09711022360534,7674.7604890330604,-2082.63123991151,12047.166030212751,-9934.1756992036353,7023.4560423607581,-7023.4560423607581,9934.1756992036353,23896.916674042404,0.0
360012.02908761695,3987225.878295721,-22500.0,293.21510927645198,-780.45076524308354,-20847.266428772735,425.70304963855261,7825.2347969129414,-2126.9223904763635,12237.219034820298,-11934.157460446128,7399.9210889746246,-7399.9210889746246,11934.157460446128,24242.277767899941,0.0
365012.02908761695,3987225.878295721,-22500.0,-185.86262758079283,-2757.4980440524905,-20459.124438296374,1109.2040013424146,7717.3141275143598,-2110.9656679315167,12185.200701092594,-13352.620076862719,7238.8269270266665,-7238.8269270266665,13352.620076862719,24100.959465942273,0.0
370012.02908761695,3987225.878295721,-22500.0,-923.14292390789672,-4461.1747386740399,-19365.672296670884,1711.961545457792,7380.7285897191532,-2040.2519483771191,11898.480249871798,-14124.196967508728,6606.3842302992998,-6606.3842302992998,14124.196967508728,23509.501205534874,0.0
375012.02908761695,3987225.878295721,-22500.0,-1816.448199254143,-5787.2109602503797,-17728.783356172098,2199.7208410978242,6861.8062740482192,-1924.1480865163473,11408.069435801826,-14260.284446530834,5615.1614888346621,-5615.1614888346621,14260.284446530834,22533.201196648337,0.0
380012.02908761695,3987225.878295721,-22500.0,-2757.5516297431013,-6688.8749709944832,-15732.882131460416,2554.5970083818688,6215.0672740592709,-1774.2729660485954,10756.742092073342,-13834.327965805202,4399.0320435719468,-4399.0320435719468,13834.327965805202,21254.802530668985,0.0
385012.02908761695,3987225.878295721,-22500.0,-3649.9148281656389,-7171.145121330047,-13557.381853740815,2774.1158800028952,5495.3219070155628,-1602.8422733863069,9991.5852079197648,-12959.706870843354,3089.9665237584659,-3089.9665237584659,12959.706870843354,19763.312605142433,0.0
390012.02908761695,3987225.878295721,-22500.0,-4419.9573417475976,-7277.8498801534997,-11357.007054005226,2868.0929227402407,4751.6312708693267,-1421.2867381450947,9158.923699393863,-11766.701368938069,1801.0832481744828,-1801.0832481744828,11766.701368938069,18144.690077942869,0.0
395012.02908761695,3987225.878295721,-22500.0,-5021.4214034299102,-7076.3799952497411,-9251.2792109282727,2854.5337127238622,4023.6715896161577,-1239.310034089845,8301.7275386545261,-10383.214957914854,617.44639949662178,-617.44639949662178,10383.214957914854,16475.26041166492,0.0
400012.02908761695,3987225.878295721,-22500.0,-5434.1614001023872,-6643.5613762037601,-7322.0408194712218,2755.574105712808,3340.3780492013257,-1064.4189576101969,7460.1127095440916,-8921.5374251733338,-406.16191749720019,406.16191749720019,8921.5374251733338,14817.99413922342,0.0
405012.02908761695,3987225.878295721,-22500.0,-5659.4457842450092,-6054.723545193775,-5616.6323948875988,2594.1167201041662,2720.3234385607116,-901.8498491292039,6667.3117994613349,-7471.3307302563771,-1242.4987416918216,1242.4987416918216,7471.3307302563771,13221.221516594271,0.0
410012.02908761695,3987225.878295721,-22500.0,-5713.793294938564,-5376.590760265286,-4154.2053616565663,2391.4482134513823,2173.1805138570567,-754.77469095065737,5935.0091571496068,-6097.7563838888082,-1886.3720127195875,1886.3720127195875,6097.7563838888082,11719.153270651866,0.0
285012.02908761695,3992225.878295721,-22500.0,-2082.3206515620859,-361.07181726132512,4710.3569783744806,-189.3295962983297,-1150.4080461546889,183.95180752337629,3565.0735661426952,2502.7384322646512,-3060.2173205981389,3060.2173205981389,-2502.7384322646512,6352.2731116204204,0.0
290012.02908761695,3992225.878295721,-22500.0,-2618.9075076164586,336.33851741098607,4533.1344468022116,-426.14684178527062,-1025.9118378223782,139.91260413908844,3736.4155385571717,3073.9572967817926,-3505.6527517119343,3505.6527517119343,-3073.9572967817926,6563.0217755960275,0.0
295012.02908761695,3992225.878295721,-22500.0,-3112.2433229754297,1156.080671222094,4131.3957353208671,-692.83626364367228,-826.05310751259822,77.667213565450126,3945.2503231230021,3622.9700943524786,-3863.0807569915587,3863.0807569915587,-3622.9700943524786,6858.2797050080062,0.0
300012.02908761695,3992225.878295721,-22500.0,-3522.2038118737,2078.0650281092967,3451.458530851181,-980.97269873308778,-536.67457801539717,-5.4695653865441347,4210.2759010229793,4098.4185174179829,-4081.7234143250212,4081.7234143250212,-4098.4185174179829,7292.5244562395455,0.0
305012.02908761695,3992225.878295721,-22500.0,-3805.6036345506768,3064.3828855137695,2443.933381994892,-1277.1247366937569,-145.8323785097021,-111.52127171601757,4550.6504145066647,4435.6509611668407,-4107.1597248765138,4107.1597248765138,-4435.6509611668407,7921.1693827398976,0.0
310012.02908761695,3992225.878295721,-22500.0,-3921.5201430705238,4057.0435035233509,1072.2142332634082,-1562.5704230340364,353.81489017229524,-241.36706724443849,4981.4571601961989,4560.066807244234,-3887.7338557859862,3887.7338557859862,-4560.066807244234,8785.3538708896685,0.0
315012.02908761695,3992225.878295721,-22500.0,-3838.5940337891343,4978.5027477704552,-677.12892841319717,-1813.8244855814071,962.27151774996207,-394.22723701384308,5508.8171444068448,4394.1249481511841,-3383.4992722034212,3383.4992722034212,-4394.1249481511841,9898.157649224102,0.0
320012.02908761695,3992225.878295721,-22500.0,-3543.3974932516285,5736.3552570133788,-2783.558284841401,-2004.265526753119,1669.5607941693584,-567.2061467124762,6126.3942331691833,3868.2567985004589,-2576.7434492549128,2576.7434492549128,-3868.2567985004589,11238.527449025107,0.0
325012.02908761695,3992225.878295721,-22500.0,-3048.0867297071459,6233.00615064262,-5183.8906885616088,-2106.9802311791127,2453.8226058914361,-755.0095712169358,6814.379501681592,2934.7916070794072,-1482.0684478950816,1482.0684478950816,-2934.7916070794072,12753.444825914541,0.0
330012.02908761695,3992225.878295721,-22500.0,-2394.8949071635893,6379.9052208852481,-7768.9062506749306,-2098.6292797977485,3280.9077194013721,-949.96139889287633,7540.968056890003,1582.5103351754508,-153.10053358971277,153.10053358971277,-1582.5103351754508,14364.828319954639,0.0
335012.02908761695,3992225.878295721,-22500.0,-1655.0433133194122,6114.1976934236736,-10388.142915577257,-1963.7402152590332,4106.1042345553924,-1142.4121670530747,8265.7819623608211,-151.87929054209269,1317.2651404470889,-1317.2651404470889,151.87929054209269,15978.298450449034,0.0
340012.02908761695,3992225.878295721,-22500.0,-920.71483941805627,5414.0025610437115,-12864.218200736823,-1698.4842023117112,4878.2234637435658,-1321.5620841937343,8944.7421721810933,-2179.4750470673939,2805.1335064834843,-2805.1335064834843,2179.4750470673939,17492.868263273715,0.0
345012.02908761695,3992225.878295721,-22500.0,-290.7678159402235,4307.8373984684567,-15015.313692338716,-1312.8784737357703,5545.6323313387556,-1476.6160182089204,9536.3438326675023,-4365.1156620673564,4172.1495319925534,-4172.1495319925534,4365.1156620673564,18811.243011739898,0.0
350012.02908761695,3992225.878295721,-22500.0,146.80110981601933,2874.6397904489309,-16681.51511828677,-830.60243808589269,6063.1506695891894,-1598.0864116597363,10010.254045499232,-6543.83353564961,5287.2200460885379,-5287.2200460885379,6543.83353564961,19849.914147752475,0.0
355012.02908761695,3992225.878295721,-22500.0,331.0898538269463,1233.3867791469183,-17748.818455018951,-286.2158263542683,6398.3146085785847,-1678.9914564392661,10350.647437602105,-8544.7499953913848,6048.1556434302292,-6048.1556434302292,8544.7499953913848,20547.656858555918,0.0
360012.02908761695,3992225.878295721,-22500.0,238.77142657039226,-475.47056513310821,-18164.861168653661,279.69216464400364,6535.5654219857115,-1715.698635844712,10528.882447133461,-10216.745807882133,6397.6207595680107,-6397.6207595680107,10216.745807882133,20870.985674586587,0.0
365012.02908761695,3992225.878295721,-22500.0,-113.80042366350665,-2112.0029294334163,-17942.846417926132,826.29074467956866,6477.4718035345513,-1708.2432538298444,10518.833841104397,-11449.611083027985,6329.5229934394465,-6329.5229934394465,11449.611083027985,20815.681484225628,0.0
370012.02908761695,3992225.878295721,-22500.0,-676.74443135220793,-3556.7779166692985,-17153.688268547932,1317.9032934577356,6242.9181585353499,-1660.0800780385005,10323.081783448015,-12186.057237137033,5885.0648994520243,-5885.0648994520243,12186.057237137033,20404.385732124694,0.0
375012.02908761695,3992225.878295721,-22500.0,-1378.5436350079078,-4724.5572126270199,-15909.578047341034,1727.9142986182039,5862.9690438836897,-1577.3637987437369,9962.2135126823414,-12423.010691813748,5140.6996471263865,-5140.6996471263865,12423.010691813748,19681.108504697786,0.0
380012.02908761695,3992225.878295721,-22500.0,-2139.986068512198,-5569.8738813038772,-14343.816160608896,2040.6354546319469,5375.5689912683147,-1467.9484807919587,9466.1685830197657,-12203.703981427991,4192.027286531209,-4192.027286531209,12203.703981427991,18704.005620421714,0.0
385012.02908761695,3992225.878295721,-22500.0,-2886.7102208911074,-6085.0690886312323,-12591.613973543403,2251.1685538800052,4820.2787880818696,-1340.327911471262,8869.0457926723993,-11604.037403732089,3137.8289448582764,-3137.8289448582764,11604.037403732089,17537.864361761145,0.0
390012.02908761695,3992225.878295721,-22500.0,-3558.1268297373776,-6293.0215865765776,-10775.138494058594,2363.7500410154885,4233.954803128825,-1202.7047873765248,8205.3458789431606,-10717.166699497953,2067.3296544124623,-2067.3296544124623,10717.166699497953,16247.455289246896,0.0
395012.02908761695,3992225.878295721,-22500.0,-4111.9699189179191,-6237.342401873233,-8994.2099932112578,2389.2536489658264,3647.8360017945074,-1062.3061919576646,7507.5173346765232,-9639.537608857403,1052.1560811651361,-1052.1560811651361,9639.537608857403,14892.44606004428,0.0
400012.02908761695,3992225.878295721,-22500.0,-4524.9184120599211,-5972.4689449906564,-7322.4861838478009,2342.4972354322267,3086.0979543760895,-924.98491847774187,6805.4389594722352,-8460.2973114817614,143.00116373579749,-143.00116373579749,8460.2973114817614,13524.126665365709,0.0
290012.02908761695,3997225.878295721,-22500.0,-2506.1897166970352,725.3081554586214,3683.5270265279187,-497.77002660075698,-752.74233822799658,81.003418595133866,3294.9072431516579,2933.2282421448303,-3197.728436298104,3197.728436298104,-2933.2282421448303,5745.7438905455265,0.0
295012.02908761695,3997225.878295721,-22500.0,-2875.455807982104,1447.0414216595577,3217.1247838640129,-720.13841637318058,-554.18480107169523,24.512253036265541,3492.0014189072181,3347.2549236292953,-3426.5637464573292,3426.5637464573292,-3347.2549236292953,6051.4470106705903,0.0
300012.02908761695,3997225.878295721,-22500.0,-3162.4001993249562,2233.403206401762,2511.1331456012517,-953.68579668522204,-282.81256908944493,-48.147435101342232,3742.2507419338731,3676.5846262941827,-3524.450985858864,3524.450985858864,-3676.5846262941827,6492.4188315536221,0.0
305012.02908761695,3997225.878295721,-22500.0,-3335.6165480996533,3048.7607201795108,1533.3109560909572,-1186.8332048890927,68.493471916422564,-138.05656227591783,4058.7082965589734,3869.3121786144889,-3451.7765292676072,3451.7765292676072,-3869.3121786144889,7105.4047150900778,0.0
310012.02908761695,3997225.878295721,-22500.0,-3367.6307101103203,3843.3528109511794,263.95012600999792,-1404.4842631846857,502.82079631005286,-245.37358608509038,4449.6521898561241,3868.7467636211331,-3173.782228493279,3173.782228493279,-3868.7467636211331,7911.2853990547774,0.0
315012.02908761695,3997225.878295721,-22500.0,-3240.1552580814896,4554.8446020954689,-1296.9442957114427,-1588.6733295810513,1017.4339915456717,-369.01139346002401,4915.6701358576356,3619.2942480930537,-2667.0873535201522,2667.0873535201522,-3619.2942480930537,8908.2708971434713,0.0
320012.02908761695,3997225.878295721,-22500.0,-2949.5861770314273,5112.7853136248041,-3122.8604590710038,-1719.9405263660517,1602.198300555885,-506.37629290216381,5448.0674265210209,3074.6379134518484,-1926.7201389288473,1926.7201389288473,-3074.6379134518484,10070.753167888779,0.0
325012.02908761695,3997225.878295721,-22500.0,-2511.4926225388554,5446.1966101033522,-5156.0745324640602,-1779.4381663815736,2238.6351542762718,-653.2416407540461,6028.9123576803568,2207.3310835971438,-972.20586892990968,972.20586892990968,-2207.3310835971438,11352.446533397615,0.0
330012.02908761695,3997225.878295721,-22500.0,-1962.5962590688921,5493.6945001159611,-7306.9392793495253,-1751.5744382210469,2900.0451049795402,-803.82649593826989,6632.5067746713985,1018.070188250503,149.12739862327771,-149.12739862327771,-1018.070188250503,12691.511904832936,0.0
335012.02908761695,3997225.878295721,-22500.0,-1358.9258099310998,5214.5441701559484,-9458.6895130591492,-1626.7776921162435,3553.0162848132691,-951.12391509596944,7227.9270687951857,-457.70770713683385,1363.3564949752199,-1363.3564949752199,457.70770713683385,14016.453804884533,0.0
340012.02908761695,3997225.878295721,-22500.0,-769.60094339926684,4598.2210041560602,-11478.207730943455,-1403.7948623346294,4160.367903198051,-1087.4796815135701,7782.4123057137667,-2148.2808912749524,2576.6197404981694,-2576.6197404981694,2148.2808912749524,15252.543405459122,0.0
345012.02908761695,3997225.878295721,-22500.0,-266.9215767848396,3669.8392066858155,-13231.577693854553,-1090.9146433851743,4685.2065963825371,-1205.3590563686216,8265.7741785580201,-3950.6817368080951,3686.7524366015136,-3686.7524366015136,3950.6817368080951,16328.60619175405,0.0
350012.02908761695,3997225.878295721,-22500.0,85.278791459164978,2489.4994212022784,-14601.641304488312,-705.67867508246491,5095.4129080475032,-1298.185149339708,8657.1239705910484,-5742.2242875662496,4597.8390947183425,-4597.8390947183425,5742.2242875662496,17183.632835302556,0.0
355012.02908761695,3997225.878295721,-22500.0,242.26688770770073,1145.1230386731247,-15503.822565568118,-272.99629619094708,5367.6691593511405,-1361.0982928756453,8947.2041336213806,-7396.5196625544659,5234.4797956252578,-5234.4797956252578,7396.5196625544659,17772.352103201989,0.0
360012.02908761695,3997225.878295721,-22500.0,185.40468964363436,-259.84488267977207,-15896.694716796817,178.00975185882757,5490.1906829985774,-1391.4909610885165,9111.7180960801816,-8800.5626890335225,5552.4407439050728,-5552.4407439050728,8800.5626890335225,18068.893998105159,0.0
365012.02908761695,3997225.878295721,-22500.0,-76.090128477353602,-1621.0417267009364,-15785.131854667012,617.76151971241882,5463.6305301016582,-1389.2195624139001,9127.785791016966,-9869.1144215505919,5543.3433207966846,-5543.3433207966846,9869.1144215505919,18067.990708129299,0.0
370012.02908761695,3997225.878295721,-22500.0,-508.67028749596733,-2846.8299793986898,-15215.899940294314,1019.8068532411878,5300.087652115998,-1356.467939691435,8995.7505315203762,-10553.506106977095,5232.7822804891221,-5232.7822804891221,10553.506106977095,17783.664930440427,0.0
375012.02908761695,3997225.878295721,-22500.0,-1061.9092760006611,-3868.2739800767577,-14267.407357872666,1363.5473108767846,5020.5938438469766,-1297.3135575175545,8729.5038167577713,-10843.663490207802,4673.0176245970124,-4673.0176245970124,10843.663490207802,17245.853593675289,0.0
380012.02908761695,3997225.878295721,-22500.0,-1677.7185409015453,-4644.0654097549805,-13036.435764486232,1635.7324549619939,4651.7364288013841,-1217.1038419261322,8350.2146962399584,-10763.968669138063,3932.5474943523577,-3932.5474943523577,10763.968669138063,16495.740752478188,0.0
385012.02908761695,3997225.878295721,-22500.0,-2299.1595541182842,-5160.4395034412801,-11624.803090219983,1830.6728135201813,4222.1432382996554,-1121.7729760718003,7882.7443166219073,-10364.865870723257,3085.1521564699574,-3085.1521564699574,10364.865870723257,15580.68455101789,0.0
390012.02908761695,3997225.878295721,-22500.0,-2877.2707972091703,-5427.2203158980992,-10128.229231167137,1949.4055568774347,3759.4246917097157,-1017.21498825709,7352.9383639545431,-9712.6088659567722,2200.5120089956263,-2200.5120089956263,9712.6088659567722,14549.499041695946,0.0
395012.02908761695,3997225.878295721,-22500.0,-3375.1708872305421,-5471.6366239648687,-8628.6318700389857,1998.1946968494242,3287.9286690196554,-908.79318179258428,6785.6156352691705,-8879.306320078329,1337.6163604274793,-1337.6163604274793,8879.306320078329,13448.608972660906,0.0
295012.02908761695,4002225.878295721,-22500.0,-2623.8177904459271,1623.0261692792897,2447.3762145583564,-715.29790742664352,-344.40316128714835,-11.746292672256216,3113.2586850003731,3049.3755089065949,-3009.7254253802298,3009.7254253802298,-3049.3755089065949,5393.2402659103973,0.0
300012.02908761695,4002225.878295721,-22500.0,-2818.5883834805682,2287.5851692882361,1744.5516226498646,-903.43506287149035,-95.26379058369703,-74.475954700212213,3348.3938895166266,3264.2453526484978,-3021.6025622675506,3021.6025622675506,-3264.2453526484978,5831.4302328293224,0.0
305012.02908761695,4002225.878295721,-22500.0,-2913.9818979844395,2957.3788408942655,818.28972883374968,-1086.1935598726882,216.51335243809973,-150.14776772164649,3640.1045134868905,3350.2263474326191,-2886.0253765933194,2886.0253765933194,-3350.2263474326191,6416.5102010307801,0.0
310012.02908761695,4002225.878295721,-22500.0,-2892.0847032042479,3590.7592428370299,-340.02182580070064,-1251.5927343887365,591.46831059617841,-238.534035583611,3992.0756634672152,3264.7926449220622,-2580.2968534682313,2580.2968534682313,-3264.7926449220622,7156.2518925348377,0.0
315012.02908761695,4002225.878295721,-22500.0,-2743.1292629965756,4138.2369682760682,-1722.7796142914613,-1385.9922621645383,1025.6161884123908,-338.48411760961642,4401.8251503065612,2968.5296021316112,-2091.9084096622669,2091.9084096622669,-2968.5296021316112,8041.3592021778459,0.0
320012.02908761695,4002225.878295721,-22500.0,-2469.0389355393982,4546.3375242904649,-3301.9883181407172,-1475.1923533840102,1509.5321424393103,-447.78047785312714,4860.125233036395,2431.1347702905045,-1423.1607630710876,1423.1607630710876,-2431.1347702905045,9046.2749444777801,0.0
325012.02908761695,4002225.878295721,-22500.0,-2085.9823194173605,4763.392484098611,-5026.8851438853098,-1505.9663035666433,2027.9352539073468,-563.09432983590864,5351.441005351362,1637.9688619509807,-594.76016283824913,594.76016283824913,-1637.9688619509807,10132.021240549191,0.0
330012.02908761695,4002225.878295721,-22500.0,-1625.0269169760604,4746.6971859010191,-6824.4932530219457,-1467.8646118560573,2560.019601679162,-680.0797576131389,5855.1813466684025,595.94587645891477,352.74760040097129,-352.74760040097129,-595.94587645891477,11249.84352874282,0.0
335012.02908761695,4002225.878295721,-22500.0,-1130.1906789196078,4469.8891648455565,-8603.8860605258742,-1355.0050746924585,3080.6860474718042,-793.62725089598973,6347.5604502922988,-662.7265560074004,1360.6649916361082,-1360.6649916361082,662.7265560074004,12345.22148040948,0.0
340012.02908761695,4002225.878295721,-22500.0,-653.71703502567573,3928.9950577951208,-10264.213701128312,-1167.4856158428288,3562.6555228314392,-898.26850166452323,6803.9940900396305,-2080.3296568542246,2357.3443207284199,-2357.3443207284199,2080.3296568542246,13362.215689750001,0.0
345012.02908761695,4002225.878295721,-22500.0,-249.13834177211692,3145.5705091196251,-11705.579802287506,-912.06276566743281,3979.2265648884254,-988.6890376710478,7202.3328142699938,-3577.7167122029632,3266.4329229163832,-3266.4329229163832,3577.7167122029632,14248.035514715426,0.0
350012.02908761695,4002225.878295721,-22500.0,36.590814245084594,2165.8435119920268,-12840.95097580185,-601.85805999914999,4307.2433579676062,-1060.2740199683847,7528.5599285385733,-5062.4800153775523,4016.7847103696677,-4016.7847103696677,5062.4800153775523,14957.461082719308,0.0
355012.02908761695,4002225.878295721,-22500.0,170.19547800868003,1055.6912659793343,-13606.791733434275,-255.0634598467656,4529.7350752432594,-1109.5968331653605,7777.920995392974,-6439.8835632406826,4552.0468672721945,-4552.0468672721945,6439.8835632406826,15456.574215788072,0.0
360012.02908761695,4002225.878295721,-22500.0,136.8275911280333,-107.67058475290393,-13970.283379185923,107.14798187115525,4637.727915189108,-1134.7640723954889,7928.2704366500075,-7624.4529683309993,4837.8964778615536,-4837.8964778615536,7624.4529683309993,15725.260638912656,0.0
365012.02908761695,4002225.878295721,-22500.0,-58.531482115216214,-1245.5653382657183,-13931.778324726607,463.10616210238504,4630.9085252384875,-1135.558780822158,7960.0864125685985,-8549.9012130671308,4865.473678843493,-4865.473678843493,8549.9012130671308,15758.132582326269,0.0
370012.02908761695,4002225.878295721,-22500.0,-393.10989438229478,-2287.2898362085361,-13522.316463590694,793.05264019326989,4517.0799470439315,-1113.3660099069143,7872.8741026061734,-9175.5717429879005,4650.5616304607429,-4650.5616304607429,9175.5717429879005,15563.815672392724,0.0
375012.02908761695,4002225.878295721,-22500.0,-831.07464201781829,-3177.3738061582858,-12797.144594224095,1081.0535253777132,4310.6126070922819,-1070.9084668006356,7676.1641898845619,-9488.526243994982,4229.1033931775983,-4229.1033931775983,9488.526243994982,15162.841695143881,0.0
380012.02908761695,4002225.878295721,-22500.0,-1329.6720195150483,-3879.6590835789943,-11826.90894526846,1316.1556636710197,4030.2692962586943,-1011.8535594041271,7385.0726273166292,-9501.485475135476,3650.3938148507741,-3650.3938148507741,9501.485475135476,14584.597359292398,0.0
385012.02908761695,4002225.878295721,-22500.0,-1845.4076768894915,-4378.0508502933317,-10688.377527878365,1492.7205554932978,3696.8467751133594,-940.36960802870021,7017.849730822285,-9247.6743877202953,2969.5516716796469,-2969.5516716796469,9247.6743877202953,13863.877307526785,0.0
390012.02908761695,4002225.878295721,-22500.0,-2339.1684608351602,-4674.4926966181729,-9456.2430885897902,1610.040341003154,3331.0208602878347,-860.70241906311549,6593.9550866907566,-8774.018978918115,2240.6857446381223,-2240.6857446381223,8774.018978918115,13037.53817918839,0.0
305012.02908761695,4007225.878295721,-22500.0,-2541.9466297213962,2819.7051624804722,262.97490947754159,-983.87695417856673,315.25081144145531,-152.78521229428193,3279.9170182772605,2884.3392960998281,-2403.3632505249798,2403.3632505249798,-2884.3392960998281,5824.8321189894996,0.0
310012.02908761695,4007225.878295721,-22500.0,-2486.8231063451617,3322.9653555752548,-783.92279654777076,-1109.2005355362246,637.5557869008577,-225.45984369824063,3594.8962645035822,2743.501257661308,-2090.1617497189472,2090.1617497189472,-2743.501257661308,6496.1113723230828,0.0
315012.02908761695,4007225.878295721,-22500.0,-2330.8743821637795,3742.8050038836568,-2003.3228611290367,-1206.7257278990323,1003.4932353798922,-306.32446345116273,3954.0292685888862,2425.4082451739132,-1631.5060748781764,1631.5060748781764,-2425.4082451739132,7277.2434908951564,0.0
320012.02908761695,4007225.878295721,-22500.0,-2078.9083775267554,4038.7156303575152,-3368.1711181597557,-1266.0908410570507,1404.7048461794341,-393.53527608518289,4348.4921637752559,1910.6939190225189,-1033.568901529809,1033.568901529809,-1910.6939190225189,8144.8012035867987,0.0
325012.02908761695,4007225.878295721,-22500.0,-1746.2733358085486,4173.0146418658387,-4834.8171502496298,-1277.9887437337661,1828.7163255367177,-484.49123195119819,4765.1516002515618,1192.7140992128475,-316.29217857171142,316.29217857171142,-1192.7140992128475,9066.5757467878757,0.0
330012.02908761695,4007225.878295721,-22500.0,-1358.8442137978698,4115.8989548535237,-6344.0883088706451,-1235.3985196655592,2259.3213755871375,-575.92339845063941,5187.5621925649048,281.27495301949455,486.17930037803205,-486.17930037803205,-281.27495301949455,10004.137915063173,0.0
335012.02908761695,4007225.878295721,-22500.0,-951.24281046916963,3850.4011716950808,-7824.8609341915308,-1134.7530059398314,2677.552792575289,-664.0861255173545,5597.3289305009712,-795.29678919557546,1327.2150996352129,-1327.2150996352129,795.29678919557546,10915.608917510472,0.0
340012.02908761695,4007225.878295721,-22500.0,-563.27671311577274,3376.2497946005014,-9200.0325709438348,-976.81438827122679,3063.2009935598826,-745.04002878575409,5975.8358247705128,-1990.5425050472838,2151.7044363058722,-2151.7044363058722,1990.5425050472838,11758.657760312602,0.0
345012.02908761695,4007225.878295721,-22500.0,-235.03956221104494,2711.6833753455448,-10394.209952723553,-767.04763399766784,3396.7091319905549,-814.99771723003676,6306.7386265300729,-3243.102190932851,2901.9458151168492,-2901.9458151168492,3243.102190932851,12493.633016609632,0.0
350012.02908761695,4007225.878295721,-22500.0,-1.5130069168156117,1892.597010555819,-11341.917125644293,-515.35968963394669,3661.167285925088,-870.68300651661571,6581.2254224486387,-4482.5633954379555,3524.5018383732613,-3524.5018383732613,4482.5633954379555,13086.576247044031,0.0
355012.02908761695,4007225.878295721,-22500.0,112.25914618536089,968.97149180421968,-11994.870750703645,-235.19915763863906,3844.0719816753949,-909.65028360073131,6797.4030651787662,-5637.0494556079302,3976.7539351346986,-3976.7539351346986,5637.0494556079302,13511.766886736494,0.0
360012.02908761695,4007225.878295721,-22500.0,94.443726378467375,-0.84547504584886291,-12326.986707591021,57.850913991540708,3938.5478627678613,-930.5101131171175,6933.8665150901525,-6641.2152381570286,4231.8983701715206,-4231.8983701715206,6641.2152381570286,13753.457445852971,0.0
365012.02908761695,4007225.878295721,-22500.0,-52.490314562004762,-956.93084715658108,-12336.266227936248,347.74197956958363,3943.832879000443,-933.02776116841778,6974.6146060772007,-7443.1940913362214,4281.4655183697105,-4281.4655183697105,7443.1940913362214,13806.576292899723,0.0
370012.02908761695,4007225.878295721,-22500.0,-312.95654771241476,-1844.3925086262961,-12043.400761710776,619.60180634807978,3864.9816946780015,-918.08321783445922,6919.006447025934,-8009.3250486031166,4135.038354017438,-4135.038354017438,8009.3250486031166,13676.345124771431,0.0
375012.02908761695,4007225.878295721,-22500.0,-661.29103740608048,-2618.6634953738121,-11487.622398167648,861.08338559377626,3711.8983954677756,-887.50835961631833,6773.6823566065768,-8326.0382782648412,3817.4758874223135,-3817.4758874223135,8326.0382782648412,13376.945828991047,0.0
380012.02908761695,4007225.878295721,-22500.0,-1065.8788293070547,-3248.7734212512132,-10720.802260481418,1063.2447246248371,3497.9207746151883,-843.83696028096665,6549.5365673985143,-8398.9323379334455,3364.4283370983335,-3364.4283370983335,8398.9323379334455,12929.503076107285,0.0
320012.02908761695,4012225.878295721,-22500.0,-1760.895927999255,3587.7452800650667,-3355.8717540570133,-1088.2072189611754,1296.1271417210608,-344.54731973748733,3901.7271072262006,1490.4440252786071,-732.4930890143105,732.4930890143105,-1490.4440252786071,7349.6396644927345,0.0
325012.02908761695,4012225.878295721,-22500.0,-1473.1705333768957,3663.4064160218709,-4606.3551607423969,-1087.9125767317403,1644.4607322388565,-416.6458560453392,4256.1492338174121,844.79535921987497,-111.88629486501588,111.88629486501588,-844.79535921987497,8134.3980423094736,0.0
330012.02908761695,4012225.878295721,-22500.0,-1146.9475675240653,3581.9107211676337,-5879.4063609009481,-1044.3329336021986,1995.0004866201455,-488.54821237988301,4612.0640106519122,47.880217650010707,569.69051255056797,-569.69051255056797,-47.880217650010707,8924.5577849201818,0.0
335012.02908761695,4012225.878295721,-22500.0,-809.53161246919444,3332.4594638788044,-7119.1084466623024,-955.35555210152518,2333.3219009804916,-557.49188216346079,4955.1598241449055,-875.85918400738763,1275.1141694341413,-1275.1141694341413,875.85918400738763,9687.7082999354279,0.0
340012.02908761695,4012225.878295721,-22500.0,-491.49858376948237,2916.789816951899,-8265.9986675659748,-822.02582403161932,2644.3120468310867,-620.61494250989506,5271.2218594962887,-1888.9577787324661,1961.6701581416651,-1961.6701581416651,1888.9577787324661,10391.488532601796,0.0
345012.02908761695,4012225.878295721,-22500.0,-223.1992707354905,2350.212889634925,-9262.5599472689973,-648.74883011134887,2913.4865684172851,-675.19057826530354,5548.1746559913781,-2943.4540321591467,2585.2977336444319,-2585.2977336444319,2943.4540321591467,11005.769582255372,0.0
350012.02908761695,4012225.878295721,-22500.0,-31.003499759549022,1660.8471262402513,-10058.962649685205,-443.07120875538556,3128.3486451541817,-718.86709303347163,5781.3762748402614,-3985.1225761362093,3105.3965888445846,-3105.3965888445846,3985.1225761362093,11504.74356848846,0.0
355012.02908761695,4012225.878295721,-22500.0,66.03363127813725,887.04670231204102,-10618.119150212564,-215.04792372629782,3279.5808661796004,-749.87858124158856,5970.217394881347,-4958.8201846179245,3489.3805161786399,-3489.3805161786399,4958.8201846179245,11868.687670509673,0.0
360012.02908761695,4012225.878295721,-22500.0,58.459635321346454,73.40219113821162,-10919.208834769175,23.720564003231686,3361.8812499124306,-767.19565218611751,6093.4315430960123,-5814.0891606155028,3716.1777046297748,-3716.1777046297748,5814.0891606155028,12085.186383840932,0.0
365012.02908761695,4012225.878295721,-22500.0,-52.734725322632492,-734.00166498899114,-10959.117381512118,261.22660481373043,3374.31832485226,-770.59343817423314,6138.6378618096151,-6510.0831872723429,3778.0876051358991,-3778.0876051358991,6510.0831872723429,12149.663690058131,0.0
335012.02908761695,3797225.878295721,-27500.0,13.717825699160077,-989.44341134134777,-10603.006954725304,-430.05549932962981,-4078.1305876133865,-1163.9912062539449,6291.2765555759788,-6417.1145373197523,3619.2373379311848,-3619.2373379311848,6417.1145373197523,12449.245608577712,0.0
340012.02908761695,3797225.878295721,-27500.0,161.66508709043643,-174.64243361789971,-10649.870054557818,-139.94860727397113,-4090.3650844183817,-1165.2567739314566,6276.0728897538174,-5779.5243956982313,3625.5536097674512,-3625.5536097674512,5779.5243956982313,12435.733503178419,0.0
345012.02908761695,3797225.878295721,-27500.0,201.24573216536942,661.91458102958245,-10435.304683740356,156.6116673861915,-4016.7072649334009,-1145.2114906742877,6182.1259897871578,-4971.2747731444761,3463.5491495411811,-3463.5491495411811,4971.2747731444761,12264.472178075035,0.0
350012.02908761695,3797225.878295721,-27500.0,127.93470170846098,1472.5383296434752,-9956.5506223509947,444.61647971580072,-3856.5581595954195,-1103.809292835565,6017.9667692591456,-4030.2717390238017,3135.9269167927164,-3135.9269167927164,4030.2717390238017,11937.747469151225,0.0
355012.02908761695,3797225.878295721,-27500.0,-51.574119641477068,2209.4927855482852,-9229.226626449883,709.10391972217462,-3614.8541874384719,-1042.2695528779918,5796.2397729241366,-3005.662918843137,2659.6546271788766,-2659.6546271788766,3005.662918843137,11466.215467852751,0.0
360012.02908761695,3797225.878295721,-27500.0,-319.76612624703421,2830.1362300063061,-8286.5519988135275,936.64709531511517,-3301.8190146623033,-963.01334389942917,5524.1680442773131,-1953.0614245824493,2064.6672461564644,-2064.6672461564644,1953.0614245824493,10868.569099822107,0.0
365012.02908761695,3797225.878295721,-27500.0,-650.35458313937306,3301.5104357119521,-7176.2630200920421,1116.681140726535,-2932.0682979488797,-869.46207694497934,5209.3632653587529,-928.79477388911619,1390.6829465358674,-1390.6829465358674,928.79477388911619,10170.424321134515,0.0
370012.02908761695,3797225.878295721,-27500.0,-1011.6321053744899,3603.5856217523969,-5955.6920988689053,1242.4564041882047,-2523.1987617642908,-765.72770135036035,4863.7667185231348,15.862668276746831,682.65700324471175,-682.65700324471175,-15.862668276746831,9402.5603983321234,0.0
375012.02908761695,3797225.878295721,-27500.0,-1370.4882749129026,3730.6326951957635,-4685.852787335798,1311.4724812328952,-2094.0883314200937,-656.24106422405839,4501.7876212581568,839.49979593228954,-14.305169364518349,14.305169364518349,-839.49979593228954,8598.7289601125685,0.0
380012.02908761695,3797225.878295721,-27500.0,-1696.3453104816861,3690.6201352595172,-3425.521322211297,1325.362018333486,-1663.1773855905612,-545.37375925208005,4138.3608788241945,1513.7121523800697,-659.68696882885672,659.68696882885672,-1513.7121523800697,7793.2842257255052,0.0
385012.02908761695,3797225.878295721,-27500.0,-1964.3387203673333,3502.9228949484846,-2226.2337626375152,1289.2932353028905,-1246.9824100179424,-437.10551151255459,3787.4769694562519,2024.2446319832914,-1221.1984451123792,1221.1984451123792,-2024.2446319832914,7018.8416458503043,0.0
320012.02908761695,3802225.878295721,-27500.0,-1124.1237329728276,-3445.6225350003947,-9990.2832797835727,-1392.4128831109492,-4111.7534103270309,-1245.9691024497429,6594.0009995430364,-7992.7022652167052,2932.9740517463033,-2932.9740517463033,7992.7022652167052,13026.751863454667,0.0
325012.02908761695,3802225.878295721,-27500.0,-686.8867626929524,-2862.6542575862636,-10816.814607126425,-1163.094405511737,-4395.5843516836849,-1318.0171190649992,6851.970294194819,-7999.5495527889252,3440.749526290751,-3440.749526290751,7999.5495527889252,13536.124927460234,0.0
330012.02908761695,3802225.878295721,-27500.0,-297.9997303816051,-2123.0047132500904,-11452.72563327603,-881.83360444817572,-4610.763586068304,-1371.4674808123184,7033.4935372125365,-7768.17690909271,3827.9711329855909,-3827.9711329855909,7768.17690909271,13900.998725032541,0.0
335012.02908761695,3802225.878295721,-27500.0,7.6660497940503589,-1253.5230167515251,-11841.843773851377,-558.22041935422408,-4739.5806175050857,-1402.1300057435406,7126.3960877998443,-7286.7584015129078,4054.5230552307921,-4054.5230552307921,7286.7584015129078,14097.257854961326,0.0
340012.02908761695,3802225.878295721,-27500.0,200.05677646035528,-296.06631325335911,-11938.661046900319,-206.40712490783054,-4767.9566640450821,-1406.756758295588,7122.8928441867538,-6562.3190108389499,4089.5001085493236,-4089.5001085493236,6562.3190108389499,14107.326953654039,0.0
345012.02908761695,3802225.878295721,-27500.0,258.59997248604861,695.17109184083029,-11714.893558591091,155.78831870346161,-4687.373425455804,-1383.4672648823689,7022.363682917653,-5622.583497303639,3916.3934294856222,-3916.3934294856222,5622.583497303639,13922.523411260441,0.0
350012.02908761695,3802225.878295721,-27500.0,175.98881681032773,1658.6522459777002,-11164.589223028093,508.43463601971422,-4496.3345073857727,-1332.0585766059621,6834.3050158958767,-4514.9924345135723,3536.8158648427875,-3536.8158648427875,4514.9924345135723,13544.768703419817,0.0
355012.02908761695,3802225.878295721,-27500.0,-39.829329489282536,2532.2036224677636,-10306.614867063145,831.50694747422369,-4201.0419310572106,-1254.1346001027762,6573.1932230502953,-3302.6587232697548,2971.800283853202,-2971.800283853202,3302.6587232697548,12987.341824320867,0.0
360012.02908761695,3802225.878295721,-27500.0,-366.07074230527661,3260.3345265572352,-9183.7689074153241,1107.0585243072428,-3815.0916158081145,-1153.0201950897892,6248.9371113797897,-2057.7059651964905,2260.1357581975176,-2260.1357581975176,2057.7059651964905,12274.479994741381,0.0
365012.02908761695,3802225.878295721,-27500.0,-768.00765446628156,3800.7921111034948,-7858.4565030407111,1321.1611936129259,-3358.1791775377555,-1033.46146238404,5872.6639369352615,-853.10212636520646,1453.8722512525842,-1453.8722512525842,853.10212636520646,11439.812447371618,0.0
370012.02908761695,3802225.878295721,-27500.0,-1203.8050812879437,4129.1066107356328,-6405.6376052214682,1465.2722572471841,-2854.0228222708415,-901.1585885712949,5460.4804356624627,245.52059482669202,611.79781122130498,-611.79781122130498,-245.52059482669202,10523.827452872811,0.0
375012.02908761695,3802225.878295721,-27500.0,-1630.2983924502028,4240.320951179413,-4904.3725481869287,1536.8031946465419,-2327.8675933552267,-762.20853247477953,5031.3016750237584,1186.5498456308619,-207.82285960175557,207.82285960175557,-1186.5498456308619,9570.7101219553624,0.0
380012.02908761695,3802225.878295721,-27500.0,-2008.5359494690044,4147.7885608211263,-3429.5120965668671,1538.8518224257007,-1804.0026662265427,-622.54610719118807,4604.3734758380106,1936.5098322634719,-953.86161070017283,953.86161070017283,-1936.5098322634719,8624.9360025890674,0.0
385012.02908761695,3802225.878295721,-27500.0,-2308.0706853676697,3879.5605787066575,-2044.9219528530843,1479.2284496580839,-1303.6814410886254,-487.46642490778174,4197.2800292678176,2481.178534862413,-1587.1669233091297,1587.1669233091297,-2481.178534862413,7727.9256333761741,0.0
390012.02908761695,3802225.878295721,-27500.0,-2509.3978337512021,3473.3310314387754,-799.10896903044022,1369.0330425588063,-843.70233158329938,-361.28356929168376,3824.3506090996984,2823.9800937835944,-2083.046260657371,2083.046260657371,-2823.9800937835944,6914.9061914813183,0.0
395012.02908761695,3802225.878295721,-27500.0,-2604.4355937124651,2971.0268027116654,276.49663522262654,1221.079583883411,-435.74275840838698,-247.15027186926127,3495.4814126633132,2982.4165875178696,-2431.3908675226121,2431.3908675226121,-2982.4165875178696,6212.0131545369895,0.0
310012.02908761695,3807225.878295721,-27500.0,-2453.7223479054787,-4720.6498278569079,-8482.7197817082742,-2013.3377989861519,-3820.2612226922329,-1246.598177314859,6547.5697055161645,-8080.1341799106176,1640.7946761898925,-1640.7946761898925,8080.1341799106176,12956.893394862458,0.0
315012.02908761695,3807225.878295721,-27500.0,-1952.2019103613411,-4497.5528995704926,-9716.0642162926288,-1897.391607710201,-4273.9482537246695,-1369.868412821668,6999.0958029458334,-8611.3705747453441,2380.840532556078,-2380.840532556078,8611.3705747453441,13835.532491296724,0.0
320012.02908761695,3807225.878295721,-27500.0,-1415.5251521204721,-4071.9896893258074,-10884.7916522017,-1708.903457598132,-4697.0507802077354,-1482.9000287864415,7400.4707539116716,-8943.8376948418718,3096.4070612056767,-3096.4070612056767,8943.8376948418718,14619.328576533735,0.0
325012.02908761695,3807225.878295721,-27500.0,-882.63842015692433,-3435.6976485686741,-11915.578849345437,-1446.6712960698098,-5064.4923949088206,-1579.2560162462146,7731.1325038273781,-9026.7051690626577,3733.6851923930581,-3733.6851923930581,9026.7051690626577,15269.681997921616,0.0
330012.02908761695,3807225.878295721,-27500.0,-398.73422756986167,-2598.0439243997248,-12730.162269422503,-1115.3871637409502,-5350.158945224608,-1652.4058243970808,7971.390105855844,-8820.4628427485695,4235.2122213797602,-4235.2122213797602,8820.4628427485695,15748.987695456402,0.0
335012.02908761695,3807225.878295721,-27500.0,-10.290946159893142,-1589.0265914893489,-13253.186170879026,-726.40172545028315,-5529.449612471115,-1696.3531336555961,8104.4236449098344,-8304.2434343282039,4546.5217160414331,-4546.5217160414331,8304.2434343282039,16024.080900875026,0.0
340012.02908761695,3807225.878295721,-27500.0,241.34290054807991,-459.63036938532196,-13421.668847588064,-297.64939318046589,-5582.2384095885482,-1706.3329719817748,8118.9231791046022,-7481.9775417394258,4624.0082515598415,-4624.0082515598415,7481.9775417394258,16069.969996979687,0.0
345012.02908761695,3807225.878295721,-27500.0,326.77414603712612,721.27313475496862,-13194.609687968954,147.46809255915733,-5495.7885678437651,-1679.4705180034471,8012.6932604595222,-6385.781558965934,4442.636795206442,-4442.636795206442,6385.781558965934,15873.331582819867,0.0
350012.02908761695,3807225.878295721,-27500.0,234.34444396215599,1873.6049167839124,-12560.802986823828,582.23793811857149,-5267.0526983235086,-1615.2773980805839,7796.0491159607118,-5075.2578346189894,4001.7754673037489,-4001.7754673037489,5075.2578346189894,15435.168808829631,0.0
355012.02908761695,3807225.878295721,-27500.0,-26.633824241848743,2915.5345215110719,-11542.94197893359,979.56707049591785,-4903.8208748493344,-1515.8745949369477,7486.1400341065173,-3632.1678848403894,3327.5407634998342,-3327.5407634998342,3632.1678848403894,14772.091695086941,0.0
360012.02908761695,3807225.878295721,-27500.0,-426.23574274466785,3774.0505951968198,-10196.688162128143,1315.1990038147001,-4424.3612428783854,-1385.8766802514117,7096.794528449258,-2151.0321407583588,2470.692015172508,-2470.692015172508,2151.0321407583588,13915.856468627726,0.0
365012.02908761695,3807225.878295721,-27500.0,-918.06054360499706,4394.4735999818058,-8604.5290446634863,1570.5948032430708,-3855.5255840803834,-1231.9391369790965,6643.9333075624108,-727.36024467479047,1500.1987286545332,-1500.1987286545332,727.36024467479047,12911.13593868661,0.0
370012.02908761695,3807225.878295721,-27500.0,-1446.3230806300512,4746.9128709574652,-6865.5169591806607,1734.9204982171516,-3229.6419154991895,-1062.0451952126148,6149.3608364078045,554.1250692421263,493.73539918410091,-493.73539918410091,-554.1250692421263,11811.814495524919,0.0
375012.02908761695,3807225.878295721,-27500.0,-1954.2821391341663,4828.4124922115034,-5082.9999786078624,1805.7842855098309,-2580.7948874392114,-884.65752787116764,5638.1054341589534,1628.8864503016364,-472.83342693947111,472.83342693947111,-1628.8864503016364,10676.343228192474,0.0
380012.02908761695,3807225.878295721,-27500.0,-2392.132211373128,4660.6816656047158,-3352.825605463368,1788.6837021577687,-1941.1973712029519,-707.88561456602156,5135.1206534188805,2457.9453475462751,-1334.7748183699796,1334.7748183699796,-2457.9453475462751,9562.762864422526,0.0
385012.02908761695,3807225.878295721,-27500.0,-2722.7964151384003,4284.3582926136778,-1754.1288380340745,1695.4090735357711,-1338.2642675857155,-538.79566914820361,4662.5201142520082,3028.703277258548,-2044.9163976940251,2044.9163976940251,-3028.703277258548,8523.841439775957,0.0
390012.02908761695,3807225.878295721,-27500.0,-2924.7994766613874,3751.4211285007341,-343.92794829466811,1541.8415034954946,-792.76384254607251,-382.94864080582624,4237.3905303875072,3351.8112769164022,-2576.4157545119056,2576.4157545119056,-3351.8112769164022,7602.5287708757041,0.0
395012.02908761695,3807225.878295721,-27500.0,-2992.2248656751767,3117.4647332675577,844.30196923569918,1345.6263193113468,-318.13548315709608,-244.19182729595698,3870.289093871173,3455.4370091864939,-2922.0686112150279,2922.0686112150279,-3455.4370091864939,6827.8284586062464,0.0
400012.02908761695,3807225.878295721,-27500.0,-2932.4088981018685,2435.1885613090317,1798.7591711094417,1124.1214451345782,79.181257145325716,-124.68068581641521,3564.6400645196145,3378.510277546337,-3091.0556565064448,3091.0556565064448,-3378.510277546337,6211.5731518090033,0.0
405012.02908761695,3807225.878295721,-27500.0,-2762.3329923807946,1749.8513767367288,2525.2935830591282,892.86557053664239,398.70615298429925,-25.073623568031,3317.248896724127,3164.3093113931209,-3104.3177941288222,3104.3177941288222,-3164.3093113931209,5747.3858721578372,0.0
305012.02908761695,3812225.878295721,-27500.0,-3496.4491295992093,-5375.4736419411274,-7474.2398392754849,-2441.9127882405455,-3694.9808070980512,-1296.0160336559252,6674.6457421750511,-7949.2561968122973,632.30136616192976,-632.30136616192976,7949.2561968122973,13226.94981400532,0.0
310012.02908761695,3812225.878295721,-27500.0,-3012.7666304077238,-5412.9923669620139,-8922.2368797681756,-2414.5890510887916,-4262.3974106374171,-1459.1887631011646,7259.4716472122864,-8809.0647520792572,1466.726277656689,-1466.726277656689,8809.0647520792572,14367.064418825463,0.0
315012.02908761695,3812225.878295721,-27500.0,-2435.3173837208678,-5238.0598604684374,-10397.885645851744,-2305.1483985164573,-4829.4664076814161,-1619.1948922026504,7817.5050505991185,-9518.4001328018931,2348.5982488316213,-2348.5982488316213,9518.4001328018931,15452.8689365794,0.0
320012.02908761695,3812225.878295721,-27500.0,-1797.9277658372505,-4817.2428720391308,-11825.542082178217,-2103.7789827974975,-5368.1527483680075,-1768.2765050255557,8322.6949743091991,-10004.841105930536,3223.4922672842149,-3223.4922672842149,10004.841105930536,16437.688279116875,0.0
325012.02908761695,3812225.878295721,-27500.0,-1148.1928674812152,-4132.5314682078724,-13113.169064324282,-1806.4206302790496,-5845.5362342727203,-1897.6362358563701,8747.8674000356368,-10198.3788632387,4023.7275431598073,-4023.7275431598073,10198.3788632387,17271.046458631172,0.0
330012.02908761695,3812225.878295721,-27500.0,-544.15668203740859,-3188.3635898256239,-14158.834321049597,-1416.8732480888204,-6226.2063218838648,-1998.103912144097,9066.3855068725134,-10041.174697135164,4673.9507314705197,-4673.9507314705197,10041.174697135164,17902.371322099814,0.0
335012.02908761695,3812225.878295721,-27500.0,-47.938169395679971,-2016.9210751168953,-14861.026548481188,-948.24140861335559,-6475.7828376394918,-2061.0431881225986,9254.8034114011734,-9498.2954353559744,5099.9633132387535,-5099.9633132387535,9498.2954353559744,18285.747560376527,0.0
340012.02908761695,3812225.878295721,-27500.0,283.20293679231173,-679.88097398201603,-15131.986328028335,-423.19589914380879,-6565.2605316860981,-2079.4112694168434,9296.5106900440896,-8567.4139514709768,5239.9030919261804,-5239.9030919261804,8567.4139514709768,18385.369103703211,0.0
345012.02908761695,3812225.878295721,-27500.0,406.91790400929813,734.91041298509413,-14911.87245524969,127.357437769981,-6475.4488680335462,-2048.786108500497,9186.4808866241965,-7284.8463753971428,5055.7834964734175,-5055.7834964734175,7284.8463753971428,18180.777187450283,0.0
350012.02908761695,3812225.878295721,-27500.0,304.69617718590268,2122.3317338434354,-14180.870498772056,667.2716247211896,-6200.6449789889448,-1968.1727485808262,8935.5583129284605,-5725.6857678298084,4542.723931799962,-4542.723931799962,5725.6857678298084,17671.06124155326,0.0
355012.02908761695,3812225.878295721,-27500.0,-12.805009895636008,3373.4536089433041,-12966.025958590517,1159.4621539337961,-5750.5998033223077,-1840.3896901559276,8564.6851137435187,-3996.836545293168,3733.1455667042351,-3733.1455667042351,3996.836545293168,16877.046840356059,0.0
360012.02908761695,3812225.878295721,-27500.0,-505.87781190405173,4391.0429360434764,-11340.460865595436,1570.7455968762367,-5150.1331661666372,-1671.9134740008319,8093.374643082012,-2223.5918292942179,2694.1767544101831,-2694.1767544101831,2223.5918292942179,15840.815419815473,0.0
365012.02908761695,3812225.878295721,-27500.0,-1111.7592833639494,5103.6124455747604,-9414.537380729802,1876.1918978038791,-4436.3194587574908,-1472.1859644176679,7544.2492156968419,-532.39372032996948,1518.317097316173,-1518.317097316173,532.39372032996948,14622.487746270712,0.0
370012.02908761695,3812225.878295721,-27500.0,-1755.2069961219108,5474.7366625316572,-7320.658129204382,2062.0560788412613,-3653.7567682787712,-1252.5065262291437,6947.0291589539293,966.40780026730681,309.34519924462961,-309.34519924462961,-966.40780026730681,13294.697248573097,0.0
375012.02908761695,3812225.878295721,-27500.0,-2360.9939176101539,5505.6367034216737,-5195.1818792501299,2126.7145402883989,-2848.9335079558691,-1024.7264726733279,6335.1258426029253,2191.9299001455765,-833.14562722474807,833.14562722474807,-2191.9299001455765,11935.643356281607,0.0
380012.02908761695,3812225.878295721,-27500.0,-2865.2661035902343,5231.0076501779604,-3161.4675269926029,2079.58078207159,-2064.8573938504801,-799.99349753554554,5741.0802014355122,3099.7173887928229,-1827.0221463895957,1827.0221463895957,-3099.7173887928229,10621.677027340613,0.0
385012.02908761695,3812225.878295721,-27500.0,-3223.3416846648161,4709.8300498001017,-1317.3396124415146,1938.4665211928382,-1336.9242512186452,-587.75370664204706,5192.6428549235588,3681.6885445083253,-2616.0955012881413,2616.0955012881413,-3681.6885445083253,9420.1000927498371,0.0
390012.02908761695,3812225.878295721,-27500.0,-3412.861607520344,4013.9036857033684,271.3583943028122,1726.149470492195,-690.56181081669888,-395.13430588698088,4709.7615854630776,3960.3391325768639,-3172.8703700980182,3172.8703700980182,-3960.3391325768639,8382.4730852868051,0.0
395012.02908761695,3812225.878295721,-27500.0,-3432.5975236067943,3216.8184887891366,1571.2329675702574,1466.9318258258847,-140.68800525256862,-226.7293134716829,4302.7535741205411,3979.5815043610696,-3496.2162004872021,3496.2162004872021,-3979.5815043610696,7538.7730648557244,0.0
400012.02908761695,3812225.878295721,-27500.0,-3298.1939233477947,2385.3013551313975,2577.2397550881396,1183.786858267368,307.36333914129381,-84.730001624925734,3972.0488033335282,3794.7588068406235,-3605.6419544514779,3605.6419544514779,-3794.7588068406235,6893.6953402600575,0.0
405012.02908761695,3812225.878295721,-27500.0,-3036.465095982162,1573.8052707536294,3305.9869416449346,896.40569011752495,655.99132903106306,30.70605680651127,3709.7402816391509,3463.8183224356044,-3534.1357156299182,3534.1357156299182,-3463.8183224356044,6427.5223257656844,0.0
410012.02908761695,3812225.878295721,-27500.0,-2679.6768016509841,822.26116936489495,3788.3074343145763,620.18642858008309,913.10086804434582,120.96467312679945,3502.6155056501302,3040.7508447523655,-3321.2161899076377,3321.2161899076377,-3040.7508447523655,6103.0649131138352,0.0
415012.02908761695,3812225.878295721,-27500.0,-2260.7680715192828,156.32185326648292,4062.4605315088656,366.02114054922959,1089.9335641162593,188.46395838465625,3335.689951443359,2571.5777451990343,-3007.2435249324772,3007.2435249324772,-2571.5777451990343,5876.563025229445,0.0
300012.02908761695,3817225.878295721,-27500.0,-4610.6981217160592,-5697.3298637677808,-6043.7858782409403,-2798.5332466924742,-3384.6456841622689,-1296.2053298412604,6641.9916621484408,-7306.877267543613,-615.52469774432302,615.52469774432302,7306.877267543613,13154.128970579628,0.0
305012.02908761695,3817225.878295721,-27500.0,-4236.3354851037211,-6036.2260081660261,-7599.3624515162028,-2887.7983162266664,-4041.1895482403247,-1497.475607655299,7339.9088108119786,-8460.1951165769133,216.501282366542,-216.501282366542,8460.1951165769133,14537.606850345201,0.0
310012.02908761695,3817225.878295721,-27500.0,-3711.8078544287141,-6187.2492510635393,-9288.7568793592236,-2896.3832800668365,-4737.0243717761568,-1706.1256873902653,8049.1405607419401,-9547.2719896637846,1175.7838763608888,-1175.7838763608888,9547.2719896637846,15926.147571950658,0.0
315012.02908761695,3817225.878295721,-27500.0,-3054.6078704999904,-6092.3562404633176,-11049.616926282786,-2804.7345667296413,-5446.1343887383446,-1914.1572408110803,8739.4272904120753,-10484.333645342856,2220.7373192695823,-2220.7373192695823,10484.333645342856,17270.491352159024,0.0
320012.02908761695,3817225.878295721,-27500.0,-2301.7346771587863,-5700.9231128056254,-12792.520549786917,-2596.9570024391455,-6133.4045085440785,-2111.3364028391334,9376.8728826855004,-11176.910790736445,3287.6504819145512,-3287.6504819145512,11176.910790736445,18511.627423941081,0.0
325012.02908761695,3817225.878295721,-27500.0,-1510.3499830592834,-4979.7333193853328,-14402.851838838667,-2264.1607860218242,-6755.7610965683189,-2285.6413272329464,9925.4134820943436,-11529.100256015827,4292.2594514849052,-4292.2594514849052,11529.100256015827,19583.555950063837,0.0
330012.02908761695,3817225.878295721,-27500.0,-754.56121960332416,-3923.6767894019922,-15748.045428347137,-1807.8339612925547,-7265.0986354173729,-2424.148332642179,10348.787097193419,-11456.77582366806,5136.0269855474326,-5136.0269855474326,11456.77582366806,20417.99808787139,0.0
335012.02908761695,3817225.878295721,-27500.0,-117.48794638542086,-2564.8108238120985,-16690.930868343024,-1242.4688521055534,-7613.1090755217774,-2514.3456645031083,10614.044389983623,-10903.280404240428,5717.6483992825015,-5717.6483992825015,10903.280404240428,20950.990244940094,0.0
340012.02908761695,3817225.878295721,-27500.0,321.09264970690708,-976.79463603983413,-17108.347356550512,-596.536143853618,-7757.6138362099482,-2545.7344345937172,10696.531622895402,-9854.6189466575215,5948.8618898988552,-5948.8618898988552,9854.6189466575215,21130.74898057101,0.0
345012.02908761695,3817225.878295721,-27500.0,499.61812753752758,728.06455890431425,-16912.269858496158,88.953907003512882,-7669.4410759437778,-2511.4647346740994,10586.361510680485,-8350.1257258759179,5771.8605535841898,-5771.8605535841898,8350.1257258759179,20925.744368562529,0.0
350012.02908761695,3817225.878295721,-27500.0,388.69337024936743,2410.5352835038379,-16068.75934559491,764.60026117993675,-7338.3482937817616,-2409.6543860588881,10294.288291137516,-6484.5128780175201,5174.0448648345882,-5174.0448648345882,6484.5128780175201,20331.374104013299,0.0
355012.02908761695,3817225.878295721,-27500.0,-0.010437964391218912,3923.8221421936887,-14609.491106057696,1379.0009858021779,-6776.438261037878,-2244.0639410375652,9846.5099251547636,-4398.925798358845,4195.5250384259525,-4195.5250384259525,4398.925798358845,19373.762245081507,0.0
360012.02908761695,3817225.878295721,-27500.0,-613.23031291246934,5136.6855816629832,-12631.551187027741,1886.154940293779,-6017.8305760063395,-2023.8907030758337,9270.8511059790344,-2261.5356418223432,2926.0873806480208,-2926.0873806480208,2261.5356418223432,18109.346822889835,0.0
365012.02908761695,3817225.878295721,-27500.0,-1364.9231073554779,5954.609440416034,-10284.583734612952,2252.1645549721889,-5114.4326062688524,-1762.6962946172209,8599.544468450782,-241.84373070664481,1491.4475553827074,-1491.4475553827074,241.84373070664481,16620.219202551049,0.0
370012.02908761695,3817225.878295721,-27500.0,-2152.3388666937376,6333.4736090053439,-7747.8213894210339,2459.6307879408978,-4128.5859656302327,-1476.6533419581549,7873.4903538554536,1515.039923986445,31.951709790657787,-31.951709790657787,-1515.039923986445,15005.680360072321,0.0
375012.02908761695,3817225.878295721,-27500.0,-2874.8707833818908,6282.4911173922601,-5202.9482067009976,2508.7952860069763,-3124.3815862085685,-1182.507670673637,7137.7219941556468,2907.6868525238874,-1320.5614385237927,1320.5614385237927,-2907.6868525238874,13371.631011933656,0.0
380012.02908761695,3817225.878295721,-27500.0,-3450.580939019675,5856.6175995938547,-2809.4250752220678,2415.4631456947759,-2159.6047740142494,-895.66705352883855,6434.8848153681274,3887.2031859266463,-2461.853067183406,2461.853067183406,-3887.2031859266463,11819.286859741476,0.0
385012.02908761695,3817225.878295721,-27500.0,-3826.6070192503853,5141.685111601445,-687.47532000845649,2206.599476354801,-1279.8951499114514,-628.75702157489707,5799.5737999233361,4455.124417066746,-3326.3197526930007,3326.3197526930007,-4455.124417066746,10434.28656055291,0.0
390012.02908761695,3817225.878295721,-27500.0,-3982.1003173169611,4236.9676070901396,1089.0927847010321,1914.9416163592211,-515.86562175702738,-390.81800913011972,5254.2064622906355,4652.9726442533956,-3888.9570115018996,3888.9570115018996,-4652.9726442533956,9276.7053277709128,0.0
395012.02908761695,3817225.878295721,-27500.0,-3924.7181552832694,3239.4909016495999,2491.0802102889011,1573.9120471768965,116.94827762706129,-187.14369820011177,4807.0353600753615,4547.6815982547505,-4159.9113164412374,4159.9113164412374,-4547.6815982547505,8373.048393401159,0.0
400012.02908761695,3817225.878295721,-27500.0,-3683.108139314003,2232.7865862996873,3525.9009346153121,1213.7067713613928,616.04101318800497,-19.630890794766621,4452.9143006777986,4216.9522405308471,-4174.7170132244482,4174.7170132244482,-4216.9522405308471,7713.2753381373977,0.0
405012.02908761695,3817225.878295721,-27500.0,-3298.0726602317177,1280.8980381892472,4226.7463125037866,858.91331825933639,988.75430645449228,112.55352794475451,4176.8366768405913,3737.3420116709108,-3983.4041527255481,3983.4041527255481,-3737.3420116709108,7256.6609243766106,0.0
410012.02908761695,3817225.878295721,-27500.0,-2814.5079452356649,426.99536975759855,4641.715600494359,527.57625668124615,1248.8317213142948,212.18033531989619,3959.1012430900987,3176.3056965940023,-3640.8362736297968,3640.8362736297968,-3176.3056965940023,6946.1625628972188,0.0
415012.02908761695,3817225.878295721,-27500.0,-2275.2860948534926,-304.77537491061707,4824.6857660737842,231.37142135286078,1413.3209037495444,283.19137144344245,3780.2087247205641,2588.1242650531858,-3199.5133424469377,3199.5133424469377,-2588.1242650531858,6724.7289593129381,0.0
420012.02908761695,3817225.878295721,-27500.0,-1717.4056760378583,-905.6898570637909,4828.6677592515807,-23.52846329127399,1500.1430992385513,330.05221369104481,3624.0443200098753,2012.9157434193949,-2705.1059365255023,2705.1059365255023,-2012.9157434193949,6546.3060271030345,0.0
290012.02908761695,3822225.878295721,-27500.0,-5658.9865993882777,-4888.1262339288605,-3016.7787843191804,-2765.9932714745105,-2281.3324438344098,-1031.0637259345474,5741.8099946066677,-4887.2317195315591,-2498.1091933552852,2498.1091933552852,4887.2317195315591,11243.572475185267,0.0
295012.02908761695,3822225.878295721,-27500.0,-5657.5165770157828,-5586.0682874610402,-4298.9790138392318,-3027.9930388946877,-2894.0916034504121,-1238.8737636280516,6457.5521498293301,-6145.3957938952208,-1979.0515904548161,1979.0515904548161,6145.3957938952208,12712.715574471955,0.0
300012.02908761695,3822225.878295721,-27500.0,-5490.0242653687274,-6220.7273495942036,-5822.4415644559413,-3249.9556123750117,-3597.3509621683997,-1470.9103114197208,7233.6692622189312,-7500.2983261912123,-1268.0508777333957,1268.0508777333957,7500.2983261912123,14289.911959039089,0.0
305012.02908761695,3822225.878295721,-27500.0,-5134.9063657524484,-6729.2430420829451,-7579.2860381559358,-3407.0478918562717,-4383.3857831121504,-1723.5248600218963,8061.4721619013726,-8898.1700185372465,-360.78734669222285,360.78734669222285,8898.1700185372465,15945.704810674324,0.0
310012.02908761695,3822225.878295721,-27500.0,-4583.9068170180517,-7037.7332937802021,-9536.4749596072961,-3471.5036289592394,-5234.4752726666957,-1990.1458509223771,8920.0054013362042,-10260.961511970256,727.43777585940734,-727.43777585940734,10260.961511970256,17636.427679880748,0.0
315012.02908761695,3822225.878295721,-27500.0,-3848.8349103746013,-7067.0563404012337,-11628.521157894736,-3415.0834426538845,-6120.704614031406,-2260.8405256837987,9774.0581193046455,-11486.410573267887,1955.2051388534846,-1955.2051388534846,11486.410573267887,19303.021990976962,0.0
320012.02908761695,3822225.878295721,-27500.0,-2967.4641600917475,-6742.6080955808211,-13752.381753194233,-3212.8295764346803,-6998.7801867096387,-2522.2199692615573,10580.142601116793,-12452.749605059902,3250.3788395375104,-3250.3788395375104,12452.749605059902,20871.475691609478,0.0
325012.02908761695,3822225.878295721,-27500.0,-2006.5729674802089,-6008.0043896017351,-15767.130004505974,-2847.9321004358058,-7812.7127675758748,-2757.8890729934355,11290.354002596137,-13029.569659867866,4509.7323365237162,-4509.7323365237162,13029.569659867866,22255.669436916964,0.0
330012.02908761695,3822225.878295721,-27500.0,-1059.7583861742867,-4841.1018932289071,-17501.122455294866,-2317.0535313203104,-8497.1614038492207,-2949.5915323152394,11855.093503931461,-13095.300135239058,5605.2068349993588,-5605.2068349993588,13095.300135239058,23363.192345655734,0.0
335012.02908761695,3822225.878295721,-27500.0,-238.10353872519437,-3269.1051606979181,-18768.630300364359,-1634.9641613164704,-8983.8968352316442,-3079.0884698699015,12227.666940809344,-12559.878554668732,6398.3878779149636,-6398.3878779149636,12559.878554668732,24104.322149078482,0.0
340012.02908761695,3822225.878295721,-27500.0,346.65801239132901,-1378.0125164133319,-19395.697856104867,-836.96568096191947,-9211.0568823182839,-3130.6030277627665,12371.190012522067,-11388.558309318993,6762.6984687753102,-6762.6984687753102,11388.558309318993,24403.516785183816,0.0
345012.02908761695,3822225.878295721,-27500.0,604.19387541543108,688.60601997540743,-19251.662813383733,22.350125766546967,-9133.8203064945264,-3093.4285202349156,12267.577454862749,-9620.4718578317079,6609.7358656022852,-6609.7358656022852,9620.4718578317079,24211.81631683623,0.0
350012.02908761695,3822225.878295721,-27500.0,487.6310993957336,2744.6878236776383,-18279.293764066781,874.77647467173972,-8734.1545668572689,-2964.1338753416344,11926.201371556377,-7374.8599390259387,5913.1553504601397,-5913.1553504601397,7374.8599390259387,23517.762217693155,0.0
355012.02908761695,3822225.878295721,-27500.0,8.6444902932751404,4589.7308399526046,-16514.394218831196,1648.0826680480409,-8026.7797403940158,-2747.7385430635031,11380.313895465082,-4839.9405954541071,4722.1072490093029,-4722.1072490093029,4839.9405954541071,22353.917510062343,0.0
360012.02908761695,3822225.878295721,-27500.0,-760.4962113366563,6043.9246924109648,-14087.417487807588,2277.5564379439224,-7059.2341047775417,-2457.4819256243868,10670.128805877241,-2244.6092619182432,3158.1818953050838,-3158.1818953050838,2244.6092619182432,20797.072430680473,0.0
365012.02908761695,3822225.878295721,-27500.0,-1700.0703947884142,6980.7297131354298,-11204.284326015746,2716.5436333865514,-5905.312779974056,-2113.0999545071127,9842.0234466333404,180.728090297471,1394.7642224488425,-1394.7642224488425,-180.728090297471,18961.115515181569,0.0
370012.02908761695,3822225.878295721,-27500.0,-2667.8566855164786,7347.3589515384911,-8111.0365694608008,2943.1621075721664,-4653.439468157937,-1738.0177918277329,8952.9775961403902,2243.289194388316,-375.81091738609621,375.81091738609621,-2243.289194388316,16983.970233507327,0.0
375012.02908761695,3822225.878295721,-27500.0,-3528.125439780606,7167.697280265731,-5052.2636105332795,2961.5824378271845,-3392.9926698086224,-1356.1130658527882,8064.3202162242997,3816.1522202482433,-1977.5538611458574,1977.5538611458574,-3816.1522202482433,15010.957470039744,0.0
380012.02908761695,3822225.878295721,-27500.0,-4175.9441655661121,6528.5006158883971,-2234.7327152596822,2798.0782156386363,-2202.0551273304582,-988.77917571130934,7232.1255971411292,4849.1043968238155,-3278.5395336300494,3278.5395336300494,-4849.1043968238155,13177.184362522294,0.0
385012.02908761695,3822225.878295721,-27500.0,-4550.7872069072,5555.0673176995797,195.49530237849939,2493.5962091835368,-1139.1877380433314,-652.84242175146323,6498.9055942222922,5362.1251485478406,-4204.8348787280411,4204.8348787280411,-5362.1251485478406,11590.688289896274,0.0
390012.02908761695,3822225.878295721,-27500.0,-4638.0490734534196,4384.5993655134871,2159.8973662233238,2095.2463054193586,-240.19134489571871,-359.56916180689217,5888.0868043905339,5426.8559180297361,-4739.966340095667,4739.966340095667,-5426.8559180297361,10317.459500490575,0.0
395012.02908761695,3822225.878295721,-27500.0,-4461.0912103624487,3144.084400139483,3640.8847172795536,1648.8163430786508,480.71855229574032,-114.69221860446419,5402.4711421255979,5143.5189113522483,-4913.7111243832787,4913.7111243832787,-5143.5189113522483,9371.4265322452211,0.0
400012.02908761695,3822225.878295721,-27500.0,-4068.391470716906,1936.2443646358674,4667.1710475188729,1193.5467205830271,1026.8192716469937,80.818933026222567,5027.4372311547131,4619.7187514517382,-4785.8499782108038,4785.8499782108038,-4619.7187514517382,8715.7428881648721,0.0
405012.02908761695,3822225.878295721,-27500.0,-3520.1651422541149,833.81254623186123,5296.6862466058337,759.45446000355514,1413.5544073876581,229.59095763224965,4737.9716094499727,3954.8664436099339,-4429.9460020164479,4429.9460020164479,-3954.8664436099339,8279.3084523927209,0.0
410012.02908761695,3822225.878295721,-27500.0,-2877.3646807418377,-119.70804278796579,5601.0931499608614,366.82057854506826,1663.3173892739908,336.59185864616353,4506.6832936277951,3231.2006807012167,-3920.3370240274971,3920.3370240274971,-3231.2006807012167,7981.9111185609554,0.0
415012.02908761695,3822225.878295721,-27500.0,-2194.2776261879858,-905.38326971476215,5653.9943454066106,27.144937482574701,1801.1512875768633,408.00510539779418,4309.7960064587405,2510.5046541744882,-3323.5402901934754,3323.5402901934754,-2510.5046541744882,7754.8456303854255,0.0
420012.02908761695,3822225.878295721,-27500.0,-1514.6547849170565,-1522.6090894624208,5523.2780055334542,-255.13679692975751,1851.6687486193171,450.34527476313701,4129.8852846362615,1834.7942579373098,-2693.8260489868894,2693.8260489868894,-1834.7942579373098,7549.8686068967381,0.0
425012.02908761695,3822225.878295721,-27500.0,-870.61284421634446,-1982.9246776158845,5267.0683570645297,-480.72772464065133,1837.1502781937011,469.84438281400656,3955.979170364471,1229.2286752389368,-2071.9932260409746,2071.9932260409746,-1229.2286752389368,7338.6162649098587,0.0
290012.02908761695,3827225.878295721,-27500.0,-6470.9215019634694,-4999.5439765120864,-2409.2957647196445,-3083.1875997866323,-2255.1125463365915,-1121.9506202211905,6128.6826422796021,-4542.2343029761851,-3285.9634239433781,3285.9634239433781,4542.2343029761851,11922.408748139751,0.0
295012.02908761695,3827225.878295721,-27500.0,-6589.2872000980469,-5869.190850680372,-3753.9589095028687,-3435.1583582481776,-2949.8347947071502,-1371.8591813319943,6950.5134712127428,-5959.5335837015255,-2811.1252193366008,2811.1252193366008,5959.5335837015255,13613.053988461057,0.0
300012.02908761695,3827225.878295721,-27500.0,-6516.9486874915947,-6702.7321682160973,-5401.9367189836221,-3752.4497559204583,-3766.4228866381663,-1656.3611138849415,7855.002933071095,-7532.3073646224002,-2102.0382576199172,2102.0382576199172,7532.3073646224002,15460.571369896945,0.0
305012.02908761695,3827225.878295721,-27500.0,-6217.1784160447751,-7426.3239582244678,-7359.7279056026873,-4003.7073848817449,-4701.1056477635711,-1972.214137458024,8835.1494364556074,-9207.2713038898928,-1140.0894905018363,1140.0894905018363,9207.2713038898928,17436.062824942062,0.0
310012.02908761695,3827225.878295721,-27500.0,-5666.7773796146066,-7947.5463870791073,-9604.7716269486136,-4151.8693689856727,-5737.5534465512774,-2312.2241332125877,9872.2856837953168,-10898.474524232832,71.232115901741963,-71.232115901741963,10898.474524232832,19491.899207452119,0.0
315012.02908761695,3827225.878295721,-27500.0,-4866.0003663319785,-8160.8585220874102,-12073.799453647905,-4156.8982625247272,-6843.0087191396779,-2664.3780896276276,10928.434642922495,-12484.377972423848,1496.0092244403268,-1496.0092244403268,12484.377972423848,21558.917164533712,0.0
320012.02908761695,3827225.878295721,-27500.0,-3848.6003134546545,-7959.0228506441144,-14652.686371360753,-3980.5870956919862,-7965.3941354614044,-3011.389658105074,11949.570812443202,-13810.699490920004,3056.8292462081336,-3056.8292462081336,13810.699490920004,23545.495524350044,0.0
325012.02908761695,3827225.878295721,-27500.0,-2689.1402362212043,-7251.1846677786725,-17171.617040434361,-3593.4533202250041,-9032.7704769540305,-3331.0116341435437,12872.440762209664,-14701.996764622951,4630.4211109404951,-4630.4211109404951,14701.996764622951,25339.866429500671,0.0
330012.02908761695,3827225.878295721,-27500.0,-1503.6742483461007,-5986.313129825503,-19410.258603355174,-2983.0043761027327,-9956.6428347201308,-3597.4322486805745,13629.049429442719,-14983.907454086006,6052.2117880575197,-6052.2117880575197,14983.907454086006,26816.870085416667,0.0
335012.02908761695,3827225.878295721,-27500.0,-439.92420481671593,-4177.8258659354124,-21117.245104940641,-2161.7404090972682,-10640.293868120369,-3783.9213007655358,14152.78219904939,-14515.343847480204,7133.4576376118002,-7133.4576376118002,14515.343847480204,27849.930478000981,0.0
340012.02908761695,3827225.878295721,-27500.0,345.03685842354184,-1922.0893249311619,-22045.417034471662,-1172.3954105631133,-10992.17582603793,-3866.5553026885373,14388.006598062217,-13225.55519343895,7691.8313546121117,-7691.8313546121117,13225.55519343895,28327.743949159045,0.0
345012.02908761695,3827225.878295721,-27500.0,717.39821028618826,598.08139260321354,-21998.941231167639,-87.692228958268302,-10942.604573628481,-3828.4257288315212,14302.935578651093,-11146.28642582047,7591.3000493787677,-7591.3000493787677,11146.28642582047,28173.570445804366,0.0
350012.02908761695,3827225.878295721,-27500.0,601.856002690948,3131.8896142184749,-20881.721862466533,997.22186000813406,-10459.9960220213,-3663.366024304069,13902.87440417887,-8426.5807637613743,6781.186767092101,-6781.186767092101,8426.5807637613743,27363.26204278291,0.0
355012.02908761695,3827225.878295721,-27500.0,7.6498207996752896,5401.4339801691549,-18731.570762829775,1979.3084837589877,-9561.6134228605424,-3378.0768440654615,13230.304684347813,-5320.0688470876976,5320.5678219543242,-5320.5678219543242,5320.0688470876976,25937.009492518937,0.0
360012.02908761695,3827225.878295721,-27500.0,-965.97894746476413,7156.1201986454334,-15725.858787015213,2766.0043722327268,-8314.5831033880586,-2991.8730855933372,12344.11878388888,-2143.1186294826643,3376.2650112502711,-3376.2650112502711,2143.1186294826643,24000.744402911725,0.0
365012.02908761695,3827225.878295721,-27500.0,-2149.6692068149805,8224.1165326619521,-12152.751857689136,3292.2192092596092,-6825.6752171521402,-2533.9066855287242,11312.196143473207,786.08479748589286,1191.3983796623672,-1191.3983796623672,-786.08479748589286,21715.424665594976,0.0
370012.02908761695,3827225.878295721,-27500.0,-3343.6164862097921,8543.7501555052968,-8355.3323257038828,3530.8154440751941,-5222.3836157856595,-2038.5533869684077,10215.148014575272,3208.6003351696345,-966.55294943241483,966.55294943241483,-3208.6003351696345,19276.097527911988,0.0
375012.02908761695,3827225.878295721,-27500.0,-4363.1395627786278,8165.3348652587529,-4666.4549923077702,3493.7477406437965,-3630.8929045389609,-1540.1793596221671,9137.4076810809875,4966.6840970437624,-2860.748894195794,2860.748894195794,-4966.6840970437624,16885.03485364615,0.0
380012.02908761695,3827225.878295721,-27500.0,-5074.7759972130443,7225.922448379737,-1354.4716194993141,3224.5431819007295,-2157.1893432530296,-1068.5875873614816,8152.7304426209357,6016.0508271046901,-4325.5448244738918,4325.5448244738918,-6016.0508271046901,14723.493791648214,0.0
385012.02908761695,3827225.878295721,-27500.0,-5413.3519344644346,5908.9857986433417,1406.8970534842999,2785.6026068797069,-875.6064839885737,-646.04471813767373,7311.8819559447402,6410.2344830159973,-5283.0007832164983,5283.0007832164983,-6410.2344830159973,12925.01208647571,0.0
390012.02908761695,3827225.878295721,-27500.0,-5379.3320290786596,4403.6140286918144,3542.2457414415048,2244.6945628309099,174.12220557037094,-286.17578500312788,6635.6924420512878,6267.9737276938613,-5736.2105030058301,5736.2105030058301,-6267.9737276938613,11553.275168659973,0.0
395012.02908761695,3827225.878295721,-27500.0,-5022.599922695661,2873.9182104347669,5058.3726722448691,1664.0708588280695,982.97757577610082,5.5319128222859542,6115.6485706418734,5736.9212567789191,-5747.6977330391574,5747.6977330391574,-5736.9212567789191,10592.63927600343,0.0
400012.02908761695,3827225.878295721,-27500.0,-4421.078246713033,1442.71736652599,6018.6076093564825,1093.8020728589079,1564.9242387220747,230.17834823390294,5722.2236967953559,4963.6063617580676,-5412.9878760005904,5412.9878760005904,-4963.6063617580676,9962.130481973003,0.0
405012.02908761695,3827225.878295721,-27500.0,-3661.056804724311,188.0588386559053,6516.607380825908,569.26545669169525,1948.2155469037189,393.46293382279407,5417.410886421565,4074.1086754778721,-4837.1302968015007,4837.1302968015007,-4074.1086754778721,9551.0919566304838,0.0
410012.02908761695,3827225.878295721,-27500.0,-2822.8994629285453,-851.65188946271155,6655.0962171010142,111.73520273585699,2167.7109865785383,503.7410545595186,5165.7904371716959,3165.2716249588652,-4118.033796460365,4118.033796460365,-3165.2716249588652,9256.3143120011082,0.0
415012.02908761695,3827225.878295721,-27500.0,-1972.9037463071841,-1668.4124584675058,6531.4952709983827,-269.24023708620848,2259.1410638127454,570.41532920904331,4940.5515296867097,2303.805991136971,-3337.1592431402487,3337.1592431402487,-2303.805991136971,9002.405271261694,0.0
420012.02908761695,3827225.878295721,-27500.0,-1160.3148130857069,-2274.6793038667183,6229.9939050444918,-572.79794479610746,2255.4488662727235,602.77392293023661,4724.6256122073,1530.0596748379335,-2556.1938317694803,2556.1938317694803,-1530.0596748379335,8744.3303809863646,0.0
425012.02908761695,3827225.878295721,-27500.0,-417.83877881775658,-2694.695418787664,5818.5183820603825,-803.81118797696615,2184.8881858619279,609.26489279470434,4509.0426025479928,863.76156616103003,-1817.7009075449366,1817.7009075449366,-863.76156616103003,8460.8157931055757,0.0
430012.02908761695,3827225.878295721,-27500.0,235.92902645437556,-2957.8846443968127,5348.8646651644467,-970.42656609294045,2070.391976211115,597.12781602140626,4290.4619793817365,309.95065313199046,-1147.9028990357072,1147.9028990357072,-309.95065313199046,8146.0288436777719,0.0
285012.02908761695,3832225.878295721,-27500.0,-6892.1660275179865,-3973.9102966293394,-576.62108664584741,-2936.8532031632371,-1524.0561353214669,-951.06011354078441,5682.8867431606795,-2656.5041437462451,-4347.3255054869669,4347.3255054869669,2656.5041437462451,10857.300614870152,0.0
290012.02908761695,3832225.878295721,-27500.0,-7331.641807418293,-4969.3864109440847,-1620.7207219454447,-3394.1580648921426,-2151.7025980509443,-1201.7793647473716,6508.8644717261504,-3975.7713907904144,-4190.2497365286545,4190.2497365286545,3975.7713907904144,12558.561842794359,0.0
295012.02908761695,3832225.878295721,-27500.0,-7618.809113111126,-6027.5720364842473,-2991.2046197937511,-3856.9565924856656,-2927.2781568760984,-1499.3797257684823,7445.4800275670641,-5539.904074452742,-3805.6467227615331,3805.6467227615331,5539.904074452742,14487.026233875165,0.0
300012.02908761695,3832225.878295721,-27500.0,-7695.4015748143711,-7092.5675990944037,-4733.494272636628,-4297.0869688477515,-3863.7139869032749,-1845.4774278349983,8494.2093959582144,-7334.0724821328176,-3143.7422923824624,3143.7422923824624,7334.0724821328176,16636.130750822216,0.0
305012.02908761695,3832225.878295721,-27500.0,-7504.4667080277786,-8081.3694704731688,-6876.0631415948719,-4676.1791810451095,-4964.5798108753715,-2238.0998053593189,9651.048136099389,-9311.7077201113752,-2165.1219400624836,2165.1219400624836,9311.7077201113752,18981.222787331335,0.0
310012.02908761695,3832225.878295721,-27500.0,-7000.5442649121178,-8882.1662976720327,-9416.0015541974117,-4945.9737479781488,-6218.3622819277598,-2670.0819034974124,10900.702003631999,-11384.093446000883,-853.17874732344535,853.17874732344535,11384.093446000883,21473.66007066147,0.0
315012.02908761695,3832225.878295721,-27500.0,-6163.5166458190552,-9357.9875181350508,-12301.552751858282,-5050.907847073051,-7592.0941406351612,-3127.4885095296058,12205.117656832128,-13412.336412594246,770.5119395290285,-770.5119395290285,13412.336412594246,24035.363241092589,0.0
320012.02908761695,3832225.878295721,-27500.0,-5014.5684480167474,-9358.6561150048019,-15414.271767442377,-4933.8577218168302,-9025.5504577813917,-3588.4662681184168,13500.196964882191,-15205.793442599766,2630.3308675998351,-2630.3308675998351,15205.793442599766,26555.272701023627,0.0
325012.02908761695,3832225.878295721,-27500.0,-3630.6028305046129,-8743.3955953244858,-18555.990779221647,-4545.5358965469823,-10428.07324522248,-4023.1144816322603,14703.700282319493,-16532.147090498798,4584.9850756413107,-4584.9850756413107,16532.147090498798,28889.852999644907,0.0
330012.02908761695,3832225.878295721,-27500.0,-2151.1433599625348,-7414.0134627897378,-21448.142316347457,-3857.0175093454127,-11680.681146951942,-4394.9994326219075,15722.597298936282,-17143.85500617067,6426.9613247030429,-6426.9613247030429,17143.85500617067,30869.999121426856,0.0
335012.02908761695,3832225.878295721,-27500.0,-770.51832903940192,-5354.0434494240035,-23751.866222579356,-2873.2693644470874,-12646.051028865189,-4664.7635685171535,16461.383213561519,-16822.527997152221,7900.4536430792077,-7900.4536430792077,16822.527997152221,32316.322292749617,0.0
340012.02908761695,3832225.878295721,-27500.0,290.21793405688982,-2663.2103520189312,-25114.437413092208,-1643.7316774139081,-13187.534345519645,-4795.7770341663254,16835.505566483553,-15436.007566576573,8742.1245880161732,-8742.1245880161732,15436.007566576573,33063.162656062719,0.0
345012.02908761695,3832225.878295721,-27500.0,831.02291298624084,428.17108528109952,-25239.362304066439,-264.9206469484335,-13195.337079229897,-4760.9900445923986,16790.242712873605,-12993.784872835829,8741.1717894297799,-8741.1717894297799,12993.784872835829,32988.800592417268,0.0
350012.02908761695,3832225.878295721,-27500.0,729.66427321684523,3579.4503606661319,-23964.94436471364,1129.088470702224,-12613.973510115169,-4549.3411007747527,16321.537205132616,-9679.1048186788103,7803.8304648039702,-7803.8304648039702,9679.1048186788103,32045.709883384214,0.0
355012.02908761695,3832225.878295721,-27500.0,-12.498359757361825,6399.1938774701193,-21324.932959280173,2388.8204982498382,-11462.042899715458,-4169.6845429423438,15483.214052038227,-5837.2448084340658,5998.2507700283795,-5998.2507700283795,5837.2448084340658,30282.107359645775,0.0
360012.02908761695,3832225.878295721,-27500.0,-1257.4862179338857,8531.262504141916,-17563.629589416396,3379.3038853863773,-9835.7811889452096,-3650.641276502392,14362.78076796092,-1913.1710222931229,3556.5854176019443,-3556.5854176019443,1913.1710222931229,27846.517772856449,0.0
365012.02908761695,3832225.878295721,-27500.0,-2761.1916767395055,9738.4687003239906,-13092.048440806708,4008.2916052821652,-7892.796742669685,-3036.0081657216697,13061.928386663871,1645.6943364723081,826.19000007480849,-826.19000007480849,-1645.6943364723081,24971.269085130592,0.0
370012.02908761695,3832225.878295721,-27500.0,-4238.2253920278417,9952.0380331641027,-8397.1098800665241,4243.0516076105241,-5820.3981011315618,-2376.9856883769539,11696.890317307771,4487.4233215656668,-1814.8063278764455,1814.8063278764455,-4487.4233215656668,21937.911486590314,0.0
375012.02908761695,3832225.878295721,-27500.0,-5435.3086218339831,9269.6458743628555,-3936.8961880803818,4110.5599468494365,-3799.1214943635259,-1723.5292286204785,10385.225617657105,6418.9336142673365,-4045.2989759567172,4045.2989759567172,-6418.9336142673365,19032.337092863316,0.0
380012.02908761695,3832225.878295721,-27500.0,-6185.2943153010065,7908.6152210606879,-58.669566509530434,3683.0322364577241,-1973.1756473233972,-1117.2213109434176,9223.4328340629727,7417.175399736303,-5660.8365500629316,5660.8365500629316,-7417.175399736303,16497.992096225906,0.0
385012.02908761695,3832225.878295721,-27500.0,-6426.6544543280879,6138.2050381662248,3038.948709506471,3055.9045216990398,-434.93321039383852,-587.1233245478661,8268.7269115030358,7594.9099692390655,-6590.4397025829503,6590.4397025829503,-7594.9099692390655,14492.719690760217,0.0
390012.02908761695,3832225.878295721,-27500.0,-6190.7741779165181,4217.2553829338258,5299.97509923089,2326.3665647327402,775.91102043987553,-148.85251124226301,7531.6948173372484,7143.5979732667174,-6876.2672234765496,6876.2672234765496,-7143.5979732667174,13058.090065651444,0.0
395012.02908761695,3832225.878295721,-27500.0,-5570.745474254416,2353.3924199222265,6776.8141027945658,1577.9116975749787,1662.808954032668,193.83600066913903,6983.0620568440681,6277.0230941035079,-6633.6294615161296,6633.6294615161296,-6277.0230941035079,12119.971054699028,0.0
400012.02908761695,3832225.878295721,-27500.0,-4686.8210590875551,686.88138927906493,7586.753958939541,872.57549380836974,2258.3090692767541,446.08994188182544,6571.7218477710421,5190.2675085568007,-6009.1239662194839,6009.1239662194839,-5190.2675085568007,11532.029851630128,0.0
405012.02908761695,3832225.878295721,-27500.0,-3658.7013803662076,-706.60560973692986,7873.1673589261582,249.71034948800096,2610.2567917912006,618.66212948884481,6244.6280810092503,4037.9359152662996,-5148.0739984918055,5148.0739984918055,-4037.9359152662996,11139.079964977185,0.0
410012.02908761695,3832225.878295721,-27500.0,-2588.3975425269896,-1802.8864686317584,7777.8656943095784,-271.08377978886591,2770.9076492722252,724.98436051705016,5959.6841594379903,2928.3229542527283,-4174.8647264864576,4174.8647264864576,-2928.3229542527283,10821.089123807742,0.0
415012.02908761695,3832225.878295721,-27500.0,-1552.8589749636085,-2613.1105968231782,7425.2046886197431,-685.18655265680422,2789.733944469237,778.95531244015478,5689.6283878713948,1927.6223552797339,-3184.7129303316979,3184.7129303316979,-1927.6223552797339,10504.719755739186,0.0
420012.02908761695,3832225.878295721,-27500.0,-603.52082372786731,-3169.0403399241309,6915.4930294692867,-997.9944786715804,2709.5368509873492,793.50117971124735,5420.1260547708061,1068.7397378260691,-2243.3291781625057,2243.3291781625057,-1068.7397378260691,10155.009148825786,0.0
425012.02908761695,3832225.878295721,-27500.0,230.2634449207041,-3511.7227639802536,6324.4725679243447,-1220.6753081784702,2565.000731016898,779.80152443386089,5145.8731851377961,360.96983907146205,-1390.9101582581725,1390.9101582581725,-360.96983907146205,9762.0078951843461,0.0
430012.02908761695,3832225.878295721,-27500.0,936.25485599634726,-3683.8283423038461,5706.0715109851135,-1366.9724053097211,2382.7934275785201,747.00776646428153,4866.9241472668764,-201.47736354826768,-647.78656274989908,647.78656274989908,201.47736354826768,9329.542716313319,0.0
435012.02908761695,3832225.878295721,-27500.0,1514.3042868687962,-3725.0971219974945,5096.4589119137963,-1451.0422521908665,2182.489173179928,702.28018822157651,4585.9922811308024,-632.86472818787365,-20.083908679394597,20.083908679394597,632.86472818787365,8867.6605881228061,0.0
280012.02908761695,3837225.878295721,-27500.0,-6809.0385455253445,-2623.7944095082371,1006.7008143142249,-2589.9434802011015,-772.54883265672743,-739.30908153904306,5175.0044761855916,-701.50514253856682,-5000.3959122671713,5000.3959122671713,701.50514253856682,9646.4906639772271,0.0
285012.02908761695,3837225.878295721,-27500.0,-7545.430240010659,-3610.1692593024009,332.68343538694637,-3108.4905253679121,-1282.9445753394384,-972.29870500573429,5958.6249195799919,-1776.6114271771128,-5185.3086621659158,5185.3086621659158,1776.6114271771128,11247.791003320366,0.0
290012.02908761695,3837225.878295721,-27500.0,-8203.4586166480385,-4742.7961892086169,-639.66698418304657,-3674.608460722774,-1948.3063835836697,-1260.1748833730808,6872.7340216833009,-3141.3236803118484,-5194.5904743749361,5194.5904743749361,3141.3236803118484,13125.580514607071,0.0
295012.02908761695,3837225.878295721,-27500.0,-8718.4597955859736,-5996.6199300499611,-1982.6341305631158,-4270.0328333688367,-2796.6622087778255,-1609.9397438557212,7928.8383937437357,-4821.5970149880495,-4960.5858454868239,4960.5858454868239,4821.5970149880495,15299.101424307148,0.0
300012.02908761695,3837225.878295721,-27500.0,-9013.9082889760593,-7319.5040515889868,-3768.0935720637181,-4864.4281396312244,-3852.7578534991317,-2026.427329736508,9134.6484429019929,-6822.1872901307843,-4410.8775590909472,4410.8775590909472,6822.1872901307843,17774.505985919117,0.0
305012.02908761695,3837225.878295721,-27500.0,-9007.4444932807037,-8623.9213423611454,-6055.7077118142352,-5412.8326422525315,-5132.3741553018572,-2510.367462954001,10492.006464984886,-9112.6788342520449,-3477.7573742580698,3477.7573742580698,9112.6788342520449,20537.361605850336,0.0
310012.02908761695,3837225.878295721,-27500.0,-8622.4572783179246,-9780.6579424386691,-8874.8187215552061,-5854.4556671856117,-6634.3878996235335,-3055.9467297766769,11991.510833943312,-11611.119210385679,-2113.5574960184676,2113.5574960184676,11611.119210385679,23543.737381031588,0.0
315012.02908761695,3837225.878295721,-27500.0,-7806.089903336102,-10618.127784348259,-12199.896141360874,-6114.2298238751337,-8330.8842409411918,-3648.1047707874541,13598.623348837475,-14168.072145856495,-312.01574591732879,312.01574591732879,14168.072145856495,26710.67171174159,0.0
320012.02908761695,3837225.878295721,-27500.0,-6552.9442107353243,-10932.320370621488,-15921.805347764339,-6108.8777747861441,-10156.697382942968,-4260.1408703984271,15241.590304484131,-16556.577273383937,1866.3159467752048,-1866.3159467752048,16556.577273383937,29908.042672801457,0.0
325012.02908761695,3837225.878295721,-27500.0,-4930.4766318201137,-10512.609357051158,-19821.075072162665,-5758.9617489036891,-12001.179361766815,-4852.53269839718,16816.229036650628,-18476.184950627317,4270.3345464880595,-4270.3345464880595,18476.184950627317,32954.868152664953,0.0
330012.02908761695,3837225.878295721,-27500.0,-3097.7605945113446,-9186.4570512255086,-23554.379132892191,-5007.2060984766049,-13706.608064277338,-5374.1384147313292,18196.239077611815,-19580.643097692864,6646.54677269882,-6646.54677269882,19580.643097692864,35624.300377281485,0.0
335012.02908761695,3837225.878295721,-27500.0,-1305.2601845980571,-6879.6389848777872,-26669.349068282791,-3840.8060534884607,-15078.404910801692,-5766.8322575848315,19244.443316410252,-19536.057071546904,8652.6774433155297,-8652.6774433155297,19536.057071546904,37661.618057543252,0.0
340012.02908761695,3837225.878295721,-27500.0,136.9686300721232,-3677.9917910272106,-28661.807144078004,-2311.8756559152907,-15911.078628809626,-5973.9463381940514,19831.454798784445,-18106.949284266077,9908.5815727415793,-9908.5815727415793,18106.949284266077,38817.912685762472,0.0
345012.02908761695,3837225.878295721,-27500.0,927.46204361947878,134.92218083420678,-29078.32279952809,-547.00427605225389,-16029.048316188739,-5951.4784462688485,19863.86028650912,-15250.980985473234,10085.270480648422,-10085.270480648422,15250.980985473234,38897.331024314815,0.0
350012.02908761695,3837225.878295721,-27500.0,865.27185986153779,4093.8405123693233,-27644.786830118283,1263.131282060898,-15333.803636578543,-5679.3649834126027,19317.850769173092,-11185.675898274574,9012.1775543708136,-9012.1775543708136,11185.675898274574,37808.853878884554,0.0
355012.02908761695,3837225.878295721,-27500.0,-67.911499281049515,7637.6321333645537,-24376.236770080355,2897.547138621645,-13841.244281220183,-5168.974371372924,18259.773554625455,-6385.5294676697849,6761.0419758883072,-6761.0419758883072,6385.5294676697849,35606.810671654523,0.0
360012.02908761695,3837225.878295721,-27500.0,-1677.87592199551,10248.48065899854,-19613.593863016693,4154.8765105463772,-11691.585622649467,-4463.4591739149428,16821.281347266438,-1488.9115002088311,3659.8228551171596,-3659.8228551171596,1488.9115002088311,32503.086063143088,0.0
365012.02908761695,3837225.878295721,-27500.0,-3605.1374944827667,11592.588217917762,-13956.13443431109,4901.9086339840605,-9123.0432226967023,-3629.9887191883395,15159.227875954524,2861.6165602378755,215.6547700734136,-215.6547700734136,-2861.6165602378755,28841.406046668413,0.0
370012.02908761695,3837225.878295721,-27500.0,-5434.3584206626883,11600.674274114041,-8109.011630993271,5101.355397335722,-6416.906367728051,-2746.2080919233354,13445.24079556104,6181.6690334413179,-3026.9035141084892,3026.9035141084892,-6181.6690334413179,25037.936524415629,0.0
375012.02908761695,3837225.878295721,-27500.0,-6815.9576520196779,10455.687996401261,-2709.8191123447677,4808.9985018457683,-3835.25880082298,-1885.55820842401,11844.867774976756,8242.3518552411242,-5629.9771337798647,5629.9771337798647,-8242.3518552411242,21503.385166607506,0.0
380012.02908761695,3837225.878295721,-27500.0,-7547.1753080486751,8504.3067165451557,1796.5249776211404,4145.2922156745253,-1574.0111611888069,-1105.9826174995176,10482.304199653017,9072.8380878395546,-7349.8817506623345,7349.8817506623345,-9072.8380878395546,18562.373193542175,0.0
385012.02908761695,3837225.878295721,-27500.0,-7589.1269650625345,6141.7557964883999,5200.1225106397023,3256.5994747307245,256.71541988928033,-444.43742261375343,9414.1873281593253,8888.435275931799,-8146.7537179619403,8146.7537179619403,-8888.435275931799,16383.338959225648,0.0
390012.02908761695,3837225.878295721,-27500.0,-7031.6895329592344,3717.5871257727836,7495.8789403918408,2281.2336747874233,1626.7842694573401,83.004073205883103,8626.0883279007649,7991.0499852481234,-8135.2680035843196,8135.2680035843196,-7991.0499852481234,14943.983299481528,0.0
395012.02908761695,3837225.878295721,-27500.0,-6035.8994640537094,1485.198164802724,8815.7647981623923,1328.5793534742877,2565.1870889908332,477.27835720710516,8054.1946453746277,6683.573028246813,-7512.9842747480006,7512.9842747480006,-6683.573028246813,14068.235528085357,0.0
400012.02908761695,3837225.878295721,-27500.0,-4780.2012150316359,-407.58652158680462,9357.7050099557819,471.80929981855758,3135.3432547385928,750.89404601440424,7619.3372580221167,5217.4339426220959,-6496.3978951973586,6496.3978951973586,-5217.4339426220959,13525.258793464553,0.0
405012.02908761695,3837225.878295721,-27500.0,-3424.0218939471702,-1902.0842945137535,9330.9875354465712,-249.65870535688418,3414.0040916427083,922.62514380837172,7254.0657986230699,3772.8287205601973,-5278.8470051898294,5278.8470051898294,-3772.8287205601973,13120.560821587718,0.0
410012.02908761695,3837225.878295721,-27500.0,-2090.1408939195858,-3002.3838697709384,8923.3816393267334,-822.81906040049353,3476.7118899537986,1013.2767509630324,6913.5311474838672,2461.1995214417529,-4010.7202924355634,4010.7202924355634,-2461.1995214417529,12731.296733915187,0.0
415012.02908761695,3837225.878295721,-27500.0,-861.22469634856395,-3749.6525423444759,8286.6249550628963,-1252.5785962177881,3389.6741759871411,1042.8144191720023,6574.0689980256484,1338.6848118861972,-2795.9301243109312,2795.9301243109312,-1338.6848118861972,12298.246610032456,0.0
420012.02908761695,3837225.878295721,-27500.0,215.47715771369769,-4202.0512297277382,7534.0797755046306,-1554.245820402416,3206.5037389733293,1028.7424962449657,6226.9731391666955,422.3455168084281,-1697.5097574375711,1697.5097574375711,-422.3455168084281,11804.02988216708,0.0
425012.02908761695,3837225.878295721,-27500.0,1120.103943815287,-4421.2553489911024,6744.8922905746213,-1747.8482298295253,2968.0428569826868,985.43510289317283,5872.2593983858233,-295.28990541275175,-746.80482925845422,746.80482925845422,295.28990541275175,11253.848917539504,0.0
430012.02908761695,3837225.878295721,-27500.0,1851.8516319749697,-4464.6293794988724,5970.6824744084925,-1854.3249280133307,2703.8123246078535,924.09549097474019,5514.1065054441588,-835.05165768587017,47.11316284984656,-47.11316284984656,835.05165768587017,10662.686440970981,0.0
435012.02908761695,3837225.878295721,-27500.0,2421.8319990980485,-4381.4915804227676,5242.4537838818087,-1893.2696206499481,2434.0911046464084,853.0684099871886,5158.0374395269509,-1223.426496908781,689.43004105297427,-689.43004105297427,1223.426496908781,10047.986300770393,0.0
275012.02908761695,3842225.878295721,-27500.0,-6186.3742215850416,-1119.7165406786473,2198.715678874521,-2073.2728708430027,-73.644197199815167,-505.21912746467785,4676.64043025707,1100.0368619915403,-5147.8806345799294,5147.8806345799294,-1100.0368619915403,8462.9313259802584,0.0
280012.02908761695,3842225.878295721,-27500.0,-7137.2853305550761,-1967.7932963238911,1899.4338289523878,-2597.7631355776557,-434.97113053421884,-703.75871163855595,5378.1991468571005,368.06070811301424,-5633.8723278661473,5633.8723278661473,-368.06070811301424,9866.3030367923329,0.0
285012.02908761695,3842225.878295721,-27500.0,-8101.3227946224051,-3010.8353984023224,1370.3903536720713,-3204.5453655724632,-938.19858947059845,-959.1796747848457,6216.1056655947268,-645.35614857666542,-6027.3274107662419,6027.3274107662419,645.35614857666542,11563.675868051574,0.0
290012.02908761695,3842225.878295721,-27500.0,-9025.045603639981,-4257.3832844561566,531.30045223061143,-3889.3632083309949,-1620.7999121256794,-1283.0768074444463,7211.6782419351948,-1996.8701023900244,-6261.4988317368498,6261.4988317368498,1996.8701023900244,13598.354704423571,0.0
295012.02908761695,3842225.878295721,-27500.0,-9834.5351968316663,-5697.1635048682647,-712.31302547123153,-4637.5320476275983,-2523.8876858308181,-1687.0111004994258,8385.3770239166388,-3737.7130684053454,-6252.5813145715047,6252.5813145715047,3737.7130684053454,16008.645005893275,0.0
300012.02908761695,3842225.878295721,-27500.0,-10434.969979544394,-7289.9507924004993,-2463.9182613445537,-5419.4069199603791,-3688.5775390647536,-2180.8724079782783,9754.8274367716513,-5901.7230486358549,-5902.6686542055595,5902.6686542055595,5901.7230486358549,18821.020910923318,0.0
305012.02908761695,3842225.878295721,-27500.0,-10714.674469753369,-8952.331723998308,-4824.3408508357934,-6185.5670643542953,-5149.4287062944759,-2770.336642409075,11332.259997020708,-8487.628041995793,-5108.4021668936894,5108.4021668936894,8487.628041995793,22040.418124180425,0.0
310012.02908761695,3842225.878295721,-27500.0,-10556.444434216201,-10544.531716092912,-7871.0033909892172,-6862.8908626286593,-6924.1379700381176,-3453.332278615479,13119.09316806366,-11435.586844854111,-3777.9463635912084,3777.9463635912084,11435.586844854111,25637.494557208396,0.0
315012.02908761695,3842225.878295721,-27500.0,-9858.8590967957989,-11861.75174986978,-11625.969050903479,-7353.5361092195644,-8999.1842140789959,-4215.690779636956,15090.286220698117,-14600.239379305294,-1858.3325679702893,1858.3325679702893,14600.239379305294,29533.422056440351,0.0
320012.02908761695,3842225.878295721,-27500.0,-8568.7832893144187,-12637.346000059253,-16013.202806990326,-7539.7261339337138,-11312.41495812605,-5026.628998164635,17172.011798022784,-17726.441613858027,627.12094089931816,-627.12094089931816,17726.441613858027,33584.18780276562,0.0
325012.02908761695,3842225.878295721,-27500.0,-6722.2392211850511,-12567.601349747651,-20810.938051312569,-7297.662836308391,-13735.953748621714,-5835.3976510453804,19237.425254211612,-20439.321093763519,3536.7003239763071,-3536.7003239763071,20439.321093763519,37568.645202042761,0.0
330012.02908761695,3842225.878295721,-27500.0,-4483.5940797869162,-11367.291467437646,-25613.75596049217,-6522.8414589896838,-16065.993748147597,-6571.0869892089422,21117.755110620699,-22265.377715772003,6576.9795293829238,-6576.9795293829238,22265.377715772003,41187.001566170409,0.0
335012.02908761695,3842225.878295721,-27500.0,-2163.9308853492812,-8858.0874333342272,-29829.20047035993,-5165.5865916710636,-18029.066220993569,-7147.8513669509957,22616.498926982731,-22702.047093687375,9300.7854714368896,-9300.7854714368896,22702.047093687375,44078.495671986464,0.0
340012.02908761695,3842225.878295721,-27500.0,-193.38098151960259,-5074.9193023478238,-32738.988947980684,-3269.1623521887441,-19314.597878939931,-7477.0565083030097,23534.559945507361,-21342.531069515881,11162.697460616586,-11162.697460616586,21342.531069515881,45866.160050115614,0.0
345012.02908761695,3842225.878295721,-27500.0,971.3361601862299,-350.72556572307371,-33643.783014445646,-995.074006911075,-19637.417073930261,-7485.5921092871658,23712.639406608396,-18035.353841431061,11646.409134915366,-11646.409134915366,18035.353841431061,46229.995905703479,0.0
350012.02908761695,3842225.878295721,-27500.0,995.05219716501051,4678.3463880073296,-32073.696939043959,1383.6568915179419,-18819.648715006391,-7136.1543327520167,23086.77528058122,-13019.56117185509,10443.1065581193,-10443.1065581193,13019.56117185509,44996.796412419877,0.0
355012.02908761695,3842225.878295721,-27500.0,-185.64309439863331,9192.5082593518073,-27991.27927526247,3533.2080699432295,-16863.282328999172,-6442.1851988637882,21733.737229426129,-6951.873504216157,7610.9883342020221,-7610.9883342020221,6951.873504216157,42218.464726164493,0.0
360012.02908761695,3842225.878295721,-27500.0,-2294.2910445591833,12418.31043733574,-21878.308043107027,5144.612765382316,-13976.131230596082,-5470.0495523898799,19853.416713955958,-769.18667385659955,3620.6082871510362,-3620.6082871510362,769.18667385659955,38202.960771315717,0.0
365012.02908761695,3842225.878295721,-27500.0,-4788.0358564118542,13874.833142197222,-14631.288139417997,6020.9112100707507,-10528.607486550829,-4325.5439242419206,17695.917393229691,4582.3147010415996,-768.62746324185878,768.62746324185878,-4582.3147010415996,33473.837029075454,0.0
370012.02908761695,3842225.878295721,-27500.0,-7049.3121108944597,13510.136951115393,-7295.5527333797654,6125.0502709873635,-6954.4326945672137,-3129.2551342374572,15522.397136517846,8427.056184907291,-4755.6565515016919,4755.6565515016919,-8427.056184907291,28663.657905165412,0.0
375012.02908761695,3842225.878295721,-27500.0,-8594.0638892108473,11662.503663970267,-767.91683705675791,5568.4259640130231,-3640.0466885397077,-1990.6219051103078,13568.273314453605,10512.019916206345,-7742.022061362316,7742.022061362316,-10512.019916206345,24371.877516352164,0.0
380012.02908761695,3842225.878295721,-27500.0,-9192.4827107346409,8889.018170180012,4394.9103831882121,4553.7024742242411,-849.14829025580389,-989.89059531999806,11987.165616336588,10980.160651606533,-9458.1757613477748,9458.1757613477748,-10980.160651606533,21020.552662966955,0.0
385012.02908761695,3842225.878295721,-27500.0,-8868.4219270746253,5767.418770763873,8009.1445809512115,3305.4511541320417,1298.0024685182439,-171.71701484854543,10816.482747365928,10221.616154286181,-9945.0554585449136,9945.0554585449136,-10221.616154286181,18743.732900902563,0.0
390012.02908761695,3842225.878295721,-27500.0,-7816.6174436702404,2757.8978069431414,10178.286710585984,2017.4077169248208,2801.2877368200079,451.47874052091299,9990.7628172763943,8701.8379052416403,-9445.4233798432524,9445.4233798432524,-8701.8379052416403,17377.106584300414,0.0
395012.02908761695,3842225.878295721,-27500.0,-6300.3350471805625,150.58470298981572,11165.638740324488,827.08155717986028,3737.8229403221976,890.92975024643761,9394.5110259568937,6836.9183461554094,-8279.6634838304271,8279.6634838304271,-6836.9183461554094,16589.341977494463,0.0
400012.02908761695,3842225.878295721,-27500.0,-4572.644615567242,-1922.1842947697635,11283.59850666795,-186.54031344844853,4220.1549578577824,1171.872380221778,8917.623456457377,4935.2091979144388,-6753.804609942059,6753.804609942059,-4935.2091979144388,16060.864118131829,0.0
405012.02908761695,3842225.878295721,-27500.0,-2834.198055654771,-3443.4061246696178,10822.892596278138,-992.28054940505183,4365.8007867421575,1325.3617245616995,8483.8236891940851,3190.1128296126126,-5111.7148873584947,5111.7148873584947,-3190.1128296126126,15579.352568792181,0.0
410012.02908761695,3842225.878295721,-27500.0,-1221.2180293633564,-4465.0997787943679,10019.640608234844,-1591.8932894669088,4279.6961353542638,1382.5093905613292,8052.5472806561156,1700.0042195523877,-3522.3187866179896,3522.3187866179896,-1700.0042195523877,15040.920364171143,0.0
415012.02908761695,3842225.878295721,-27500.0,188.5637540446441,-5071.2204902620506,9048.159669450255,-2006.3328922893825,4046.8101369811025,1371.1003122616075,7608.9376490478553,496.3243937278869,-2086.9988256183369,2086.9988256183369,-496.3243937278869,14414.298460061169,0.0
420012.02908761695,3842225.878295721,-27500.0,1362.5208972989565,-5353.0139580262303,8027.3583319653617,-2265.324346729833,3731.1836652174547,1314.0759130315928,7152.852162386499,-430.63332267488784,-855.05933212338721,855.05933212338721,430.63332267488784,13706.561786771568,0.0
425012.02908761695,3842225.878295721,-27500.0,2298.8111760745246,-5395.1254283841945,7032.2416800941492,-2400.4703422134976,3378.2841857011863,1229.2661122088186,6690.863976263995,-1112.1484523513773,160.03095194762932,-160.03095194762932,1112.1484523513773,12940.603891795692,0.0
430012.02908761695,3842225.878295721,-27500.0,3014.2290913703746,-5269.3154191549957,6105.77217937143,-2441.2722339007387,3018.6026971919364,1129.8333249185057,6231.4849454613286,-1587.9779538082398,966.98103367172962,-966.98103367172962,1587.9779538082398,12142.761169790943,0.0
435012.02908761695,3842225.878295721,-27500.0,3535.1520026015769,-5032.8440309058969,5268.9846410300088,-2413.2211804084623,2671.323791995927,1025.0356474294367,5782.7269468729137,-1898.5004049214231,1586.531907448863,-1586.531907448863,1898.5004049214231,11336.946692891994,0.0
440012.02908761695,3842225.878295721,-27500.0,3891.4204808565701,-4729.3551171438339,4528.7616154782718,-2337.2088360667035,2347.5216079173138,921.06037909937095,5351.1038196009813,-2080.5709469111566,2044.5822185491584,-2044.5822185491584,2080.5709469111566,10542.437267289064,0.0
275012.02908761695,3847225.878295721,-27500.0,-6119.7372527308726,-265.13420055273104,2955.076736751776,-1916.7543112657629,308.45490016619226,-421.44440899681388,4856.929950953856,2207.6500644134817,-5472.1674311742408,5472.1674311742408,-2207.6500644134817,8638.8659927481021,0.0
280012.02908761695,3847225.878295721,-27500.0,-7261.9860678120358,-1081.5118994226414,2834.9834256691947,-2494.4439518746758,-8.2717955361705613,-626.10118826486973,5581.1046000719834,1624.0916296755163,-6163.580008745028,6163.580008745028,-1624.0916296755163,10057.703267474495,0.0
285012.02908761695,3847225.878295721,-27500.0,-8473.8053427491668,-2133.2454248946638,2503.3435129742265,-3184.3182151719411,-477.15874329186823,-897.57480423673485,6459.1033090556175,743.03633299098919,-6804.6066204182061,6804.6066204182061,-743.03633299098919,11810.442531958681,0.0
290012.02908761695,3847225.878295721,-27500.0,-9704.6385448287438,-3448.2979101480805,1868.1444058752506,-3990.1717106288588,-1146.4930062915373,-1252.276716340577,7521.6565095808619,-514.10626684839599,-7324.0988508778191,7324.0988508778191,514.10626684839599,13961.891052239649,0.0
295012.02908761695,3847225.878295721,-27500.0,-10876.714947034036,-5038.8573155198992,813.54413339297855,-4905.0805113288579,-2073.042231052777,-1707.9653909652909,8801.2335251887453,-2229.0387604554321,-7625.3041341146254,7625.3041341146254,2229.0387604554321,16576.648452475805,0.0
300012.02908761695,3847225.878295721,-27500.0,-11880.609034528181,-6887.4690307859019,-798.26330391409238,-5904.9888692843142,-3319.2183624354461,-2282.0130352496826,10329.992355000455,-4474.6440176005299,-7585.1525826505394,7585.1525826505394,4474.6440176005299,19711.582226182098,0.0
305012.02908761695,3847225.878295721,-27500.0,-12574.957839396007,-8928.3655596573099,-3118.0607814551709,-6940.8882098301219,-4946.4793522747923,-2988.3351602825501,12136.945091976757,-7294.734109433889,-7059.6058616445926,7059.6058616445926,7294.734109433889,23404.154088935349,0.0
310012.02908761695,3847225.878295721,-27500.0,-12794.488079946052,-11025.296275495895,-6288.8742497146159,-7930.665494615987,-7003.1796389788078,-3832.6150354544752,14242.478422567481,-10673.565784735805,-5899.4512402382743,5899.4512402382743,10673.565784735805,27655.507754658051,0.0
315012.02908761695,3847225.878295721,-27500.0,-12371.627184775876,-12950.273803583457,-10408.342282937978,-8753.063894620871,-9505.2770009077685,-4805.7236982377344,16641.363636787319,-14495.37608173642,-3981.4815656106339,3981.4815656106339,14495.37608173642,32407.890845822669,0.0
320012.02908761695,3847225.878295721,-27500.0,-11176.669170006699,-14372.573094458096,-15470.599657300805,-9248.0605447305879,-12409.589339677355,-5875.883068272713,19269.049824195237,-18499.159468573569,-1258.5726989301711,1258.5726989301711,18499.159468573569,37517.776395954512,0.0
325012.02908761695,3847225.878295721,-27500.0,-9177.5574415188985,-14873.284994685264,-21290.027817941947,-9229.7081476212788,-15582.439871512866,-6981.2133992653607,21980.609702350572,-22242.550041619455,2173.4958986210349,-2173.4958986210349,22242.550041619455,42729.178227974706,0.0
330012.02908761695,3847225.878295721,-27500.0,-6510.6292212587987,-14005.042419584872,-27422.211381147008,-8517.8793984790991,-18772.206143761599,-8025.7944622347586,24556.840672326878,-25100.440580713766,6006.6427585777146,-6006.6427585777146,25100.440580713766,47656.8894294477,0.0
335012.02908761695,3847225.878295721,-27500.0,-3536.7607817367884,-11412.40862942314,-33117.804869014828,-6991.8231027179954,-21601.676871609583,-8883.6120968390369,26719.070002680619,-26333.554176149533,9681.1881001451184,-9681.1881001451184,26333.554176149533,51795.220415298318,0.0
340012.02908761695,3847225.878295721,-27500.0,-838.21040235075111,-7006.1327683653099,-37365.693605164473,-4658.3795005239099,-23601.494599906961,-9414.5966094642117,28160.228590336919,-25257.067133439763,12427.011003243622,-12427.011003243622,25257.067133439763,54570.9488303908,0.0
345012.02908761695,3847225.878295721,-27500.0,893.30371511726548,-1138.4049311218496,-39082.198799758429,-1711.1472812134468,-24301.545731920116,-9493.9972010362253,28607.696004602956,-21501.71313369766,13432.545530700309,-13432.545530700309,21501.71313369766,55453.282996054702,0.0
350012.02908761695,3847225.878295721,-27500.0,1090.3611099119717,5327.9462184775757,-37451.250897660706,1458.5269710620323,-23373.504699665351,-9049.660973372509,27916.805373121882,-15282.242982966389,12137.518889540464,-12137.518889540464,15282.242982966389,54110.703270631653,0.0
355012.02908761695,3847225.878295721,-27500.0,-410.94639550974807,11171.479737957856,-32306.291149788591,4333.8709307827839,-20776.15498232664,-8093.5094196976524,26163.80178456095,-7509.0558315514718,8541.0579650355958,-8541.0579650355958,7509.0558315514718,50566.746318621372,0.0
360012.02908761695,3847225.878295721,-27500.0,-3213.9725474284314,15199.269716710611,-24335.043874520848,6423.8049859832754,-16822.741343384856,-6729.9381146461019,23653.953962854477,406.53707309129527,3328.4335784617924,-3328.4335784617924,-406.53707309129527,45277.630222022985,0.0
365012.02908761695,3847225.878295721,-27500.0,-6474.0462558305571,16697.921702122792,-14919.901217323606,7427.9394600680198,-12109.648478421306,-5131.815554052585,20800.200147539414,7028.6583287326166,-2328.4068181421999,2328.4068181421999,-7028.6583287326166,39068.986617395429,0.0
370012.02908761695,3847225.878295721,-27500.0,-9249.6862759100277,15676.85718756063,-5653.0730437452075,7323.931806544032,-7327.5079609981813,-3492.8147639931017,18014.724457372766,11402.67525272107,-7221.856366273576,7221.856366273576,-11402.67525272107,32934.185279198595,0.0
375012.02908761695,3847225.878295721,-27500.0,-10873.138188499754,12762.598906587833,2194.0596461646428,6332.6455885431851,-3055.4021619086789,-1978.9262270921222,15634.208792238825,13295.545318876335,-10538.42840560999,10538.42840560999,-13295.545318876335,27759.713227916054,0.0
380012.02908761695,3847225.878295721,-27500.0,-11124.325931836738,8856.6218263025003,7961.1733912883665,4798.8576749673302,360.78671644495341,-699.42049177058163,13831.078156238031,13085.297341064572,-12031.610627277169,12031.610627277169,-13085.297341064572,24057.582355003688,0.0
385012.02908761695,3847225.878295721,-27500.0,-10170.39688425155,4792.85577349493,11577.536087594446,3065.5267311309071,2816.6948795413487,297.62067964338411,12581.116240018135,11454.850504808233,-11920.993532623037,11920.993532623037,-11454.850504808233,21812.893157165883,0.0
390012.02908761695,3847225.878295721,-27500.0,-8384.9654751805338,1148.6665157445905,13355.791667546117,1395.598608158572,4383.5149382994987,1013.0515584494709,11727.184201805394,9101.1687818141872,-10665.170226924172,10665.170226924172,-9101.1687818141872,20593.936964878914,0.0
395012.02908761695,3847225.878295721,-27500.0,-6175.4802497934688,-1782.9500377887032,13763.846397861927,-50.804039704790377,5223.7771329192592,1478.6399218821559,11087.242929313448,6569.0921547721027,-8756.8750461985419,8756.8750461985419,-6569.0921547721027,19873.407325550328,0.0
400012.02908761695,3847225.878295721,-27500.0,-3879.4454553893356,-3929.6932697726947,13265.01381438613,-1203.1754113825061,5524.3735236936927,1740.6928323813838,10526.629927281367,4206.9126252147253,-6604.1484961342048,6604.1484961342048,-4206.9126252147253,19271.499042484629,0.0
405012.02908761695,3847225.878295721,-27500.0,-1728.2655574392152,-5353.4939888040053,12239.541636848058,-2053.7829017333461,5456.7301177174195,1848.2724293894171,9972.686424817759,2192.8258212300298,-4490.8862629731866,4490.8862629731866,-2192.8258212300298,18598.288786460882,0.0
410012.02908761695,3847225.878295721,-27500.0,146.8991212310568,-6178.4401364147243,10964.313015338821,-2631.3663339039203,5159.6373315688224,1846.16580161355,9398.9020659528032,585.46099643217792,-2585.0078117430135,2585.0078117430135,-585.46099643217792,17795.490600055851,0.0
415012.02908761695,3847225.878295721,-27500.0,1691.7961393123842,-6543.4766381486243,9622.8807024782454,-2981.1830019899994,4736.2771029049209,1771.5923243731654,8804.6424036251556,-628.11624274999986,-965.68353133228334,965.68353133228334,628.11624274999986,16872.645841428079,0.0
420012.02908761695,3847225.878295721,-27500.0,2903.3078738815375,-6576.7972987162457,8326.3298358643351,-3152.1318220333083,4258.3051970869155,1653.4037104417109,8200.470505546773,-1496.5862577913099,347.29812030978337,-347.29812030978337,1496.5862577913099,15865.678932742874,0.0
425012.02908761695,3847225.878295721,-27500.0,3807.9841900769593,-6385.0762093800922,7134.5997966378254,-3189.6005107382202,3772.4051623812616,1512.7079959096823,7599.7619828177012,-2081.3317572899714,1369.3316687254635,-1369.3316687254635,2081.3317572899714,14815.246767798762,0.0
430012.02908761695,3847225.878295721,-27500.0,4446.6073876460996,-6051.3020203993165,6074.0637913048331,-3132.2330100650765,3306.8739721733473,1364.1372993570067,7014.6931222492467,-2443.3688586927133,2133.68102903101,-2133.68102903101,2443.3688586927133,13757.197664970976,0.0
435012.02908761695,3847225.878295721,-27500.0,4864.2173107611161,-5636.8724919734868,5150.5151059503924,-3011.0808235224017,2877.2117612690286,1217.2727134997574,6454.7775132896086,-2636.979856653496,2680.2734435460529,-2680.2734435460529,2636.979856653496,12719.439599589561,0.0
440012.02908761695,3847225.878295721,-27500.0,5104.3005579492574,-5185.3154579126358,4358.0751913001804,-2850.0329797179597,2490.4389271304954,1077.9619113738406,5926.7097251016121,-2707.396584860986,3049.1000273397876,-3049.1000273397876,2707.396584860986,11721.821977060024,0.0
445012.02908761695,3847225.878295721,-27500.0,5205.8227298396032,-4726.2366944065379,3684.9738525482389,-2666.8150538251421,2148.2342584285834,949.41549650708066,5434.7836300251629,-2690.6879315934893,3276.7435066834933,-3276.7435066834933,2690.6879315934893,10777.24503002802,0.0
270012.02908761695,3852225.878295721,-27500.0,-4608.0344724626948,1281.3985092937476,3475.7447746477583,-1143.0831449895741,887.42554411209073,-150.66305085763062,4468.1068477122153,3564.5040334698874,-4746.396832882031,4746.396832882031,-3564.5040334698874,7771.2081588699757,0.0
275012.02908761695,3852225.878295721,-27500.0,-5770.2806011953262,771.74756388505875,3669.9940435795866,-1629.8635041057835,751.76935330428978,-293.8030686731982,5070.1811438503073,3405.6221443903437,-5599.1092998850454,5599.1092998850454,-3405.6221443903437,8880.4706550323026,0.0
280012.02908761695,3852225.878295721,-27500.0,-7090.1649335680995,46.072118339029423,3759.7920140916522,-2241.6947172505538,506.43690161960359,-494.50763389693935,5803.5815345343499,3034.0621424784076,-6504.28299989072,6504.28299989072,-3034.0621424784076,10271.954623152491,0.0
285012.02908761695,3852225.878295721,-27500.0,-8551.3642635314936,-946.69809307135085,3674.9641435145008,-2998.0169347833184,105.98384924788276,-770.98592714036556,6702.8656228918835,2368.2228228621807,-7419.940230929431,7419.940230929431,-2368.2228228621807,12024.086613687616,0.0
290012.02908761695,3852225.878295721,-27500.0,-10114.369135437895,-2257.7011858789706,3317.2337461233233,-3914.4133911542076,-508.62319585006861,-1145.3737132273866,7809.2489574802548,1308.4948593725471,-8277.8508563109663,8277.8508563109663,-1308.4948593725471,14227.384977032665,0.0
295012.02908761695,3852225.878295721,-27500.0,-11707.013990313288,-3929.1058880378309,2554.1560099788189,-4997.1890559807825,-1411.3461002761958,-1643.36350067136,9170.022165307777,-259.70119555891142,-8975.8404071931145,8975.8404071931145,259.70119555891142,16980.683395104341,0.0
300012.02908761695,3852225.878295721,-27500.0,-13214.617337264168,-5978.8050580386125,1215.5222401710419,-6235.2040136623682,-2690.2830124817324,-2292.7473004272533,10837.061225164091,-2456.4096117132312,-9371.4939942401252,9371.4939942401252,2456.4096117132312,20383.732959187222,0.0
305012.02908761695,3852225.878295721,-27500.0,-14472.539908242179,-8377.0086431001291,-903.73911984545202,-7588.6018493571264,-4442.6475563695103,-3120.1791742994315,12864.362384332539,-5387.1391598750251,-9280.8944431565887,9280.8944431565887,5387.1391598750251,24524.382463706261,0.0
310012.02908761695,3852225.878295721,-27500.0,-15266.369360964192,-11014.107164256076,-4027.6384130650531,-8974.9244969477622,-6762.4901663079154,-4145.3329991661067,15303.163294700433,-9107.6987099181224,-8488.4478726733632,8488.4478726733632,9107.6987099181224,29457.995287371043,0.0
315012.02908761695,3852225.878295721,-27500.0,-15347.860587122808,-13662.489781455704,-8361.0598548427861,-10254.876578914234,-9717.4633637108709,-5371.7533122252089,18184.826482457673,-13570.198804333413,-6776.3801026575975,6776.3801026575975,13570.198804333413,35176.734810467009,0.0
320012.02908761695,3852225.878295721,-27500.0,-14477.03913396913,-15941.671181279256,-14019.259860786298,-11223.026094966153,-13311.371832003677,-6774.328280151085,21475.329463730799,-18551.179013705172,-3983.6102162464776,3983.6102162464776,18551.179013705172,41567.687203822512,0.0
325012.02908761695,3852225.878295721,-27500.0,-12499.750296092237,-17306.961813921866,-20918.542982632309,-11612.886424673077,-17432.442342808848,-8284.8631115673597,25027.465358972684,-23574.106489964892,-100.06715876377166,100.06715876377166,23574.106489964892,48362.856809845973,0.0
330012.02908761695,3852225.878295721,-27500.0,-9460.1811255079647,-17095.130102945521,-28636.507660805772,-11129.62207524684,-21795.248699091015,-9779.8254672406383,28570.505808289588,-27858.626402636684,4611.3626350500017,-4611.3626350500017,27858.626402636684,55092.091515120308,0.0
335012.02908761695,3852225.878295721,-27500.0,-5723.082656301729,-14668.074968375486,-36282.985433125396,-9523.3435640062271,-25898.706889437308,-11077.683708658235,31718.009579031237,-30355.876889473999,9503.0897712856113,-9503.0897712856113,30355.876889473999,61063.179297945368,0.0
340012.02908761695,3852225.878295721,-27500.0,-2038.5112235517997,-9677.5502838678003,-42472.908450556715,-6704.2986654766964,-29040.587998803585,-11955.715496858933,33998.525432075869,-29946.26819524981,13523.776257222695,-13523.776257222695,29946.26819524981,65407.723526876754,0.0
345012.02908761695,3852225.878295721,-27500.0,557.81073636557073,-2402.5144945695602,-45532.643036728448,-2870.9354986990293,-30437.111243487754,-12194.342605982954,34943.48890399791,-25843.057983577066,15406.704949844632,-15406.704949844632,25843.057983577066,67234.597283629439,0.0
350012.02908761695,3852225.878295721,-27500.0,1093.1271428918421,6018.3018283973033,-44027.825580353892,1422.6555851992366,-29466.905864187098,-11646.363298704193,34245.670546884947,-18111.349509676664,14131.262496168489,-14131.262496168489,18111.349509676664,65901.474843081887,0.0
355012.02908761695,3852225.878295721,-27500.0,-819.75352811796188,13731.23551444129,-37488.730504557869,5354.7079690176288,-25969.810563247123,-10307.480772502739,31946.959820535689,-7999.2644159671745,9522.9452228674036,-9522.9452228674036,7999.2644159671745,61332.519510548416,0.0
360012.02908761695,3852225.878295721,-27500.0,-4612.2998839362899,18824.801859406056,-26899.873715791218,8108.723522888894,-20424.444066103395,-8345.9932517489578,28515.343267815839,2303.686250838105,2591.1643808052236,-2591.1643808052236,-2303.686250838105,54215.393383728297,0.0
365012.02908761695,3852225.878295721,-27500.0,-8921.6489147348693,20200.858803621461,-14470.750737353146,9206.7738037933941,-13833.464155868029,-6059.6277069681,24656.912035151181,10537.107989497161,-4788.6819640497342,4788.6819640497342,-10537.107989497161,45907.272583122802,0.0
370012.02908761695,3852225.878295721,-27500.0,-12269.818633137795,18036.789431306417,-2703.9263494462293,8681.1146032371653,-7341.0536213655441,-3775.1799271575055,21049.948163391007,15337.499510145564,-10743.92167973984,10743.92167973984,-15337.499510145564,38028.175858497474,0.0
375012.02908761695,3852225.878295721,-27500.0,-13753.602044936815,13506.631281285758,6596.8669876025579,6974.5956551270929,-1827.6074141911454,-1750.2897485199517,18172.938887630269,16618.965065770299,-14194.08424789743,14194.08424789743,-16618.965065770299,31893.42764110061,0.0
380012.02908761695,3852225.878295721,-27500.0,-13270.039195931146,8074.3533231733772,12745.354420223397,4680.6571402687587,2282.2437773725237,-127.26567749289822,16170.121608408253,15232.022221183854,-15050.89877709828,15050.89877709828,-15232.022221183854,28009.924723299606,0.0
385012.02908761695,3852225.878295721,-27500.0,-11284.194198279813,2908.0994611322099,15969.14769436043,2314.5778903387945,4969.6300516829597,1058.1564771728149,14870.100870438513,12335.242300280195,-13897.138872318115,13897.138872318115,-12335.242300280195,25966.181278860324,0.0
390012.02908761695,3852225.878295721,-27500.0,-8456.4421684252738,-1334.441252952136,16953.658418358806,211.25604162848134,6456.0892593673689,1841.3321724696373,13973.34351682031,8926.1897839462908,-11533.851421261268,11533.851421261268,-8926.1897839462908,24911.227181277231,0.0
395012.02908761695,3852225.878295721,-27500.0,-5375.4818768899077,-4438.8086449354778,16461.367144127555,-1471.0763591288498,7046.9533984304371,2292.5748003157282,13232.083110561722,5662.210322720468,-8670.5228592705753,8670.5228592705753,-5662.210322720468,24140.85318599948,0.0
400012.02908761695,3852225.878295721,-27500.0,-2450.3983840303717,-6467.2495002807564,15131.4144984627,-2700.4893016350843,7033.8646853940891,2491.3935620205107,12509.19486807158,2880.373086991674,-5804.9711056016313,5804.9711056016313,-2880.373086991674,23290.243096886268,0.0
405012.02908761695,3852225.878295721,-27500.0,90.307534024728326,-7609.0834618770868,13421.711631687936,-3517.1962591226406,6652.5502090081827,2511.6968874671838,11754.896616557151,692.35144915272076,-3225.5522644015728,3225.5522644015728,-692.35144915272076,22246.00360700216,0.0
410012.02908761695,3852225.878295721,-27500.0,2155.3421289031216,-8083.9402592891047,11624.899558027895,-3992.9433446229709,6074.833483828791,2415.037582860622,10967.220772351786,-920.35647092751788,-1062.1764419011324,1062.1764419011324,920.35647092751788,21020.766498705048,0.0
415012.02908761695,3852225.878295721,-27500.0,3741.2085426379726,-8092.2542497086142,9908.8732131395554,-4205.9620984147423,5416.5765560783948,2248.8690309410094,10163.553033853987,-2037.1425820945929,657.16414700109135,-657.16414700109135,2037.1425820945929,19672.656333039315,0.0
420012.02908761695,3852225.878295721,-27500.0,4892.392099771796,-7796.5258688445847,8357.3137722764186,-4227.9078309628449,4750.526940880537,2047.5344482406858,9365.2878788033049,-2756.0733564131506,1961.3797997859463,-1961.3797997859463,2756.0733564131506,18265.861205707843,0.0
425012.02908761695,3852225.878295721,-27500.0,5674.2105825947101,-7319.0850828759067,7001.6097913070989,-4118.5054614292721,4118.7764531114763,1834.4715569588834,8591.1260959200754,-3171.7050032842553,2905.7424197182818,-2905.7424197182818,3171.7050032842553,16854.930746202634,0.0
430012.02908761695,3852225.878295721,-27500.0,6156.3502096033653,-6747.1062985769613,5843.1489046708011,-3924.5386389854593,3542.8852209546326,1624.6999456177259,7854.9638211188085,-3365.4387364205909,3553.346277835451,-3553.346277835451,3365.4387364205909,15480.538694194434,0.0
435012.02908761695,3852225.878295721,-27500.0,6404.0014324558542,-6139.8449252646606,4867.7513097930851,-3680.9861330260496,3031.385195829047,1427.1123662370014,7165.9207883970885,-3402.858475507197,3965.0002524783904,-3965.0002524783904,3402.858475507197,14170.169203235786,0.0
440012.02908761695,3852225.878295721,-27500.0,6473.8571444366025,-5535.6830355532493,4054.4470460028274,-3412.9889628143183,2585.0023717471249,1246.3594098195001,6529.1077134447387,-3334.5114603930756,4194.4814473854613,-4194.4814473854613,3334.5114603930756,12940.493412470247,0.0
445012.02908761695,3852225.878295721,-27500.0,6412.9547385300348,-4958.0589532753975,3380.5063566295439,-3137.9456085957891,2200.1264731077067,1084.2926662524985,5946.3052853864565,-3198.0893599160045,4286.9194687620284,-4286.9194687620284,3198.0893599160045,11800.013269638101,0.0
270012.02908761695,3857225.878295721,-27500.0,-3820.8936446724215,2318.312695174026,3913.0428177301569,-713.55484979101709,1290.1343684286089,8.2761448735868406,4743.5648648226661,4553.3875960879514,-4457.1410689960258,4457.1410689960258,-4553.3875960879514,8216.2218519310754,0.0
275012.02908761695,3857225.878295721,-27500.0,-5058.1085967528525,1968.5072492980109,4285.2236030785734,-1183.5609406829335,1243.1451808276702,-114.3105654989422,5346.7017928133364,4632.7840652313889,-5446.7826743266551,5446.7826743266551,-4632.7840652313889,9274.2217964501651,0.0
280012.02908761695,3857225.878295721,-27500.0,-6516.3053841876708,1403.117057841439,4602.9305841163941,-1798.2580098753106,1098.0878767306037,-296.84098021417668,6079.0229999542244,4535.2492661943579,-6552.3383666245008,6552.3383666245008,-4535.2492661943579,10601.33259011331,0.0
285012.02908761695,3857225.878295721,-27500.0,-8199.132337154726,555.52379431867303,4802.6736085082994,-2588.6660996182463,805.43190670043748,-561.45084566696198,6980.0202680622415,4172.5974752148259,-7746.6639811766408,7746.6639811766408,-4172.5974752148259,12290.363787947081,0.0
290012.02908761695,3857225.878295721,-27500.0,-10088.395570184744,-649.7016845185251,4788.4991871879938,-3585.831848814863,297.17795716215534,-936.50648283786711,8100.4738701048473,3429.2634302778706,-8974.7274658907809,8974.7274658907809,-3429.2634302778706,14457.981598433049,0.0
295012.02908761695,3857225.878295721,-27500.0,-12131.239892369904,-2289.9381767433711,4421.1126160803851,-4815.5304593411047,-517.28944191568303,-1457.1126739958486,9503.6501973532886,2160.535001993489,-10141.572121523812,10141.572121523812,-2160.535001993489,17243.481825723629,0.0
300012.02908761695,3857225.878295721,-27500.0,-14224.199571893856,-4430.2018998098438,3506.98130124519,-6289.1275766947656,-1754.059767001678,-2164.5791962180333,11265.592247046407,196.54742787628766,-11099.004822067083,11099.004822067083,-196.54742787628766,20803.065381443022,0.0
305012.02908761695,3857225.878295721,-27500.0,-16196.149012835518,-7097.6223720478456,1791.3117257616627,-7989.2589689629085,-3553.7792332220533,-3103.8566522057281,13474.407427981867,-2642.5062081101005,-11634.297878968635,11634.297878968635,2642.5062081101005,25297.45669839565,0.0
310012.02908761695,3857225.878295721,-27500.0,-17795.320657671014,-10240.956689257999,-1037.4657420721526,-9849.4608757293718,-6072.6858734927282,-4317.512835181541,16227.66790339382,-6512.1068509574943,-11467.721613622431,11467.721613622431,6512.1068509574943,30869.363753053236,0.0
315012.02908761695,3857225.878295721,-27500.0,-18690.477355790168,-13673.681308417199,-5318.7728823753896,-11728.595412541386,-9459.1587409507374,-5834.5091136937763,19618.087748409551,-11480.69135650219,-10270.753934520384,10270.753934520384,11480.69135650219,37605.688091011747,0.0
320012.02908761695,3857225.878295721,-27500.0,-18502.614854887193,-17006.142320591509,-11347.717626054995,-13384.80347003291,-13807.59979348971,-7652.2432725730159,23678.733314006815,-17430.928459981551,-7722.3849941664885,7722.3849941664885,17430.928459981551,45478.838838670134,0.0
325012.02908761695,3857225.878295721,-27500.0,-16888.689370821339,-19587.14739280707,-19238.162497999852,-14460.701673504404,-19082.379043845132,-9711.7537162108911,28297.152053909525,-23927.720612344179,-3623.4992936214603,3623.4992936214603,23927.720612344179,54264.23061625049,0.0
330012.02908761695,3857225.878295721,-27500.0,-13696.023638061944,-20500.804206776815,-28708.99336261554,-14501.644832635751,-25012.585254694535,-11869.549448656137,33168.91938542814,-30082.230445957139,1919.443797733149,-1919.443797733149,30082.230445957139,63441.125154924353,0.0
335012.02908761695,3857225.878295721,-27500.0,-9180.8677247484975,-18696.229346578144,-38820.272616304232,-13038.474101095642,-30980.068467490932,-13875.970311875211,37781.573934329012,-34491.561024842653,8265.8582114392229,-8265.8582114392229,34491.561024842653,72106.342209181792,0.0
340012.02908761695,3857225.878295721,-27500.0,-4216.613520216787,-13340.855471025287,-47775.408948143559,-9763.3578205699741,-35964.326485678976,-15379.093699018853,41424.013081399098,-35400.959780253557,14073.094081595122,-14073.094081595122,35400.959780253557,78968.02209056991,0.0
345012.02908761695,3857225.878295721,-27500.0,-303.07257455514952,-4414.9918589687159,-53038.748385641309,-4786.4601085149125,-38656.510444649888,-15980.585716050937,43291.483743862409,-31260.073906252808,17411.684598496708,-17411.684598496708,31260.073906252808,82524.27600850095,0.0
350012.02908761695,3857225.878295721,-27500.0,884.52618568644596,6682.5565531091943,-52075.148277544089,1142.196844500975,-37852.39206324995,-15361.231566841856,42747.454771361598,-21677.864186974133,16423.36123265214,-16423.36123265214,21677.864186974133,81514.268714771766,0.0
355012.02908761695,3857225.878295721,-27500.0,-1541.13734603275,17103.852202937927,-43713.731448922292,6680.9758498902847,-33075.074149241264,-13447.84374829105,39705.914351507243,-8295.1287021106509,10477.596412961473,-10477.596412961473,8295.1287021106509,75574.95511017945,0.0
360012.02908761695,3857225.878295721,-27500.0,-6784.6728352220944,23646.093419256529,-29341.202363981516,10392.433449352773,-25057.05167206184,-10517.709535995305,34885.834845274017,5381.1980443802331,1062.2518627591667,-1062.2518627591667,-5381.1980443802331,65753.455964546927,0.0
365012.02908761695,3857225.878295721,-27500.0,-12546.982981195793,24536.327430647645,-12642.050527293704,11470.21523252013,-15577.021428040096,-7123.6665345232595,29539.588669152126,15629.373871894455,-8686.7074696595955,8686.7074696595955,-15629.373871894455,54393.560041673096,0.0
370012.02908761695,3857225.878295721,-27500.0,-16427.098417184461,20382.291906576596,2306.9298108152939,10110.677762124888,-6624.609662021021,-3858.043162229897,24832.337340602298,20496.999348883506,-15770.606374274863,15770.606374274863,-20496.999348883506,44250.685551183073,0.0
375012.02908761695,3857225.878295721,-27500.0,-17275.535082894705,13425.143348572445,12990.737883260472,7224.6257019166042,453.31446033296169,-1131.3605805288958,21417.471291763039,20384.374437445895,-18850.335759081459,18850.335759081459,-20384.374437445895,37228.526840451093,0.0
380012.02908761695,3857225.878295721,-27500.0,-15383.35265395414,6026.5539586160858,18963.566237487055,3841.25605073018,5226.6173427199401,894.40966916700677,19269.922103154626,17071.000550917666,-18332.979835441354,18332.979835441354,-17071.000550917666,33477.780539765081,0.0
385012.02908761695,3857225.878295721,-27500.0,-11791.287671253263,-284.43079011232112,21117.542097353937,702.19246054330279,7929.2863767733925,2242.7972688488771,17924.496919427824,12441.81297696711,-15490.136592132862,15490.136592132862,-12441.81297696711,31756.006948384595,0.0
390012.02908761695,3857225.878295721,-27500.0,-7573.8064102310836,-4913.0241089412821,20745.958841637224,-1822.8108634575653,9074.1546424597236,3028.5517876448457,16905.779615074865,7814.8302364806841,-11613.765264490721,11613.765264490721,-7814.8302364806841,30717.503014400078,0.0
395012.02908761695,3857225.878295721,-27500.0,-3495.9109850158602,-7881.4368216238008,18982.98142393749,-3641.2754301132641,9186.6559251891686,3390.2149540731307,15937.983461484971,3867.0138076874073,-7628.3837185880539,7628.3837185880539,-3867.0138076874073,29618.213837772728,0.0
400012.02908761695,3857225.878295721,-27500.0,26.004426141549317,-9491.2327843906569,16626.336805590367,-4813.5135044123845,8689.5217326408547,3455.9522032085065,14921.938731241251,818.81928245264658,-4053.6682292608575,4053.6682292608575,-818.81928245264658,28225.536374322288,0.0
405012.02908761695,3857225.878295721,-27500.0,2836.2740076946961,-10107.347141316317,14161.587466662801,-5461.3166096021087,7881.4462028754515,3330.6664120919168,13852.436823429947,-1360.4640094370061,-1108.0296040119811,1108.0296040119811,1360.4640094370061,26555.845281679736,0.0
410012.02908761695,3857225.878295721,-27500.0,4936.5104467351293,-10056.025362101122,11847.92868576579,-5716.0982415200269,6955.4229857451355,3093.7848988720443,12758.999541387531,-2808.4978687098314,1172.97113415992,-1172.97113415992,2808.4978687098314,24706.784266315713,0.0
415012.02908761695,3857225.878295721,-27500.0,6406.878504451035,-9591.9827432246257,9800.8322713507459,-5694.799049403191,6026.6458861796109,2801.7760786815475,11676.444144153025,-3688.6469341854149,2847.4199084906018,-2847.4199084906018,3688.6469341854149,22782.081248660437,0.0
420012.02908761695,3857225.878295721,-27500.0,7356.5470091861325,-8898.6286689853223,8052.9597434251791,-5491.6901555427748,5157.7328135265507,2492.4351318131667,10633.546714763303,-4151.7157393459656,4011.0851045940385,-4011.0851045940385,4151.7157393459656,20865.555029528485,0.0
425012.02908761695,3857225.878295721,-27500.0,7896.3720885715229,-8100.45823137345,6593.6627947003435,-5178.0871799472452,4377.918126408309,2189.417079961594,9650.3029080841807,-4322.0511756422293,4766.444899193868,-4766.444899193868,4322.0511756422293,19016.31973368923,0.0
430012.02908761695,3857225.878295721,-27500.0,8125.8200202323324,-7277.6218248144878,5392.5735506246883,-4805.3806335684649,3696.4030507226885,1906.2686343242908,8738.565056370895,-4295.684865580517,5207.6072843045204,-5207.6072843045204,4295.684865580517,17271.666472959281,0.0
435012.02908761695,3857225.878295721,-27500.0,8128.2112669776698,-6478.8340098738781,4412.8233859933916,-4409.0746955453196,3111.1642199159228,1649.6945002175864,7903.6943613754984,-4143.6084133857403,5414.4319792083115,-5414.4319792083115,4143.6084133857403,15652.118122683178,0.0
440012.02908761695,3857225.878295721,-27500.0,7970.282605498548,-5731.4255286533107,3617.8543780755549,-4012.6442095611433,2614.4635162495501,1421.9993638961471,7146.0524211413658,-3916.5745190029156,5451.4668717472105,-5451.4668717472105,3916.5745190029156,14166.178981210083,0.0
445012.02908761695,3857225.878295721,-27500.0,7703.8038871311619,-5048.7229073142444,2974.5756779878361,-3630.8185865126725,2196.1711203013633,1222.8281142615681,6462.3657987790893,-3649.839433106476,5369.179065460683,-5369.179065460683,3649.839433106476,12814.26843611464,0.0
265012.02908761695,3862225.878295721,-27500.0,-1664.1346649220875,3415.4158210456385,3690.9692064554292,157.36886158052152,1596.9169747001456,259.04696475626076,4592.1258249647235,5050.0488539232947,-2944.0663191752083,2944.0663191752083,-5050.0488539232947,8049.6490422570878,0.0
270012.02908761695,3862225.878295721,-27500.0,-2663.1085940309736,3413.1463181420982,4197.4030822128898,-136.82542579609841,1699.8026867028873,211.20087836774761,5111.7609454711737,5456.6814292117206,-3850.368834512215,3850.368834512215,-5456.6814292117206,8904.0381954600034,0.0
275012.02908761695,3862225.878295721,-27500.0,-3906.7271427510259,3276.3935917425397,4736.0268757083832,-551.91369565807076,1759.458830677389,123.62424351298597,5722.9121026969742,5802.9056824266181,-4929.7845263390855,4929.7845263390855,-5802.9056824266181,9925.359988326134,0.0
280012.02908761695,3862225.878295721,-27500.0,-5431.5238630043123,2945.090777712996,5279.7952419649519,-1124.1194815155061,1742.3387712920339,-22.086124642215449,6453.857074065304,6029.7628546688911,-6192.2993801179009,6192.2993801179009,-6029.7628546688911,11179.043156485122,0.0
285012.02908761695,3862225.878295721,-27500.0,-7267.5347433403122,2341.5152612430502,5779.6347046449446,-1896.7296352321775,1598.385497738637,-251.30260196002618,7344.5378192104608,6051.1799941014506,-7633.5245395082893,7633.5245395082893,-6051.1799941014506,12760.075004197199,0.0
290012.02908761695,3862225.878295721,-27500.0,-9428.7362926984952,1369.1942061080906,6153.0104358530989,-2918.8239544797702,1254.6711941254982,-598.30720671295921,8450.6767656660104,5745.7435716590408,-9223.7776879442499,9223.7776879442499,-5745.7435716590408,14801.32011014711,0.0
295012.02908761695,3862225.878295721,-27500.0,-11898.275391932655,-84.524104498988805,6268.5813633757571,-4241.3834110097132,607.70844433782622,-1108.2239100750414,9848.2900385390476,4948.7514671746958,-10892.560447041733,10892.560447041733,-4948.7514671746958,17479.586295046269,0.0
300012.02908761695,3862225.878295721,-27500.0,-14607.339858695037,-2138.5480809323317,5927.3069708998373,-5908.8866435883592,-484.71553970784419,-1838.3538114100654,11638.048205445992,3447.6411431844062,-12508.213236462938,12508.213236462938,-3447.6411431844062,21016.230429978128,0.0
305012.02908761695,3862225.878295721,-27500.0,-17407.799722996948,-4895.1568591578489,4842.5658026052342,-7943.8052695921888,-2209.8932655512949,-2857.7720272040924,13949.123571842034,986.82452253569045,-13854.455352245077,13854.455352245077,-986.82452253569045,25668.839681187164,0.0
310012.02908761695,3862225.878295721,-27500.0,-20041.90095518302,-8396.6399785334379,2626.2977186669386,-10320.998226832236,-4799.8606396884334,-4243.2095791189467,16942.22836898344,-2707.6923186790027,-14609.551532971002,14609.551532971002,2707.6923186790027,31709.835916907934,0.0
315012.02908761695,3862225.878295721,-27500.0,-22118.47157171075,-12553.552326319483,-1204.087489752058,-12929.649636663475,-8515.381134005378,-6068.1603284183184,20803.68694638291,-7868.2929728314239,-14340.963646009368,14340.963646009368,7868.2929728314239,39385.013308855378,0.0
320012.02908761695,3862225.878295721,-27500.0,-23115.485678290133,-17040.950990705474,-7171.6778910696794,-15523.765356851665,-13599.830789190264,-8381.1763671934277,25690.160759193372,-14570.771524908925,-12539.172630356328,12539.172630356328,14570.771524908925,48840.495279509443,0.0
325012.02908761695,3862225.878295721,-27500.0,-22442.926893271331,-21173.631040969849,-15698.795180631281,-17670.725711579373,-20183.471958479553,-11169.164929577051,31596.627471386768,-22547.879404113493,-8727.1576654464916,8727.1576654464916,22547.879404113493,60003.320762992313,0.0
330012.02908761695,3862225.878295721,-27500.0,-19613.37313799671,-23805.743074474125,-26830.681423341022,-18724.625492892614,-28119.58013515536,-14303.886282330739,38243.831696717803,-30937.612608317111,-2689.6501659171936,2689.6501659171936,30937.612608317111,72406.545032156078,0.0
335012.02908761695,3862225.878295721,-27500.0,-14563.229048437142,-23364.468786337227,-39798.802228776811,-17879.436528949518,-36754.482278884985,-17477.833690788822,45008.656386741743,-38038.402555335299,5153.3258686003246,-5153.3258686003246,38038.402555335299,84977.474749286761,0.0
340012.02908761695,3862225.878295721,-27500.0,-8098.6609491004701,-18214.420223100118,-52507.335763873867,-14388.380178162955,-44699.983219795264,-20155.37539774154,50863.374332229178,-41282.368247543767,13302.384022580887,-13302.384022580887,41282.368247543767,95878.617611077018,0.0
345012.02908761695,3862225.878295721,-27500.0,-2227.4411116121928,-7567.9953133324498,-61299.868922583031,-8022.5152283669913,-49812.504160351855,-21601.807184495021,54446.36286183339,-37825.800976584047,18986.101567446101,-18986.101567446101,37825.800976584047,102611.83932722354,0.0
350012.02908761695,3862225.878295721,-27500.0,209.82247945417731,7164.9587424741203,-61745.408052951578,333.01255652397418,-49725.266447766036,-21085.577254350766,54456.233934448675,-26135.827036952945,18876.667944475095,-18876.667944475095,26135.827036952945,102687.54648785265,0.0
355012.02908761695,3862225.878295721,-27500.0,-2801.2936349257861,21633.29721026044,-51064.058059630675,8451.0944088597462,-43120.50772748125,-18282.657157813512,50427.566359413642,-8107.9499810121924,11202.350149494225,-11202.350149494225,8107.9499810121924,94964.150290918144,0.0
360012.02908761695,3862225.878295721,-27500.0,-10247.683769420426,30195.493466744992,-31074.846058285479,13617.985705572268,-31078.332924458693,-13650.07183420225,43457.031995863596,10465.918367220502,-1909.446302923272,1909.446302923272,-10465.918367220502,81016.820836033192,0.0
365012.02908761695,3862225.878295721,-27500.0,-18032.412085278735,29805.251224987267,-8234.6467372759053,14358.238901127574,-16968.157684444792,-8324.2641629944119,35861.944566350154,23111.316360560952,-14928.009177570357,14928.009177570357,-23111.316360560952,65133.842102098984,0.0
370012.02908761695,3862225.878295721,-27500.0,-22102.232486891917,22173.422152464573,10548.8239227256,11345.884904133696,-4455.1471042318881,-3487.549530855109,29722.207512729761,27094.022593651356,-22883.39980294459,22883.39980294459,-27094.022593651356,52206.542815646149,0.0
375012.02908761695,3862225.878295721,-27500.0,-21259.3585574803,11667.412202906511,21995.37060712295,6521.6558458256859,4442.4218103313751,196.80240732909436,25807.827575009309,24182.931799517195,-24456.052521267477,24456.052521267477,-24182.931799517195,44703.96905287628,0.0
380012.02908761695,3862225.878295721,-27500.0,-16852.798811226727,1973.9690622271164,26636.931776405632,1654.6361234051499,9587.5099935950475,2634.071507380585,23573.515147594004,17916.957470407564,-21333.644518523863,21333.644518523863,-17916.957470407564,41464.203942160537,0.0
385012.02908761695,3862225.878295721,-27500.0,-10932.908344403904,-5210.2788949889327,26676.772328994717,-2300.1921809144296,11836.167285466177,4035.2089558312605,22080.970273872179,11140.848186710413,-15975.025834643657,15975.025834643657,-11140.848186710413,39914.718371191542,0.0
390012.02908761695,3862225.878295721,-27500.0,-5050.9283006823698,-9707.9802781495218,24267.056932780681,-5081.0999817263182,12212.823545514819,4683.0367985003486,20729.694877850012,5335.5353955746823,-10238.567021680603,10238.567021680603,-5335.5353955746823,38426.041180925007,0.0
395012.02908761695,3862225.878295721,-27500.0,-20.633909165704949,-12026.016834465187,20896.11936284454,-6792.6793593933098,11538.025232356727,4826.5633149745117,19307.201365216384,963.72903288793759,-5128.7543738073855,5128.7543738073855,-963.72903288793759,36486.888879546248,0.0
400012.02908761695,3862225.878295721,-27500.0,3886.9499055007432,-12812.859968130922,17411.848285355867,-7666.0261022779905,10363.312706098364,4656.2218244082569,17801.50802134363,-2037.7710082803817,-1024.6991733752423,1024.6991733752423,2037.7710082803817,34119.160188452544,0.0
405012.02908761695,3862225.878295721,-27500.0,6699.9396465673835,-12627.756245654882,14222.965090660069,-7938.9573765510067,9022.1623363338495,4308.4159625237162,16265.408270242644,-3926.9898730500777,2042.7805178947278,-2042.7805178947278,3926.9898730500777,31495.505181495526,0.0
410012.02908761695,3862225.878295721,-27500.0,8575.6454498649928,-11883.600279603455,11482.519028744444,-7811.2437387270102,7699.1327955525667,3876.3172155583893,14756.636492180663,-4990.2682631829903,4198.9595544057065,-4198.9595544057065,4990.2682631829903,28787.676936570715,0.0
415012.02908761695,3862225.878295721,-27500.0,9706.0619748125246,-10859.786899325572,9211.0693915812753,-7435.2729577986047,6485.7299944606293,3420.3865825426892,13318.992687051441,-5476.0183508185637,5617.9883464212162,-5617.9883464212162,5476.0183508185637,26124.551998934086,0.0
420012.02908761695,3862225.878295721,-27500.0,10273.036079222118,-9733.8338212520193,7368.7464163398154,-6920.5154299131746,5418.7781335800564,2977.3494105442642,11979.904208457659,-5577.5862635768835,6471.3593020417857,-6471.3593020417857,5577.5862635768835,23589.951005610928,0.0
425012.02908761695,3862225.878295721,-27500.0,10430.910860661763,-8611.9906375959199,5893.8717003879092,-6342.0002827223643,4504.8301642164388,2567.446651393584,10753.175676770081,-5436.4142407203062,6907.1729617454885,-6907.1729617454885,5436.4142407203062,21231.685850845955,0.0
430012.02908761695,3862225.878295721,-27500.0,10302.912661994662,-7553.3082417434171,4722.0732867909301,-5748.9152079194673,3734.9955125678989,2200.0331670900309,9642.6872330818424,-5151.7421157810395,7044.8189143646787,-7044.8189143646787,5151.7421157810395,19071.958581322815,0.0
435012.02908761695,3862225.878295721,-27500.0,9983.5244807317704,-6586.8077149461506,3794.7029120185694,-5171.8691980338326,3093.549533094098,1877.654557051311,8645.5868855657027,-4790.9069665027382,6976.4879885561495,-6976.4879885561495,4790.9069665027382,17115.893309406776,0.0
440012.02908761695,3862225.878295721,-27500.0,9543.0781518687781,-5723.1625329864592,3061.7817290371081,-4628.5949421458072,2562.7329645188474,1598.8894771433149,7754.9517324078488,-4398.1936288518673,6771.2735509376935,-6771.2735509376935,4398.1936288518673,15357.960075317853,0.0
445012.02908761695,3862225.878295721,-27500.0,9032.6608425298364,-4962.351195670486,2482.2932755344614,-4128.1856546004146,2125.2546879329198,1360.2312588740847,6961.9030734042735,-4001.7341992312067,6479.7716014954149,-6479.7716014954149,4001.7341992312067,13786.475913150243,0.0
450012.02908761695,3862225.878295721,-27500.0,8488.5319624212589,-4298.5190415620445,2023.3272485481937,-3674.1240332908187,1765.4573104044673,1157.2721497302177,6257.0351152336925,-3618.6044534060766,6138.2877296533698,-6138.2877296533698,3618.6044534060766,12386.606701047665,0.0
265012.02908761695,3867225.878295721,-27500.0,-213.50302071655813,4283.9190153350455,3689.2032979035603,793.73616707510882,1892.7846338894637,463.3256363688613,5038.3179732781355,5570.6287138055532,-1992.9037106264759,1992.9037106264759,-5570.6287138055532,8985.6323580090866,0.0
270012.02908761695,3867225.878295721,-27500.0,-1099.6077702117038,4495.878645693937,4285.0908271527815,595.89167415703025,2088.3485899293851,459.49162756994292,5593.9679474034401,6187.3641737310172,-2875.2745748251346,2875.2745748251346,-6187.3641737310172,9890.3045518237104,0.0
275012.02908761695,3867225.878295721,-27500.0,-2255.5086235432973,4615.9862542429692,4958.8872134058311,283.08191253473183,2266.565761012233,423.7768385262786,6233.6347197503082,6806.9303574766409,-3970.4090011660965,3970.4090011660965,-6806.9303574766409,10930.279339914647,0.0
280012.02908761695,3867225.878295721,-27500.0,-3738.92282899884,4586.2117893294617,5700.8003702619962,-186.92517981857253,2399.0325028242405,337.62133091206135,6980.2973618517881,7384.1766521045802,-5309.9495420954763,5309.9495420954763,-7384.1766521045802,12153.849083083516,0.0
285012.02908761695,3867225.878295721,-27500.0,-5609.9670734585134,4325.838255694729,6483.3460641857473,-868.23346135862073,2440.0293495049136,174.04474437988833,7868.2227660462504,7846.2083154998199,-6918.4906890624079,6918.4906890624079,-7846.2083154998199,13638.786485679691,0.0
290012.02908761695,3867225.878295721,-27500.0,-7923.4450721046996,3726.2416330530891,7249.2178436820004,-1827.9393028023644,2318.1503958211097,-105.51005465153646,8949.1949461345466,8080.6345757569361,-8803.2421183927945,8803.2421183927945,-8080.6345757569361,15508.42014380211,0.0
295012.02908761695,3867225.878295721,-27500.0,-10714.821372121745,2647.4534308831417,7893.1571166576723,-3145.2792527346396,1924.8955976017751,-555.05748370590277,10301.278200769862,7921.2840752057073,-10937.335933962351,10937.335933962351,-7921.2840752057073,17951.212793141563,0.0
300012.02908761695,3867225.878295721,-27500.0,-13977.035986631394,920.17279862895907,8236.3920992039057,-4906.5763057906333,1100.103380892727,-1248.3858274664647,12040.191937701338,7133.2946355568547,-13234.723392107617,13234.723392107617,-7133.2946355568547,21239.168455385014,0.0
305012.02908761695,3867225.878295721,-27500.0,-17625.42884481456,-1640.1054058800028,7993.6395721079489,-7192.3046474284674,-384.63197348765226,-2282.9295978307209,14332.939171292806,5402.7409814329303,-15515.56873100108,15515.56873100108,-5402.7409814329303,25736.546246847811,0.0
310012.02908761695,3867225.878295721,-27500.0,-21450.088037855403,-5196.0711162711477,6736.7334781409481,-10050.808734131326,-2840.5185951013464,-3781.2001285261745,17413.450961078448,2341.7926665765881,-17464.442462910731,17464.442462910731,-2341.7926665765881,31889.121792146136,0.0
315012.02908761695,3867225.878295721,-27500.0,-25060.554107611832,-9813.5371243341306,3867.6950358469876,-13451.555735055768,-6664.3651454484952,-5885.8269092430783,21594.975556135534,-2470.6212138277433,-18591.190204093986,18591.190204093986,2470.6212138277433,40184.740289234331,0.0
320012.02908761695,3867225.878295721,-27500.0,-27840.090721915007,-15331.572902433867,-1369.8446992513957,-17211.079877967361,-12310.114211321301,-8741.3273315573042,27233.34858268065,-9381.2312510957217,-18218.817412688237,18218.817412688237,9381.2312510957217,51071.906683052053,0.0
325012.02908761695,3867225.878295721,-27500.0,-28948.241752144033,-21168.558135956089,-9786.6517591047996,-20890.283913438267,-20195.025447336404,-12451.660939534564,34554.460159749833,-18446.589572001958,-15545.693116886021,15545.693116886021,18446.589572001958,64809.378926386613,0.0
330012.02908761695,3867225.878295721,-27500.0,-27444.451100145445,-26085.155979867934,-21963.749879872688,-23680.285135084749,-30489.707718685015,-16998.22476525226,43436.754847139448,-29070.727361313355,-9861.0194669446173,9861.0194669446173,29070.727361313355,81205.601500858364,0.0
335012.02908761695,3867225.878295721,-27500.0,-22647.856258635591,-28006.846703945354,-37674.341362819876,-24341.013090345452,-42736.398939628249,-22101.964263880618,53247.643575848633,-39506.416377359034,-1020.8782307968504,1020.8782307968504,39506.416377359034,99217.441083980055,0.0
340012.02908761695,3867225.878295721,-27500.0,-14852.867053731106,-24189.933464643207,-54947.950070243343,-21355.201279859299,-55297.376329752748,-27033.758378432176,62629.19273070393,-46406.173176699216,9745.5854134227739,-9745.5854134227739,46406.173176699216,116467.11098731095,0.0
345012.02908761695,3867225.878295721,-27500.0,-6301.067374835724,-12288.913789621889,-69049.552346152414,-13586.52356979467,-64874.897948818871,-30468.593011844991,69380.588037848167,-45042.64609819679,18938.085982681259,-18938.085982681259,45042.64609819679,128988.5896834147,0.0
350012.02908761695,3867225.878295721,-27500.0,-1520.8563476861477,7143.766251412022,-72600.902761856341,-1630.9577094529282,-66873.655876028104,-30681.58101733261,70900.113340482741,-31403.352379742362,20920.004460695956,-20920.004460695956,31403.352379742362,131936.77655263917,0.0
355012.02908761695,3867225.878295721,-27500.0,-5021.4311337313047,27809.951859785822,-59217.625179877636,10885.601477788361,-57744.253960755712,-26477.501416911051,65673.470590348428,-6776.5937982674686,11187.5099129306,-11187.5099129306,6776.5937982674686,122121.3285013416,0.0
360012.02908761695,3867225.878295721,-27500.0,-15948.79361409205,39262.840458992432,-30690.284291503343,18422.640853864421,-38805.285849477128,-18538.852338157321,55291.773818105714,19091.940751033668,-7597.1799680112163,7597.1799680112163,-19091.940751033668,101716.67643728219,0.0
365012.02908761695,3867225.878295721,-27500.0,-26498.696526170148,35819.980592290485,999.02830245809014,17965.362648268747,-16959.336969554253,-9511.0449795327022,44276.050883953736,34152.61205744218,-25035.213787861307,25035.213787861307,-34152.61205744218,79106.994214134931,0.0
370012.02908761695,3867225.878295721,-27500.0,-29563.409618659909,22127.277665270169,23676.376141330016,11631.259901316735,582.92279810177592,-2042.4948468925534,36433.44957741534,34958.642713526169,-32631.185596683274,32631.185596683274,-34958.642713526169,63264.486084580974,0.0
375012.02908761695,3867225.878295721,-27500.0,-24902.883403381657,6800.7132027434791,33990.617903871243,3710.9323952329196,11117.139742552486,2857.4617466099444,32183.432678256064,26913.282213239523,-30345.216356551762,30345.216356551762,-26913.282213239523,56169.492447265649,0.0
380012.02908761695,3867225.878295721,-27500.0,-16371.409900937268,-4965.2229986432012,35231.83088132312,-2929.4956887913081,15751.970602060755,5524.1664193863271,29771.574268401619,16587.010776479205,-22803.497942600719,22803.497942600719,-16587.010776479205,53446.308679854599,0.0
385012.02908761695,3867225.878295721,-27500.0,-7472.5709967356524,-12114.560111222057,31801.538042735894,-7425.761504437397,16676.953789181855,6677.0095460510875,27760.861981149465,7629.3254191976994,-14145.773858285447,14145.773858285447,-7629.3254191976994,51254.56044263798,0.0
390012.02908761695,3867225.878295721,-27500.0,15.405319089495435,-15541.948215504493,26738.654826174632,-9987.7262434789027,15675.754105435411,6915.7038744358633,25647.0725035254,1117.5233022438474,-6528.3267286985101,6528.3267286985101,-1117.5233022438474,48357.585488416094,0.0
395012.02908761695,3867225.878295721,-27500.0,5598.2443710740245,-16504.620272092459,21624.714973027461,-11126.994037367587,13860.445792404129,6637.8464720271131,23407.051139341758,-3107.2756440759113,-643.57108703234758,643.57108703234758,3107.2756440759113,44791.078493023408,0.0
400012.02908761695,3867225.878295721,-27500.0,9403.6973849280548,-16026.509904066492,17115.643463101886,-11323.980756826812,11835.866296924116,6090.9601025556622,21144.690588803813,-5575.6224841801495,3537.4778390177612,-3537.4778390177612,5575.6224841801495,40884.029456034084,0.0
405012.02908761695,3867225.878295721,-27500.0,11769.702828105877,-14803.361044090094,13391.549231393377,-10943.104652828944,9898.2988596546766,5427.6074169324174,18958.786912237381,-6820.2049297548238,6304.2670924370541,-6304.2670924370541,6820.2049297548238,36928.857800786049,0.0
410012.02908761695,3867225.878295721,-27500.0,13054.148986657448,-13265.723729071631,10421.868724704158,-10237.573492693395,8173.495392620116,4740.4004125187212,16913.936253103366,-7264.5343837276732,7990.634521493309,-7990.634521493309,7264.5343837276732,33120.134215904371,0.0
415012.02908761695,3867225.878295721,-27500.0,13565.289986626141,-11662.678498404901,8099.6947665337493,-9374.9261440178179,6698.4571067930474,4082.9193398569346,15043.500400064917,-7213.5334063427881,8892.5056669938567,-8892.5056669938567,7213.5334063427881,29568.415534721385,0.0
420012.02908761695,3867225.878295721,-27500.0,13545.905884348538,-10128.365264392944,6303.2674504170063,-8461.6928814715193,5466.9189721101238,3483.1515806008065,13358.771028456142,-6875.0052666936954,9246.0649931684638,-9246.0649931684638,6875.0052666936954,26325.798027438748,0.0
425012.02908761695,3867225.878295721,-27500.0,13177.980619123275,-8727.4600250134972,4920.9780209388373,-7562.5642665698842,4453.7914740732795,2952.7185367226016,11857.089880814647,-6385.2847776048347,9229.7070795266663,-9229.7070795266663,6385.2847776048347,23407.170841110081,0.0
430012.02908761695,3867225.878295721,-27500.0,12593.558127365708,-7484.3086381715239,3859.3498551413222,-6714.3096060847129,3627.8804375591149,2493.3116731721916,10527.78750428708,-5830.9117227601946,8973.6354418719893,-8973.6354418719893,5830.9117227601946,20805.257837558805,0.0
435012.02908761695,3867225.878295721,-27500.0,11885.992001788734,-6400.8839780914295,3043.6208048087265,-5935.5234793449736,2958.1516342921159,2101.0539829171075,9356.1752422966692,-5264.8525932727089,8570.5094499445077,-8570.5094499445077,5264.8525932727089,18500.479280682441,0.0
440012.02908761695,3867225.878295721,-27500.0,11119.749674121609,-5467.6094807335148,2415.5350395753085,-5233.3525673563872,2416.540633093523,1769.3464521853978,8326.164042745595,-4718.0070957028065,8084.8929414605327,-8084.8929414605327,4718.0070957028065,16467.321571285451,0.0
445012.02908761695,3867225.878295721,-27500.0,10338.216969611971,-4669.6778700064824,1930.3714478392517,-4608.0057317300871,1978.9232280917174,1490.6120998007909,7421.7953846267719,-4207.0735535755848,7560.8302945781124,-7560.8302945781124,4207.0735535755848,14678.212404620095,0.0
450012.02908761695,3867225.878295721,-27500.0,9569.6879893459973,-3990.6353157485191,1554.0904475549125,-4055.7322519690956,1625.1784445528724,1257.3017703755661,6628.0560234594013,-3739.8220985036696,7027.6597330802033,-7027.6597330802033,3739.8220985036696,13105.832440593102,0.0
260012.02908761695,3872225.878295721,-27500.0,2028.5534979922616,4600.9753131354655,2965.7014630705526,1541.0320269335803,1872.3063799876322,636.85226379803976,5030.2082200998475,5136.7444715819684,-138.82287748419549,138.82287748419549,-5136.7444715819684,9234.0220259271919,0.0
265012.02908761695,3872225.878295721,-27500.0,1557.3533041204812,5040.4540551325854,3503.9142392680028,1543.3528129201986,2135.3993574527262,698.1225062933438,5579.6046103381514,5854.0259120357196,-726.70207502733774,726.70207502733774,-5854.0259120357196,10160.908342864093,0.0
270012.02908761695,3872225.878295721,-27500.0,876.73277961050132,5475.9211405013839,4145.0470871907537,1482.1967663626569,2421.1881188475381,751.15254229786478,6199.4312715491551,6651.8597369471163,-1502.9811983070949,1502.9811983070949,-6651.8597369471163,11191.17504954946,0.0
275012.02908761695,3872225.878295721,-27500.0,-75.515207943488761,5876.8569366588063,4902.5740530277635,1325.6963827789009,2719.8287454124611,785.47988100832697,6901.4113152752561,7520.8262990275625,-2514.0146919454373,2514.0146919454373,-7520.8262990275625,12341.545085614498,0.0
280012.02908761695,3872225.878295721,-27500.0,-1375.0902096174079,6195.3167935770161,5785.6610862067291,1029.5848613054179,3011.5942053297522,784.47795292635294,7701.7103262125684,8436.7225088648538,-3812.4030352099048,3812.4030352099048,-8436.7225088648538,13638.586719374982,0.0
285012.02908761695,3872225.878295721,-27500.0,-3110.8209905525223,6358.6807593379472,6793.0173092278928,533.38379935079206,3260.6152381284519,722.30732096672705,8624.3500664697185,9351.2929295574086,-5453.7588043297419,5453.7588043297419,-9351.2929295574086,15128.218525797087,0.0
290012.02908761695,3872225.878295721,-27500.0,-5381.053320448631,6260.6458790189836,7902.1436532602993,-243.77835797384034,3405.2726469330059,559.55738175123383,9707.4327422789956,10178.648945570238,-7489.3495069243054,7489.3495069243054,-10178.648945570238,16893.101100352455,0.0
295012.02908761695,3872225.878295721,-27500.0,-8283.9855627606885,5751.3077942131831,9051.3839324412911,-1406.8809683310897,3343.8240071914179,237.15574514610032,11014.055135198112,10776.337064049832,-9951.828691400322,9951.828691400322,-10776.337064049832,19081.975652767189,0.0
300012.02908761695,3872225.878295721,-27500.0,-11897.653800084427,4629.0375128605547,10111.450739629978,-3086.2969227894546,2913.7060574605193,-331.83599975749189,12650.463397433565,10920.974829393057,-12830.185696551001,12830.185696551001,-10920.974829393057,21953.228257294362,0.0
305012.02908761695,3872225.878295721,-27500.0,-16243.79890989171,2640.4147828172768,10843.117891296868,-5432.6969011705933,1863.4609538267086,-1272.6399430508875,14794.200796331528,10281.138050309239,-16029.460795226687,16029.460795226687,-10281.138050309239,25926.618425239722,0.0
310012.02908761695,3872225.878295721,-27500.0,-21229.46096012268,-499.49223508453656,10840.185685146718,-8598.3433721184047,-181.56029598391365,-2760.5994884580959,17734.424633712308,8396.4024169570912,-19312.100227662362,19312.100227662362,-8396.4024169570912,31621.402796393792,0.0
315012.02908761695,3872225.878295721,-27500.0,-26563.191097399511,-5045.6435668034819,9464.6227215781582,-12692.816959778927,-3752.703126052978,-5031.4620495700055,21922.411972097791,4683.0433549720601,-22223.757874930794,22223.757874930794,-4683.0433549720601,39847.513164789649,0.0
320012.02908761695,3872225.878295721,-27500.0,-31653.098282747531,-11090.379520848268,5798.3713506960066,-17695.711331735292,-9551.0569863955079,-8382.4756479155058,27989.168399349823,-1494.98729585806,-24020.837725783476,24020.837725783476,1494.98729585806,51523.661162494609,0.0
325012.02908761695,3872225.878295721,-27500.0,-35516.71904111511,-18325.694151631385,-1331.6057513884562,-23304.965198445112,-18396.549845473677,-13147.244684860512,36570.538555295454,-10628.173391645456,-23644.592525138658,23644.592525138658,10628.173391645456,67501.621345542517,0.0
330012.02908761695,3872225.878295721,-27500.0,-36776.530422812786,-25678.664417225918,-13146.729664757098,-28704.402690044411,-31029.025022493959,-19608.583960249038,47942.928127827356,-22652.371187446708,-19833.593575650932,19833.593575650932,22652.371187446708,88237.415629342751,0.0
335012.02908761695,3872225.878295721,-27500.0,-33902.298310728642,-30855.309411528957,-30340.255792464322,-32273.07625577923,-47616.956150934006,-27779.212325804852,61722.504047794791,-36238.182964066771,-11548.43261447383,11548.43261447383,36238.182964066771,113187.00404718245,0.0
340012.02908761695,3872225.878295721,-27500.0,-26014.291418977726,-30029.173400929991,-51844.187785684459,-31413.984126530118,-66785.427732568365,-36945.28538756432,76420.371317749203,-47782.542285298594,1000.3082608923651,-1000.3082608923651,47782.542285298594,139824.79310860331,0.0
345012.02908761695,3872225.878295721,-27500.0,-14616.042397515241,-18473.855522145008,-72741.130447850985,-23088.877695030027,-84163.037767704707,-44966.274239891645,88839.684168363179,-50609.001284891303,14492.087206395096,-14492.087206395096,50609.001284891303,162508.28332005342,0.0
350012.02908761695,3872225.878295721,-27500.0,-5796.737310673655,6106.4610174411964,-82233.099758347336,-6157.594494171909,-91451.274480975801,-47902.439486013209,94090.746985342441,-36364.940862340678,20670.958818925727,-20670.958818925727,36364.940862340678,172373.49642054416,0.0
355012.02908761695,3872225.878295721,-27500.0,-9076.0528712476134,36242.215525685075,-66552.853447204427,14255.395305231074,-79368.12867672721,-41637.090625766192,87892.510341557587,-2777.1302167671583,9130.2712723169534,-9130.2712723169534,2777.1302167671583,161060.05868628409,0.0
360012.02908761695,3872225.878295721,-27500.0,-25733.497406224502,51920.993031028331,-24868.092461243676,25999.074408915883,-47963.979427035716,-26564.900129514099,72031.040540583854,34146.216613320765,-18588.014385635895,18588.014385635895,-34146.216613320765,130456.94226836582,0.0
365012.02908761695,3872225.878295721,-27500.0,-39681.102409184583,41335.68709652259,19106.046312935734,21922.216364447311,-12741.334710720173,-9748.8699851201509,55940.799036161858,50054.596936582355,-41403.845032727346,41403.845032727346,-50054.596936582355,98218.783430217532,0.0
370012.02908761695,3872225.878295721,-27500.0,-38218.746836489008,17450.75943084039,43351.367666768165,8879.6400223559158,11091.839640215565,2104.7681608951407,46523.946966763106,42549.196797662,-44719.930580250795,44719.930580250795,-42549.196797662,80682.671380167783,0.0
375012.02908761695,3872225.878295721,-27500.0,-25894.530856602472,-3165.1861448312925,48163.866723534746,-3490.8148365861316,21618.757493290312,8073.0333963386902,42043.014894392749,26193.00195901081,-34289.85241556965,34289.85241556965,-26193.00195901081,74776.887448379159,0.0
380012.02908761695,3872225.878295721,-27500.0,-11535.186932412145,-15323.296960514139,43041.824317062776,-11502.357020964011,23766.995049274457,10219.512281487421,38792.397736959552,11442.373520717047,-20371.412366782257,20371.412366782257,-11442.373520717047,71137.498778329144,0.0
385012.02908761695,3872225.878295721,-27500.0,277.83545766891075,-20576.511181210546,34959.289907781356,-15519.67940444025,22037.714329258608,10440.573868935891,35381.994608233763,1250.3269081691533,-8347.5927753578362,8347.5927753578362,-1250.3269081691533,66357.880675075809,0.0
390012.02908761695,3872225.878295721,-27500.0,8542.524770638991,-21634.829234044089,27118.24089898925,-16881.462630211201,18969.257722635692,9800.9349584846823,31775.25248392846,-4840.395407931881,400.50907153679373,-400.50907153679373,4840.395407931881,60513.734149093842,0.0
395012.02908761695,3872225.878295721,-27500.0,13725.089090174899,-20525.70417741016,20569.814859685193,-16706.611564537397,15732.03972754873,8812.014395025506,28209.50771765699,-8035.8811780642009,6164.2726055449075,-6164.2726055449075,8035.8811780642009,54298.753674476844,0.0
400012.02908761695,3872225.878295721,-27500.0,16615.309778101033,-18469.336889284757,15445.560803942481,-15722.770765534249,12790.987602795643,7717.6305643780233,24864.813348827127,-9391.6721473101134,9654.0382252202871,-9654.0382252202871,9391.6721473101134,48227.82211038698,0.0
405012.02908761695,3872225.878295721,-27500.0,17921.544730205213,-16128.691612340002,11560.11122585514,-14363.878321701726,10288.378726051551,6640.2882179341423,21829.798829000734,-9652.5848930358134,11543.2486434568,-11543.2486434568,9652.5848930358134,42578.033217957214,0.0
410012.02908761695,3872225.878295721,-27500.0,18182.863128983423,-13837.167058455898,8659.2854265707301,-12879.627437541378,8229.529294226335,5642.5943857456323,19130.691681221233,-9301.4405799525684,12356.344991431151,-12356.344991431151,9301.4405799525684,37466.786507988691,0.0
415012.02908761695,3872225.878295721,-27500.0,17783.216219440681,-11745.823278399368,6508.6703166079478,-11409.552814254908,6567.3559540671968,4753.4659983975589,16759.454113506188,-8637.6826985108146,12471.601415531621,-12471.601415531621,8637.6826985108146,32921.156291608386,0.0
420012.02908761695,3872225.878295721,-27500.0,16987.198013468107,-9908.9073387216722,4917.6259642336036,-10027.68409360899,5239.7945500765936,3981.5501316764494,14691.578468613379,-7841.1154756809901,12151.867093345345,-12151.867093345345,7841.1154756809901,28921.235479961219,0.0
425012.02908761695,3872225.878295721,-27500.0,15973.246236454799,-8331.4959771936319,3739.5624642469452,-8769.0574642339852,4185.7428420298284,3323.546222400164,12896.02793051558,-7016.0366384832887,11575.66713898351,-11575.66713898351,7016.0366384832887,25424.740132489551,0.0
430012.02908761695,3872225.878295721,-27500.0,14859.326003461676,-6995.4500279569065,2864.8865127350132,-7645.7124123442472,3351.1813961617336,2769.7502063628667,11340.495421057418,-6220.049447341622,10862.032403873425,-10862.032403873425,6220.049447341622,22380.520652820785,0.0
435012.02908761695,3872225.878295721,-27500.0,13721.611703273004,-5873.3004300228113,2212.8601307437361,-6656.528121295476,2690.8455863808194,2307.6817227507372,9994.0939003865697,-5482.4043947626396,10088.801541708919,-10088.801541708919,5482.4043947626396,19735.90888123299,0.0
440012.02908761695,3872225.878295721,-27500.0,12607.703166361007,-4935.4263795911238,1724.4310068581137,-5793.2837637920175,2167.9340965408337,1924.3004702087637,8828.5870040821464,-4815.4889475825285,9305.6333501837253,-9305.6333501837253,4815.4889475825285,17440.523289842695,0.0
445012.02908761695,3872225.878295721,-27500.0,11545.905170444843,-4153.5864632816774,1356.5348316632171,-5044.3871936070027,1753.0720401722476,1607.2497792374818,7818.8590060801052,-4221.9728378844156,8543.1337912702838,-8543.1337912702838,4221.9728378844156,15448.16012250417,0.0
450012.02908761695,3872225.878295721,-27500.0,10551.643213151905,-3502.4419864049137,1077.7709714608923,-4397.093087140348,1423.0702577558791,1345.4536541791445,6942.9303880501784,-3699.1780122742275,7819.155146051231,-7819.155146051231,3699.1780122742275,13717.502945652359,0.0
260012.02908761695,3877225.878295721,-27500.0,3812.7950718023781,5007.5670073262008,2619.2476571506027,2241.238043103212,1978.4625172898552,842.69098360803525,5570.5298726799956,5039.6639044676349,1241.206861641761,-1241.206861641761,-5039.6639044676349,10427.880003295375,0.0
265012.02908761695,3877225.878295721,-27500.0,3611.7255427586492,5604.3873617117033,3135.3713997323698,2389.4124217910971,2296.5310932988964,957.94067621638908,6205.28773047496,5837.8782233839829,839.0648445303118,-839.0648445303118,-5837.8782233839829,11540.487833000181,0.0
270012.02908761695,3877225.878295721,-27500.0,3233.8926098719912,6248.2533451066292,3767.8740823492981,2504.8489245586511,2659.7890115232999,1079.9030178819546,6920.9555264482142,6761.560213340159,261.26706996765233,-261.26706996765233,-6761.560213340159,12776.667979772286,0.0
275012.02908761695,3877225.878295721,-27500.0,2613.3616110754124,6923.4954996326805,4541.3572311464923,2560.5073909614962,3066.9440821289568,1202.0481840871253,7727.3906460539474,7820.0296959822172,-547.00289457235658,547.00289457235658,-7820.0296959822172,14146.426436118632,0.0
280012.02908761695,3877225.878295721,-27500.0,1664.3712291155587,7599.9875421241904,5482.2955322592697,2516.1006526266738,3509.6753355057099,1312.3455343098647,8635.9765320539445,9014.4490037782816,-1653.9413359172395,1653.9413359172395,-9014.4490037782816,15661.087376539794,0.0
285012.02908761695,3877225.878295721,-27500.0,277.65021714132286,8225.1905117129354,6615.663293785974,2312.6051751568721,3966.89147906058,1389.9234493105864,9661.0478679461667,10330.008559144295,-3141.7066228141921,3141.7066228141921,-10330.008559144295,17337.022471657678,0.0
290012.02908761695,3877225.878295721,-27500.0,-1681.8087553392129,8712.9124127653067,7957.6756004327799,1865.0378979277132,4395.2060833626638,1399.8909698857781,10823.353431861855,11723.170004089232,-5104.2373448833741,5104.2373448833741,-11723.170004089232,19205.303234171941,0.0
295012.02908761695,3877225.878295721,-27500.0,-4372.9252861666346,8928.3663580259326,9501.6191346315027,1053.5034552770846,4713.4396494089187,1285.3595880886478,12157.949087596759,13101.690182428934,-7639.3678629267524,7639.3678629267524,-13101.690182428934,21333.995683313322,0.0
300012.02908761695,3877225.878295721,-27500.0,-7967.8247100249309,8670.412494667813,11192.055439980488,-286.62177322155617,4778.0357955034196,955.27474183558525,13731.298532358614,14295.043645768261,-10830.289398449235,10830.289398449235,-14295.043645768261,23875.106029528015,0.0
305012.02908761695,3877225.878295721,-27500.0,-12624.210091213168,7655.2138673116697,12880.941291522367,-2372.5275367959389,4345.4782432183711,266.15575621051499,15676.354319784587,15014.300985751144,-14708.951037778692,14708.951037778692,-15014.300985751144,27152.286251944919,0.0
310012.02908761695,3877225.878295721,-27500.0,-18429.193976833209,5512.6269616107957,14258.975315399231,-5472.860098880391,3018.1471278213721,-1004.4637560255313,18259.723511026696,14805.808096090272,-19192.269426836752,19192.269426836752,-14805.808096090272,31794.755871232112,0.0
315012.02908761695,3877225.878295721,-27500.0,-25301.492932784713,1819.1001406226728,14760.637135820321,-9883.0926080389836,174.02329240052643,-3194.3692992576061,21997.019500212755,13015.846095647688,-23984.304881108761,23984.304881108761,-13015.846095647688,38872.683279055273,0.0
320012.02908761695,3877225.878295721,-27500.0,-32844.949524347037,-3792.3083974249075,13458.798243951134,-15850.63539612778,-5107.0003468621653,-6800.4104801185949,27795.647057040162,8807.2878488461847,-28449.886243588175,28449.886243588175,-8807.2878488461847,49915.051825336195,0.0
325012.02908761695,3877225.878295721,-27500.0,-40166.479997032264,-11390.122336586981,9001.3647384590749,-23405.847399141432,-14079.039114753996,-12515.266270152897,36897.129129348417,1302.4691827180468,-31493.392469803086,31493.392469803086,-1302.4691827180468,66707.419065341761,0.0
330012.02908761695,3877225.878295721,-27500.0,-45710.510137432058,-20316.644705582334,-301.84322843726636,-32033.361375875913,-28230.951926418951,-21209.472936501938,50343.689926462088,-10040.416943759692,-31522.042132144525,31522.042132144525,10040.416943759692,90869.990847351743,0.0
335012.02908761695,3877225.878295721,-27500.0,-47243.030408454768,-28539.223889152428,-16054.892185161672,-40101.538777820802,-48842.566411571119,-33720.375754581226,68451.521871863384,-24675.687280860253,-26653.663715083134,26653.663715083134,24675.687280860253,123119.72527126272,0.0
340012.02908761695,3877225.878295721,-27500.0,-42362.449836710504,-31835.126197231621,-38653.580418186757,-44064.144901914973,-75769.749045624048,-50107.288474975001,90191.741922668443,-39653.154770099587,-15551.053631152956,15551.053631152956,39653.154770099587,161836.33653223765,0.0
345012.02908761695,3877225.878295721,-27500.0,-30390.930382968862,-23380.896411426264,-64764.665383362772,-38074.567185879343,-104831.88389136872,-67861.025405627937,111870.35789378337,-47724.939139790658,338.6876288987005,-338.6876288987005,47724.939139790658,200638.3890310073,0.0
350012.02908761695,3877225.878295721,-27500.0,-16518.733332403917,4154.5455064570033,-82612.248267677918,-16192.407654527429,-123811.56576469236,-79316.455717307006,125681.80258838965,-36057.287119366527,12501.951026204753,-12501.951026204753,36057.287119366527,225804.47038144307,0.0
355012.02908761695,3877225.878295721,-27500.0,-17126.225491143367,47414.255170657016,-67340.795003862906,18384.851113724733,-110812.08257192775,-71546.982724265283,120877.30456562272,7685.9929382845557,1419.6723497021658,-1419.6723497021658,-7685.9929382845557,217592.97524397672,0.0
360012.02908761695,3877225.878295721,-27500.0,-43487.670070590648,69162.610674427633,-5729.7133543372856,38476.684417765209,-55679.839515902699,-39407.292510267718,96345.088144903246,61085.456753553735,-40406.739197889809,40406.739197889809,-61085.456753553735,171408.12559480031,0.0
365012.02908761695,3877225.878295721,-27500.0,-59416.513747775592,41719.813695211655,52156.255109582889,23423.499568652427,2738.0579436779162,-4826.6099230711279,73469.202289442735,70342.867821787964,-66657.190247570878,66657.190247570878,-70342.867821787964,127388.7517524021,0.0
370012.02908761695,3877225.878295721,-27500.0,-44118.639443042943,3210.5595804531813,68543.004346111513,-2379.7726836217362,30754.928200253056,13036.565809564039,63335.958196444859,44703.193038306592,-55241.434909281219,55241.434909281219,-44703.193038306592,111380.76114042751,0.0
375012.02908761695,3877225.878295721,-27500.0,-19079.104313588399,-19452.210002034692,60508.739294504267,-19008.59744855321,36132.134846223671,17949.715768504961,57523.990383069286,18266.719150291668,-31089.320296753256,31089.320296753256,-18266.719150291668,104374.58351333765,0.0
380012.02908761695,3877225.878295721,-27500.0,1057.069503163978,-27898.796819355899,46673.582222085482,-25898.287895630761,32537.314179093977,17494.257311201702,51449.178779758688,1303.2330258561306,-10663.128304006803,10663.128304006803,-1303.2330258561306,95522.055937928861,0.0
385012.02908761695,3877225.878295721,-27500.0,13851.749570854567,-28743.698707583964,34139.970603363283,-27129.841401083071,26752.789808564139,15497.171652104575,45042.690093094854,-7671.9721120009763,2896.7973515914414,-2896.7973515914414,7671.9721120009763,84939.728376995161,0.0
390012.02908761695,3877225.878295721,-27500.0,20897.35733686019,-26327.468306515468,24450.933195667269,-25722.318267001687,21206.984524403295,13291.810766762235,38925.204535983103,-11679.667796992158,10868.063741624053,-10868.063741624053,11679.667796992158,74236.294613430946,0.0
395012.02908761695,3877225.878295721,-27500.0,24159.197417835112,-22844.400767743715,17391.7536384173,-23285.320512552749,16557.391660253095,11244.41841918872,33447.818311343864,-12920.511526920456,15067.31558602593,-15067.31558602593,12920.511526920456,64341.664730533383,0.0
400012.02908761695,3877225.878295721,-27500.0,25107.635635191724,-19282.477017516889,12371.14354503086,-20580.856167907226,12852.040714372735,9431.846309557006,28704.050240343102,-12722.0223110112,16901.540445085011,-16901.540445085011,12722.0223110112,55587.548679255298,0.0
405012.02908761695,3877225.878295721,-27500.0,24704.16416079965,-16038.723474682909,8832.4326788698691,-17948.915436819596,9962.5133594751187,7859.498038565499,24658.529024290987,-11833.842668432926,17310.874122007292,-17310.874122007292,11833.842668432926,48002.794552907682,0.0
410012.02908761695,3877225.878295721,-27500.0,23548.920800744265,-13237.992463861874,6342.7265490351892,-15531.706079723845,7730.6955785962864,6515.6107039473882,21229.868929740631,-10665.994845718844,16892.342420923353,-16892.342420923353,10665.994845718844,41494.991363458197,0.0
415012.02908761695,3877225.878295721,-27500.0,22010.462976293151,-10886.074412146263,4587.7650881379832,-13379.043582241917,6013.5526615560948,5381.8366635861184,18328.990034693881,-9436.3772809404618,16018.114493618799,-16018.114493618799,9436.3772809404618,35935.369747577744,0.0
420012.02908761695,3877225.878295721,-27500.0,20313.087907904508,-8941.1116010050864,3345.8980622399695,-11496.857846811048,4693.4619028642383,4435.8443097028867,15873.541626440456,-8255.5666931886881,14918.015222745642,-14918.015222745642,8255.5666931886881,31193.422289227063,0.0
425012.02908761695,3877225.878295721,-27500.0,18591.339844881481,-7346.3083084545269,2462.6843417065375,-9870.2673138993323,3677.5491794234922,3653.3807822145177,13791.965006226872,-7174.6687643558562,13732.337844302592,-13732.337844302592,7174.6687643558562,27149.425875864312,0.0
430012.02908761695,3877225.878295721,-27500.0,16923.581622976293,-6044.3963895286288,1830.944100254982,-8475.1719681562281,2893.9395790218946,3010.2512965264063,12023.622073345121,-6212.2932805965811,12544.950415333553,-12544.950415333553,6212.2932805965811,23697.976252962264,0.0
435012.02908761695,3877225.878295721,-27500.0,15352.899364958805,-4983.54886682295,1376.2928703060577,-7284.3772240189091,2287.6189364105867,2483.8240207295376,10517.700118034672,-5369.8239984832162,11404.118255783838,-11404.118255783838,5369.8239984832162,20748.155605489737,0.0
440012.02908761695,3877225.878295721,-27500.0,13900.281856520665,-4119.2559031754527,1046.9751422258053,-6270.8461831171489,1816.7234105505324,2053.8993002324969,9231.8169325107028,-4640.0349920618801,10335.694928948265,-10335.694928948265,4640.0349920618801,18222.400492433222,0.0
445012.02908761695,3877225.878295721,-27500.0,12573.038997622114,-3414.3865098286419,806.84196159404485,-5409.3669653115085,1449.485996862132,1703.0495033220491,8130.688653780966,-4011.9146612772051,9351.5500874888821,-9351.5500874888821,4011.9146612772051,16054.984076739169,0.0
450012.02908761695,3877225.878295721,-27500.0,11370.252945947186,-2838.499162791094,630.52884090841087,-4677.3204480403265,1161.8224583106069,1416.6028531985289,7184.9761206556941,-3473.3202432188928,8455.0078720905185,-8455.0078720905185,3473.3202432188928,14190.492404190289,0.0
255012.02908761695,3882225.878295721,-27500.0,5534.7250421105873,4556.4776769763503,1792.6554246981946,2686.7036446112979,1699.104502075535,906.89760079247503,5500.8665038089903,3981.5233084866268,2854.6631377499452,-2854.6631377499452,-3981.5233084866268,10521.534279589083,0.0
260012.02908761695,3882225.878295721,-27500.0,5744.0597950125248,5182.3803343897735,2154.1387356022706,2985.5154375123388,1996.5075341823167,1058.540810474489,6152.4719636898617,4663.8791844018688,2803.8428570496535,-2803.8428570496535,-4663.8791844018688,11717.090516259894,0.0
265012.02908761695,3882225.878295721,-27500.0,5877.5841317175827,5896.3740186037057,2606.1992423789056,3302.8587007070105,2349.3511445539534,1234.0286233258998,6893.1630341202754,5477.8102716453232,2655.1078081212886,-2655.1078081212886,-5477.8102716453232,13063.704238243588,0.0
270012.02908761695,3882225.878295721,-27500.0,5892.2180783848653,6704.72333842432,3173.6646940202727,3629.2568298365063,2765.9152780478221,1434.6360200731694,7734.3263710589308,6447.6889485987267,2367.5434263737484,-2367.5434263737484,-6447.6889485987267,14576.272432988882,0.0
275012.02908761695,3882225.878295721,-27500.0,5727.6081114528852,7609.0962957818547,3887.7918077087697,3947.6406206467645,3253.4943835514887,1659.6463212793528,8687.7968787572408,7599.9273240251605,1885.9324579796562,-1885.9324579796562,-7599.9273240251605,16268.10531590734,0.0
280012.02908761695,3882225.878295721,-27500.0,5300.1502439082269,8602.3138915460968,4787.1020967364511,4229.1649875638104,3816.0922925115487,1904.5371998558353,9765.3644401454367,8960.7613680684153,1136.6070867491735,-1136.6070867491735,-8960.7613680684153,18149.26711640328,0.0
285012.02908761695,3882225.878295721,-27500.0,4495.5711404477534,9661.4243502974205,5917.3155833269566,4426.9539058225755,4450.0898452694928,2157.9070235940626,10978.179068826819,10551.565253711655,22.871686501705881,-22.871686501705881,-10551.565253711655,20224.801970027886,0.0
290012.02908761695,3882225.878295721,-27500.0,3160.5065402879104,10736.770599457983,7329.006100751757,4466.9070306372232,5136.3655465373649,2396.3066040581102,12336.451051900382,12379.822423991269,-1579.0644046789675,1579.0644046789675,-12379.822423991269,22494.159559463315,0.0
295012.02908761695,3882225.878295721,-27500.0,1094.5986161448966,11735.418742875359,9070.276603522685,4234.4879974633541,5826.2870224274839,2575.5399942969925,13850.671175920244,14422.796611074815,-3821.4455163808434,3821.4455163808434,-14422.796611074815,24955.616634147449,0.0
300012.02908761695,3882225.878295721,-27500.0,-1952.9062767544749,12497.609250235964,11169.427160481946,3556.5684614262036,6417.3297227789426,2615.9797491067966,15537.811836280365,16599.649537756886,-6878.9101938925751,6878.9101938925751,-16599.649537756886,27625.722060735585,0.0
305012.02908761695,3882225.878295721,-27500.0,-6273.5414672473944,12767.10478360247,13599.13969464804,2178.5469881906142,6711.7716468162225,2377.7424894635951,17441.636898207445,18727.188730613208,-10926.17601172996,10926.17601172996,-18727.188730613208,30597.756347026443,0.0
310012.02908761695,3882225.878295721,-27500.0,-12161.219582225893,12163.18767959686,16210.018882479902,-259.28549995061394,6349.5438546201267,1618.9932945057799,19689.851870553663,20457.262732397379,-16085.087088013883,16085.087088013883,-20457.262732397379,34188.31591805975,0.0
315012.02908761695,3882225.878295721,-27500.0,-19821.072017243852,10178.121168136517,18621.821912396957,-4232.8541581672489,4706.5179780788576,-72.400027743835423,22639.602261378706,21206.342142763733,-22323.011775108727,22323.011775108727,-21206.342142763733,39238.470732656606,0.0
320012.02908761695,3882225.878295721,-27500.0,-29200.799472487131,6252.0169245004345,20077.395463185658,-10301.024389082766,759.06144004018722,-3385.0129366056262,27192.360458719762,20119.79900501914,-29293.275210668147,29293.275210668147,-20119.79900501914,47539.088646364551,0.0
325012.02908761695,3882225.878295721,-27500.0,-39742.938695287368,6.7134170482289619,19315.625740281754,-18965.748195687233,-7053.1471618287187,-9431.8823230278613,35160.331306380132,16167.655833769661,-36145.642711117725,36145.642711117725,-16167.655833769661,62007.147164315618,0.0
330012.02908761695,3882225.878295721,-27500.0,-50111.757292504313,-8287.5678104767903,14605.454708271203,-30320.305019625004,-20868.824777436097,-19910.304276688636,48827.188274891363,8512.9036911129151,-41400.662532528499,41400.662532528499,-8512.9036911129151,86118.69151773538,0.0
335012.02908761695,3882225.878295721,-27500.0,-58004.722094837613,-17012.510918464955,4131.7550013316923,-43306.70188167056,-43139.769101534053,-37117.850609494002,69825.968467803963,-2738.8435617061186,-43024.252004970716,43024.252004970716,2738.8435617061186,122789.14233744644,0.0
340012.02908761695,3882225.878295721,-27500.0,-60301.611137365828,-22302.573666590342,-13099.520001547116,-54314.329288690118,-75571.726503872153,-63249.288068615439,98464.323123887953,-15328.095682417679,-38924.451292344107,38924.451292344107,15328.095682417679,172775.79036735144,0.0
345012.02908761695,3882225.878295721,-27500.0,-54533.053028725772,-17173.292107283443,-35312.736281937759,-55431.277121947816,-116136.40107694698,-97568.547530145486,132110.61767400848,-22959.731891366948,-28720.652967470687,28720.652967470687,22959.731891366948,231547.5469516656,0.0
350012.02908761695,3882225.878295721,-27500.0,-41900.094523145461,7918.730750532457,-53850.05061032089,-34716.967240313985,-153031.15544232179,-130653.8963300602,162373.58826467051,-13267.072310682053,-17156.736928717313,17156.736928717313,13267.072310682053,284638.29800772341,0.0
355012.02908761695,3882225.878295721,-27500.0,-35807.240667356375,62161.610068275928,-40616.258842132011,20221.145972227423,-149206.2598430113,-132640.04898516304,169276.64327484026,37407.67560800926,-23948.445009433854,23948.445009433854,-37407.67560800926,297557.48041102185,0.0
360012.02908761695,3882225.878295721,-27500.0,-78110.611304302933,88721.286245924261,46056.618147490277,58354.367061815632,-47389.83999434016,-54312.315066989795,132599.10836548419,109194.27456364465,-85381.407520407156,85381.407520407156,-109194.27456364465,231508.91653042135,0.0
365012.02908761695,3882225.878295721,-27500.0,-81711.787348604266,24122.419057226409,100778.11298940836,8678.2794012638897,43353.827509047202,21525.490017677148,104011.02456526431,84096.793286182685,-96255.740934029891,96255.740934029891,-84096.793286182685,180917.14315760418,0.0
370012.02908761695,3882225.878295721,-27500.0,-34718.387756574179,-23419.108910181902,87730.893558486554,-33641.27814571467,59558.293959795177,38734.315864945638,92019.490436692315,31520.222061614484,-51030.310604031249,51030.310604031249,-31520.222061614484,164551.0173328002,0.0
375012.02908761695,3882225.878295721,-27500.0,2885.6670449472558,-37747.916640120267,62480.262142867497,-47021.804305250276,50691.372639740257,34723.014300883777,79796.624012607077,1421.482666356872,-13346.553811040198,13346.553811040198,-1421.482666356872,145892.1186327278,0.0
380012.02908761695,3882225.878295721,-27500.0,23590.415151482492,-37667.11557674456,42176.599242135322,-46642.443968528634,38758.381779695163,27600.373710208623,67213.036710876506,-11911.318098428486,8404.3438563487671,-8404.3438563487671,11911.318098428486,124806.33068460622,0.0
385012.02908761695,3882225.878295721,-27500.0,32963.562567267363,-32891.876108511642,28048.52380258232,-41604.65844893676,28755.035429027645,21600.398395367989,55838.381901331151,-16624.338634834712,19224.020705230345,-19224.020705230345,16624.338634834712,104959.29809696003,0.0
390012.02908761695,3882225.878295721,-27500.0,35977.543803413784,-27236.463693136648,18619.769418957418,-35669.925616691529,21215.31074847922,17089.976777786131,46275.920762525449,-17303.562978859281,23744.06757069191,-23744.06757069191,17303.562978859281,87880.374755199649,0.0
395012.02908761695,3882225.878295721,-27500.0,35702.883349120762,-22033.721406777451,12402.056912712233,-30137.154104493817,15698.891930294261,13690.836840384109,38487.32999671116,-16237.781654517934,24874.513063990194,-24874.513063990194,16237.781654517934,73723.295247010246,0.0
400012.02908761695,3882225.878295721,-27500.0,33838.643252030393,-17644.950976766144,8305.5682700273337,-25341.892553138798,11683.044648947483,11053.783479531705,32201.272062768781,-14522.71580519819,24262.234774893448,-24262.234774893448,14522.71580519819,62124.618760304809,0.0
405012.02908761695,3882225.878295721,-27500.0,31285.596396173351,-14077.351175631555,5597.3134884364817,-21291.967060831157,8749.9954442040598,8957.990218608933,27118.543802447952,-12668.260302885699,22806.005849403657,-22806.005849403657,12668.260302885699,52622.222543066637,0.0
410012.02908761695,3882225.878295721,-27500.0,28514.010179222874,-11225.961279072289,3797.7396120994072,-17903.260889858939,6595.4246440907036,7270.9096656111515,22982.884470237484,-10901.225917019579,20991.605827311523,-20991.605827311523,10901.225917019579,44802.442793847986,0.0
415012.02908761695,3882225.878295721,-27500.0,25766.690354045219,-8964.1780807176274,2595.3615822664606,-15077.292616452529,5002.7368728347292,5906.8631167976182,19592.70825927331,-9312.0163924371554,19080.538167758281,-19080.538167758281,9312.0163924371554,38331.064181020505,0.0
420012.02908761695,3882225.878295721,-27500.0,23165.33158168583,-7175.0353435663728,1787.6474057304454,-12723.271659578664,3817.9990109827813,4803.8696054864158,16793.567056819284,-7925.7826010620993,17211.500726755919,-17211.500726755919,7925.7826010620993,32946.058983624942,0.0
425012.02908761695,3882225.878295721,-27500.0,20765.924304346569,-5759.9205855623577,1242.3218337741744,-10762.676860149682,2931.27739033239,3913.1369774982745,14467.27961041733,-6737.381990779083,15454.810899439493,-15454.810899439493,6737.381990779083,28442.454716209268,0.0
430012.02908761695,3882225.878295721,-27500.0,18588.268103192029,-4639.0062939903601,872.48253973752651,-9128.9859018879451,2263.5693943621445,3194.6973195768464,12522.609412446192,-5728.7354200094251,13842.194950742893,-13842.194950742893,5728.7354200094251,24658.657885801931,0.0
435012.02908761695,3882225.878295721,-27500.0,16632.243911359463,-3748.9746704507688,620.67342798103391,-7766.3388819670972,1757.7592029391083,2615.5109989834441,10888.309832014036,-4877.449529229174,12383.564719437241,-12383.564719437241,4877.449529229174,21466.041281105845,0.0
440012.02908761695,3882225.878295721,-27500.0,14887.073142435658,-3040.1251831061372,448.66157284254075,-6628.0933582138005,1372.3185493882875,2148.3926468434183,9508.1246897287292,-4160.9898047295101,11076.705493355617,-11076.705493355617,4160.9898047295101,18761.319789883666,0.0
445012.02908761695,3882225.878295721,-27500.0,13336.689385631777,-2473.6444176750597,330.84471520966372,-5675.4786290854254,1076.8857192504404,1771.1695493729349,8337.196111305364,-3558.5654883890952,9912.9569383011531,-9912.9569383011531,3558.5654883890952,16460.949602949815,0.0
450012.02908761695,3882225.878295721,-27500.0,11962.917664117089,-2019.2877948706468,249.97744208230023,-4876.4021630575089,849.14476643002786,1465.917689003971,7339.4756936805297,-3051.8517192560712,8880.5941838149047,-8880.5941838149047,3051.8517192560712,14496.994452972231,0.0
455012.02908761695,3882225.878295721,-27500.0,10747.296380791817,-1653.4891165334245,194.37920953100735,-4204.3790836932476,672.60415327103703,1218.2483459554412,6485.7928332464408,-2625.1140306354368,7966.796837177495,-7966.796837177495,2625.1140306354368,12813.947123965512,0.0
255012.02908761695,3887225.878295721,-27500.0,7211.5216032981007,4420.0014639805531,1332.7388083412886,3298.6584024047265,1613.9141928040083,1075.89520097727,6001.162171060937,3383.8210826714353,4271.9064830329389,-4271.9064830329389,-3383.8210826714353,11627.674798777674,0.0
260012.02908761695,3887225.878295721,-27500.0,7734.3239931478602,5079.0711439570496,1609.9630185891031,3741.9082577600875,1912.0970909049786,1275.6019158273109,6750.8502409581761,4003.9923684675705,4477.4783417752024,-4477.4783417752024,-4003.9923684675705,13039.640022740501,0.0
265012.02908761695,3887225.878295721,-27500.0,8247.4730928325898,5849.8625935508489,1963.1211893551888,4242.7373812621272,2272.3272739135232,1514.5785411648303,7611.9342381320166,4758.0452321181974,4635.9665531830806,-4635.9665531830806,-4758.0452321181974,14651.574026963735,0.0
270012.02908761695,3887225.878295721,-27500.0,8721.7612371942032,6749.9054611824531,2416.2155255810972,4803.1451322591965,2707.2626619349089,1799.5046125277888,8601.1158174862867,5677.242501678089,4715.5290277765125,-4715.5290277765125,-5677.242501678089,16489.725042464721,0.0
275012.02908761695,3887225.878295721,-27500.0,9112.5366918429645,7797.100967443479,3001.3033733118546,5420.9256107961846,3231.0290892310791,2137.0632699471525,9736.5333502380345,6799.5909039218641,4670.181796788911,-4670.181796788911,-6799.5909039218641,18580.580114569515,0.0
280012.02908761695,3887225.878295721,-27500.0,9352.8302159850718,9007.4875156381095,3761.0113687856365,6086.2832526808807,3858.2292439313596,2532.8629036461034,11037.039793245876,8170.3044596930222,4434.1663539061801,-4434.1663539061801,-8170.3044596930222,20948.393605041587,0.0
285012.02908761695,3887225.878295721,-27500.0,9343.7307234738164,10390.921594560125,4751.4170702584051,6776.2854211297026,4601.5868453104085,2989.3296791126299,12520.758004426452,9841.1407600885614,3914.4227437445161,-3914.4227437445161,-9841.1407600885614,23610.973004338346,0.0
290012.02908761695,3887225.878295721,-27500.0,8941.3597873415692,11943.181554879973,6044.719583857096,7445.8713882675856,5466.9547402515554,3501.7372507521386,14202.515443744509,11867.177108232805,2981.0615837721971,-2981.0615837721971,-11867.177108232805,26573.067757110166,0.0
295012.02908761695,3887225.878295721,-27500.0,7940.2323638467251,13632.153908888798,7730.0694159139257,8013.4145116651734,6443.3045660610469,4050.7857439003019,16089.678904724351,14298.292745117575,1456.4938310908874,-1456.4938310908874,-14298.292745117575,29817.014674408401,0.0
300012.02908761695,3887225.878295721,-27500.0,6054.6038469832038,15374.856508874291,9908.6435164277082,8337.9938347971038,7483.2769957172486,4588.6892546570707,18176.28653992973,17160.451240466853,-893.94717601084631,893.94717601084631,-17160.451240466853,33292.275165767016,0.0
305012.02908761695,3887225.878295721,-27500.0,2904.1634910204793,17002.103010143688,12674.494066308012,8185.0879972260991,8466.3485048703988,5012.8951333038376,20437.504906463037,20418.92256496512,-4362.1231574557651,4362.1231574557651,-20418.92256496512,36912.623739545641,0.0
310012.02908761695,3887225.878295721,-27500.0,-1979.0666532130649,18211.957731676688,16065.081476518801,7179.232095140188,9131.3022899156003,5116.3190291185492,22834.781856152713,23913.83985191003,-9270.6491099097402,9270.6491099097402,-23913.83985191003,40591.846073287117,0.0
315012.02908761695,3887225.878295721,-27500.0,-9087.3023323034049,18530.197929569513,19957.013795091552,4751.4062962078106,8959.2385105053072,4494.5155120053332,25371.455402421794,27265.850329764035,-15888.731254798928,15888.731254798928,-27265.850329764035,44409.454168854689,0.0
320012.02908761695,3887225.878295721,-27500.0,-18762.628931425163,17340.582744622028,23888.956903736202,115.32295110357865,6992.0359189911105,2380.0316866352641,28334.28645891586,29787.510644912993,-24253.388484405801,24253.388484405801,-29787.510644912993,49124.280095748145,0.0
325012.02908761695,3887225.878295721,-27500.0,-30875.342778615588,14124.926998664927,26861.726072543326,-7639.5153733947536,1610.0469441758028,-2628.0665623920595,33052.879349815208,30538.101779456618,-33904.925746161651,33904.925746161651,-30538.101779456618,57288.452837081328,0.0
330012.02908761695,3887225.878295721,-27500.0,-44450.898930447293,9089.1835760837257,27363.360566178511,-19180.537404665163,-9594.8087441638581,-12939.896956234983,42848.851391904878,28809.676851787524,-43710.372995581107,43710.372995581107,-28809.676851787524,74262.990269975824,0.0
335012.02908761695,3887225.878295721,-27500.0,-57572.033665590279,4114.1071563654259,24100.519913472868,-34087.953776006849,-29550.676224163773,-32328.823237146731,61646.502771380088,25282.559195086185,-52155.338362702678,52155.338362702678,-25282.559195086185,106782.11007251535,0.0
340012.02908761695,3887225.878295721,-27500.0,-67871.3707010949,3443.3836363845166,17584.526111228035,-49224.856325533459,-60651.763056678275,-65652.748204945281,92045.158011984167,23460.674380828576,-58280.945415972157,58280.945415972157,-23460.674380828576,159558.06908377539,0.0
345012.02908761695,3887225.878295721,-27500.0,-74246.948206361485,13934.720302262001,11916.027582857627,-56127.003792228672,-101854.51804731386,-115673.28023105295,133771.92223807529,30952.741509162308,-63463.447495295884,63463.447495295884,-30952.741509162308,232090.2732104265,0.0
350012.02908761695,3887225.878295721,-27500.0,-81297.308046034304,43706.70174691984,19610.016358355606,-42712.503373792584,-140622.367514688,-176269.07956029562,181282.13597456767,61411.71073362531,-75987.201066804846,75987.201066804846,-61411.71073362531,315139.84953178873,0.0
355012.02908761695,3887225.878295721,-27500.0,-83617.746185956028,95166.375607942784,66432.685663525786,19834.036207915047,-134117.06957842468,-218135.38776413116,217787.35104479597,128510.66744868195,-99461.57893749408,99461.57893749408,-128510.66744868195,378294.60394910246,0.0
360012.02908761695,3887225.878295721,-27500.0,-143606.9984898972,86910.8491105266,142069.60493588465,66733.834583713586,31463.973493051359,-6353.3265607664516,182781.83017332398,166135.70234434321,-163672.3778957506,163672.3778957506,-166135.70234434321,316591.49608996499,0.0
365012.02908761695,3887225.878295721,-27500.0,-75001.745811638146,-14034.129562565811,122109.55373774715,-62185.444427710565,99283.389755668322,107422.93621210897,159704.44821031226,63273.944950007703,-93576.211866388403,93576.211866388403,-63273.944950007703,279172.34138755349,0.0
370012.02908761695,3887225.878295721,-27500.0,4591.6800731180192,-42761.222682738036,78243.892712643355,-92103.920644593265,77806.594616849921,83226.509779619126,131199.46223089064,6107.3372312623378,-17329.394756970447,17329.394756970447,-6107.3372312623378,234335.26678489818,0.0
375012.02908761695,3887225.878295721,-27500.0,39475.207961606196,-42998.580672241711,48247.473828589427,-84509.098813682242,54418.004894288344,56802.231571595119,104520.16267857782,-14557.907355594874,18102.236347207745,-18102.236347207745,14557.907355594874,189950.35160336009,0.0
380012.02908761695,3887225.878295721,-27500.0,51739.517932318988,-36280.486256616357,29555.79129471421,-69915.538738568241,37386.565342781578,38919.148251438142,82594.771309779142,-20583.652096404854,32402.662906833481,-32402.662906833481,20583.652096404854,152245.56004903797,0.0
385012.02908761695,3887225.878295721,-27500.0,53414.093686273103,-28795.396764706595,18106.15901307992,-56089.33570501834,25807.724019333356,27686.429376200249,65456.045480010755,-20756.209113996672,36475.861040145966,-36475.861040145966,20756.209113996672,122163.22479437069,0.0
390012.02908761695,3887225.878295721,-27500.0,50544.472805572295,-22317.615982296782,11100.27650998137,-44821.228593730688,18030.2681887525,20545.99644845528,52373.629527545745,-18800.512267243728,35885.153338523647,-35885.153338523647,18800.512267243728,98837.314185402938,0.0
395012.02908761695,3887225.878295721,-27500.0,46036.197788132646,-17153.940707323116,6797.20416431995,-36032.129094270662,12763.493533267321,15755.235135044357,42423.22384405585,-16272.602894529686,33369.163658230173,-33369.163658230173,16272.602894529686,80838.586995510996,0.0
400012.02908761695,3887225.878295721,-27500.0,41189.549180092523,-13165.401959239363,4143.0995684324726,-29213.358849729502,9145.5858049451981,12337.862418410217,34789.380577409924,-13789.389229585968,30210.480613140178,-30210.480613140178,13789.389229585968,66836.93850885547,0.0
405012.02908761695,3887225.878295721,-27500.0,36544.404554367786,-10119.991971233036,2501.6273652129562,-23878.709301557006,6623.55837712023,9780.7178474134835,28849.69698706636,-11569.595789696021,26985.227888813362,-26985.227888813362,11569.595789696021,55799.022791773539,0.0
410012.02908761695,3887225.878295721,-27500.0,32300.206193314956,-7801.40877222364,1486.2133377035334,-19656.921352134887,4842.0307134907844,7809.1091374994994,24157.613213736491,-9666.919300011381,23939.311137899087,-23939.311137899087,9666.919300011381,46976.08852295237,0.0
415012.02908761695,3887225.878295721,-27500.0,28509.406866460318,-6034.3034662308182,860.06549166148852,-16280.43096280568,3568.9753275733246,6264.0532302675992,20398.80602542041,-8069.5460129797602,21166.515154467925,-21166.515154467925,8069.5460129797602,39835.674549421739,0.0
420012.02908761695,3887225.878295721,-27500.0,25162.920986745848,-4683.5601036594198,476.94103576594421,-13556.664637638802,2650.0226409130069,5043.3358168145014,17350.989869930549,-6742.5124719046462,18690.787647169058,-18690.787647169058,6742.5124719046462,33996.296437132492,0.0
425012.02908761695,3887225.878295721,-27500.0,22227.287778492628,-3647.1472449928724,245.85532321001659,-11344.316991011417,1980.6730611389287,4074.8217187969167,14854.317032701592,-5645.5936763927939,16504.319675725357,-16504.319675725357,5645.5936763927939,29179.325225740562,0.0
430012.02908761695,3887225.878295721,-27500.0,19660.893118826953,-2848.5718564556123,109.84676498384658,-9537.2254842009006,1489.1221345377237,3304.392897047016,12791.382094197494,-4740.5462006736307,14585.502951209794,-14585.502951209794,4740.5462006736307,25176.64330050577,0.0
435012.02908761695,3887225.878295721,-27500.0,17421.148846222521,-2230.5802661888933,33.078455880051017,-8053.9793466703495,1125.4102632812996,2690.1500186846115,11074.138085032962,-3993.7100576695566,12907.623716019199,-12907.623716019199,3993.7100576695566,21829.55642075108,0.0
440012.02908761695,3887225.878295721,-27500.0,15467.629294325474,-1750.2539775332443,-7.0755494949760482,-6831.1580979908895,854.39728894291056,2199.2262006875594,9635.3019096968183,-3376.561485830418,11443.112426431859,-11443.112426431859,3376.561485830418,19014.907390115026,0.0
445012.02908761695,3887225.878295721,-27500.0,13763.422983061737,-1375.3389811718703,-24.922040500745837,-5818.818414504447,651.13469715425185,1805.748437028187,8422.6627845907751,-2865.4401145587008,10165.646699087709,-10165.646699087709,2865.4401145587008,16635.818015995268,0.0
450012.02908761695,3887225.878295721,-27500.0,12275.553498713827,-1081.5035348296101,-29.503297685991747,-4977.3213049396663,497.75494899002626,1489.3489307197381,7395.1750027938888,-2440.94735738289,9051.0911687178923,-9051.0911687178923,2440.94735738289,14615.23806482759,0.0
455012.02908761695,3887225.878295721,-27500.0,10974.964895178839,-850.31663541490843,-26.513991882593995,-4275.0263649170201,381.35918692259895,1234.0093013494266,6520.2216936935602,-2087.2831271883888,8077.8426198953102,-8077.8426198953102,2087.2831271883888,12891.346212480878,0.0
250012.02908761695,3892225.878295721,-27500.0,8057.9293099656024,3504.9615144787572,721.57754647185504,3382.9032313201405,1218.1575640097913,1034.7416608833328,5752.5278807167124,2175.1637387410115,5232.2179251930265,-5232.2179251930265,-2175.1637387410115,11280.990155162384,0.0
255012.02908761695,3892225.878295721,-27500.0,8832.6353533757811,4038.7411612498872,861.27552943942953,3885.2139759764664,1443.5246061287658,1236.8616710781846,6486.796326773675,2582.1433401543791,5687.8149337207878,-5687.8149337207878,-2582.1433401543791,12694.879022588575,0.0
260012.02908761695,3892225.878295721,-27500.0,9675.9170642924055,4671.4471098978647,1040.9266839672453,4472.3853263571937,1718.0013494447835,1483.6419547081805,7337.3703481993753,3082.1065825890337,6168.1024884654153,-6168.1024884654153,-3082.1065825890337,14327.063387492613,0.0
265012.02908761695,3892225.878295721,-27500.0,10584.430170389049,5423.4731742305285,1274.4501162841577,5158.5661669678011,2053.2613951751787,1785.4458196593171,8324.9299281214917,3699.6348733974005,6663.4056885945101,-6663.4056885945101,-3699.6348733974005,16214.244693880819,0.0
270012.02908761695,3892225.878295721,-27500.0,11548.263205291451,6319.2795365809143,1581.2359165194546,5959.2646929279827,2463.6551896152223,2154.838062480178,9473.7377877331292,4466.4633043509439,7156.8670919632004,-7156.8670919632004,-4466.4633043509439,18398.389153964737,0.0
275012.02908761695,3892225.878295721,-27500.0,12546.944454091517,7387.7961993871822,1988.4662320025373,6890.6050934293498,2966.5745473338029,2606.801560926624,10811.956647275067,5423.6028149497834,7620.6724532267763,-7620.6724532267763,-5423.6028149497834,20926.460001333679,0.0
280012.02908761695,3892225.878295721,-27500.0,13543.317789130719,8662.4121236142055,2534.4279544713258,7967.7323461404894,3582.5905074624866,3158.741863646535,12371.699061882246,6623.9484102367032,8010.4230198161613,-8010.4230198161613,-6623.9484102367032,23849.186821571053,0.0
285012.02908761695,3892225.878295721,-27500.0,14474.139171816358,10179.984450809154,3273.1726130890706,9201.6473481440498,4334.9991601100537,3829.9956817752081,14188.434955162811,8135.2606441621037,8256.7574971705726,-8256.7574971705726,-8135.2606441621037,27217.982885906476,0.0
290012.02908761695,3892225.878295721,-27500.0,15235.820777024264,11977.738861901422,4280.8347079239811,10593.227463508267,5248.0081220451593,4640.290070159067,16299.057851791153,10042.983164924335,8253.097150317215,-8253.097150317215,-10042.983164924335,31078.544949942832,0.0
295012.02908761695,3892225.878295721,-27500.0,15663.237129313158,14085.873560746961,5663.5298610073814,12122.16019111015,6341.9434286144997,5605.9637719429993,18737.207689210722,12451.362742766591,7838.2649775047375,-7838.2649775047375,-12451.362742766591,35458.562403257994,0.0
300012.02908761695,3892225.878295721,-27500.0,15499.720487072684,16511.828982077033,7565.3530827282393,13726.838199353575,7622.028275330721,6731.3713992715266,21523.232089771078,15479.067836007078,6773.565761920484,-6773.565761920484,-15479.067836007078,40345.415149482607,0.0
305012.02908761695,3892225.878295721,-27500.0,14359.13892075263,19209.506308837379,10170.942999588364,15268.856710901657,9053.394043094404,7989.7362676453986,24644.245824516849,19240.826546722819,4717.5817717349437,-4717.5817717349437,-19240.826546722819,45648.167036366423,0.0
310012.02908761695,3892225.878295721,-27500.0,11691.236917146442,22025.0454394423,13687.164475789325,16473.902338210744,10507.15179581872,9280.8394949132235,28017.872617090121,23798.704887185595,1212.8692543110556,-1212.8692543110556,-23798.704887185595,51139.824915139427,0.0
315012.02908761695,3892225.878295721,-27500.0,6789.4287510414915,24618.939872517676,18268.126319415322,16845.847956640322,11648.718399986377,10339.431289266289,31436.660141019576,29059.074285282273,-4275.2898957007401,4275.2898957007401,-29059.074285282273,56394.289719310633,0.0
320012.02908761695,3892225.878295721,-27500.0,-1063.8935389398271,26411.540974278516,23821.457000979,15582.732314780204,11725.695771019249,10547.343669078944,34524.924055464282,34609.277948612777,-12184.870322325798,12184.870322325798,-34609.277948612777,60817.766696135615,0.0
325012.02908761695,3892225.878295721,-27500.0,-12167.34254470102,26746.570407148211,29659.537575224454,11624.974283721467,9238.9346096230929,8590.5373813809783,36930.704024511877,39616.684247066398,-22454.614709482521,22454.614709482521,-39616.684247066398,64185.442504263061,0.0
330012.02908761695,3892225.878295721,-27500.0,-25696.520924570199,25726.143060605766,34253.68177780995,4165.4615210044849,1679.0671919035931,1972.3063157672821,39757.840809140544,43301.597982451123,-34045.179436129321,34045.179436129321,-43301.597982451123,68897.411581239256,0.0
335012.02908761695,3892225.878295721,-27500.0,-39546.332246743237,26065.144832702885,36210.820326691588,-5954.7891638569217,-13955.302182762674,-13298.294702273137,47875.730063287636,46962.362235409943,-45389.535455364392,45389.535455364392,-46962.362235409943,84666.606760900046,0.0
340012.02908761695,3892225.878295721,-27500.0,-52707.796458893652,34452.758479062002,38154.509597441902,-14207.077293609949,-38796.366899625958,-41856.81556523325,65033.071619270137,57423.695009992196,-57547.899707186007,57547.899707186007,-57423.695009992196,126766.44820779389,0.0
345012.02908761695,3892225.878295721,-27500.0,-70694.421509580628,57983.12895756834,51346.070424274636,-11393.293840435341,-68645.67661304005,-84679.355649663907,108807.64924103337,87122.835688539752,-79098.384374902438,79098.384374902438,-87122.835688539752,203490.60473200717,0.0
350012.02908761695,3892225.878295721,-27500.0,-108510.79093270545,99564.012444428823,91960.175600721574,12997.796782778207,-86839.514586426114,-126003.88000588023,172759.536477232,148614.64740340182,-126349.11557921229,126349.11557921229,-148614.64740340182,311240.39395435801,0.0
355012.02908761695,3892225.878295721,-27500.0,-167610.35530338084,136075.3670638637,171714.50439853853,56599.142236278829,-21594.831993986703,-104916.62660275237,230854.82932567183,227768.49055729521,-199716.02309433708,199716.02309433708,-227768.49055729521,405409.96400122333,0.0
360012.02908761695,3892225.878295721,-27500.0,-189084.15105735685,61841.937798428873,170247.40555270453,-9579.9441127395021,68604.12546093436,170462.52612703922,221443.09015671408,167385.41251513272,-203941.07071684845,203941.07071684845,-167385.41251513272,393782.5457709984,0.0
365012.02908761695,3892225.878295721,-27500.0,-40018.063706718589,1855.3199561723231,98331.662996243671,-144978.64256464594,72181.114908339514,192039.13482954833,199642.42323658196,61930.584234263952,-64989.686487691506,64989.686487691506,-61930.584234263952,345808.07879321021,0.0
370012.02908761695,3892225.878295721,-27500.0,42964.401010244066,-20212.05938647869,53584.923035228268,-141580.76592200593,56122.749323270276,120808.73835276086,156760.32647909384,8544.1633454648472,13948.136354535029,-13948.136354535029,-8544.1633454648472,275963.76517766446,0.0
375012.02908761695,3892225.878295721,-27500.0,68954.69250688731,-23006.600543397544,29533.680379869624,-113335.89994073821,38719.605513755232,74329.865978727685,119990.29652529782,-10554.838541370942,41894.949701234706,-41894.949701234706,10554.838541370942,215442.37436222492,0.0
380012.02908761695,3892225.878295721,-27500.0,72467.464730188251,-19690.039845400595,16335.255004138364,-86620.377134243114,25906.126482881114,47326.487883428432,91767.607087204218,-15743.307187834507,48849.177260659293,-48849.177260659293,15743.307187834507,167503.49095011575,0.0
385012.02908761695,3892225.878295721,-27500.0,67469.372183031082,-15370.434200006275,8939.2122135625777,-65842.988546499881,17315.812263381315,31891.163525341752,70878.670681954405,-15771.087316439753,47391.603881448813,-47391.603881448813,15771.087316439753,131237.76339489967,0.0
390012.02908761695,3892225.878295721,-27500.0,59948.74594791438,-11554.944633836352,4744.6174831670669,-50605.771995145522,11664.545740315585,22751.02058132278,55596.030356875322,-14085.92866042981,42998.599252031854,-42998.599252031854,14085.92866042981,104255.77278212344,0.0
395012.02908761695,3892225.878295721,-27500.0,52309.638198819019,-8536.2495266621154,2361.0107832501744,-39522.301609841277,7932.8190664290123,16962.132469550656,44351.401153743063,-12016.154419683424,37960.052341119015,-37960.052341119015,12016.154419683424,84096.258209407068,0.0
400012.02908761695,3892225.878295721,-27500.0,45377.502656978977,-6247.8661277600377,1018.5472163118391,-31350.718770049702,5442.9947730408412,13020.32415267256,35947.654691089745,-10047.173948308069,33148.736356890193,-33148.736356890193,10047.173948308069,68803.793943604163,0.0
405012.02908761695,3892225.878295721,-27500.0,39342.527117888967,-4544.3302879357361,279.52802716406023,-25201.365448466182,3762.5236023671832,10174.675044551455,29543.17014001001,-8330.8018191620358,28843.819317296686,-28843.819317296686,8330.8018191620358,56982.863562557017,0.0
410012.02908761695,3892225.878295721,-27500.0,34167.433504658846,-3285.8382314853775,-109.3816317604944,-20479.387605424668,2615.8625376487303,8038.4719128214647,24566.249982535057,-6889.9555111834943,25092.043782672707,-25092.043782672707,6889.9555111834943,47677.452351732558,0.0
415012.02908761695,3892225.878295721,-27500.0,29749.181476756894,-2358.7690105020356,-296.4192821099652,-16790.86304537686,1825.7216418836076,6397.0362989586301,20630.642000707263,-5701.2732376393415,21857.295159468071,-21857.295159468071,5701.2732376393415,40235.829507944909,0.0
420012.02908761695,3892225.878295721,-27500.0,25977.235498522845,-1676.2912025162964,-368.8118473671401,-13870.049508794829,1276.5132864447278,5118.9370256932825,17472.087576635979,-4728.1828273216424,19079.393144546324,-19079.393144546324,4728.1828273216424,34206.757257027719,0.0
425012.02908761695,3892225.878295721,-27500.0,22751.746745328779,-1173.7778738856446,-377.94052333768565,-11532.235182186494,891.88320329388625,4115.9759949654654,14905.795900322008,-3933.7226677909903,16695.965444572666,-16695.965444572666,3933.7226677909903,29269.98138824735,0.0
430012.02908761695,3892225.878295721,-27500.0,19987.307121389451,-803.6720462083822,-353.95851793321702,-9644.9185891541874,620.7714825661518,3324.860085679406,12799.23636890968,-3285.0174545245336,14649.809697109247,-14649.809697109247,3285.0174545245336,25191.984229538513,0.0
435012.02908761695,3892225.878295721,-27500.0,17612.160507256915,-531.13127789251701,-314.392449750982,-8110.3877194886445,428.6530077660575,2698.2938098728951,11055.008598931434,-2754.3883254917491,12890.827596376163,-12890.827596376163,2754.3883254917491,21798.238415773474,0.0
440012.02908761695,3892225.878295721,-27500.0,15566.287099241172,-330.64276362994713,-269.24510300477169,-6854.9723232345295,291.94372105931092,2200.1703220181521,9599.955946347638,-2319.1460149212398,11375.993227560157,-11375.993227560157,2319.1460149212398,18955.558265669468,0.0
445012.02908761695,3892225.878295721,-27500.0,13799.466065331548,-183.49906291677254,-224.04420457163516,-5822.1836644185596,194.38295147956399,1802.6379106604597,8378.1066747370114,-1960.9444680203974,10068.683386259741,-10068.683386259741,1960.9444680203974,16560.58335355109,0.0
450012.02908761695,3892225.878295721,-27500.0,12269.610743983259,-75.947678477114493,-181.67099164738147,-4968.1571186262781,124.66207465630197,1484.1083872388026,7345.9779540029276,-1665.0500604468725,8937.8642133716385,-8937.8642133716385,1665.0500604468725,14532.027764819952,0.0
455012.02908761695,3892225.878295721,-27500.0,10941.394127130752,2.1521932201675682,-143.45940016055457,-4258.5038270019013,74.853506412830953,1227.8068909591252,6469.3619329398634,-1419.665597836095,7957.301277284444,-7957.301277284444,1419.665597836095,12805.289944024431,0.0
250012.02908761695,3897225.878295721,-27500.0,9290.5148475974729,2961.2660628017934,363.95228044493541,3810.6231814325242,1005.481173627903,1147.6325684559035,6125.8121620122447,1352.9999795452595,6345.7246953030708,-6345.7246953030708,-1352.9999795452595,12091.522537869669,0.0
255012.02908761695,3897225.878295721,-27500.0,10307.396556940341,3416.8395232099333,426.71665764502507,4416.0670770419192,1190.4656731210614,1382.060616705525,6936.8049456907975,1618.5948707860011,7018.4422571108171,-7018.4422571108171,-1618.5948707860011,13670.479776686596,0.0
260012.02908761695,3897225.878295721,-27500.0,11451.032630387906,3960.3294698927211,510.11518099111942,5136.0913326624132,1416.1677154154584,1671.8534058719761,7884.0690802360186,1949.1973839518446,7767.2419731057234,-7767.2419731057234,-1949.1973839518446,15509.685760151357,0.0
265012.02908761695,3897225.878295721,-27500.0,12734.425247997515,4611.6938638168631,622.73071072398773,5994.8040304404012,1692.6358858986553,2031.3894876086104,8994.6148663771601,2363.7740801286177,8596.5024432484588,-8596.5024432484588,-2363.7740801286177,17658.636838629056,0.0
270012.02908761695,3897225.878295721,-27500.0,14169.166322501938,5395.9410336475594,777.15331995818792,7021.4877989923662,2032.497780043333,2478.9341713724039,10301.429883138824,2887.7164761905033,9507.6315912716127,-9507.6315912716127,-2887.7164761905033,20176.653646344945,0.0
275012.02908761695,3897225.878295721,-27500.0,15763.16040207118,6344.44969035335,992.0305213374362,8251.5102474593041,2451.5585577223455,3037.6533525421046,11844.83976469249,3555.3206407713005,10496.545388641547,-10496.545388641547,-3555.3206407713005,23134.465586916194,0.0
280012.02908761695,3897225.878295721,-27500.0,17516.711153180073,7496.5483298859936,1295.2444387454777,9727.1827400158236,2969.4555467934347,3736.853615137622,13674.09702228131,4413.3045922138554,11549.532022946543,-11549.532022946543,-4413.3045922138554,26615.651734389856,0.0
285012.02908761695,3897225.878295721,-27500.0,19415.794007386805,8901.2515967523705,1728.8679441508891,11498.258805874513,3610.2793743600782,4613.4587410344066,15849.049161119299,5525.789875627911,12636.428124245831,-12636.428124245831,-5525.789875627911,30717.384843670054,0.0
290012.02908761695,3897225.878295721,-27500.0,21420.579421162191,10618.749206290107,2356.8847330329222,13621.415541673128,4402.920608248618,5713.7010387202045,18441.483574409667,6981.2074477265542,13699.402406827807,-13699.402406827807,-6981.2074477265542,35549.386317336925,0.0
295012.02908761695,3897225.878295721,-27500.0,23445.872771209,12720.454426754257,3277.059678009397,16157.183265677351,5380.5076507413632,7094.8136855850789,21535.013601482999,8901.3486652181291,14634.576278110277,-14634.576278110277,-8901.3486652181291,41228.629417998854,0.0
300012.02908761695,3897225.878295721,-27500.0,25328.2174405892,15284.53086873525,4638.5297257250586,19160.938832817785,6577.2435211282773,8825.9080544125409,25220.757445738564,11451.60047006344,15262.469553236821,-15262.469553236821,-11451.60047006344,47864.575048225583,0.0
305012.02908761695,3897225.878295721,-27500.0,26772.585341788523,18379.45192782881,6665.4133316478365,22660.796525150803,8017.9927016932552,10985.271113100538,29582.416559594411,14847.415796620387,15282.875896489995,-15282.875896489995,-14847.415796620387,55523.975829226554,0.0
310012.02908761695,3897225.878295721,-27500.0,27273.853820638018,22019.457234212539,9680.2139299271948,26608.512904463329,9687.8514999122272,13645.587412130288,34656.773350642165,19341.23214241978,14214.650409846947,-14214.650409846947,-19341.23214241978,64153.462619419755,0.0
315012.02908761695,3897225.878295721,-27500.0,26028.882330465723,26063.171011432984,14098.157019117811,30782.140926237189,11447.768177921736,16823.35369299418,40342.047457654378,25149.09394310262,11344.961418263687,-11344.961418263687,-25149.09394310262,73422.726513790098,0.0
320012.02908761695,3897225.878295721,-27500.0,21932.352972140343,30031.604437159545,20302.855824632767,34631.549064426741,12814.873480277496,20334.608293506164,46213.227001538267,32238.173916525942,5788.3149188733532,-5788.3149188733532,-32238.173916525942,82455.999433501303,0.0
325012.02908761695,3897225.878295721,-27500.0,13938.603410537016,32951.814846314519,28210.005955016335,37176.915723147431,12460.073886698934,23451.397796764988,51249.980704119349,39923.998500372341,-3089.1482568791653,3089.1482568791653,-39923.998500372341,89599.113201269487,0.0
330012.02908761695,3897225.878295721,-27500.0,2213.6110919956332,33880.85172891408,36420.305772196276,37518.042092150026,7380.2106878118575,24326.659587934479,53915.088772451505,46708.648576976171,-14623.078128064677,14623.078128064677,-46708.648576976171,93448.487920798565,0.0
335012.02908761695,3897225.878295721,-27500.0,-10703.091394501118,34678.377005775059,42270.040203518802,37293.429484419736,-7256.0027412286654,19954.087337654448,55448.154735349104,52438.702551485803,-26380.664988270386,26380.664988270386,-52438.702551485803,100300.18138791321,0.0
340012.02908761695,3897225.878295721,-27500.0,-24470.356783469673,44617.799895337841,47574.239815613619,45132.24412092616,-34038.108235754626,10004.504225162575,76264.500687209802,65699.862584692644,-39955.11015538506,39955.11015538506,-65699.862584692644,139477.57348044703,0.0
345012.02908761695,3897225.878295721,-27500.0,-61880.453118370759,76872.904432094481,73140.851707767433,70930.733952008726,-62083.859288815758,9282.9006846737539,133725.35443620523,111338.57635472571,-80579.567403484791,80579.567403484791,-111338.57635472571,240980.20854860498,0.0
350012.02908761695,3897225.878295721,-27500.0,-173349.02768042419,120520.48351038362,158008.60637613852,65098.42575161712,-63489.407995124158,25868.997483666895,222550.95876870037,208468.26504880289,-197376.92006472882,197376.92006472882,-208468.26504880289,389685.74575356231,0.0
355012.02908761695,3897225.878295721,-27500.0,-227420.46385248177,130767.38416937177,229729.72866419837,7567.5263876731706,19059.299211018835,-2937.9929615980936,264119.7820584079,262789.030250563,-262697.06148752006,262697.06148752006,-262789.030250563,457513.2487530355,0.0
360012.02908761695,3897225.878295721,-27500.0,-160473.55685852721,49511.443999424497,170030.54644240817,-50218.790140697973,62462.355278907155,126519.99876642232,197062.05940466566,154170.09405835671,-182145.58425974939,182145.58425974939,-154170.09405835671,351241.06096143089,0.0
365012.02908761695,3897225.878295721,-27500.0,-42779.268546409148,25607.569391178666,97379.897482883389,-130700.87957573717,27986.912209354196,165228.48435014664,170776.54768746841,82177.632090694271,-70627.769224416144,70627.769224416144,-82177.632090694271,298869.24946290709,0.0
370012.02908761695,3897225.878295721,-27500.0,38783.239365567781,15857.728198578581,48178.993480656623,-139300.35297155386,17233.598035016577,119710.80042203276,147349.68941271008,37258.881838153524,6633.4168503408182,-6633.4168503408182,-37258.881838153524,256390.97725480623,0.0
375012.02908761695,3897225.878295721,-27500.0,69356.445780780239,8553.5776501779437,23271.956980036615,-115205.45508909714,12344.738392154868,76178.67800778411,116857.95759583489,13200.246882052323,38994.104413060653,-38994.104413060653,-13200.246882052323,207312.03887345653,0.0
380012.02908761695,3897225.878295721,-27500.0,73955.85641864936,4699.946007203489,11214.329083151062,-88352.758165118124,8532.7563024193587,48548.729906514374,90372.525591027312,2271.0043698146765,47601.593408927904,-47601.593408927904,-2271.0043698146765,163374.60421170114,0.0
385012.02908761695,3897225.878295721,-27500.0,68616.484731591961,2967.0063068417412,5216.1596010398089,-66798.824047452916,5600.882006829107,32436.464501173923,69978.28843328348,-2192.036516772805,46460.761543866785,-46460.761543866785,2192.036516772805,128613.90960584416,0.0
390012.02908761695,3897225.878295721,-27500.0,60506.643924013595,2254.0548313219724,2162.0496172508592,-50957.328198785915,3503.5826465313426,22902.908343130734,54861.739015954481,-3721.0530807431605,42019.104354959767,-42019.104354959767,3721.0530807431605,102304.31746842206,0.0
395012.02908761695,3897225.878295721,-27500.0,52383.130995309548,1974.070400508042,605.02025151140265,-39509.485797904235,2079.0479127012668,16921.842107137109,43702.666087894759,-3981.381508588056,36899.940248635146,-36899.940248635146,3981.381508588056,82522.807787851139,0.0
400012.02908761695,3897225.878295721,-27500.0,45127.048916707383,1854.0322966090118,-165.29094468323353,-31146.755830150199,1145.1356575316108,12899.829694636588,35367.61746683238,-3730.4695248198113,32058.151940547745,-32058.151940547745,3730.4695248198113,67490.377489206541,0.0
405012.02908761695,3897225.878295721,-27500.0,38901.978946736104,1778.3306212051041,-515.66171625673576,-24912.756558522437,549.30442943718083,10030.704433311454,29028.05580878754,-3305.5909008222261,27775.709521045632,-27775.709521045632,3305.5909008222261,55871.211430482777,0.0
410012.02908761695,3897225.878295721,-27500.0,33631.334075527928,1703.9362767543694,-642.37087266901847,-20166.540959715116,178.7509439279608,7897.6066671555109,24112.814325277923,-2852.3480558566589,24083.196008318919,-24083.196008318919,2852.3480558566589,46731.098551583214,0.0
415012.02908761695,3897225.878295721,-27500.0,29179.03782666476,1618.9802960533361,-652.72443412251403,-16485.768908550985,-44.849245938500147,6270.3082265687881,20234.1445792251,-2429.5667758763029,20928.107036737558,-20928.107036737558,2429.5667758763029,39427.746725215875,0.0
420012.02908761695,3897225.878295721,-27500.0,25410.705773937148,1523.6660960406271,-605.88889006387149,-13588.089938594678,-174.03648593483194,5009.6930322228,17126.718879008084,-2057.2206089195033,18238.093132114001,-18238.093132114001,2057.2206089195033,33515.127111682086,0.0
425012.02908761695,3897225.878295721,-27500.0,22210.45623885742,1421.9264037878859,-534.37339903563054,-11279.474648275585,-243.35638607843347,4023.9897575134946,14605.422822030761,-1738.3807038083396,15942.919277709385,-15942.919277709385,1738.3807038083396,28676.640190388105,0.0
430012.02908761695,3897225.878295721,-27500.0,19482.53731283894,1318.061619751046,-455.72371658249068,-9422.4055733374698,-275.25240591426268,3248.4165976521745,12537.930848127262,-1469.236546531929,13980.794068084922,-13980.794068084922,1469.236546531929,24681.675858756418,0.0
435012.02908761695,3897225.878295721,-27500.0,17148.739266406912,1215.5844316160278,-379.04827000377435,-7916.6354073393823,-284.19023838212831,2635.2149233121845,10827.345087591315,-1243.6400267117333,12299.255531134595,-12299.255531134595,1243.6400267117333,21358.144371949176,0.0
440012.02908761695,3897225.878295721,-27500.0,15145.136154379272,1116.98326586286,-308.71357504852256,-6687.3482259767943,-279.43454303328991,2148.2906038502229,9401.1301509995392,-1055.1045825095316,10854.312267198859,-10854.312267198859,1055.1045825095316,18574.909215287778,0.0
445012.02908761695,3897225.878295721,-27500.0,13419.25612935523,1023.8320217010136,-246.45569792306168,-5677.6760380707474,-266.8805066756733,1760.005850628206,8203.9638479352398,-897.6265001677466,9609.2206701971154,-9609.2206701971154,897.6265001677466,16230.349028821647,0.0
450012.02908761695,3897225.878295721,-27500.0,11927.803087065042,936.99216056456282,-192.59230650220897,-4843.7750310891033,-250.2474468489371,1449.0496919137163,7192.9810375146517,-765.96580976844643,8533.2964120636479,-8533.2964120636479,765.96580976844643,14244.642037205798,0.0
455012.02908761695,3897225.878295721,-27500.0,10634.880111732657,856.812724855243,-146.71387160041675,-4151.4695633875963,-231.85265038115773,1198.9236253394026,6334.5285329711096,-655.68403773720138,7600.8865992650335,-7600.8865992650335,655.68403773720138,12554.407260079988,0.0
250012.02908761695,3902225.878295721,-27500.0,10328.628252864486,2247.6799068481018,77.046425457193976,4170.6173474828047,736.64432598382371,1242.7395685177949,6455.2774730630117,453.15850734500373,7316.6660485901612,-7316.6660485901612,-453.15850734500373,12785.532780584643,0.0
255012.02908761695,3902225.878295721,-27500.0,11548.491987975796,2580.8075971600438,77.0082490334878,4862.3229810313469,864.44623511869952,1504.1874220928653,7333.4067315248813,553.35083422255548,8179.181961505994,-8179.181961505994,-553.35083422255548,14505.515387087436,0.0
260012.02908761695,3902225.878295721,-27500.0,12944.531415575735,2977.0740021402889,81.164221202323802,5693.5703458431753,1018.6746942801826,1829.9283945793795,8365.7851748904395,681.83122308061957,9163.6978423450419,-9163.6978423450419,-681.83122308061957,16522.155703872559,0.0
265012.02908761695,3902225.878295721,-27500.0,14544.211398213396,3451.0289052283265,93.154781705203874,6696.988521716009,1205.3728283721819,2237.6985321125098,9585.3360012271278,848.27610427164564,10287.824651895135,-10287.824651895135,-848.27610427164564,18896.500213994852,0.0
270012.02908761695,3902225.878295721,-27500.0,16378.562947249571,4021.2303055427578,118.99807511687681,7913.7819654670111,1431.9783516814612,2750.5458995722229,11033.328496471991,1066.3060364892581,11570.621426138168,-11570.621426138168,-1066.3060364892581,21703.849237363102,0.0
275012.02908761695,3902225.878295721,-27500.0,18481.878338623439,4711.5836882081958,168.59775073312525,9396.23482115773,1707.6019715612804,3398.5385755283019,12761.857002152976,1355.394453015002,13031.733033141421,-13031.733033141421,-1355.394453015002,25037.380324058311,0.0
280012.02908761695,3902225.878295721,-27500.0,20890.623443823843,5553.2190660864726,258.24804348842173,11211.046960413469,2043.3375788279093,4221.1083510888284,14837.169744862085,1743.8449868978387,14689.561715302927,-14689.561715302927,-1743.8449868978387,29012.740101017665,0.0
285012.02908761695,3902225.878295721,-27500.0,23640.728154049088,6587.1454739964747,414.85132137454633,13443.765992665158,2452.6124318071033,5270.3536074336253,17344.105983636662,2273.5258068139929,16557.589605014069,-16557.589605014069,-2273.5258068139929,33773.745290463106,0.0
290012.02908761695,3902225.878295721,-27500.0,26761.647005747993,7867.9498038232059,683.09634647179985,16204.631198483783,2951.6038522954063,6615.8987054249274,20391.934258655983,3007.4569559940037,18637.226041398495,-18637.226041398495,-3007.4569559940037,39499.241467844979,0.0
295012.02908761695,3902225.878295721,-27500.0,30263.820080111793,9468.6562175653944,1137.812371739863,19635.91436688754,3559.7588289023643,8352.3749857834064,24121.625857987136,4041.9742004564105,20903.957781249115,-20903.957781249115,-4041.9742004564105,46410.475455023341,0.0
300012.02908761695,3902225.878295721,-27500.0,34112.687628212239,11486.026898729788,1905.3629215999938,23919.866432585768,4300.3242489691365,10611.379063065009,28713.648114723335,5525.8531367250052,23280.584890803446,-23280.584890803446,-5525.8531367250052,54776.398486898666,0.0
305012.02908761695,3902225.878295721,-27500.0,38175.549323922212,14042.473246463042,3200.5024774856661,29283.099665175621,5199.8074919420224,13580.688985842358,34392.283379067347,7688.5182724885181,25585.822668082204,-25585.822668082204,-7688.5182724885181,64908.717449574258,0.0
310012.02908761695,3902225.878295721,-27500.0,42115.660437008759,17271.24606908832,5387.7547092601098,35983.824757900984,6280.7198062013204,17533.035450573152,41413.885260885014,10874.716410664574,27438.101074066792,-27438.101074066792,-10874.716410664574,77124.012189062894,0.0
315012.02908761695,3902225.878295721,-27500.0,45194.087801524394,21245.546950063188,9072.7800190044618,44244.676094954251,7523.6737935669325,22858.106994373607,50004.541648418264,15561.818280790891,28088.537104764415,-28088.537104764415,-15561.818280790891,91616.32476309927,0.0
320012.02908761695,3902225.878295721,-27500.0,45956.662310968917,25755.1550653472,15190.699970368933,54047.396836490479,8710.2007952898657,30051.412284069433,60165.634977652458,22267.043750767811,26188.788481885847,-26188.788481885847,-22267.043750767811,108125.53463091991,0.0
325012.02908761695,3902225.878295721,-27500.0,41975.04901911028,29783.94106837485,24891.382831691441,64681.258439658021,8862.5668844947922,39482.901019052653,71214.564643795835,31098.504046958566,19699.721602870915,-19699.721602870915,-31098.504046958566,125313.07880499912,0.0
330012.02908761695,3902225.878295721,-27500.0,30489.572725828471,30957.637223482732,38628.238742155103,74321.331064678117,4628.1850250675207,50530.304780390186,81235.719865089763,40751.790299339511,6715.6813059316737,-6715.6813059316737,-40751.790299339511,140766.22802302687,0.0
335012.02908761695,3902225.878295721,-27500.0,10826.055607083774,27816.573191012991,54578.861498677164,81893.110204189841,-12385.052093147808,60260.732380979993,89832.426198927918,49262.239532791165,-12578.946645088283,12578.946645088283,-49262.239532791165,158417.44774170159,0.0
340012.02908761695,3902225.878295721,-27500.0,-21048.40319335298,29706.820554836486,75028.172208020027,93437.524015781106,-52338.166669228885,67390.688935908838,119212.62498821288,66287.046215967945,-43328.96467745235,43328.96467745235,-66287.046215967945,213570.37615277173,0.0
345012.02908761695,3902225.878295721,-27500.0,-104936.17862473323,57481.089542339403,128072.35532107824,103344.73236071919,-106304.82709724495,85397.533924804608,199133.02871239113,129740.21040179342,-127263.37948771837,127263.37948771837,-129740.21040179342,349321.19400404295,0.0
350012.02908761695,3902225.878295721,-27500.0,-248423.3232842127,132426.49104145577,231748.11166852165,7857.2493778139815,-78911.748919231046,55927.363150007346,287236.56447626662,269502.69226276601,-280459.29959884245,280459.29959884245,-269502.69226276601,498528.00271205278,0.0
355012.02908761695,3902225.878295721,-27500.0,-190490.21888662776,108646.53643988687,213955.89245380237,-27544.499108073123,92838.815809531705,-83665.181237098383,248631.15874380292,230568.6198527964,-226799.04422190526,226799.04422190526,-230568.6198527964,441960.08832621452,0.0
360012.02908761695,3902225.878295721,-27500.0,-127926.50218898077,30744.358883606143,127962.49792287432,-33430.154169217756,69283.440856079425,49492.977400381045,154999.13086851645,111019.6949717091,-140882.78004750758,140882.78004750758,-111019.6949717091,268600.2919710179,0.0
365012.02908761695,3902225.878295721,-27500.0,-50796.835981068471,26866.339129852153,84144.046316771724,-84417.381156348143,11977.871080889921,102148.7396483511,116345.91875241438,76304.445043882835,-71340.191614657568,71340.191614657568,-76304.445043882835,211984.6016729745,0.0
370012.02908761695,3902225.878295721,-27500.0,12380.122489467141,32943.602340807673,51050.128391123202,-101394.91164308005,-6841.5442605505204,87903.438086766808,113310.34068337083,56137.247676690939,-15675.151289336409,15675.151289336409,-56137.247676690939,196259.26935022033,0.0
375012.02908761695,3902225.878295721,-27500.0,45666.923830219646,30344.123037820413,28220.646910820633,-91901.205772158326,-8458.2999990099161,61781.526363857578,97247.743082533139,37132.543061896133,16934.765743450291,-16934.765743450291,-37132.543061896133,170761.86226428335,0.0
380012.02908761695,3902225.878295721,-27500.0,56632.511288237321,24475.764754805223,14988.947451434802,-74565.296515471418,-6787.7063085676618,41707.216965058971,78819.640001644584,23190.367901102778,30744.235605897084,-30744.235605897084,-23190.367901102778,141247.18318552544,0.0
385012.02908761695,3902225.878295721,-27500.0,56376.423210224209,19016.44621535264,7813.1431216106084,-58343.82070308023,-5266.5831150430704,28811.791346426005,62826.701100864673,14342.349805378364,34221.113154834944,-34221.113154834944,-14342.349805378364,114715.57340142352,0.0
390012.02908761695,3902225.878295721,-27500.0,51732.249743432687,14805.863895616574,3976.8979595605151,-45479.573686662065,-4230.2300561378688,20743.360442288144,50191.349568687539,9006.5995573363543,33085.933287498381,-33085.933287498381,-9006.5995573363543,93153.098705217766,0.0
395012.02908761695,3902225.878295721,-27500.0,45918.227170184473,11709.357315985313,1925.8579012706132,-35769.30637931286,-3509.8364053702189,15509.06135927912,40499.761674801564,5805.8003476877984,30242.788252782957,-30242.788252782957,-5805.8003476877984,76216.064614382456,0.0
400012.02908761695,3902225.878295721,-27500.0,40230.336724266577,9428.55186848427,832.6883049040448,-28481.8987077729,-2963.6419907513628,11916.981391586754,33078.527627395146,3853.6423694990099,26983.389677247018,-26983.389677247018,-3853.6423694990099,62968.556651383733,0.0
405012.02908761695,3902225.878295721,-27500.0,35104.159459441056,7715.8785103633463,259.63978296834694,-22952.147462723045,-2519.3004569140503,9321.444086299216,27336.477005950183,2631.3882092680487,23828.752864981514,-23828.752864981514,-2631.3882092680487,52521.907978981813,0.0
410012.02908761695,3902225.878295721,-27500.0,30628.878876308449,6399.5109275049508,-28.346088838291351,-18689.469505932258,-2144.7049365468956,7374.5786787645638,22829.029916866162,1843.4800961667388,20961.889239862983,-20961.889239862983,-1843.4800961667388,44184.442024832359,0.0
415012.02908761695,3902225.878295721,-27500.0,26768.879498109669,5365.7218913398701,-159.8651867048203,-15352.990025708048,-1825.2765283653575,5879.2596100744058,19238.775573473205,1320.9279561427084,18425.907879416212,-18425.907879416212,-1320.9279561427084,37450.140113060806,0.0
420012.02908761695,3902225.878295721,-27500.0,23452.060768085579,4539.143763513468,-206.38774705260937,-12707.195196997916,-1552.8875840789749,4714.386313844856,16341.305212405314,965.28551409532793,16209.484445851383,-16209.484445851383,-965.28551409532793,31952.818512850921,0.0
425012.02908761695,3902225.878295721,-27500.0,20602.483738874413,3868.6736427425199,-208.0423131173832,-10586.621819287016,-1321.4901843989032,3799.1308288507598,13976.416149627894,717.67761409199193,14282.499889462217,-14282.499889462217,-717.67761409199193,27424.67230256219,0.0
430012.02908761695,3902225.878295721,-27500.0,18151.008981716492,3318.56950472776,-187.42387864235005,-8872.133595551004,-1125.7212151468796,3075.9045174444595,12027.637858511434,541.86591153028621,12610.427098025997,-12610.427098025997,-541.86591153028621,23666.174645459549,0.0
435012.02908761695,3902225.878295721,-27500.0,16037.776761649055,2863.023945099214,-157.1784824487616,-7475.8221864742954,-960.60845211643982,2501.9021087534979,10408.549148898474,414.8945882295011,11159.896946749424,-11159.896946749424,-414.8945882295011,20525.748951029338,0.0
440012.02908761695,3902225.878295721,-27500.0,14211.929398488037,2482.8687841559467,-124.25247426316095,-6331.4451299087623,-821.59937439939972,2044.5375001066886,9053.7815884928168,321.82954443087601,9900.6595528832549,-9900.6595528832549,-321.82954443087601,17886.256573647435,0.0
445012.02908761695,3902225.878295721,-27500.0,12630.534151909453,2163.5273118225114,-92.316043208337845,-5388.2382770638824,-704.62898600534788,1678.6926762443447,7913.0455903629681,252.71952215549936,8806.0734514043015,-8806.0734514043015,-252.71952215549936,15655.877581341574,0.0
450012.02908761695,3902225.878295721,-27500.0,11257.406279844974,1893.7045094438265,-63.162790056356187,-4606.7891031601484,-606.15163978713235,1384.8843401009301,6947.0933661235667,200.79291635092977,7853.0152634963806,-7853.0152634963806,-200.79291635092977,13761.814352244553,0.0
250012.02908761695,3907225.878295721,-27500.0,11115.865161226116,1401.8130362777442,-108.35092752497832,4444.89409762167,424.16430808062051,1315.6772838513953,6727.9873893457452,-468.36223202135125,8087.4157038701996,-8087.4157038701996,468.36223202135125,13331.673520485258,0.0
255012.02908761695,3907225.878295721,-27500.0,12481.833472634919,1578.309021770137,-147.03704995958455,5199.5737052834693,481.87775981781874,1597.1078227180856,7658.1281781938405,-541.28643972938426,9094.4636796184968,-9094.4636796184968,541.28643972938426,15158.506820412791,0.0
260012.02908761695,3907225.878295721,-27500.0,14058.063530967065,1782.4255290391047,-191.25953043645234,6111.325356784926,547.20213560349305,1949.1883437123765,8756.1208462646919,-625.86092098100744,10257.347764275377,-10257.347764275377,625.86092098100744,17308.931140776385,0.0
265012.02908761695,3907225.878295721,-27500.0,15881.750448331932,2019.2936170530606,-240.24439398479933,7218.575420970049,620.32680239429737,2391.9457601390668,10059.264441891968,-723.26105648729299,11603.27010274366,-11603.27010274366,723.26105648729299,19852.494455357253,0.0
270012.02908761695,3907225.878295721,-27500.0,17997.040169382355,2295.2565328248766,-291.80611437108092,8570.6031046947228,700.77816300188385,2951.6453947599389,11614.936765560884,-834.0763908188801,13164.139642076898,-13164.139642076898,834.0763908188801,22876.330136055356,0.0
275012.02908761695,3907225.878295721,-27500.0,20456.170778737818,2618.3431567140988,-341.20584180234772,10231.132331226663,786.90077602470922,3662.9308303801222,13483.925358226637,-957.53775616853545,14977.040406682387,-14977.040406682387,957.53775616853545,26490.403052137288,0.0
280012.02908761695,3907225.878295721,-27500.0,23320.579349556469,2999.0555021431001,-379.16216962929406,12283.404308559117,875.04116464695664,4571.8541140317575,15745.129577810703,-1090.0561284830728,17084.377906063422,-17084.377906063422,1090.0561284830728,30834.698980111934,0.0
285012.02908761695,3907225.878295721,-27500.0,26661.58919289818,3451.7469292669575,-388.3560982766308,14837.488221786694,958.31510811934788,5740.3372285202395,18502.293891406356,-1222.4548526503295,19533.177571277985,-19533.177571277985,1222.4548526503295,36089.216495771514,0.0
290012.02908761695,3907225.878295721,-27500.0,30559.747648110417,3997.0847237895132,-337.22360191172163,18041.061858093155,1024.8440552388081,7253.127033562957,21893.798278081566,-1334.7410347451932,22372.406432733427,-22372.406432733427,1334.7410347451932,42488.093904234571,0.0
295012.02908761695,3907225.878295721,-27500.0,35100.412682569346,4666.4500476347857,-168.75005135361789,22095.519138940879,1055.428655047783,9229.3835576677484,26106.942407664377,-1386.2045919675766,25645.713620632712,-25645.713620632712,1386.2045919675766,50339.640510933648,0.0
300012.02908761695,3907225.878295721,-27500.0,40359.641955803738,5509.6354108426931,220.18492213630728,27279.882886228905,1020.9153572150005,11843.299135274807,31398.455370195836,-1296.5998098622749,29373.609352875828,-29373.609352875828,1296.5998098622749,60054.128782738473,0.0
305012.02908761695,3907225.878295721,-27500.0,46365.675809368753,6607.4154966959113,1017.845928990167,33984.497327250108,880.04747280925108,15362.641325681467,38122.188813830791,-910.42461556264789,33511.151025780026,-33511.151025780026,910.42461556264789,72179.144727361781,0.0
310012.02908761695,3907225.878295721,-27500.0,53000.200655920904,8088.7714011007583,2573.431678978553,42750.669534048073,579.02147720948437,20222.154842866265,46760.18460501152,70.140287794372853,37848.7316565605,-37848.7316565605,-70.140287794372853,87432.934731857415,0.0
315012.02908761695,3907225.878295721,-27500.0,59754.158430904376,10141.170243190743,5547.2398964374479,54286.827607036561,50.494966890397862,27159.052951527829,57935.269529924917,2205.9750330731658,41781.976848521736,-41781.976848521736,-2205.9750330731658,106694.27021498658,0.0
320012.02908761695,3907225.878295721,-27500.0,65150.06076258012,12954.304140989241,11204.639586360019,69341.780427205638,-818.24573622201183,37430.919248719649,72326.620016615139,6510.5031419798797,43795.466412397494,-43795.466412397494,-6510.5031419798797,130818.3343899755,0.0
325012.02908761695,3907225.878295721,-27500.0,65511.921078525287,16371.650699124568,21919.126683753893,88045.206169755082,-2435.0122303501726,53002.505740404325,90257.335343660205,14606.897444886694,40426.692864840967,-40426.692864840967,-14606.897444886694,159966.41055660805,0.0
330012.02908761695,3907225.878295721,-27500.0,53164.051560897002,18717.758831662413,41518.357784659129,107803.49660119097,-6880.5101392582446,75875.10914288176,110536.46556522723,28233.793832934814,24936.352380639382,-24936.352380639382,-28233.793832934814,192285.64617946799,0.0
335012.02908761695,3907225.878295721,-27500.0,17495.247143209435,16224.233785470016,73112.497768776302,120122.90297151862,-23087.624837526706,103801.83952093947,130479.28852739076,47619.433654003675,-11259.306922198859,11259.306922198859,-47619.433654003675,226758.23927411859,0.0
340012.02908761695,3907225.878295721,-27500.0,-51524.485301344917,20448.107489090602,116976.76918859249,116816.71552742364,-67845.077538354744,126411.75321377073,166874.73956996549,84481.122855116351,-77833.59576231087,77833.59576231087,-84481.122855116351,293382.29726864991,0.0
345012.02908761695,3907225.878295721,-27500.0,-193663.97468381366,77750.436301802401,198380.50116334559,52651.642823731097,-100520.63876690023,123964.63256365583,247323.46396937908,197354.38474991993,-220009.58693339094,220009.58693339094,-197354.38474991993,432235.3945567577,0.0
350012.02908761695,3907225.878295721,-27500.0,-228138.9947077629,153092.24177390573,229004.9158420907,-67487.755886918851,19099.46335207457,-51654.887705857553,285215.99496341962,283315.55991075543,-268332.5571681853,268332.5571681853,-283315.55991075543,494488.0420307162,0.0
355012.02908761695,3907225.878295721,-27500.0,-128668.23230957374,71690.998188087295,108615.94327554831,-36180.207672242825,146611.09331294175,-85678.579819590392,205431.71417914273,134383.06795032287,-140191.83815811906,140191.83815811906,-134383.06795032287,363017.0573775082,0.0
360012.02908761695,3907225.878295721,-27500.0,-89823.184916535625,10810.153265938883,70333.2510272527,-15173.473972309903,81162.819387021911,-6355.1774357600661,110057.19493651559,57739.678843399117,-90077.445710184737,90077.445710184737,-57739.678843399117,200131.31834920926,0.0
365012.02908761695,3907225.878295721,-27500.0,-53783.567220499324,18074.549157495683,62988.232045845631,-37929.332370962285,15346.842315230831,40301.459027086705,70796.037064588163,56745.964263572583,-63896.043200829467,63896.043200829467,-56745.964263572583,132301.60588656209,0.0
370012.02908761695,3907225.878295721,-27500.0,-14335.627284435077,31825.427146176367,49753.277721274266,-55168.311255734152,-10953.766530229514,47403.303737399081,73455.808709199337,56922.747865353471,-33524.165975855904,33524.165975855904,-56922.747865353471,128419.07571023871,0.0
375012.02908761695,3907225.878295721,-27500.0,14568.44281666196,35734.895614274195,34327.960618282879,-57666.315625519353,-16297.344793076751,39411.384872914437,70627.532308625741,48316.168447378543,-7951.6487108874862,7951.6487108874862,-48316.168447378543,122966.2403549295,0.0
380012.02908761695,3907225.878295721,-27500.0,30018.208827398172,32833.342845322244,22053.852505170409,-51745.691451234416,-14795.970542416713,29686.169750956913,61599.237518499918,37094.661373855924,8074.6416197875769,-8074.6416197875769,-37094.661373855924,109474.17017465207,0.0
385012.02908761695,3907225.878295721,-27500.0,35859.751762264386,27710.404569879873,13809.012163556765,-43454.110959569967,-12052.6857301988,22078.580096361602,51629.369703283621,27337.236847732413,16138.748087665879,-16138.748087665879,-27337.236847732413,93682.716248180528,0.0
390012.02908761695,3907225.878295721,-27500.0,36412.660231744769,22653.432231648589,8633.6514799142915,-35620.459334363637,-9597.7289027619972,16712.520191704698,42740.676333981515,19989.598143030031,19279.486528413203,-19279.486528413203,-19989.598143030031,78961.085527710995,0.0
395012.02908761695,3907225.878295721,-27500.0,34502.04687913166,18376.349883272407,5452.0856667332664,-29061.034095171046,-7655.6888510992303,12935.01755164628,35393.736164082889,14731.758315322786,19791.395607698953,-19791.395607698953,-14731.758315322786,66370.521796338973,0.0
400012.02908761695,3907225.878295721,-27500.0,31637.689321297588,14945.186592005077,3496.1822388161136,-23784.569420399042,-6149.6853453041003,10187.519565083276,29473.349654613601,11008.86475568893,19027.314287232821,-19027.314287232821,-11008.86475568893,55938.028417334004,0.0
405012.02908761695,3907225.878295721,-27500.0,28546.05592035285,12233.629112561639,2283.5019688294892,-19577.017338623518,-4974.212679919573,8116.6906552485489,24720.456723938507,8353.42793243907,17706.612887102739,-17706.612887102739,-8353.42793243907,47366.081118224327,0.0
410012.02908761695,3907225.878295721,-27500.0,25551.179144873069,10090.030798299395,1523.1396222136386,-16210.935428338811,-4047.0951150061073,6514.0854109630245,20884.826499946761,6432.0294699634433,16193.884338438846,-16193.884338438846,-6432.0294699634433,40314.761118331335,0.0
415012.02908761695,3907225.878295721,-27500.0,22784.145347969879,8384.8870561472668,1040.8931535904583,-13499.543469036735,-3309.5996599293817,5253.5724684096822,17763.764768869143,5019.1883605070161,14668.697637782478,-14668.697637782478,-5019.1883605070161,34487.834063898823,0.0
420012.02908761695,3907225.878295721,-27500.0,20286.754483603087,7017.6527198303711,731.72142368732398,-11299.901672847951,-2719.3219500306673,4253.1778603923003,15202.130384928689,3964.005980875052,13216.363418272307,-13216.363418272307,-3964.005980875052,29646.713047342535,0.0
425012.02908761695,3907225.878295721,-27500.0,18060.552453586497,5912.4611579564344,531.5128269696387,-9504.0452156019928,-2244.688386182127,3455.3142731253997,13082.78361643364,3164.6796605420868,11874.227626346958,-11874.227626346958,-3164.6796605420868,25603.369090509525,0.0
430012.02908761695,3907225.878295721,-27500.0,16089.611117049275,5012.2424089609394,400.61421811626116,-8029.7652349719756,-1861.5487606611537,2817.0467572248372,11316.838225092284,2551.4364797314884,10655.036438990033,-10655.036438990033,-2551.4364797314884,22209.627861538956,0.0
435012.02908761695,3907225.878295721,-27500.0,14351.212665320709,4273.7934290526255,314.18798801084034,-6813.6208190631114,-1551.1165444081487,2305.2250473911768,9836.0755969179627,2075.5947468890904,9558.9413939747647,-9558.9413939747647,-2075.5947468890904,19347.975564663928,0.0
440012.02908761695,3907225.878295721,-27500.0,12820.865066451357,3664.088003832424,256.49797465299821,-5806.0104066986669,-1298.6420588261692,1893.8142758292629,8587.4430251789599,1702.5845313145205,8579.7887379034455,-8579.7887379034455,-1702.5845313145205,16924.467165988448,0.0
445012.02908761695,3907225.878295721,-27500.0,11474.656329990819,3157.6230723691806,217.47822193324805,-4967.7353302450574,-1092.4909282725507,1562.2323516133015,7529.1610486461423,1407.4593277988538,7708.4955515803467,-7708.4955515803467,-1407.4593277988538,14863.439322616761,0.0
450012.02908761695,3907225.878295721,-27500.0,10290.33747743266,2734.5212250464101,190.63737422528305,-4267.5713396431011,-923.46588617576469,1294.1835098641968,6627.9744712334532,1171.9575849259099,6934.9042548410871,-6934.9042548410871,-1171.9575849259099,13103.585515595078,0.0
250012.02908761695,3912225.878295721,-27500.0,11612.351970151853,473.29764463941484,-171.23666926403661,4620.6822548681776,84.239909686520349,1363.3270364585635,6924.4491932727778,-1352.9891491037779,8614.063224389336,-8614.063224389336,1352.9891491037779,13706.590170806758,0.0
255012.02908761695,3912225.878295721,-27500.0,13055.355205838747,473.59832893489067,-217.7175112090911,5410.6103019841485,64.393621489495345,1656.4972569609208,7886.9266951627942,-1589.1486305890639,9706.9367990884675,-9706.9367990884675,1589.1486305890639,15598.717534168196,0.0
260012.02908761695,3912225.878295721,-27500.0,14722.874461572428,460.32613259722285,-270.2056574571755,6365.8919378227656,30.938087617968613,2023.571645291084,9024.4883274200602,-1873.858151180656,10972.464996516701,-10972.464996516701,1873.858151180656,17829.060304118389,0.0
265012.02908761695,3912225.878295721,-27500.0,16655.126799343449,427.19682584854274,-327.57602378523967,7527.1556421701434,-22.692620765026181,2485.537091381666,10376.496875516676,-2218.1233112425016,12441.654828972247,-12441.654828972247,2218.1233112425016,20471.316249040276,0.0
270012.02908761695,3912225.878295721,-27500.0,18900.039697133918,365.48383187923616,-386.99796009718148,8946.5460384885882,-106.18084762024822,3069.8966924704596,11993.108264683404,-2635.3812038851811,14151.220056610005,-14151.220056610005,2635.3812038851811,23618.283200879265,0.0
275012.02908761695,3912225.878295721,-27500.0,21514.681931934687,263.16628602865381,-442.62400358765655,10691.570175128583,-233.85205241461264,3812.8808193280197,13938.946935478103,-3141.7888235308437,16144.400133270445,-16144.400133270445,3141.7888235308437,27387.844606609546,0.0
280012.02908761695,3912225.878295721,-27500.0,24566.851851006973,103.85721535329989,-483.35220974584047,12850.582153944355,-426.97303255244913,4762.5679245390538,16298.381297686554,-3756.2554448090395,18471.65050295386,-18471.65050295386,3756.2554448090395,31931.374753545224,0.0
285012.02908761695,3912225.878295721,-27500.0,28136.635257928439,-134.42472556583328,-488.99064538410983,15540.827066000767,-717.19848649390326,5983.4901089579607,19183.262496810326,-4499.8006646793201,21190.851508570137,-21190.851508570137,4499.8006646793201,37445.826221959447,0.0
290012.02908761695,3912225.878295721,-27500.0,32317.399240979095,-480.41704900669652,-423.63935407409923,18920.647752207253,-1151.7076322447979,7563.9052304183297,22744.565505545186,-5393.3805036989688,24366.249482390827,-24366.249482390827,5393.3805036989688,44191.632673778891,0.0
295012.02908761695,3912225.878295721,-27500.0,37214.613070209169,-970.0834401567331,-224.1336040611923,23208.570463585969,-1800.7699047515341,9628.2591746307789,27190.234086067387,-6452.3486400681359,28064.196239008314,-28064.196239008314,6452.3486400681359,52519.833300485901,0.0
300012.02908761695,3912225.878295721,-27500.0,42938.160159933963,-1644.8165988619944,220.46464562723611,28713.786407979438,-2768.6281655486991,12360.41910108792,32812.864727465334,-7673.608330507659,32341.034988248815,-32341.034988248815,7673.608330507659,62913.797267259572,0.0
305012.02908761695,3912225.878295721,-27500.0,49576.418584647028,-2543.7129542410971,1106.1395268577187,35884.859868173815,-4208.5195912829868,16050.08973687254,40032.476465001346,-9006.8006766965009,37211.543702209558,-37211.543702209558,9006.8006766965009,76053.060454008111,0.0
310012.02908761695,3912225.878295721,-27500.0,57120.965370291393,-3681.3879314341098,2783.9527187261219,45384.558127598248,-6341.7303209182201,21189.803963228889,49460.681036458023,-10289.85542678809,42568.684816862216,-42568.684816862216,10289.85542678809,92907.223416711073,0.0
315012.02908761695,3912225.878295721,-27500.0,65257.876539164623,-4991.8772457125806,5898.0136214020031,58189.325643471166,-9477.0653642779453,28681.384530871564,61989.002645815563,-11102.552259895379,47978.406901786046,-47978.406901786046,11102.552259895379,114858.39637229124,0.0
320012.02908761695,3912225.878295721,-27500.0,72792.857264107122,-6197.5358215176329,11675.049294582499,75652.904311696519,-14016.68301604579,40271.188624099123,78881.247535215647,-10426.486124351191,52143.43157189327,-52143.43157189327,10426.486124351191,143805.80181209545,0.0
325012.02908761695,3912225.878295721,-27500.0,76039.358596990685,-6548.0958006522596,22577.392445060086,99182.479551326076,-20418.529710357474,59406.858141670265,101742.8445104103,-5854.4826295755265,51456.922428958671,-51456.922428958671,5854.4826295755265,182034.31053554575,0.0
330012.02908761695,3912225.878295721,-27500.0,64350.165848774966,-4605.8523777346327,43802.389104149202,127749.42156327479,-29247.256628568703,92352.266655272935,131749.66267670138,8048.257263036181,36131.291934899309,-36131.291934899309,-8048.257263036181,231022.2965711297,0.0
335012.02908761695,3912225.878295721,-27500.0,11377.8816369712,477.34125256256095,85456.542745797837,145770.8194951324,-43820.641129218457,143992.87789092911,166091.47904674697,41333.139728822411,-17084.390476685305,17084.390476685305,-41333.139728822411,287679.10712712054,0.0
340012.02908761695,3912225.878295721,-27500.0,-109758.31579695593,16373.711625549156,154939.37979329715,99102.927880439485,-83093.160714336365,174991.96273123438,203580.87231497699,109676.24145936045,-133199.31480130146,133199.31480130146,-109676.24145936045,356029.12091666035,0.0
345012.02908761695,3912225.878295721,-27500.0,-225979.36247052794,111977.40476208899,222862.92129514608,-46171.539586922852,-71148.027183432947,46952.665722611011,266162.03844811011,245755.52643526331,-259190.33791949318,259190.33791949318,-245755.52643526331,461135.80311457353,0.0
350012.02908761695,3912225.878295721,-27500.0,-151431.58147777157,127103.77671389568,140373.08151119525,-55837.799232029567,112458.05774443131,-148026.5772792894,242317.45979330945,202228.0776593858,-176952.33060286648,176952.33060286648,-202228.0776593858,424179.31724928372,0.0
355012.02908761695,3912225.878295721,-27500.0,-95281.68228714462,50398.046763124745,38312.249670795143,-8432.9532905790984,131253.0396207351,-92702.332350896875,156613.7113527208,73986.619972500353,-88576.388372242291,88576.388372242291,-73986.619972500353,277533.27888284257,0.0
360012.02908761695,3912225.878295721,-27500.0,-69836.925122286833,9929.3094945676294,25679.308324497375,5555.5541364583687,76964.70044467246,-38299.100604422681,83804.103223048383,30077.144242964983,-59964.210239970671,59964.210239970671,-30077.144242964983,158948.64726743891,0.0
365012.02908761695,3912225.878295721,-27500.0,-55335.507700307826,9774.8251426022434,38425.730257438401,-2185.4490891464839,25218.230729339295,-2615.6200835444906,53912.055620049083,35777.578809748025,-54521.539865609462,54521.539865609462,-35777.578809748025,94001.712920435442,0.0
370012.02908761695,3912225.878295721,-27500.0,-34207.667513543245,21475.386193143284,41424.621046843306,-16272.498105604252,-2859.0785143118383,13742.999938209668,46202.918138607012,45247.89804291162,-42608.990342193909,42608.990342193909,-45247.89804291162,81211.902296730477,0.0
375012.02908761695,3912225.878295721,-27500.0,-12503.9386488249,28961.578127594425,35435.477096531795,-25099.843441493711,-13237.321732726254,17705.803934051073,47211.399201940876,45889.186412504954,-26239.284268745854,26239.284268745854,-45889.186412504954,81820.438919263601,0.0
380012.02908761695,3912225.878295721,-27500.0,3767.874251681681,30356.842530846217,26926.919852889863,-27663.576926251873,-15078.700453526226,16558.164476054153,44505.572928450267,40468.142226366886,-11790.196256462494,11790.196256462494,-40468.142226366886,78398.072394140225,0.0
385012.02908761695,3912225.878295721,-27500.0,13693.772373546417,28155.119650005956,19372.823173199176,-26506.693181395414,-13803.049965997663,14112.210328745032,39638.673588482299,33213.0851770589,-1615.8180274947154,1615.8180274947154,-33213.0851770589,71327.200847580913,0.0
390012.02908761695,3912225.878295721,-27500.0,18786.370614153759,24604.494343838473,13663.051967826428,-23816.135772817146,-11742.860747467641,11711.771069414232,34367.851470676644,26390.268010183525,4660.6584711017531,-4660.6584711017531,-26390.268010183525,63019.883018824621,0.0
395012.02908761695,3912225.878295721,-27500.0,20805.548692247401,20910.60868598026,9621.7678808982964,-20770.101751376555,-9719.2509802698096,9663.9948602263466,29481.962992495857,20734.868156313671,8160.109299738001,-8160.109299738001,-20734.868156313671,54899.45395964849,0.0
400012.02908761695,3912225.878295721,-27500.0,21048.207249660911,17563.102487564418,6830.3766858868621,-17869.750234233121,-7962.8798472681756,7968.1651875360803,25224.990522245993,16282.204677583446,9880.8693481908413,-9880.8693481908413,-16282.204677583446,47548.484498820777,0.0
405012.02908761695,3912225.878295721,-27500.0,20329.614629885709,14698.10305709846,4911.4813545487295,-15284.258669619105,-6503.7882611485211,6567.1938661877166,21607.47502026759,12842.884041213812,10520.325515538552,-10520.325515538552,-12842.884041213812,41118.83262393839,0.0
410012.02908761695,3912225.878295721,-27500.0,19129.053226957029,12306.534701586697,3586.1306926579373,-13044.127793916592,-5312.6231718408953,5408.8348641411858,18559.980500557398,10197.28354027191,10523.591881736957,-10523.591881736957,-10197.28354027191,35581.549085976469,0.0
415012.02908761695,3912225.878295721,-27500.0,17720.43473076099,10330.648093946646,2662.2476354626401,-11128.685191585872,-4347.3037849058837,4452.2533284999436,15996.59208934924,8156.657267407727,10165.336047673465,-10165.336047673465,-8156.657267407727,30844.866693643529,0.0
420012.02908761695,3912225.878295721,-27500.0,16257.974902270953,8703.4580649946693,2010.8976461869008,-9501.4957796978379,-3567.288232921429,3664.6124627529434,13837.167777091212,6573.6042434455267,9613.2928552007761,-9613.2928552007761,-6573.6042434455267,26803.28019695796,0.0
425012.02908761695,3912225.878295721,-27500.0,14826.864888300461,7363.0156418438228,1546.0315784473287,-8123.7638675704893,-2937.3899150504044,3018.2326552310478,12013.180235514941,5337.0221558253634,8969.5499682835271,-8969.5499682835271,-5337.0221558253634,23356.139385793147,0.0
430012.02908761695,3912225.878295721,-27500.0,13472.262099830679,6256.4279337177131,1210.0291904791327,-6959.0958469686993,-2428.2908944447645,2489.263509772647,10467.771284764332,4364.0854457115829,8295.8580743195489,-8295.8580743195489,-4364.0854457115829,20413.672714469125,0.0
435012.02908761695,3912225.878295721,-27500.0,12215.896574489903,5340.0476898781662,964.01742045004528,-5975.0092083724248,-2016.0528923461213,2057.1695728854338,9154.1846157165692,3593.0728643890952,7628.9621298787724,-7628.9621298787724,-3593.0728643890952,17898.147700654546,0.0
440012.02908761695,3912225.878295721,-27500.0,11065.77553409535,4578.4106489550004,781.52811927679113,-5143.2332228354826,-1681.3621555810985,1704.4769267619131,8034.0225101588294,2977.7965103626289,6989.99037871172,-6989.99037871172,-2977.7965103626289,15743.276589152038,0.0
445012.02908761695,3912225.878295721,-27500.0,10021.927661221294,3942.8853683935235,644.35907450360264,-4439.5183697167231,-1408.7491178446601,1416.5214206295075,7075.6874955403155,2483.4745618373099,6390.2649643871928,-6390.2649643871928,-2483.4745618373099,13892.974818504812,0.0
450012.02908761695,3912225.878295721,-27500.0,9079.8997310779723,3410.4137080775217,539.86924724639846,-3843.2747029979428,-1185.8823647252998,1181.1562780714858,6253.1212053186719,2083.7401481953739,5834.977466788544,-5834.977466788544,-2083.7401481953739,12300.030739241483,0.0
250012.02908761695,3917225.878295721,-27500.0,11798.961815974924,-481.39771937808706,-103.20723573728863,4691.6889373610929,-264.82580837653433,1384.1223965929682,7028.9624287685483,-2146.0307462217397,8871.2442652149766,-8871.2442652149766,2146.0307462217397,13896.502924297592,0.0
255012.02908761695,3917225.878295721,-27500.0,13245.069139743944,-659.77570022770692,-124.51066156863784,5487.2801819110364,-363.44002682675858,1680.2717787978154,8001.1375415006005,-2519.3615220551205,9984.394859830265,-9984.394859830265,2519.3615220551205,15808.435410493572,0.0
260012.02908761695,3917225.878295721,-27500.0,14908.644419558763,-892.47219617972814,-142.41619891299558,6446.6260970266403,-496.7876934736513,2050.2934002300785,9148.4669683064149,-2969.4193228042523,11267.799859506555,-11267.799859506555,2969.4193228042523,18059.531390274104,0.0
265012.02908761695,3917225.878295721,-27500.0,16825.673426673213,-1196.6254044569694,-152.02034406347582,7608.7144975844903,-677.94176187172923,2514.7372690660104,10509.722646755443,-3513.6804719981574,12749.634059930528,-12749.634059930528,3513.6804719981574,20722.703706662032,0.0
270012.02908761695,3917225.878295721,-27500.0,19037.730504007923,-1595.0973961308741,-145.06890405996572,9022.9817984926085,-925.33532832033336,3100.2793161351283,12134.037936499366,-4173.6105339979431,14462.119162342893,-14462.119162342893,4173.6105339979431,23889.360799525221,0.0
275012.02908761695,3917225.878295721,-27500.0,21592.36152418964,-2118.439193509827,-107.87979523690682,10752.507567795914,-1265.1447804196171,3841.6385712434976,14084.32300208744,-4975.3179173952994,16441.461146499987,-16441.461146499987,4975.3179173952994,27675.043844282744,0.0
280012.02908761695,3917225.878295721,-27500.0,24543.097931832457,-2807.4961439900703,-17.970344434718051,12878.437804867162,-1734.810198533796,4784.1877846713578,16442.12679058393,-5950.0247085052433,18727.199013339956,-18727.199013339956,5950.0247085052433,32227.28576591353,0.0
285012.02908761695,3917225.878295721,-27500.0,27948.674587006713,-3716.7951229382834,161.45196367427113,15506.317277552076,-2388.2706834028754,5987.6803357953431,19314.73917416987,-7133.9785152531276,21360.402462490667,-21360.402462490667,7133.9785152531276,37736.889225237865,0.0
290012.02908761695,3917225.878295721,-27500.0,31870.550811515357,-4918.7795312436929,490.53718326782479,18775.508204505484,-3303.7953242594895,7532.0018051456382,22845.840370711216,-8567.0117322605511,24379.619232085752,-24379.619232085752,8567.0117322605511,44454.625354510783,0.0
295012.02908761695,3917225.878295721,-27500.0,36366.699760133561,-6508.745889802748,1067.7701074897996,22873.750457610025,-4595.8049389823473,9527.0174734103657,27231.861446626972,-10288.11231049036,27812.294758191048,-27812.294758191048,10288.11231049036,52716.713585093894,0.0
300012.02908761695,3917225.878295721,-27500.0,41476.924803641137,-8609.6497156682763,2054.9409056507407,28060.33511850224,-6432.9018395689254,12131.326720065352,32747.587436545771,-12324.562891580857,31656.765657732307,-31656.765657732307,12324.562891580857,62984.659640333237,0.0
305012.02908761695,3917225.878295721,-27500.0,47188.225220658838,-11374.170058951217,3719.2107257410107,34703.242524442918,-9065.8250120665307,15591.102678954438,39786.565734424592,-14667.21315036124,35843.734253491835,-35843.734253491835,14667.21315036124,75908.270329923776,0.0
310012.02908761695,3917225.878295721,-27500.0,53351.917963136621,-14976.480281063805,6504.8541486173081,43336.746438541617,-12871.807758845611,20324.667857679808,48924.742201154411,-17215.103582051743,40151.215283514779,-40151.215283514779,17215.103582051743,92424.958261642067,0.0
315012.02908761695,3917225.878295721,-27500.0,59480.079808048249,-19571.942581650423,11157.986414622805,54740.232917125977,-18426.955022736984,27110.960804394708,61019.175193323834,-19648.815563281802,44008.621149339546,-44008.621149339546,19648.815563281802,113912.07620963608,0.0
320012.02908761695,3917225.878295721,-27500.0,64223.828069787,-25158.874243593131,18950.556887964529,70000.172568430004,-26626.104548662821,37513.584441473817,77356.805624092813,-21124.668922273318,46018.497761282655,-46018.497761282655,21124.668922273318,142406.71951780666,0.0
325012.02908761695,3917225.878295721,-27500.0,63927.371982786244,-31124.960841602762,32107.708573481948,90308.305626083369,-38864.624870485823,54838.372559039613,99853.602093442198,-19463.264534534217,42677.224014403226,-42677.224014403226,19463.264534534217,180859.97054053246,0.0
330012.02908761695,3917225.878295721,-27500.0,48161.173369967401,-34678.922696254682,54707.117945982143,114957.92663199604,-57115.204839985396,86123.084487299566,131073.65384487173,-8697.3135863401312,24509.178772850348,-24509.178772850348,8697.3135863401312,232971.58006147435,0.0
335012.02908761695,3917225.878295721,-27500.0,-13463.255112762146,-25120.743502470152,94554.438999700971,127002.49671738625,-81964.276083506818,141561.70031053014,171641.8880278393,28866.474777468196,-35437.701673258867,35437.701673258867,-28866.474777468196,298984.29101214639,0.0
340012.02908761695,3917225.878295721,-27500.0,-152490.2720649775,32784.375287524541,158525.05875180624,31308.382529138958,-92409.622903221927,154391.06069926181,205245.41525633069,133027.57208038442,-170103.04209205025,170103.04209205025,-133027.57208038442,356715.00476593804,0.0
345012.02908761695,3917225.878295721,-27500.0,-154460.05522681994,133910.61457487606,153387.37706115271,-82574.954955867681,25798.265416126062,-107257.28391738911,229309.93290116006,217295.345080714,-186517.90755799165,186517.90755799165,-217295.345080714,398391.22779235494,0.0
350012.02908761695,3917225.878295721,-27500.0,-95332.289935393157,91441.334518976262,36584.945336615223,-8847.4548734234504,139282.54268693953,-169182.91967512114,195047.37215373002,107695.06356696642,-94225.033541371638,94225.033541371638,-107695.06356696642,340758.72522092494,0.0
355012.02908761695,3917225.878295721,-27500.0,-78182.0241460385,29854.633081531567,-5371.5191272906868,28409.161262441394,121182.03582495988,-108824.97088617047,137066.52848009381,30259.53646662055,-57559.158244286016,57559.158244286016,-30259.53646662055,240045.58807373585,0.0
360012.02908761695,3917225.878295721,-27500.0,-68399.256263045216,2671.8241942424002,957.57612962203348,32389.450701869649,76080.716486515259,-59777.139166002089,89718.116171101181,9896.9098839063045,-48893.854314481156,48893.854314481156,-9896.9098839063045,157544.21639525821,0.0
365012.02908761695,3917225.878295721,-27500.0,-59922.368765010971,-597.88655265939315,18532.944088686294,23959.323794215139,35966.523725344501,-27619.900066326594,57987.159034128374,16179.714837609397,-48840.775233425986,48840.775233425986,-16179.714837609397,101333.00446041228,0.0
370012.02908761695,3917225.878295721,-27500.0,-47084.2628831033,7591.54049016917,29281.389322496732,10919.995609570236,9336.5266015704347,-8468.8486041246633,41497.437511282937,27860.796476058727,-44995.502806745579,44995.502806745579,-27860.796476058727,71875.707443102074,0.0
375012.02908761695,3917225.878295721,-27500.0,-31248.606302987933,16221.660490286638,30868.668569838115,-341.14128253254285,-4516.9863634492049,1208.1545985517816,35339.114158876298,34400.354321155159,-35737.088328056605,35737.088328056605,-34400.354321155159,61211.576226858379,0.0
380012.02908761695,3917225.878295721,-27500.0,-16539.262542703469,21108.598674055454,27247.420806131773,-7514.9344765239921,-10127.987676833181,5305.7455041971571,32742.473711663137,34919.750412700523,-24769.357625078173,24769.357625078173,-34919.750412700523,57024.797262336091,0.0
385012.02908761695,3917225.878295721,-27500.0,-5188.7363978991316,22423.998490534537,22026.067341760434,-11121.061557274032,-11474.334536548571,6626.885031037199,30074.972163648992,31855.701534518405,-15027.928027124306,15027.928027124306,-31855.701534518405,53227.970547935889,0.0
390012.02908761695,3917225.878295721,-27500.0,2589.1727368726183,21523.924903644878,17055.552953662042,-12397.708202589931,-10937.004683599514,6696.7222888368588,27055.186428085006,27437.395477483311,-7560.5686400633131,7560.5686400633131,-27437.395477483311,48749.651244605891,0.0
395012.02908761695,3917225.878295721,-27500.0,7474.5190234758375,19568.818154968074,12961.860129166154,-12362.050767096927,-9707.9804950689231,6236.6945324668704,23989.231781664821,22933.776580649868,-2299.018225338732,2299.018225338732,-22933.776580649868,43914.086264219011,0.0
400012.02908761695,3917225.878295721,-27500.0,10288.252512298333,17270.047210942939,9799.0302509435369,-11660.565952000768,-8326.2903091305125,5574.8525390562199,21097.923836349506,18891.137838128176,1206.6594068260856,-1206.6594068260856,-18891.137838128176,39125.450737830739,0.0
405012.02908761695,3917225.878295721,-27500.0,11709.270597523097,14995.622050452606,7424.5807121395956,-10663.279372029627,-7015.9978565621122,4864.0983672625125,18480.830599704081,15467.615265051152,3432.134948884277,-3432.134948884277,-15467.615265051152,34630.6339931123,0.0
410012.02908761695,3917225.878295721,-27500.0,12228.723685700617,12909.865584804145,5661.9406776454052,-9572.2238461255347,-5857.8909465848865,4178.1585308794738,16164.225155913724,12649.324607644025,4764.5149840117065,-4764.5149840117065,-12649.324607644025,30543.229679969339,0.0
415012.02908761695,3917225.878295721,-27500.0,12182.060789658284,11069.809709619756,4356.146500257827,-8494.2709708701695,-4869.659853915934,3551.7843481299242,14138.536575020413,10360.408243191663,5489.4466695271567,-5489.4466695271567,-10360.408243191663,26896.236585753188,0.0
420012.02908761695,3917225.878295721,-27500.0,11792.544496833711,9480.3474077103692,3385.9183503832401,-7483.2493932704911,-4042.4286608305292,2998.784709395919,12379.088963520851,8511.9820028079994,5808.9057187921817,-5808.9057187921817,-8511.9820028079994,23679.68406044869,0.0
425012.02908761695,3917225.878295721,-27500.0,11206.827202993412,8123.2568303548787,2660.8541919768591,-6563.3217787775484,-3357.4066091433051,2521.3045163360953,10856.32068990478,7021.3215662696002,5862.9030151640472,-5862.9030151640472,-7021.3215662696002,20862.783536889863,0.0
430012.02908761695,3917225.878295721,-27500.0,10520.298257496719,6971.7810930371725,2115.0006303947125,-5742.0641112528911,-2793.463491897413,2115.1994291312112,9540.5545012603543,5817.8555289815922,5747.5151805507703,-5747.5151805507703,-5817.8555289815922,18406.215464340778,0.0
435012.02908761695,3917225.878295721,-27500.0,9794.2300140522784,5997.6441451131004,1700.6420087853628,-5017.9352931876847,-2330.4607761736443,1773.2964011690146,8404.0826299520031,4843.7566059651781,5528.1995582448217,-5528.1995582448217,-4843.7566059651781,16268.705625308419,0.0
440012.02908761695,3917225.878295721,-27500.0,9067.228509895047,5174.2332364928361,1383.3097757349556,-4384.6460528520456,-1950.565905461712,1487.3559181418507,7421.9879938194881,4052.586214889383,5249.2267885214933,-5249.2267885214933,-4052.586214889383,14410.46510172285,0.0
445012.02908761695,3917225.878295721,-27500.0,8362.8594095964181,4477.850700276138,1138.0490644764195,-3833.7261565279373,-1638.5983556961221,1249.1885063598688,6572.3404357349382,3407.4226100934493,4940.2488171941468,-4940.2488171941468,-3407.4226100934493,12794.846549862354,0.0
450012.02908761695,3917225.878295721,-27500.0,7694.7534732688873,3888.0318792850517,946.71533048754725,-3356.0234645773753,-1381.9336938366671,1051.2361558589341,5836.1057473700266,2879.0484377531243,4620.8542148534034,-4620.8542148534034,-2879.0484377531243,11389.025912382609,0.0
250012.02908761695,3922225.878295721,-27500.0,11678.871759843938,-1405.1249649516358,90.611964798015237,4658.5727828194103,-604.47985724710293,1378.1552924384268,7035.8531670896245,-2802.5736666502785,8854.5199834043688,-8854.5199834043688,2802.5736666502785,13897.890618121701,0.0
255012.02908761695,3922225.878295721,-27500.0,13057.202531717347,-1747.7226179827051,124.65026873197047,5431.1508501466378,-776.83724933675285,1668.737302311893,7994.2705382050908,-3274.692216560652,9923.0860405841122,-9923.0860405841122,3274.692216560652,15783.927160152185,0.0
260012.02908761695,3922225.878295721,-27500.0,14626.464422418501,-2179.0206143725923,179.89678501787751,6356.6462252173133,-1002.5310268994906,2030.0550086392254,9120.90339943873,-3839.0629990014481,11141.251243522804,-11141.251243522804,3839.0629990014481,17996.622394993032,0.0
265012.02908761695,3922225.878295721,-27500.0,16412.201826079588,-2724.0529885413907,267.65147646721829,7468.9898732149104,-1299.8142528291569,2480.96524235275,10451.429102950291,-4514.8420977661572,12528.414217241932,-12528.414217241932,4514.8420977661572,20603.390080078487,0.0
270012.02908761695,3922225.878295721,-27500.0,18441.16097370697,-3415.3669122003648,405.08402146246721,8810.0539722002941,-1693.7893607126,3045.500772298758,12030.413439052201,-5324.6776028330241,14104.155383981422,-14104.155383981422,5324.6776028330241,23687.575358208349,0.0
275012.02908761695,3922225.878295721,-27500.0,20739.68074861274,-4295.2807609127049,618.37213571349605,10431.497210440915,-2219.181016658601,3754.2199353098918,13913.94678646361,-6294.7407345408492,15886.365806581613,-15886.365806581613,6294.7407345408492,27352.774011653953,0.0
280012.02908761695,3922225.878295721,-27500.0,23330.726248273582,-5418.7110247840274,947.59179995735985,12397.03220386748,-2924.2941810218399,4645.8767104110375,16173.257041469908,-7454.1178597861326,17887.878846157921,-17887.878846157921,7454.1178597861326,31728.596090978121,0.0
285012.02908761695,3922225.878295721,-27500.0,26228.615744920207,-6856.5884181778274,1454.3960789191553,14785.25816795394,-3876.6979987472123,5769.5661141764576,18899.779853300657,-8832.8978220606368,20110.562682047646,-20110.562682047646,8832.8978220606368,36978.561839954462,0.0
290012.02908761695,3922225.878295721,-27500.0,29429.698676347849,-8699.6784537053918,2234.1211491646636,17693.272018445416,-5171.4215238236184,7187.7399395099128,22212.425684244456,-10457.687569464702,22535.016968574331,-22535.016968574331,10457.687569464702,43311.209793597947,0.0
295012.02908761695,3922225.878295721,-27500.0,32895.614157722244,-11062.180055293185,3435.0032559788665,21241.325743791997,-6942.8782467542769,8981.1536940504684,26268.176137574719,-12342.137218852073,25102.403205384016,-25102.403205384016,12342.137218852073,50996.10098001286,0.0
300012.02908761695,3922225.878295721,-27500.0,36522.267444312711,-14083.337086013265,5288.8325556158788,25578.544598796223,-9382.4347449521156,11258.406987275799,31277.617877997436,-14467.736440578599,27681.641269051783,-27681.641269051783,14467.736440578599,60387.169055682825,0.0
305012.02908761695,3922225.878295721,-27500.0,40079.767602941523,-17922.489338307187,8160.1671015860666,30887.99821914321,-12764.812707787501,14176.291535166956,37527.273692791496,-16745.165579546272,30007.994708804552,-30007.994708804552,16745.165579546272,71956.207970385556,0.0
310012.02908761695,3922225.878295721,-27500.0,43090.53097457056,-22735.514313019288,12625.887861961646,37382.38928289467,-17488.751122747042,17984.123808802146,45409.773317020532,-18935.068266731603,31562.938053322705,-31562.938053322705,18935.068266731603,86337.579262064741,0.0
315012.02908761695,3922225.878295721,-27500.0,44570.233311340162,-28598.833217140636,19604.7416629974,45256.315079942993,-24140.279199863267,23115.942514723156,55458.342580960118,-20478.151938101983,31327.387389795105,-31327.387389795105,20478.151938101983,104375.6994547005,0.0
320012.02908761695,3922225.878295721,-27500.0,42453.673836267517,-35276.734364018062,30567.405189896082,54473.508317485881,-33582.958417827358,30358.740782292571,68366.310065333018,-20103.314751842743,27248.561594146333,-27248.561594146333,20103.314751842743,127132.55185069276,0.0
325012.02908761695,3922225.878295721,-27500.0,32280.800338993919,-41470.258544328914,47846.513536196828,63948.50166247756,-47005.147203219312,41047.550780634461,84915.321340292518,-14830.635424617061,15036.980414534746,-15036.980414534746,14830.635424617061,155687.8859584606,0.0
330012.02908761695,3922225.878295721,-27500.0,4340.0801762785914,-42143.188270232218,74753.001826334134,68384.649049850079,-65217.22798884035,56521.963482188054,105487.48054611684,2803.5202905501574,-14446.529130309351,14446.529130309351,-2803.5202905501574,190063.24139421698,0.0
335012.02908761695,3922225.878295721,-27500.0,-57818.706819810504,-18861.908499092482,111830.53431878223,46314.192504709652,-81253.79766823184,69757.46628183969,127925.37031346334,51320.012775518917,-76713.043542906045,76713.043542906045,-51320.012775518917,225215.92078138277,0.0
340012.02908761695,3922225.878295721,-27500.0,-121932.34694368592,65826.970045919996,122845.06093229736,-43733.400007960241,-34175.107548192929,8528.2953946234702,149714.06598916766,138981.34725011184,-141965.4805787245,141965.4805787245,-138981.34725011184,259313.23810643042,0.0
345012.02908761695,3922225.878295721,-27500.0,-71458.81244359893,100542.05492409156,33623.91547944276,-47020.484879910204,121384.20822115276,-158496.24027626516,190428.55565432398,111892.62248842725,-78385.54788833503,78385.54788833503,-111892.62248842725,330038.32252644101,0.0
350012.02908761695,3922225.878295721,-27500.0,-62087.954636440096,40798.794727910878,-30264.368124395744,27025.101889068948,157183.25486675595,-157276.56662772872,177330.95267740404,23621.195449804796,-38660.607714022,38660.607714022,-23621.195449804796,307257.66991500964,0.0
355012.02908761695,3922225.878295721,-27500.0,-65586.556431164587,1571.3445864814498,-36628.481816271124,48099.105873717424,122890.69811615052,-105347.94274180692,136306.74166689755,-12531.683582887616,-33057.28717507168,33057.28717507168,12531.683582887616,236273.78504126746,0.0
360012.02908761695,3922225.878295721,-27500.0,-64394.303407829044,-14093.130305708797,-19932.243835500623,46821.979984999198,81360.23379906734,-65364.946146978524,98221.471540835933,-16400.705822989206,-35986.332079678868,35986.332079678868,16400.705822989206,170446.99759789437,0.0
365012.02908761695,3922225.878295721,-27500.0,-60010.484398193701,-14605.102794320597,384.57481167582591,37884.643129318421,46351.857885741352,-38145.029666097551,68510.31724552784,-5842.6270128304495,-40205.460699562362,40205.460699562362,5842.6270128304495,119147.99906332743,0.0
370012.02908761695,3922225.878295721,-27500.0,-51973.869323334475,-7040.6021895225213,15129.836093157766,26252.931656755241,21143.691718976948,-20209.935858578334,47737.366078496962,8019.7767292984354,-41056.00338792101,41056.00338792101,-8019.7767292984354,83294.07970261923,0.0
375012.02908761695,3922225.878295721,-27500.0,-40894.985780888666,2171.0221634815057,22082.469001928774,15218.337584463374,5484.5786283842408,-9140.4222189034335,35204.888618329212,18562.930886547983,-37179.300278092167,37179.300278092167,-18562.930886547983,61431.797494952043,0.0
380012.02908761695,3922225.878295721,-27500.0,-29047.721396979672,9339.0199561106601,23158.094730092645,6604.7140051621527,-2958.6293524801113,-2775.7876215790679,28616.356372265145,23974.226444268999,-30300.977513684906,30300.977513684906,-23974.226444268999,49627.54359465577,0.0
385012.02908761695,3922225.878295721,-27500.0,-18421.639267085764,13557.124356897662,21093.604231162379,716.02690003185103,-6827.2610130653029,656.92230957065215,24887.11488174192,25240.66989432809,-22682.281332076524,22682.281332076524,-25240.66989432809,43177.672460817652,0.0
390012.02908761695,3922225.878295721,-27500.0,-9921.0193331580213,15324.421889540732,17877.764666387124,-2924.8222968571672,-8123.3307372902273,2370.482747281188,22169.745367338277,24006.272897885945,-15766.26064078122,15766.26064078122,-24006.272897885945,38862.675999413819,0.0
395012.02908761695,3922225.878295721,-27500.0,-3617.5078256500474,15468.160168474289,14584.123980105041,-4960.832231237604,-8102.319687639083,3105.819460129735,19823.226454410731,21587.686287860055,-10124.710462664796,10124.710462664796,-21587.686287860055,35251.82635911119,0.0
400012.02908761695,3922225.878295721,-27500.0,806.52801510823269,14686.96490100964,11666.796215411634,-5937.371300644626,-7475.1948085107488,3295.8421442540198,17684.689935274357,18800.392106948188,-5807.6882877890985,5807.6882877890985,-18800.392106948188,31900.173217553849,0.0
405012.02908761695,3922225.878295721,-27500.0,3766.8327833356911,13456.570735393378,9252.1630148808181,-6248.9871562328117,-6620.4249636730528,3192.2382867947608,15727.7500528975,16074.809500194848,-2641.2915434789265,2641.2915434789265,-16074.809500194848,28730.616710269464,0.0
410012.02908761695,3922225.878295721,-27500.0,5645.6141691013581,12066.290336958988,7321.3783923202573,-6161.7690958579242,-5729.3478097036595,2942.1739914693694,13953.436054051437,13604.611688450525,-393.19633952950244,393.19633952950244,-13604.611688450525,25764.542776618226,0.0
415012.02908761695,3922225.878295721,-27500.0,6751.1813995963148,10678.26012024257,5804.304223743,-5848.984776896672,-4892.1154628872928,2631.3969339825444,12361.491555754506,11454.459706352056,1155.225604033014,-1155.225604033014,-11454.459706352056,23032.026354704423,0.0
420012.02908761695,3922225.878295721,-27500.0,7317.1582439520489,9375.6699611255117,4621.8417290744483,-5420.9204224967307,-4145.5398083943437,2308.7118269269295,10945.508033547701,9624.9488124141681,2185.3691708386409,-2185.3691708386409,-9624.9488124141681,20549.333700532065,0.0
425012.02908761695,3922225.878295721,-27500.0,7514.7201118538296,8195.3818270110423,3702.4341294013534,-4946.2305142100813,-3499.1404195658806,2000.4825520528359,9694.1365676228907,8088.3118436088007,2838.9341341076833,-2838.9341341076833,-8088.3118436088007,18317.720369164883,0.0
430012.02908761695,3922225.878295721,-27500.0,7466.7823699142782,7148.2593779659965,2986.8404706888177,-4466.4040818349049,-2949.1774336483873,1719.5408034712482,8593.1943686816121,6806.8603686934885,3223.0365187199686,-3223.0365187199686,-6806.8603686934885,16327.444136213147,0.0
435012.02908761695,3922225.878295721,-27500.0,7260.383703891649,6231.3169186012465,2428.0945480293462,-4005.3864399482736,-2486.1310561998425,1470.7522480565008,7627.3933669929638,5741.9562065045702,3417.0759258686485,-3417.0759258686485,-5741.9562065045702,14562.057330119791,0.0
440012.02908761695,3922225.878295721,-27500.0,6956.4511151919714,5434.7940622784163,1989.7975343787089,-3575.9444051856108,-2098.609156428196,1254.491824808322,6781.5267097233618,4858.0125264753451,3479.153427331531,-3479.153427331531,-4858.0125264753451,13001.765528310387,0.0
445012.02908761695,3922225.878295721,-27500.0,6597.144758669624,4746.1565307893288,1644.0687679356054,-3183.8462888801041,-1775.2957585510078,1068.7769274805855,6041.1769832977498,4123.9480492606199,3451.38626032906,-3451.38626032906,-4123.9480492606199,11625.70637781635,0.0
250012.02908761695,3927225.878295721,-27500.0,11276.23447505759,-2246.1314122955982,392.67616566088958,4528.5699393199566,-917.75062438474356,1347.090396613439,6947.2075489258741,-3291.8188606766112,8579.9292882143709,-8579.9292882143709,3291.8188606766112,13717.18920697344,0.0
255012.02908761695,3927225.878295721,-27500.0,12526.069929841771,-2724.1863706745544,505.13079252940327,5252.8841460247186,-1153.4507497373518,1624.4395497299301,7869.8370385463968,-3817.5331928916553,9546.8296279845963,-9546.8296279845963,3817.5331928916553,15534.927839810995,0.0
260012.02908761695,3927225.878295721,-27500.0,13925.415838859444,-3314.439020534564,661.8453258848366,6111.782323224681,-1456.643987313176,1966.7803159858186,8947.6442747522087,-4436.9184618378749,10628.226317468623,-10628.226317468623,4436.9184618378749,17655.046403345583,0.0
265012.02908761695,3927225.878295721,-27500.0,15485.458631178974,-4045.2745722374639,881.57019704532877,7131.6918199374923,-1848.6774866576629,2390.3231192957605,10211.247226336151,-5165.8511575598841,11830.791939803627,-11830.791939803627,5165.8511575598841,20135.661958646677,0.0
270012.02908761695,3927225.878295721,-27500.0,17213.205223531942,-4952.2889877282823,1191.4613706312452,8343.6319832926729,-2358.1629916216043,2915.1479203617596,11697.967019435793,-6021.2858614692959,13156.454813511005,-13156.454813511005,6021.2858614692959,23046.860692601265,0.0
275012.02908761695,3927225.878295721,-27500.0,19107.713337305049,-6079.7769987336424,1631.0553809768796,9783.419232436614,-3023.5294926955021,3565.8588948468191,13453.389829755843,-7019.8631364175162,14598.509150797792,-14598.509150797792,7019.8631364175162,26473.104676455841,0.0
280012.02908761695,3927225.878295721,-27500.0,21154.055737456332,-7482.1312687931895,2258.19793503858,11491.402798864674,-3896.4326231237478,4372.153860965951,15533.298918577848,-8175.075590603783,16135.376017505447,-16135.376017505447,8175.075590603783,30516.023373898301,0.0
285012.02908761695,3927225.878295721,-27500.0,23313.680839399287,-9224.6715063681931,3157.9052546805815,13511.321035044606,-5046.2478974516061,5369.1857338958989,18006.060642316654,-9491.8716582916641,17720.621320002276,-17720.621320002276,9491.8716582916641,35297.590749940609,0.0
290012.02908761695,3927225.878295721,-27500.0,25508.916065915677,-11382.833810866914,4455.5786256293741,15887.534971411154,-6565.8497910123324,6597.5982038420425,20955.517564107242,-10956.713647986438,19266.920414847955,-19266.920414847955,10956.713647986438,40963.566419435308,0.0
295012.02908761695,3927225.878295721,-27500.0,27597.627474601097,-14037.467054243365,6336.6142221494165,18659.192320757506,-8578.7555331707808,8103.2602084222826,24484.302111831275,-12519.527559066079,20619.984429247106,-20619.984429247106,12519.527559066079,47686.72767568432,0.0
300012.02908761695,3927225.878295721,-27500.0,29330.750660903195,-17261.386800293825,9075.1192656009425,21848.16775287615,-11247.260528896433,9937.1252633385539,28716.990736782627,-14060.953501368554,21515.38817214757,-21515.38817214757,14060.953501368554,55668.388833411707,0.0
305012.02908761695,3927225.878295721,-27500.0,30278.92534443516,-21086.426613424544,13074.763813557116,25433.102199484962,-14779.783000145224,12156.227331020043,33801.003536459568,-15332.178190949584,21505.381262512543,-21505.381262512543,15332.178190949584,65133.67573153205,0.0
310012.02908761695,3927225.878295721,-27500.0,29702.553054788736,-25425.888448032256,18922.851208927579,29289.701798977454,-19430.990107756519,14826.206344194237,39899.225031322254,-15841.709510535982,19832.239337366533,-19832.239337366533,15841.709510535982,76308.076345044945,0.0
315012.02908761695,3927225.878295721,-27500.0,26321.554277902411,-29890.238953802644,27446.54837305742,33044.912831898808,-25471.62471233269,18016.663246977329,47159.013917149816,-14635.581940448368,15209.259174457047,-15209.259174457047,14635.581940448368,89342.98362450047,0.0
320012.02908761695,3927225.878295721,-27500.0,17937.016328346283,-33335.235211073101,39703.254610447111,35710.068551791024,-33041.621375876501,21733.905762469709,55624.438885510644,-9862.6222338541756,5470.1545258163005,-5470.1545258163005,9862.6222338541756,104115.93747005363,0.0
325012.02908761695,3927225.878295721,-27500.0,1019.0892700084114,-32734.289107123135,56576.188232620654,34778.769172157779,-41549.498971148852,25544.025185402974,65044.592126390904,2033.2582720305991,-12785.547816775706,12785.547816775706,-2033.2582720305991,119782.72594489467,0.0
330012.02908761695,3927225.878295721,-27500.0,-28405.716438179861,-20635.460672397465,76476.961019886527,24359.480768464193,-47313.377514896631,26943.906135214806,74690.630085102952,27135.934327180828,-43180.63851498413,43180.63851498413,-27135.934327180828,134283.38257213371,0.0
335012.02908761695,3927225.878295721,-27500.0,-65437.620740667524,16654.307569218512,85749.489312144447,-5282.7755754166337,-35617.350561417152,15882.795345074243,84892.543463620357,69137.072976234645,-79711.304808300032,79711.304808300032,-69137.072976234645,147978.24718653562,0.0
340012.02908761695,3927225.878295721,-27500.0,-71243.536398585478,72504.626420567423,43786.408998509469,-44724.848812567652,26236.014039220951,-29313.964302141383,105625.26137829288,94905.146419999393,-78661.307761759235,78661.307761759235,-94905.146419999393,184400.39350432486,0.0
345012.02908761695,3927225.878295721,-27500.0,-33970.265878817983,69395.076186995779,-42782.421514965652,-31570.028215462764,115309.62171960418,-89262.816599542828,138209.07774073072,39539.413477484435,-20399.738207372393,20399.738207372393,-39539.413477484435,244895.14105962971,0.0
350012.02908761695,3927225.878295721,-27500.0,-28682.960142920685,17783.724891647304,-77189.279838988587,15211.767185758707,139149.00308496959,-100307.68973772961,142812.73741948072,-24722.946779046655,4396.2407495606894,-4396.2407495606894,24722.946779046655,252465.88736410643,0.0
355012.02908761695,3927225.878295721,-27500.0,-41174.184291628997,-14921.806048987642,-65349.990198012696,39190.861746242903,115233.74934569935,-80286.271559107437,121880.65521396307,-44691.824411472335,-3420.8146901217297,3420.8146901217297,44691.824411472335,215129.87127919355,0.0
360012.02908761695,3927225.878295721,-27500.0,-49233.18800999401,-26533.716593117213,-41113.318395747803,43816.649756999119,82082.623839138905,-57223.644963251543,95120.479126137448,-40160.852825081267,-15984.821761229674,15984.821761229674,40160.852825081267,168164.03687756741,0.0
365012.02908761695,3927225.878295721,-27500.0,-51383.476101847489,-25881.186205407459,-17649.26172513964,39507.37106087961,52509.313673030942,-38336.992196187966,70902.694696395483,-26271.955007115288,-26018.994786187726,26018.994786187726,26271.955007115288,125824.41594078555,0.0
370012.02908761695,3927225.878295721,-27500.0,-48739.757769722441,-18847.720143645449,128.34830799006727,31491.250872885659,29718.106014947909,-24212.462333104977,51667.982737799532,-10655.548626695982,-31620.719931792777,31620.719931792777,10655.548626695982,92094.415257741362,0.0
375012.02908761695,3927225.878295721,-27500.0,-42472.402608265416,-9831.6481350440063,10991.928101289608,22674.96300922833,13958.458090667844,-14276.858531746258,37854.557602835164,2389.592153643247,-32486.213735158952,32486.213735158952,-2389.592153643247,67549.455107492191,0.0
380012.02908761695,3927225.878295721,-27500.0,-34251.452719453155,-1721.2285051268473,16027.344603517418,14772.378786269848,4081.4410317047978,-7664.7692343349727,28869.437166293686,11192.8748713067,-29730.779671201297,29730.779671201297,-11192.8748713067,51103.763256197861,0.0
385012.02908761695,3927225.878295721,-27500.0,-25727.171111991014,4254.2227692837032,17176.945134289657,8509.6960108770181,-1542.5575255256886,-3468.8246482129562,23335.387357157084,15973.69289194257,-25027.19453903292,25027.19453903292,-15973.69289194257,40741.882110518389,0.0
390012.02908761695,3927225.878295721,-27500.0,-18005.972302918686,8015.6504841839278,16194.338755262504,3944.2383114251338,-4395.7393642404268,-920.56449814588461,19782.03898808419,17766.966336161549,-19778.27640913198,19778.27640913198,-17766.966336161549,34272.974107208298,0.0
395012.02908761695,3927225.878295721,-27500.0,-11589.02028341941,9996.2025992791114,14281.591151146084,819.39898400085815,-5577.3219729021066,549.64945756311158,17251.722997545836,17669.153943003206,-14840.675568944213,14840.675568944213,-17669.153943003206,29961.759550269038,0.0
400012.02908761695,3927225.878295721,-27500.0,-6558.0975742817036,10728.760189781337,12131.661666618817,-1201.2781274806327,-5814.5751698471822,1334.4514867598411,15257.379962529016,16530.678146838414,-10606.101257714221,10606.101257714221,-16530.678146838414,26742.579076849041,0.0
405012.02908761695,3927225.878295721,-27500.0,-2778.4889182896022,10667.655324340718,10089.065854968547,-2425.4679381030792,-5556.480973656001,1694.7124607032817,13574.644494785347,14916.216005251445,-7174.7277774751683,7174.7277774751683,-14916.216005251445,24076.81601891587,0.0
410012.02908761695,3927225.878295721,-27500.0,-36.336786681371976,10145.600220503053,8294.695458238808,-3098.3598182894257,-5067.3171455112606,1800.2833454392774,12103.621523602171,13164.182092513169,-4497.9670507968995,4497.9670507968995,-13164.182092513169,21728.105108048578,0.0
415012.02908761695,3927225.878295721,-27500.0,1888.1725691761162,9386.2517779036843,6783.1752698167074,-3402.2742832180593,-4496.3054612983196,1759.9915003913063,10798.676152657619,11459.977613165705,-2467.4530289115291,2467.4530289115291,-11459.977613165705,19603.234302450961,0.0
420012.02908761695,3927225.878295721,-27500.0,3189.2356267275477,8531.2358737155937,5539.6425545530219,-3467.3879038326822,-3923.6354638173443,1642.2990086246052,9636.2820143480749,9894.2625910956267,-962.17911029661718,962.17911029661718,-9894.2625910956267,17667.835044382784,0.0
425012.02908761695,3927225.878295721,-27500.0,4026.0442759867287,7665.5916774863936,4530.0186101085856,-3384.1195781256429,-3389.2136710584477,1489.2576239240368,8601.3255405493055,8502.6069051026789,129.90108470451196,-129.90108470451196,-8502.6069051026789,15908.134497501373,0.0
430012.02908761695,3927225.878295721,-27500.0,4523.6127417722701,6837.2747525061823,3715.9217113478944,-3213.8977262514204,-2910.0702944465775,1325.8584976677485,7681.6705663188532,7290.3641527521195,903.99073724027721,-903.99073724027721,-7290.3641527521195,14315.485351531057,0.0
435012.02908761695,3927225.878295721,-27500.0,4777.4973369703239,6070.8131734305716,3061.327114046278,-2997.5857098806946,-2490.6924390629979,1166.2488032791221,6866.234874060905,6247.518487014604,1437.2280818329295,-1437.2280818329295,-6247.518487014604,12881.007860699146,0.0
440012.02908761695,3927225.878295721,-27500.0,4859.4112358602433,5376.4222888253535,2535.0442114185162,-2761.746714204744,-2129.0596031229038,1017.8241276170342,6144.4803411008297,5357.2218445102853,1790.3283661660732,-1790.3283661660732,-5357.2218445102853,11594.368640989365,0.0
445012.02908761695,3927225.878295721,-27500.0,4822.4559673043559,4755.897171181261,2111.1951925341332,-2523.1581527757635,-1820.0978786028543,883.88349376612746,5506.3975833849763,4600.5073504219981,2010.187482891062,-2010.187482891062,-4600.5073504219981,10444.027710869817,0.0
250012.02908761695,3932225.878295721,-27500.0,10632.318968588363,-2963.0359307564622,775.88395546514766,4314.3737522119991,-1190.7668725382819,1293.9119792016595,6770.6467596417824,-3599.2031548861141,8080.9198164432219,-8080.9198164432219,3599.2031548861141,13369.582651928773,0.0
255012.02908761695,3932225.878295721,-27500.0,11708.268658914998,-3537.9861411962215,979.90071682094288,4970.4950926771917,-1475.5205534160741,1551.7572364825287,7638.6320467295154,-4132.5493525819493,8902.3019900845647,-8902.3019900845647,4132.5493525819493,15082.798027638957,0.0
260012.02908761695,3932225.878295721,-27500.0,12883.729401202263,-4235.4038006798601,1252.42540551866,5737.8324362130788,-1836.3419129087356,1866.952607119596,8644.1602344083858,-4747.9687409745602,9794.317633460505,-9794.317633460505,4747.9687409745602,17065.101164423493,0.0
265012.02908761695,3932225.878295721,-27500.0,14154.48623188957,-5082.0647292054809,1618.8968890317142,6634.1201466982138,-2295.2901486039582,2252.502064379305,9811.617265504683,-5454.1328423883397,10749.646231993349,-10749.646231993349,5454.1328423883397,19362.89513745689,0.0
270012.02908761695,3932225.878295721,-27500.0,15507.213208396706,-6109.6595549798221,2114.8269431621425,7678.2003694143768,-2881.0080777149942,2723.8522051607638,11169.651245405021,-6257.2256881783633,11751.622695379325,-11751.622695379325,6257.2256881783633,22029.964709379256,0.0
275012.02908761695,3932225.878295721,-27500.0,16914.177259474527,-7354.6809351485963,2789.9239532413599,8888.7396098633126,-3630.5221878989796,3298.8784617762967,12751.661068693098,-7157.8881108241258,12768.906835902882,-12768.906835902882,7157.8881108241258,25127.875126049843,0.0
280012.02908761695,3932225.878295721,-27500.0,18325.340037558522,-8857.2240910868422,3713.8566815405479,10281.806715138846,-4591.2978908827681,3997.4567872134639,14596.121535605787,-8145.9900131652848,13747.500516094302,-13747.500516094302,8145.9900131652848,28725.772564187144,0.0
285012.02908761695,3932225.878295721,-27500.0,19656.611178594005,-10657.612040035427,4984.1906121381244,11866.581003029998,-5823.3298377985793,4840.3075534513346,16746.529418540169,-9191.8446170686657,14598.839230373018,-14598.839230373018,9191.8446170686657,32899.035986704883,0.0
290012.02908761695,3932225.878295721,-27500.0,20772.431365473276,-12788.80042476933,6736.9826697739963,13637.986209952011,-7400.6708914035671,5846.6650010606163,19250.575224628243,-10231.611278205593,15182.125790020775,-15182.125790020775,10231.611278205593,37725.807281406189,0.0
295012.02908761695,3932225.878295721,-27500.0,21459.930000920314,-15260.737433773607,9160.132819651637,15564.147530820372,-9411.0325836521915,7030.1587213770727,22157.777639778669,-11143.198449937674,15278.233975914503,-15278.233975914503,11143.198449937674,43279.568375766539,0.0
300012.02908761695,3932225.878295721,-27500.0,21390.760333760871,-18029.394379237019,12508.092005321338,17564.790024072317,-11950.382484401962,8392.0318233888393,25514.131611666478,-11706.677309298089,14551.621072804761,-14551.621072804761,11706.677309298089,49614.342692978425,0.0
305012.02908761695,3932225.878295721,-27500.0,20065.862294963288,-20936.290896535076,17112.033718258022,19472.860689731144,-15105.516755229342,9909.9691854703742,29350.952919293122,-11539.625258719105,12496.461557412458,-12496.461557412458,11539.625258719105,56735.880622308199,0.0
310012.02908761695,3932225.878295721,-27500.0,16741.555935762935,-23590.697344385553,23366.577186559756,20963.761555113906,-18907.81846666733,11517.498412234178,33663.07498867964,-9993.5731218568435,8367.7075660441587,-8367.7075660441587,9993.5731218568435,64546.950914810513,0.0
315012.02908761695,3932225.878295721,-27500.0,10357.461771405291,-25141.655832138746,31636.413656349901,21422.718133999068,-23215.820426832815,13057.024081785521,38370.819250019369,-5999.6050534896876,1122.7147325329629,-1122.7147325329629,5999.6050534896876,72750.722734834257,0.0
320012.02908761695,3932225.878295721,-27500.0,-418.43222656334075,-23857.56844704624,41917.556964214506,19710.936136111555,-27417.305772942676,14153.424613035093,43274.000392295005,2102.4985126633565,-10499.054733892934,10499.054733892934,-2102.4985126633565,80721.748699515942,0.0
325012.02908761695,3932225.878295721,-27500.0,-16584.827658789633,-16502.984667154225,52799.989907140676,13867.727287138679,-29688.62512359719,13870.867323685134,48094.516723963054,16455.21099332119,-27279.712775183318,27279.712775183318,-16455.21099332119,87560.664111307095,0.0
330012.02908761695,3932225.878295721,-27500.0,-36399.831743404968,1709.5891080039717,58790.646891590644,1334.108584113133,-25396.569355917763,9942.1844824889431,53061.686346303526,37948.49484887709,-46845.826438550197,46845.826438550197,-37948.49484887709,93523.022899359101,0.0
335012.02908761695,3932225.878295721,-27500.0,-50066.746505613046,32457.174281284002,46317.886812374323,-17787.366864114043,-5477.230548158911,-1968.2517953873617,60987.60990261491,59331.959476145057,-57621.44004691724,57621.44004691724,-59331.959476145057,105674.41917382828,0.0
340012.02908761695,3932225.878295721,-27500.0,-41472.787552070062,59077.918348668762,857.87789626235099,-31893.533467231216,36872.634917154974,-24806.973936547787,77402.602739373571,56229.033637475048,-40010.748115344584,40010.748115344584,-56229.033637475048,137713.93160351113,0.0
345012.02908761695,3932225.878295721,-27500.0,-18523.912949107838,50422.79196247377,-57603.899013107992,-22399.711754426313,83683.924907433728,-49144.112037513521,97780.724130889779,13769.736324556485,-1470.9288812506957,1470.9288812506957,-13769.736324556485,177228.15216827203,0.0
350012.02908761695,3932225.878295721,-27500.0,-11501.230748107046,14937.677140187607,-84583.784295539488,3424.0861039857837,103379.123974373,-59240.250104151055,106058.23036032588,-32520.543292040558,19052.174285614441,-19052.174285614441,32520.543292040558,192087.19290156345,0.0
355012.02908761695,3932225.878295721,-27500.0,-20439.2835184418,-14440.045206365619,-76970.086071226629,23911.776904803224,94939.080143800064,-54929.144919699516,98734.228907798417,-52536.628752849036,14874.684643131917,-14874.684643131917,52536.628752849036,178372.34479696138,0.0
360012.02908761695,3932225.878295721,-27500.0,-31289.891947210792,-28089.881883727947,-55148.554730825228,33011.782416252114,74439.878909622043,-44527.934074216348,83347.064610797897,-50948.567196489763,1683.6800415080615,-1683.6800415080615,50948.567196489763,150628.62945008816,0.0
365012.02908761695,3932225.878295721,-27500.0,-38158.333691302563,-30040.749728076953,-32170.998139332503,33860.772340227391,52587.520273934228,-33381.62495015571,66367.856183349519,-39142.040627947979,-11000.001145296181,11000.001145296181,39142.040627947979,120305.45658502643,0.0
370012.02908761695,3932225.878295721,-27500.0,-40301.567475369411,-25346.850559847033,-13354.6958561183,30101.153977537993,33851.535373526,-23593.530802390444,51054.857058507558,-24485.477317742243,-19927.215531307349,19927.215531307349,24485.477317742243,92943.366164437844,0.0
375012.02908761695,3932225.878295721,-27500.0,-38474.831901364036,-17859.046545308225,-221.89825624867206,24324.049898145819,19581.795894842187,-15800.554463685738,38706.518090095706,-11034.742530313302,-24467.646658239359,24467.646658239359,11034.742530313302,70655.55315593147,0.0
380012.02908761695,3932225.878295721,-27500.0,-33958.105070319318,-10169.797927314883,7636.9217392405599,18218.152871927377,9633.6975373257774,-10001.497041363729,29574.450076561956,-636.54483651098053,-25256.776542959698,25256.776542959698,636.54483651098053,53777.24060301463,0.0
385012.02908761695,3932225.878295721,-27500.0,-28110.986096546745,-3677.0931897084174,11481.805589292426,12731.22195579969,3205.2148582655041,-5905.8422433760179,23246.754139714063,6365.6714847693238,-23483.466916335063,23483.466916335063,-6365.6714847693238,41702.868239360068,0.0
390012.02908761695,3932225.878295721,-27500.0,-22026.406227124215,1145.5675690534649,12685.219873919268,8253.7826764851561,-651.83999274666803,-3134.8007538097363,18951.276225078611,10451.710082643403,-20336.837350892551,20336.837350892551,-10451.710082643403,33400.865931979431,0.0
395012.02908761695,3932225.878295721,-27500.0,-16397.155443717063,4369.5908141384571,12360.837005926369,4831.5669298207922,-2768.5104629805223,-1332.1396492025142,15961.812510297175,12378.545468084531,-16717.330013779851,16717.330013779851,-12378.545468084531,27767.665716480977,0.0
400012.02908761695,3932225.878295721,-27500.0,-11560.133152167284,6296.9379783335944,11275.344496696795,2341.6509698709692,-3774.5589534659694,-207.68141940560841,13774.899340390888,12867.440365729757,-13185.804753457216,13185.804753457216,-12867.440365729757,23858.849498158306,0.0
405012.02908761695,3932225.878295721,-27500.0,-7608.3182744647338,7271.8696088633315,9899.2687664851728,604.6307731414106,-4107.9036356176202,457.13736460291364,12081.314626940861,12483.857741062149,-10030.895901017017,10030.895901017017,-12483.857741062149,20993.382929277708,0.0
410012.02908761695,3932225.878295721,-27500.0,-4496.7026702118455,7595.577118263418,8494.1753081835159,-557.39462663142535,-4056.3710143724657,819.27521823317988,10701.719127726163,11624.885843104443,-7361.7021909388995,7361.7021909388995,-11624.885843104443,18743.964107998443,0.0
415012.02908761695,3932225.878295721,-27500.0,-2117.1969085308156,7501.0909356266102,7189.8378423953754,-1296.947278760889,-3801.4314311579728,987.82609084950423,9535.1990951929074,10549.107637324252,-5184.5499688837936,5184.5499688837936,-10549.107637324252,16868.949638511374,0.0
420012.02908761695,3932225.878295721,-27500.0,-343.38564531544631,7156.0912224820595,6039.3647098512774,-1735.2288276029719,-3453.4268106278905,1036.7076357450808,8525.0444221655616,9414.6659044685402,-3454.9389173129007,3454.9389173129007,-9414.6659044685402,15240.597786699014,0.0
425012.02908761695,3932225.878295721,-27500.0,946.197955246324,6675.3252102944962,5054.4215224570062,-1964.204774072472,-3076.9007852139639,1014.8875988390197,7638.2634065402272,8312.0583955122711,-2108.654349362881,2108.654349362881,-8312.0583955122711,13793.338364293448,0.0
430012.02908761695,3932225.878295721,-27500.0,1857.931842344836,6134.1745071334453,4226.1896740063494,-2051.513162696659,-2707.7423753877097,954.09170253267098,6854.2236126059906,7288.5125023112669,-1078.6346985635278,1078.6346985635278,-7288.5125023112669,12492.882548943742,0.0
435012.02908761695,3932225.878295721,-27500.0,2480.1793720796854,5580.2025634670026,3537.1467041875194,-2045.758827329098,-2364.3602339765694,874.37798526341544,6158.6705419345262,6364.7235871528974,-303.10888048720062,303.10888048720062,-6364.7235871528974,11319.67424785482,0.0
440012.02908761695,3932225.878295721,-27500.0,2883.9355097434632,5042.012887525002,2967.3399622869974,-1981.2175508161934,-2054.7949908915325,788.05816518582276,5540.7275253056941,5545.8338189724145,271.20447677521361,-271.20447677521361,-5545.8338189724145,10260.719362565431,0.0
445012.02908761695,3932225.878295721,-27500.0,3124.9777951672099,4535.6379506256299,2497.4832145728246,-1881.6497862725687,-1781.1470863941547,702.39135281839162,4991.4250398226941,4828.3661820264297,688.49928807693277,-688.49928807693277,-4828.3661820264297,9305.7950814451506,0.0
250012.02908761695,3937225.878295721,-27500.0,9799.9325749892705,-3527.9856321949987,1207.5553367984739,4032.4954981571677,-1413.757253911763,1222.5525988698162,6517.7446002813667,-3726.1530355555328,7403.3635025748845,-7403.3635025748845,3726.1530355555328,12877.093841308011,0.0
255012.02908761695,3937225.878295721,-27500.0,10674.508991647064,-4156.8586086240884,1505.3633058070038,4606.8736935145289,-1731.2003872556234,1456.3240365592437,7316.5569802537975,-4225.8242172575738,8051.6461494004088,-8051.6461494004088,4225.8242172575738,14457.687441804608,0.0
260012.02908761695,3937225.878295721,-27500.0,11596.687108260021,-4905.2686797052547,1893.1494799850511,5266.7720537217001,-2127.4494348942949,1738.7045068290026,8232.5335871589541,-4786.0541380184486,8724.226467761142,-8724.226467761142,4786.0541380184486,16268.402740084221,0.0
265012.02908761695,3937225.878295721,-27500.0,12548.491516196094,-5794.1452434583061,2400.7547848694385,6021.2899814432221,-2623.062855521935,2079.3321687117714,9283.5601541676351,-5406.1944915813874,9401.1387790315894,-9401.1387790315894,5406.1944915813874,18343.040042903733,0.0
270012.02908761695,3937225.878295721,-27500.0,13499.488505159376,-6845.7328617039229,3068.3128571837478,6877.6311420498332,-3243.6509441851435,2488.9505369153812,10489.574668280635,-6079.4473785038281,10049.940200430159,-10049.940200430159,6079.4473785038281,20718.34781507598,0.0
275012.02908761695,3937225.878295721,-27500.0,14401.083772889626,-8081.597424056381,3949.6564828007658,7838.8041414356794,-4020.6215689260466,2978.8693245045793,11872.250879982574,-6788.5356420244862,10620.022264405037,-10620.022264405037,6788.5356420244862,23432.760545532474,0.0
280012.02908761695,3937225.878295721,-27500.0,15178.618082693456,-9518.6495052161263,5116.5426557237215,8899.9048946275143,-4991.5245610988131,3559.8169280322568,13454.190050344416,-7498.9362484290614,11034.701804199995,-11034.701804199995,7498.9362484290614,26523.90596277775,0.0
285012.02908761695,3937225.878295721,-27500.0,15720.619543424578,-11161.740520472053,6663.5070944035369,10042.256948974526,-6199.3779961705268,4239.8108474517458,15257.289641180399,-8148.4606486956163,11180.453120687906,-11180.453120687906,8148.4606486956163,30024.128125684991,0.0
290012.02908761695,3937225.878295721,-27500.0,15864.617586140857,-12990.40785033234,8712.5092679072641,11224.34167367318,-7689.7696042876823,5020.506030154741,17299.813728312503,-8631.489557391269,10892.743399530336,-10892.743399530336,8631.489557391269,33952.85620456803,0.0
295012.02908761695,3937225.878295721,-27500.0,15379.344222066007,-14935.76221694704,11415.04986490551,12367.945236640846,-9503.4336089304416,5891.273784147319,19591.516863268222,-8775.677356276623,9938.4942586893794,-9938.4942586893794,8775.677356276623,38304.053891187199,0.0
300012.02908761695,3937225.878295721,-27500.0,13944.716828907907,-16841.013664765054,14946.031737759251,13337.195617910753,-11659.906779460578,6819.925841899596,22125.983324645469,-8308.8659350614726,7997.1058526241322,-7997.1058526241322,8308.8659350614726,43026.286157787064,0.0
305012.02908761695,3937225.878295721,-27500.0,11135.718263909366,-18395.623133465593,19475.962502419188,13907.211882825906,-14123.776966770347,7738.214775803237,24869.456622332837,-6815.729799805109,4647.4916970138365,-4647.4916970138365,6815.729799805109,47992.816323798135,0.0
310012.02908761695,3937225.878295721,-27500.0,6429.7577325752927,-19030.077322698278,25091.137420865816,13718.953892347725,-16736.958068957163,8518.0788668166169,27747.356433065466,-3692.0863131468377,-616.25588108592001,616.25588108592001,3692.0863131468377,52962.960038728103,0.0
315012.02908761695,3937225.878295721,-27500.0,-707.41117583461403,-17764.928878327701,31595.780183257932,12222.890520600266,-19085.435278389021,8929.0950265044303,30638.762234053385,1865.4804766649804,-8278.6749095586238,8278.6749095586238,-1865.4804766649804,57556.974306952718,0.0
320012.02908761695,3937225.878295721,-27500.0,-10520.929311901724,-13061.515070547348,38067.351144470413,8646.7249202859584,-20248.497649609446,8557.8591819002831,33421.794297616907,10706.162471501591,-18454.532920154365,18454.532920154365,-10706.162471501591,61350.857341589406,0.0
325012.02908761695,3937225.878295721,-27500.0,-22192.759661781009,-2940.495220838493,41994.477647104846,2138.8058100679159,-18391.887051727797,6670.954352250289,36201.780133459579,23052.766278108305,-30006.761394518202,30006.761394518202,-23052.766278108305,64458.365588013265,0.0
330012.02908761695,3937225.878295721,-27500.0,-32456.014058977114,13778.184630987067,38168.742957584749,-7488.9370470631457,-10413.416410839465,2097.12496221945,39937.882449177065,36653.613815938828,-38947.667333034398,38947.667333034398,-36653.613815938828,69314.890505814154,0.0
335012.02908761695,3937225.878295721,-27500.0,-35004.578248644269,33804.107524915125,19360.681862809699,-17904.480790610163,7183.4873549772192,-6417.5056194550425,46968.413980299614,43923.07927676152,-37633.517158316332,37633.517158316332,-43923.07927676152,82239.469932211374,0.0
340012.02908761695,3937225.878295721,-27500.0,-25447.070866683032,45664.203314417347,-16322.294025206789,-22782.205284899854,33971.070330365153,-18537.796200213274,58778.110217174828,33405.02309897184,-20300.63633293259,20300.63633293259,-33405.02309897184,106502.58176907533,0.0
345012.02908761695,3937225.878295721,-27500.0,-10859.776316143203,37567.70237079692,-54909.647441458968,-16293.471193121301,60586.396365186425,-30437.272267357464,71727.494568782437,3495.0555653149395,5034.8168486457589,-5034.8168486457589,-3495.0555653149395,132302.10122539007,0.0
350012.02908761695,3937225.878295721,-27500.0,-4465.1452795127861,14099.985108873849,-75925.790370374249,-1388.2406846835765,74789.718045113768,-37162.556128780459,78887.746130855827,-29003.48467566432,20907.9956716954,-20907.9956716954,29003.48467566432,145677.32340199139,0.0
355012.02908761695,3937225.878295721,-27500.0,-8867.1879906477516,-9203.8996116449489,-74488.661202564763,13293.638990215317,73670.478315379907,-37405.880562819599,77335.572170008032,-47732.905631458503,21138.211894503842,-21138.211894503842,47732.905631458503,142527.89064861721,0.0
360012.02908761695,3937225.878295721,-27500.0,-17766.591078118465,-23465.199065148154,-59540.099944106303,22626.700535629541,62722.313024829265,-33245.856136711329,69350.386213726757,-50731.039067187608,11905.89763527349,-11905.89763527349,50731.039067187608,127781.16277452282,0.0
365012.02908761695,3937225.878295721,-27500.0,-25722.1157999401,-28376.446299002924,-40619.20970492356,26237.759079126958,48219.89513273121,-27183.147191236691,58480.138649782122,-43626.496227852156,409.60611565419094,-409.60611565419094,43626.496227852156,107975.44107668317,0.0
370012.02908761695,3937225.878295721,-27500.0,-30501.173127376329,-26782.915703649051,-23250.595896996831,25660.774231966971,34118.919307327364,-20884.637031101138,47341.129919055893,-32165.101794880899,-9341.4695703660873,9341.4695703660873,32165.101794880899,87721.29095281192,0.0
375012.02908761695,3937225.878295721,-27500.0,-31841.471307375567,-21692.374306041835,-9721.2340821517973,22624.224320307039,22280.166377834554,-15235.794450574935,37401.516987739218,-20217.342421074107,-15860.704953728047,15860.704953728047,20217.342421074107,69528.36267505349,0.0
380012.02908761695,3937225.878295721,-27500.0,-30389.631251086725,-15412.589945363543,-408.72984313708224,18517.84167307536,13242.018309941071,-10602.575034694408,29306.519478951384,-9894.9967509334128,-19098.683512983993,19098.683512983993,9894.9967509334128,54447.925353388084,0.0
385012.02908761695,3937225.878295721,-27500.0,-27107.800926073076,-9402.7157162233416,5271.6574707864638,14282.205138603413,6824.9742488558686,-7035.2517776012255,23147.979840011834,-2014.9142879342944,-19709.827313402337,19709.827313402337,2014.9142879342944,42641.721883577105,0.0
390012.02908761695,3937225.878295721,-27500.0,-22918.681761625823,-4387.4906006229621,8239.3200209267234,10449.304337751766,2543.8963527338078,-4418.199630441909,18643.086477974659,3415.5993522287836,-18558.687060222866,18558.687060222866,-3415.5993522287836,33784.303894666664,0.0
395012.02908761695,3937225.878295721,-27500.0,-18528.372046054243,-581.04877704147725,9385.8738046263497,7247.9301883392282,-142.82586314370707,-2572.5967569406857,15371.728290824183,6786.3586091282777,-16428.769477240177,16428.769477240177,-6786.3586091282777,27332.580908157299,0.0
400012.02908761695,3937225.878295721,-27500.0,-14388.395955120184,2089.9117565825072,9420.7786162792909,4717.5824601596241,-1711.6530654961184,-1316.0215227563551,12964.830233800749,8603.4274308942986,-13904.375942415965,13904.375942415965,-8603.4274308942986,22697.588793844032,0.0
405012.02908761695,3937225.878295721,-27500.0,-10735.614176694819,3821.7935628170198,8845.1604632408089,2798.9360495599394,-2534.3046974951421,-490.02726525615077,11149.121234241273,9338.5038267500513,-11363.023989383264,11363.023989383264,-9338.5038267500513,19348.147361730003,0.0
410012.02908761695,3937225.878295721,-27500.0,-7656.4996369889195,4836.540439004395,7983.8550316748779,1393.0881251188287,-2880.2722851860212,31.548405271661188,9734.6322709449414,9370.493103520912,-9016.768370092439,9016.768370092439,-9370.493103520912,16863.254072357056,0.0
415012.02908761695,3937225.878295721,-27500.0,-5146.1575711424966,5334.4692080822697,7032.5659657770011,394.94107792524358,-2935.3955213735057,343.82493472760382,8594.8207226889754,8977.9790818743641,-6963.3317514803684,6963.3317514803684,-8977.9790818743641,14942.807530838729,0.0
420012.02908761695,3937225.878295721,-27500.0,-3151.9071104293325,5477.6451395119539,6100.4570914007008,-290.76465687494937,-2823.0757789463323,515.85999289935353,7648.0561425253973,8353.5420666510327,-5229.5710396415152,5229.5710396415152,-8353.5420666510327,13390.292507686963,0.0
425012.02908761695,3937225.878295721,-27500.0,-1601.4695508673458,5388.8189343548365,5242.3043684132981,-743.55184321536956,-2622.654234861162,596.39026890177558,6842.4976895394539,7623.855610234551,-3802.7931922355901,3802.7931922355901,-7623.855610234551,12084.61152839209,0.0
430012.02908761695,3937225.878295721,-27500.0,-419.37315562743515,5156.84003451431,4480.5343212555608,-1026.5660622776124,-2383.5426741165775,619.02998303747131,6145.068703200267,6868.3816997670892,-2651.1351503788205,2651.1351503788205,-6868.3816997670892,10953.704084035402,0.0
435012.02908761695,3937225.878295721,-27500.0,464.55709198096298,4843.7969314960264,3819.4068171837616,-1188.3025634622961,-2135.3943976832479,606.50013238922531,5534.107621881557,6134.2924303231748,-1735.7958569389029,1735.7958569389029,-6134.2924303231748,9954.9982282258952,0.0
440012.02908761695,3937225.878295721,-27500.0,1111.5355075348996,4491.7476307414045,3253.7296595148114,-1265.1226572314208,-1895.128368575583,573.86182621000228,4994.7841073639547,5447.4639583189319,-1017.8226774065288,1017.8226774065288,-5447.4639583189319,9062.7490937710445,0.0
250012.02908761695,3942225.878295721,-27500.0,8837.1775794694058,-3927.7000617119133,1653.7227917842108,3701.4032907406122,-1581.4407131483215,1137.4683778005869,6202.632235009838,-3687.7990325471383,6599.6597130750379,-6599.6597130750379,3687.7990325471383,12266.276453044344,0.0
255012.02908761695,3942225.878295721,-27500.0,9500.7330217833951,-4568.3470285204703,2037.4455941591336,4187.0497648005849,-1914.948238828036,1344.386170619915,6922.6647044653828,-4121.1115864281237,7063.9968543284758,-7063.9968543284758,4121.1115864281237,13695.185776910252,0.0
260012.02908761695,3942225.878295721,-27500.0,10163.893102002239,-5314.4326434740506,2526.746695296335,4732.6996214524715,-2324.6933005686528,1590.8388853469203,7738.7224258662245,-4587.7487498121809,7509.4870093129302,-7509.4870093129302,4587.7487498121809,15312.971969733111,0.0
265012.02908761695,3942225.878295721,-27500.0,10798.46744878238,-6178.307370104757,3152.727265683423,5339.8718197188664,-2828.041591912599,1883.2789983774019,8662.8408203443269,-5077.6272597913194,7906.7962742779473,-7906.7962742779473,5077.6272597913194,17141.333385908041,0.0
270012.02908761695,3942225.878295721,-27500.0,11362.576727687763,-7169.6955189784703,3955.4534601613677,6006.0538696899803,-3445.4209936031707,2228.1639615900799,9707.5386819916766,-5571.6978011961064,8213.0237643731798,-8213.0237643731798,5571.6978011961064,19201.241589484387,0.0
275012.02908761695,3942225.878295721,-27500.0,11795.678521477103,-8292.1385549761108,4985.9450792447415,6721.9785470871602,-4199.9976330244799,2631.0881739467777,10885.015328887654,-6037.1499790562439,8366.7839955436848,-8366.7839955436848,6037.1499790562439,21510.634137046349,0.0
280012.02908761695,3942225.878295721,-27500.0,12012.348473342243,-9537.0142541207351,6307.913290540957,7467.5884423784728,-5116.4329250814544,3095.2578171860541,12205.621225298708,-6420.5143112678697,8282.0687571231119,-8282.0687571231119,6420.5143112678697,24080.70456968392,0.0
285012.02908761695,3942225.878295721,-27500.0,11894.974041747671,-10873.783335708082,7998.357245533789,8206.2092639791172,-6217.910269967967,3618.9761164055244,13675.38774115185,-6638.0151855180775,7841.0929764965567,-7841.0929764965567,6638.0151855180775,26910.178362842988,0.0
290012.02908761695,3942225.878295721,-27500.0,11286.165570278677,-12234.505459831411,10145.084835249374,8876.3925438602855,-7520.0271883515961,4191.6959354654646,15292.547926521174,-6562.6625775336079,6887.0648619879457,-6887.0648619879457,6562.6625775336079,29976.841629435839,0.0
295012.02908761695,3942225.878295721,-27500.0,9983.0762281226125,-13489.99928506875,12837.254378544538,9380.9348955156984,-9019.1954490579083,4788.0882621571145,17043.011039384946,-6008.2541147559596,5219.4050650156632,-5219.4050650156632,6008.2541147559596,33225.673421996064,0.0
300012.02908761695,3942225.878295721,-27500.0,7738.8606176829062,-14414.703470038887,16141.297597553576,9573.0108280807908,-10671.665801583433,5359.4731982617404,18895.060078586244,-4712.618197946621,2597.3945736083742,-2597.3945736083742,4712.618197946621,36553.892744931363,0.0
305012.02908761695,3942225.878295721,-27500.0,4282.681602274115,-14638.6965693901,20047.903155797201,9240.7354898352278,-12357.006619818301,5821.7907849232579,20795.049417072074,-2328.0644138444718,-1234.7324795387699,1234.7324795387699,2328.0644138444718,39796.751088327313,0.0
310012.02908761695,3942225.878295721,-27500.0,-618.20828341281788,-13592.68186649255,24364.996684381298,8095.6709131959051,-13817.084237652711,6038.9763544325078,22670.590996192816,1559.2919851987426,-6474.5038599242725,6474.5038599242725,-1559.2919851987426,42729.36862997085,0.0
315012.02908761695,3942225.878295721,-27500.0,-7010.9905895382335,-10476.141864678229,28519.455031396395,5782.2311810545698,-14560.891783404659,5800.3887262172639,24459.816109162843,7329.5861660631272,-13090.373504275594,13090.373504275594,-7329.5861660631272,45132.692539564683,0.0
320012.02908761695,3942225.878295721,-27500.0,-14464.217558684495,-4343.8544707238125,31237.390536346953,1952.4058217797844,-13738.382570561018,4793.6138028242176,26209.971049055112,15042.929181382355,-20483.492266915182,20483.492266915182,-15042.929181382355,47049.543430396887,0.0
325012.02908761695,3942225.878295721,-27500.0,-21620.047046670348,5465.5925757892292,30178.819777780856,-3501.8433416034013,-10048.079181679836,2590.5281767889946,28303.923097278002,23815.337816575418,-26964.928475126144,26964.928475126144,-23815.337816575418,49441.81133321848,0.0
330012.02908761695,3942225.878295721,-27500.0,-25889.670251852109,18243.621488878696,21987.84392903882,-9952.5171937483392,-1917.5671765248173,-1282.9013658853787,31715.892060005437,30875.84281060423,-29372.524442790385,29372.524442790385,-30875.84281060423,55011.968471037908,0.0
335012.02908761695,3942225.878295721,-27500.0,-24283.713621133542,30365.671239752137,3891.3024200367854,-15431.836528516242,11568.537317874077,-7047.2434197206221,37640.481028781636,31218.633506147067,-23972.647037546303,23972.647037546303,-31218.633506147067,66988.278690993786,0.0
340012.02908761695,3942225.878295721,-27500.0,-16329.272176663393,35387.087539332519,-22497.772041325203,-16865.156700291885,28885.916833730698,-14106.120300016322,46011.639135601639,20130.613909383828,-9910.8382036423081,9910.8382036423081,-20130.613909383828,84675.458699661933,0.0
345012.02908761695,3942225.878295721,-27500.0,-6590.5251396226085,28639.007317745298,-48754.289026176979,-12232.640438178143,45222.157278470753,-20777.413688799821,54575.284050438058,-1224.1860426878561,7360.6994547475842,-7360.6994547475842,1224.1860426878561,102105.33480763197,0.0
350012.02908761695,3942225.878295721,-27500.0,-1494.7195826496686,12680.33569811115,-64665.234250001755,-2930.6973366798593,55125.318189229605,-25136.064618356057,60041.692029179358,-24268.385060950215,19223.700735823182,-19223.700735823182,24268.385060950215,112607.87273712669,0.0
355012.02908761695,3942225.878295721,-27500.0,-3268.0728576440461,-4781.0688712110486,-66430.1396604771,7215.4400356442093,56486.866250413295,-26323.620090271641,60546.371792842379,-40029.548516018316,21470.255189567015,-21470.255189567015,40029.548516018316,113410.01140231109,0.0
360012.02908761695,3942225.878295721,-27500.0,-9414.4079753139304,-17638.786824840106,-57475.177436658974,15038.891649754622,51031.652501821656,-24785.54244878493,56605.973098731694,-45441.837756951601,16077.647498631568,-16077.647498631568,45441.837756951601,105980.82206345143,0.0
365012.02908761695,3942225.878295721,-27500.0,-16376.295219518055,-24047.246375209052,-43521.92488080584,19387.885836750254,41937.270343655393,-21554.627742574397,49929.849678535989,-42482.167628113733,7291.5845186462575,-7291.5845186462575,42482.167628113733,93604.570927227396,0.0
370012.02908761695,3942225.878295721,-27500.0,-21817.454682621574,-24965.260706582121,-29060.984563607093,20569.412076579443,31925.97243109436,-17619.558224167376,42213.218526663026,-34713.109846708219,-1485.9998627874229,1485.9998627874229,34713.109846708219,79356.138144638549,0.0
375012.02908761695,3942225.878295721,-27500.0,-24829.849291811333,-22282.029876346383,-16596.898416990443,19478.473654883579,22698.885168090765,-13689.643826603902,34668.908249048472,-25236.56095181359,-8418.1714433111556,8418.1714433111556,25236.56095181359,65372.67342865411,0.0
380012.02908761695,3942225.878295721,-27500.0,-25454.969366646827,-17800.296535792906,-7074.2155914123605,17065.854942819744,15056.324658295354,-10180.076402792332,28007.006685371911,-16112.02095548018,-12908.210978704628,12908.210978704628,16112.02095548018,52865.594100642527,0.0
385012.02908761695,3942225.878295721,-27500.0,-24210.990715366785,-12857.438861073773,-481.62584619867346,14102.327695167387,9188.3126520417536,-7272.367092952396,22537.129887194467,-8418.9182865890616,-15111.896256906861,15111.896256906861,8418.9182865890616,42354.460882385974,0.0
390012.02908761695,3942225.878295721,-27500.0,-21756.420315684984,-8271.9278409846629,3656.5501920974912,11112.776932454046,4944.7325132099922,-4992.0040878673017,18258.690219391836,-2520.1679176932603,-15533.333952149813,15533.333952149813,2520.1679176932603,33910.736489548937,0.0
395012.02908761695,3942225.878295721,-27500.0,-18690.947156194052,-4437.7314921414618,5953.1015973431704,8398.3920725203607,2032.17844963178,-3278.1186829616845,14985.397152956277,1653.6347501744949,-14752.133290317264,14752.133290317264,-1653.6347501744949,27351.755383184314,0.0
400012.02908761695,3942225.878295721,-27500.0,-15468.983000701044,-1462.6498470933873,6979.1032668398902,6093.9307866286272,133.56695032140516,-2034.0764873158178,12492.315551883466,4377.1481499849842,-13276.070836577062,13276.070836577062,-4377.1481499849842,22376.435844487463,0.0
405012.02908761695,3942225.878295721,-27500.0,-12387.965302376102,706.98986705304048,7191.607735820794,4227.6863884262884,-1032.637140611221,-1158.2319849086773,10584.263055709469,5982.2703282103039,-11486.911014402904,11486.911014402904,-5982.2703282103039,18652.391966077954,0.0
410012.02908761695,3942225.878295721,-27500.0,-9613.9977558749215,2196.9980145299228,6923.2204238523191,2769.2607756457983,-1691.776970490203,-559.38591753958917,9106.1745651220517,6778.8630496434016,-9640.492744280371,9640.492744280371,-6778.8630496434016,15868.227174933878,0.0
415012.02908761695,3942225.878295721,-27500.0,-7218.5308265701233,3151.1062269944005,6399.7398487646487,1661.9970604827995,-2012.8224189829068,-162.51956912725367,7940.0534847696426,7022.3102701847856,-7890.3303622935327,7890.3303622935327,-7022.3102701847856,13761.664004742539,0.0
420012.02908761695,3942225.878295721,-27500.0,-5212.2340657214081,3703.0119515509327,5765.7827089902785,842.41957726543842,-2116.8378700925532,90.771488009172515,6999.5724847661968,6907.6415678132616,-6316.3035289996424,6316.3035289996424,-6907.6415678132616,12129.762930937532,0.0
425012.02908761695,3942225.878295721,-27500.0,-3571.0117378406585,3964.9975992282762,5108.7875739652472,250.49619953737289,-2087.6157084369702,244.26049618204542,6223.662566427558,6576.0410910012388,-4949.8597014117777,4949.8597014117777,-6576.0410910012388,10826.158227351596,0.0
430012.02908761695,3942225.878295721,-27500.0,-2253.8594929766614,4025.6758857998743,4478.0770912289026,-165.84651886482948,-1981.498101693049,329.84650837498299,5570.0977054499544,6125.4978880368708,-3793.1280979729891,3793.1280979729891,-6125.4978880368708,9750.9425348981185,0.0
435012.02908761695,3942225.878295721,-27500.0,-1214.0674813828032,3952.0656001849466,3898.6820346285285,-449.48219447792076,-1835.3571720359682,370.27150531700636,5009.9441973776875,5621.5026062976231,-2832.1353224553859,2832.1353224553859,-5621.5026062976231,8838.4493748388322,0.0
255012.02908761695,3947225.878295721,-27500.0,8260.0680909412295,-4777.8921267840078,2536.8168077447631,3735.6562916335561,-2027.0677203439479,1222.1972015306551,6477.4849683810889,-3854.3124908937152,6007.4959403381108,-6007.4959403381108,3854.3124908937152,12832.960774880898,0.0
260012.02908761695,3947225.878295721,-27500.0,8678.2573586424514,-5476.7049254446529,3104.2213602208249,4168.2315047574157,-2430.7418577161725,1431.9427987428096,7190.3664442172831,-4203.9821183263866,6237.4083299828726,-6237.4083299828726,4203.9821183263866,14248.459702347922,0.0
265012.02908761695,3947225.878295721,-27500.0,9022.1425050199177,-6261.8082408820364,3814.3371280594442,4633.0657747202222,-2917.0359595386485,1676.1465253354193,7987.038492700769,-4540.3645554594241,6378.2094758987823,-6378.2094758987823,4540.3645554594241,15823.472929127136,0.0
270012.02908761695,3947225.878295721,-27500.0,9244.8250870052216,-7129.9953282314664,4702.7400439453268,5120.586624059787,-3500.1484059307741,1957.7056875055237,8874.620952847441,-4835.1052813519436,6382.7426758538822,-6382.7426758538822,4835.1052813519436,17565.840956396627,0.0
275012.02908761695,3947225.878295721,-27500.0,9283.04101589114,-8067.6271407920049,5811.695683650727,5613.4238113730698,-4194.1196340186207,2277.7257697526379,9858.212332560468,-5045.0861031782579,6187.8338076937262,-6187.8338076937262,5045.0861031782579,19477.426266143983,0.0
280012.02908761695,3947225.878295721,-27500.0,9053.5787945491993,-9043.9268508904115,7189.2004766778546,6082.8364798695875,-5010.4632742468202,2633.9225290151353,10938.886904719267,-5106.7295589125533,5710.9006087062007,-5710.9006087062007,5106.7295589125533,21550.266573133285,0.0
285012.02908761695,3947225.878295721,-27500.0,8450.3889809165594,-10001.098399709632,8885.4980616021421,6484.0374723101813,-5953.8267145478576,3018.1952306623971,12111.60314906526,-4929.0538488852626,4847.4226258384706,-4847.4226258384706,4929.0538488852626,23761.311764100003,0.0
290012.02908761695,3947225.878295721,-27500.0,7344.0985500323914,-10840.329772395115,10944.707045080784,6750.4478858397024,-7014.4737964423193,3413.1009859269393,13362.944622041348,-4386.1892778332258,3471.1890422328511,-3471.1890422328511,4386.1892778332258,26065.753839684352,0.0
295012.02908761695,3947225.878295721,-27500.0,5587.2324425144952,-11403.12156135546,13387.526173675931,6787.3699303287904,-8155.8443005622621,3786.9886317055593,14668.793592039025,-3311.5092339720632,1441.0395705552219,-1441.0395705552219,3311.5092339720632,28389.786809526297,0.0
300012.02908761695,3947225.878295721,-27500.0,3031.1208524372614,-11448.934364645771,16178.466118912807,6466.5729604082599,-9294.8655985072055,4087.6717910076468,15993.264919120355,-1498.5737642772326,-1379.1149053129609,1379.1149053129609,1498.5737642772326,30625.899476723876,0.0
305012.02908761695,3947225.878295721,-27500.0,-435.45438244939083,-10634.497043850453,19168.004988702287,5625.3937189997569,-10272.46446530568,4234.8307044480325,17292.596375376852,1280.0116688864043,-5075.4789777715841,5075.4789777715841,-1280.0116688864043,32639.496968209925,0.0
310012.02908761695,3947225.878295721,-27500.0,-4811.1387728246937,-8510.4729648239445,21998.529801017259,4078.0867052236918,-10813.070973363054,4111.9679365783313,18532.34000237528,5214.4313367393461,-9597.6372688372649,9597.6372688372649,-5214.4313367393461,34308.875881678883,0.0
315012.02908761695,3947225.878295721,-27500.0,-9855.2732856342373,-4572.3765643616598,23970.449258153516,1654.5074889460918,-10478.114593867205,3560.252895656361,19733.756364355773,10324.72084961385,-14611.630377688323,14611.630377688323,-10324.72084961385,35646.4683482318,0.0
320012.02908761695,3947225.878295721,-27500.0,-14915.264463963777,1564.0522958958759,23901.386149410104,-1709.148762238435,-8636.9087367859738,2380.4654182275726,21067.866361694134,16211.65153730591,-19296.925768927569,19296.925768927569,-16211.65153730591,37072.945092993868,0.0
325012.02908761695,3947225.878295721,-27500.0,-18793.007027794927,9773.0666974636479,20112.327443619168,-5802.7213037202791,-4519.0352773714321,358.23723872839042,22972.215797339071,21698.252511918152,-22180.612013564678,22180.612013564678,-21698.252511918152,39801.104314771837,0.0
330012.02908761695,3947225.878295721,-27500.0,-19901.002268525142,18824.338744060329,10845.28770821752,-9921.8958054239592,2532.7184297784233,-2659.0622008437758,26108.681560980636,24568.060670572158,-21297.720040603788,21297.720040603788,-24568.060670572158,45718.009362361641,0.0
335012.02908761695,3947225.878295721,-27500.0,-17064.460850034768,25990.933783341541,-4551.7193595610825,-12773.895469394487,12513.240834582017,-6610.8344130930836,30897.201998588789,21977.026597841832,-15118.999840212507,15118.999840212507,-21977.026597841832,55864.928190941493,0.0
340012.02908761695,3947225.878295721,-27500.0,-10849.69780960037,27796.554749962503,-24020.005480728261,-12858.909269026155,24119.31854682785,-11052.345083254615,36898.159411007182,12136.488449067892,-4192.290190051729,4192.290190051729,-12136.488449067892,68775.386115143963,0.0
345012.02908761695,3947225.878295721,-27500.0,-4080.1651577739817,22296.734365493652,-42509.899867439512,-9422.4808381625462,34753.98334661228,-15157.389518256206,42775.137668191361,-3514.2248952851714,8011.7765326936824,-8011.7765326936824,3514.2248952851714,80963.913052652904,0.0
350012.02908761695,3947225.878295721,-27500.0,-178.10376842607769,11018.738070004865,-54507.031297746202,-3218.627745240407,41702.568480696129,-18044.603332014605,46839.657095975097,-20230.432445416754,16856.169593828588,-16856.169593828588,20230.432445416754,88953.951719211793,0.0
355012.02908761695,3947225.878295721,-27500.0,-686.0501477820045,-1930.6030515024916,-57430.126813023817,3865.466290552165,43639.253487841866,-19215.894263128775,47950.517629314694,-32888.63133877339,19653.414857719454,-19653.414857719454,32888.63133877339,90999.708640960132,0.0
360012.02908761695,3947225.878295721,-27500.0,-4679.1556318448793,-12663.6755452462,-52459.951667805537,9971.504629390327,41044.750997785231,-18717.752599523399,46091.821388847995,-38910.558217805359,16837.422723163716,-16837.422723163716,38910.558217805359,87422.679199310267,0.0
365012.02908761695,3947225.878295721,-27500.0,-10093.249627866213,-19263.348790084106,-42759.806641757561,14062.873416312681,35463.146081206272,-16971.815721820341,42045.719692161932,-38629.87525794399,10675.924621534254,-10675.924621534254,38629.87525794399,79806.934429876914,0.0
370012.02908761695,3947225.878295721,-27500.0,-15100.20099815952,-21684.101377986601,-31483.669047732797,15966.089232348535,28571.130514115292,-14515.762060737095,36815.107021943229,-33951.786913428223,3571.7463837270843,-3571.7463837270843,33951.786913428223,70018.654666191112,0.0
375012.02908761695,3947225.878295721,-27500.0,-18649.404334651284,-20889.521780888957,-20832.860370006612,16042.542578590524,21657.700129764595,-11826.217363444457,31267.006626714032,-27032.51243805961,-2796.3874648590536,2796.3874648590536,27032.51243805961,59620.426802127156,0.0
380012.02908761695,3947225.878295721,-27500.0,-20418.430448901756,-18108.184615825245,-11959.664520434042,14856.482773940575,15499.993525129823,-9243.9334998433187,26013.08520212871,-19594.452174157934,-7594.2573142485135,7594.2573142485135,19594.452174157934,49684.115553700569,0.0
385012.02908761695,3947225.878295721,-27500.0,-20564.22939152021,-14419.530039406794,-5222.8688016722926,12960.11569843687,10441.633873986097,-6966.7977198924909,21411.875147914299,-12740.610651552584,-10632.644203501297,10632.644203501297,12740.610651552584,40821.438984188928,0.0
390012.02908761695,3947225.878295721,-27500.0,-19475.066652285801,-10598.292340378159,-501.47850879507826,10790.910471988911,6532.1541008001577,-5077.0612341349815,17597.738510469713,-7022.4863383710726,-12105.561677560636,12105.561677560636,7022.4863383710726,33293.055459025752,0.0
395012.02908761695,3947225.878295721,-27500.0,-17590.478232294827,-7110.2913151626535,2550.1758795616788,8645.668608154856,3657.395843603781,-3579.1538469066513,14533.527747860555,-2597.6182055425106,-12372.787883713025,12372.787883713025,2597.6182055425106,27125.763378508971,0.0
400012.02908761695,3947225.878295721,-27500.0,-15298.169284309024,-4176.881857014946,4334.7451513416572,6696.4147022354509,1635.061992298359,-2434.0340745856524,12105.797784588925,611.00840921403142,-11816.789586956118,11816.789586956118,-611.00840921403142,22209.503753163604,0.0
405012.02908761695,3947225.878295721,-27500.0,-12892.185802915261,-1855.452479529162,5221.3852903202624,5022.1480209428519,273.36468410086388,-1584.3473787731029,10193.048953009014,2791.396927531875,-10767.926537446638,10767.926537446638,-2791.396927531875,18367.40430941122,0.0
410012.02908761695,3947225.878295721,-27500.0,-10569.652658917827,-109.1083075926846,5509.2420794660102,3641.0341507978533,-599.17813793989217,-970.04515899707837,8686.3841269404184,4162.4169158643417,-9477.952548233181,9477.952548233181,-4162.4169158643417,15401.830666926508,0.0
415012.02908761695,3947225.878295721,-27500.0,-8446.2905671835815,1143.2768812815079,5422.1736459760377,2536.2733079545164,-1122.6427128205653,-536.57871753324162,7493.4516951083806,4929.8709757986762,-8121.1251287142222,8121.1251287142222,-4929.8709757986762,13122.59724271841,0.0
420012.02908761695,3947225.878295721,-27500.0,-6577.572814059874,1995.7519514305761,5118.1576543375331,1674.1928657123162,-1404.9574628536996,-238.20946070898401,6539.1409304259323,5267.3486026047185,-6807.5632485001324,6807.5632485001324,-5267.3486026047185,11362.821525492123,0.0
425012.02908761695,3947225.878295721,-27500.0,-4978.5292908043566,2538.1728710667494,4703.3953638560579,1015.6023569042095,-1525.9082559499798,-38.513560700803552,5764.7433824864202,5311.6564193684817,-5599.5971726476446,5599.5971726476446,-5311.6564193684817,9986.0431287635965,0.0
430012.02908761695,3947225.878295721,-27500.0,-3639.5085801523396,2848.4145125928117,4246.0842596646471,522.20775244568983,-1542.6414520403869,90.489997119818199,5125.9212174607046,5165.5766997586434,-4526.6255331861958,4526.6255331861958,-5165.5766997586434,8887.0658945352407,0.0
435012.02908761695,3947225.878295721,-27500.0,-2537.4952295172393,2990.0647954025621,3787.85914222163,159.75180740275223,-1495.0351521607402,169.73618382077737,4590.0404728833746,4903.5144224164924,-3596.862074258393,3596.862074258393,-4903.5144224164924,7988.6435944023233,0.0
255012.02908761695,3952225.878295721,-27500.0,7016.6957420501467,-4804.9778586329558,2972.4972176277797,3274.9208058724121,-2072.6327908561575,1095.5253936829888,6001.9282366118159,-3467.4409246186588,4942.9715012159832,-4942.9715012159832,3467.4409246186588,11907.795227953247,0.0
260012.02908761695,3952225.878295721,-27500.0,7218.1838063820169,-5423.1411456501346,3589.2762199330332,3601.8185378612588,-2454.4058086231794,1269.7040789681191,6615.4537547662239,-3691.3867968070631,4982.8899242695461,-4982.8899242695461,3691.3867968070631,13122.114606418199,0.0
265012.02908761695,3952225.878295721,-27500.0,7314.2612480245816,-6092.5987160436771,4344.2275273082369,3937.0743351397118,-2904.6402636505991,1468.1433808686684,7292.9853884597524,-3870.3150643890422,4906.6411081388105,-4906.6411081388105,3870.3150643890422,14450.147843785388,0.0
270012.02908761695,3952225.878295721,-27500.0,7258.7882967747537,-6798.9570173716484,5265.1766523135057,4266.8324396295002,-3431.2692095880157,1691.0357126907875,8036.8661291361141,-3970.6183059505206,4668.4710174522088,-4668.4710174522088,3970.6183059505206,15889.942472621537,0.0
275012.02908761695,3952225.878295721,-27500.0,6993.3129659893584,-7515.0604267416529,6381.8746673580708,4569.6403894848463,-4039.7715180439618,1936.3161868665013,8845.9053045932087,-3945.0699923873408,4210.8461130258474,-4210.8461130258474,3945.0699923873408,17432.370262951856,0.0
280012.02908761695,3952225.878295721,-27500.0,6446.2203324900274,-8194.8050170225652,7722.8137790825513,4813.7799794164112,-4730.2586501481182,2198.2076434372971,9714.6198474722532,-3729.1481534221712,3463.9156496913247,-3463.9156496913247,3729.1481534221712,19057.97075655673,0.0
285012.02908761695,3952225.878295721,-27500.0,5533.8126100551081,-8764.9534253667807,9308.8669374646452,4954.2148350169218,-5492.756453711334,2465.1668132903915,10632.276862235931,-3237.6331845888649,2347.1562746308032,-2347.1562746308032,3237.6331845888649,20733.282584185104,0.0
290012.02908761695,3952225.878295721,-27500.0,4165.2434810156756,-9115.0763208817389,11141.653143219775,4929.5892516273916,-6299.8852653485401,2717.1334334515263,11581.856855763699,-2362.9824757245683,775.34907192385936,-775.34907192385936,2362.9824757245683,22407.409177724148,0.0
295012.02908761695,3952225.878295721,-27500.0,2254.360218329718,-9086.7799706926071,13183.618479564806,4660.2799485861242,-7096.0325557497417,2922.0916754834302,12539.993262584627,-978.51151626176045,-1327.6544914029794,1327.6544914029794,978.51151626176045,24010.854093450493,0.0
300012.02908761695,3952225.878295721,-27500.0,-257.10362523257356,-8465.6657966963703,15326.039826304992,4049.5027714759626,-7782.2985360197508,3032.1925108332644,13479.957768261927,1048.0294623380109,-4002.2689841270217,4002.2689841270217,-1048.0294623380109,25461.474370171058,0.0
305012.02908761695,3952225.878295721,-27500.0,-3359.5492445173209,-6983.9325152812989,17341.552627124991,2991.0870663221558,-8197.4781928006487,2980.1262370526592,14381.585110525248,3821.1677487232555,-7207.1971512484488,7207.1971512484488,-3821.1677487232555,26688.022177521772,0.0
310012.02908761695,3952225.878295721,-27500.0,-6914.7547395211559,-4349.1361761588814,18822.125463875171,1389.782082625851,-8098.1569977522749,2677.1983872424812,15254.585835799833,7351.4368264139066,-10749.034507808758,10749.034507808758,-7351.4368264139066,27691.253100546299,0.0
315012.02908761695,3952225.878295721,-27500.0,-10579.168021581452,-324.59995542261305,19117.252933687305,-797.89752586588747,-7147.3677846166856,2015.8206459872274,16181.900994880647,11442.997034191963,-14191.936706373979,14191.936706373979,-11442.997034191963,28669.943969495464,0.0
320012.02908761695,3952225.878295721,-27500.0,-13741.073020464597,5108.4928660199357,17318.770957248962,-3495.4665978518401,-4932.9866687522735,881.10738120526719,17375.553575301099,15538.559268618515,-16780.181211827588,16780.181211827588,-15538.559268618515,30204.427762298801,0.0
325012.02908761695,3952225.878295721,-27500.0,-15548.604695082116,11502.79837670165,12389.013798827038,-6416.8918644337864,-1051.9588158367833,-821.43104512713387,19188.04047859618,18580.230152884713,-17462.217723101323,17462.217723101323,-18580.230152884713,33312.917600181114,0.0
330012.02908761695,3952225.878295721,-27500.0,-15149.520490997504,17703.788455176738,3558.5637901056944,-8998.0741404857254,4702.5441315708558,-3115.7345820888827,21969.173713976139,19050.352180490103,-15162.807280740468,15162.807280740468,-19050.352180490103,38976.730178451253,0.0
335012.02908761695,3952225.878295721,-27500.0,-12201.38463686889,21880.844857115568,-8992.8441389856907,-10446.219225375575,12068.184838679437,-5888.416274944102,25769.432398668443,15433.693176403987,-9393.5987842999057,9393.5987842999057,-15433.693176403987,47228.177460209386,0.0
340012.02908761695,3952225.878295721,-27500.0,-7416.7994903515364,22148.60168317633,-23529.518218716286,-10007.117323064767,20109.110308510455,-8841.7163413446324,30153.516805234165,7148.8485285279621,-959.83049373535096,959.83049373535096,-7148.8485285279621,56779.649713013881,0.0
345012.02908761695,3952225.878295721,-27500.0,-2564.5307022657498,17674.233887213548,-36945.695741670301,-7390.9385146378263,27344.545465469128,-11528.265651339696,34318.244269452392,-4604.6516298593133,7921.8624911695724,-7921.8624911695724,4604.6516298593133,65562.302049813763,0.0
350012.02908761695,3952225.878295721,-27500.0,398.91211634461638,9425.286992702675,-46061.101385849339,-3046.0929435971675,32302.688866851207,-13492.655046550353,37343.005076906964,-17020.363276065884,14577.520647614405,-14577.520647614405,17020.363276065884,71629.891598018206,0.0
355012.02908761695,3952225.878295721,-27500.0,452.12260921592247,-256.76144536298068,-49171.523826174038,2006.6155854185499,34163.552214277384,-14444.782522968904,38527.393964282106,-27034.883447412496,17293.962700189812,-17293.962700189812,27034.883447412496,73884.419955334248,0.0
360012.02908761695,3952225.878295721,-27500.0,-2096.7598981666442,-8918.4784318653128,-46598.280350548834,6663.3229740006618,33010.492766172727,-14346.935600009076,37721.150751749767,-32757.170796339393,16000.55567925043,-16000.55567925043,32757.170796339393,72292.43371572216,0.0
365012.02908761695,3952225.878295721,-27500.0,-6093.6983467862519,-15006.7474452112,-40046.303423104473,10159.169260335706,29595.252364440057,-13376.816533130228,35269.127446067847,-33926.207896046719,11863.748590769934,-11863.748590769934,33926.207896046719,67612.223901139281,0.0
370012.02908761695,3952225.878295721,-27500.0,-10269.256989016632,-18092.45171407118,-31578.888025584969,12202.152950883246,24908.421189910769,-11823.570704849046,31743.830229459443,-31454.045510153825,6441.8954707236553,-6441.8954707236553,31454.045510153825,60937.433403062401,0.0
375012.02908761695,3952225.878295721,-27500.0,-13700.375960848187,-18552.324252611113,-22905.977530625547,12879.985549413483,19841.940716292575,-9987.0863724295414,27723.564639965589,-26708.642424265425,1053.7940600254824,-1053.7940600254824,26708.642424265425,53329.830369513664,0.0
380012.02908761695,3952225.878295721,-27500.0,-15931.252571745343,-17132.229618029723,-15126.105578110055,12490.431269506016,15032.11609954338,-8114.0819220451431,23677.887819703865,-20984.081457646029,-3469.4480591687316,3469.4480591687316,20984.081457646029,45628.154525911443,0.0
385012.02908761695,3952225.878295721,-27500.0,-16893.096172227626,-14618.462107727002,-8764.8947449229072,11393.185983843692,10841.997509518438,-6373.0723362563976,19932.820030347386,-15249.532778564946,-6767.2715133976553,6767.2715133976553,15249.532778564946,38397.77052063233,0.0
390012.02908761695,3952225.878295721,-27500.0,-16758.686533425946,-11660.855063606283,-3933.4926541460532,9915.9692123013101,7414.8193115781905,-4856.8749929809792,16667.612850344274,-10101.688174529243,-8819.0996483006911,8819.0996483006911,10101.688174529243,31958.414704672206,0.0
395012.02908761695,3952225.878295721,-27500.0,-15807.884906362731,-8714.0267009782801,-498.62887287409251,8311.6752159488515,4747.4933494552661,-3599.1788755731695,13927.254418789425,-5823.506387595884,-9798.2051246390456,9798.2051246390456,5823.506387595884,26442.207071534322,0.0
400012.02908761695,3952225.878295721,-27500.0,-14333.100581402634,-6048.3975276119272,1783.3399524741467,6750.7942455652592,2756.3744540248108,-2594.5989044241787,11673.482899905446,-2478.2945516942509,-9955.350535531632,9955.350535531632,2478.2945516942509,21854.31353428691,0.0
405012.02908761695,3952225.878295721,-27500.0,-12586.796416235255,-3791.5268116698271,3179.186849131735,5332.7214401380916,1325.0532312037501,-1816.1658781363374,9840.8712678333686,0.85699804582691286,-9543.9443083893366,9543.9443083893366,-0.85699804582691286,18123.774674517241,0.0
410012.02908761695,3952225.878295721,-27500.0,-10761.229383779661,-1974.7467073066136,3931.634913815547,4103.804507228414,333.92685675143957,-1227.9980508896215,8361.0797793450784,1742.8825113820039,-8781.4378105404448,8781.4378105404448,-1742.8825113820039,15140.981343158955,0.0
415012.02908761695,3952225.878295721,-27500.0,-8988.0941465266678,-572.7786246480423,4239.9739441745251,3075.0721618500129,-324.39726799374591,-793.23631933803108,7169.7097174314949,2894.1591673574185,-7835.8535381904403,7835.8535381904403,-2894.1591673574185,12782.936912586109,0.0
420012.02908761695,3952225.878295721,-27500.0,-7347.9077849922132,467.49001406003077,4257.0496371687159,2236.5714523322363,-739.05600857793343,-478.30603691926729,6209.2192147432979,3593.3410692114767,-6826.7892302198297,6826.7892302198297,-3593.3410692114767,10929.137057840007,0.0
425012.02908761695,3952225.878295721,-27500.0,-5882.4065571178235,1208.4466249120198,4094.2936844339506,1567.6287529359745,-980.27280174481587,-254.71050826004338,5430.4948152814586,3959.7082184394062,-5833.0570347902049,5833.0570347902049,-3959.7082184394062,9470.7912949494312,0.0
430012.02908761695,3952225.878295721,-27500.0,-4606.3429797280396,1711.0717815159503,3829.6351508713988,1043.5384227755906,-1101.3305725321777,-99.366368239470773,4793.2838768545607,4089.7675872549116,-4902.1810405242413,4902.1810405242413,-4089.7675872549116,8315.4562954011017,0.0
255012.02908761695,3957225.878295721,-27500.0,5822.1257961657248,-4678.3663255600995,3323.5988821012197,2823.3520266736364,-2060.0871581184765,969.31367155647229,5516.8757372132468,-3003.1563274141181,3919.8843126180273,-3919.8843126180273,3003.1563274141181,10953.296411579888,0.0
260012.02908761695,3957225.878295721,-27500.0,5843.4561514161687,-5195.0012204442355,3959.9122674548307,3056.174609098588,-2408.4823400102364,1110.4806078594129,6040.3037504368303,-3104.9321429198385,3803.7858635838052,-3803.7858635838052,3104.9321429198385,11975.855386246158,0.0
265012.02908761695,3957225.878295721,-27500.0,5742.5213319387303,-5728.9978060116255,4721.1009209342474,3279.3465186632029,-2809.936725180487,1267.3626468857206,6610.5373556651703,-3137.5891849850332,3558.1560577500104,-3558.1560577500104,3137.5891849850332,13073.375541146297,0.0
270012.02908761695,3957225.878295721,-27500.0,5478.2110201357282,-6257.8091189554871,5625.5443245834867,3477.178355453641,-3266.8275673140174,1438.2882570097147,7225.3778369704951,-3066.3570477674371,3142.855189526073,-3142.855189526073,3066.3570477674371,14237.528511770211,0.0
275012.02908761695,3957225.878295721,-27500.0,5001.7577477668319,-6745.745967790328,6689.206028210343,3627.4048239559006,-3777.5727825547842,1619.2286606643086,7879.9666581423307,-2845.5045880588818,2510.8105418947521,-2510.8105418947521,2845.5045880588818,15453.040453412315,0.0
280012.02908761695,3957225.878295721,-27500.0,4258.0756764386479,-7139.1552711376407,7921.0803118419881,3699.5319720541893,-4333.6902828250977,1802.6003768432593,8566.3036596146958,-2416.8649777105575,1609.774584848718,-1609.774584848718,2416.8649777105575,16695.694597883441,0.0
285012.02908761695,3957225.878295721,-27500.0,3189.5469886880478,-7360.8843408714329,9315.5445113758833,3653.3575128764683,-4915.4585396886359,1975.6975085886288,9272.713824353179,-1709.7555343391368,386.82236301615285,-386.82236301615285,1709.7555343391368,17930.739841742317,0.0
290012.02908761695,3957225.878295721,-27500.0,1743.8372765913639,-7304.8977259007761,10840.19530003878,3438.263448277532,-5485.8101280428791,2118.7748028327401,9984.0584979312516,-644.01405456776263,-1202.6261216114613,1202.6261216114613,644.01405456776263,19112.970431722828,0.0
295012.02908761695,3957225.878295721,-27500.0,-112.21788721397624,-6833.0734725676157,12417.618041972697,2994.3475370584351,-5982.2669179814557,2202.9362027441025,10683.794667515554,861.00543464028419,-3178.9047291094121,3178.9047291094121,-861.00543464028419,20191.131943780118,0.0
300012.02908761695,3957225.878295721,-27500.0,-2370.476515727396,-5778.2155705047744,13900.066230420962,2257.1432087598996,-6307.2830344475806,2188.2237248289666,11359.765118032223,2867.1876942142444,-5512.7255356464266,5512.7255356464266,-2867.1876942142444,21121.852470102061,0.0
305012.02908761695,3957225.878295721,-27500.0,-4950.0324235868384,-3960.2943665239668,15038.267027673648,1168.4628497106837,-6318.6431186334485,2022.6719322501979,12016.551176675976,5382.6937041053261,-8088.8321750220166,8088.8321750220166,-5382.6937041053261,21902.093087684058,0.0
310012.02908761695,3957225.878295721,-27500.0,-7659.2639026791603,-1226.3205756970121,15451.283098976555,-303.5678839266721,-5824.0420493293695,1643.6175895835433,12697.090217912939,8306.5259258433889,-10661.447465045299,10661.447465045299,-8306.5259258433889,22631.675833170419,0.0
315012.02908761695,3957225.878295721,-27500.0,-10163.374014584037,2474.6083275311944,14615.735793347718,-2132.9843546189031,-4587.991675397162,983.16412488629032,13511.005449905153,11354.264304379976,-12814.682613614008,12814.682613614008,-11354.264304379976,23605.449192246244,0.0
320012.02908761695,3957225.878295721,-27500.0,-11985.191664294829,6977.6011331668369,11909.761537226057,-4194.9116074730046,-2363.9769800576942,-19.829825955510316,14649.711275150406,13984.798096430168,-13959.73691652378,13959.73691652378,-13984.798096430168,25374.094577932327,0.0
325012.02908761695,3957225.878295721,-27500.0,-12583.600617403636,11774.726683998704,6760.4811375496065,-6227.5079550769124,1033.7172236836964,-1399.2623718804246,16343.866057216539,15381.731035706473,-13422.025233869606,13422.025233869606,-15381.731035706473,28607.971142183604,0.0
330012.02908761695,3957225.878295721,-27500.0,-11548.019458197439,15954.054875186825,-1075.4188288201576,-7826.5266860082584,5615.4840839977114,-3133.6845118540964,18735.993200195895,14578.687552948184,-10669.289541404454,10669.289541404454,-14578.687552948184,33679.61657073212,0.0
335012.02908761695,3957225.878295721,-27500.0,-8879.5343825573946,18334.135965105128,-11161.392380714886,-8513.6870689192619,11091.347925479795,-5118.6195376359556,21738.685963039861,10800.701518151931,-5658.4386220541592,5658.4386220541592,-10800.701518151931,40284.704959937917,0.0
340012.02908761695,3957225.878295721,-27500.0,-5197.3144632280982,17874.206508493757,-22179.865657940198,-7897.6147518213456,16817.532870022998,-7157.1172608137267,25006.133575602347,3950.8557895344657,878.39592801643744,-878.39592801643744,-3950.8557895344657,47466.118310614096,0.0
345012.02908761695,3957225.878295721,-27500.0,-1636.6831918817934,14221.204316313115,-32159.230935027452,-5871.973100717003,21907.498885200894,-8988.4237448357999,28040.359785650311,-5057.8841893446279,7496.7674554789064,-7496.7674554789064,5057.8841893446279,53956.128854733732,0.0
350012.02908761695,3957225.878295721,-27500.0,620.87633793860789,8017.2711261276527,-39165.439973642409,-2721.7785059112348,25509.890040107482,-10356.280896997494,30313.689374215326,-14474.777192307236,12568.743371745117,-12568.743371745117,14474.777192307236,58600.562368162689,0.0
355012.02908761695,3957225.878295721,-27500.0,900.55625860429609,676.68209852090195,-42068.586399620108,959.33758659249281,27110.456484628681,-11087.104382209376,31391.677593238968,-22388.546465532949,14983.98205085569,-14983.98205085569,22388.546465532949,60696.103354548308,0.0
360012.02908761695,3957225.878295721,-27500.0,-725.17845812992266,-6229.0201845448446,-40877.80969965132,4496.4576569522796,26675.007924983278,-11136.015961885159,31113.664426124051,-27466.029309647594,14539.76851843785,-14539.76851843785,27466.029309647594,60119.226783933023,0.0
365012.02908761695,3957225.878295721,-27500.0,-3613.6625558801384,-11543.323013322541,-36510.697818302491,7358.1235301822835,24575.935824043569,-10581.416640021052,29621.793584533571,-29294.743464141822,11826.957588051724,-11826.957588051724,29294.743464141822,57233.266579295945,0.0
370012.02908761695,3957225.878295721,-27500.0,-6927.1258154342786,-14760.343131493542,-30277.464675977451,9267.9285871481861,21393.642600128729,-9581.7561338897121,27239.095957848614,-28257.508007010503,7819.4738861955702,-7819.4738861955702,28257.508007010503,52674.940812670131,0.0
375012.02908761695,3957225.878295721,-27500.0,-9947.1612148197582,-15942.874780578788,-23420.859426289488,10195.075357730921,17719.818757901219,-8322.0815786776857,24339.360601714576,-25173.023161459496,3475.0068918413253,-3475.0068918413253,25173.023161459496,47142.312669195991,0.0
380012.02908761695,3957225.878295721,-27500.0,-12222.73788846846,-15497.220474936956,-16866.097020462621,10277.607704687001,14032.969836284292,-6971.3808469019041,21262.207827992257,-20948.616554977969,-495.03487767065053,495.03487767065053,20948.616554977969,41251.344056890288,0.0
385012.02908761695,3957225.878295721,-27500.0,-13576.940877579838,-13952.208074917475,-11163.889367669108,9733.5335002475222,10652.905231213297,-5658.881945051462,18273.424010405059,-16359.043927094302,-3686.2717783993685,3686.2717783993685,16359.043927094302,35469.456072515524,0.0
390012.02908761695,3957225.878295721,-27500.0,-14039.530198648885,-11807.810777685019,-6546.6509375192045,8791.1222472746485,7749.6500393309207,-4467.7349070581358,15549.89735640395,-11955.640788658817,-5958.0987952782962,5958.0987952782962,11955.640788658817,30105.449717195344,0.0
395012.02908761695,3957225.878295721,-27500.0,-13760.978051445833,-9459.4940763646791,-3025.6764488531517,7647.3690895473801,5378.3170821584426,-3440.1505407365148,13173.717021361193,-8064.9523347230261,-7350.4995275792862,7350.4995275792862,8064.9523347230261,25330.628008696982,0.0
400012.02908761695,3957225.878295721,-27500.0,-12939.12503605237,-7178.7523090144095,-485.20140768312046,6450.9487620162417,3519.2192411091723,-2587.6872653050723,11152.341656247101,-4832.2798462209921,-8001.8209506131934,8001.8209506131934,4832.2798462209921,21211.762028558584,0.0
405012.02908761695,3957225.878295721,-27500.0,-11769.49815370232,-5125.8861905483927,1245.6423737179853,5301.4848918571815,2112.1604802829293,-1902.1450448921364,9458.6447734731228,-2277.9208013716561,-8085.9677424443362,8085.9677424443362,2277.9208013716561,17744.254635011963,0.0
410012.02908761695,3957225.878295721,-27500.0,-10418.467542105811,-3375.9934037206253,2346.2996344967964,4257.2491972386651,1081.0724290187216,-1364.6359054544148,8054.7554735821313,-348.08076260671714,-7772.6966762620095,7772.6966762620095,348.08076260671714,14879.911116606303,0.0
415012.02908761695,3957225.878295721,-27500.0,-9013.3899563486066,-1946.3392517709135,2979.4137787694708,3345.6328144522035,349.36534930553097,-952.06654684519708,6899.9312980374498,1046.6384218634598,-7207.2530290518516,7207.2530290518516,-1046.6384218634598,12547.711413817231,0.0
420012.02908761695,3957225.878295721,-27500.0,-7643.1929211614924,-819.38609838721266,3280.1599696218314,2573.1572332040396,-151.90382850493876,-641.21310772552044,5954.0068728162769,2005.7672860852449,-6503.3383862266819,6503.3383862266819,-2005.7672860852449,10668.133985962677,0.0
425012.02908761695,3957225.878295721,-27500.0,-6364.1148346212167,40.266209217197563,3354.4384934800273,1933.593468067425,-480.69873242956839,-410.93632046420043,5179.7092669257909,2624.1758901259291,-5743.8598441256945,5743.8598441256945,-2624.1758901259291,9162.3555577797997,0.0
430012.02908761695,3957225.878295721,-27500.0,-5207.1251662444583,674.6284269321809,3281.6114449426791,1413.8959005177662,-683.53611684309169,-243.1395732918119,4544.111416846371,2984.8370337889264,-4985.3935598763383,4985.3935598763383,-2984.8370337889264,7957.7745787193735,0.0
260012.02908761695,3962225.878295721,-27500.0,4594.455078587418,-4837.2076761205526,4207.6620260810232,2547.7496431733039,-2307.6620627215207,959.1145764837463,5483.2661435143909,-2492.7108503752688,2739.6005180227303,-2739.6005180227303,2492.7108503752688,10844.533950695803,0.0
265012.02908761695,3962225.878295721,-27500.0,4348.1933297222922,-5230.7880025958484,4941.4268944856358,2678.3619777724853,-2653.508254127868,1079.6351291100791,5956.6140663652286,-2400.3063646370165,2373.5115077204218,-2373.5115077204218,2400.3063646370165,11734.650970802031,0.0
270012.02908761695,3962225.878295721,-27500.0,3941.4310106037706,-5584.8472368477715,5789.4136402865861,2771.3231364985795,-3035.2891364660745,1206.2587015186646,6457.0143042443187,-2190.7822765360079,1844.2279442631861,-1844.2279442631861,2190.7822765360079,12657.090916149591,0.0
275012.02908761695,3962225.878295721,-27500.0,3337.2586129163915,-5860.1415869064786,6754.6320208502657,2805.8332933317356,-3446.2687293642284,1333.9734533266915,6978.6755625174219,-1823.990657997959,1117.2470426901139,-1117.2470426901139,1823.990657997959,13594.47498079409,0.0
280012.02908761695,3962225.878295721,-27500.0,2498.1510181532412,-6002.3284457569534,7829.3457715135337,2755.1809174999908,-3872.4102829680583,1454.6517052948893,7513.6377175875514,-1252.6075077970659,158.8321402849258,-158.8321402849258,1252.6075077970659,14522.989242977681,0.0
285012.02908761695,3962225.878295721,-27500.0,1391.0301249010736,-5939.1792616727362,8987.5475222652549,2586.4918993444849,-4288.8422073717356,1555.9581095564088,8052.0252551842768,-424.50221274767352,-1058.1543024492671,1058.1543024492671,424.50221274767352,15412.82822476157,0.0
290012.02908761695,3962225.878295721,-27500.0,-4.32838727613297,-5579.2928987524938,10174.25595992631,2261.5530299808979,-4655.3604199512629,1620.1556060321032,8583.4298923916122,711.44407311639384,-2544.6374218758338,2544.6374218758338,-711.44407311639384,16231.269703953065,0.0
295012.02908761695,3962225.878295721,-27500.0,-1682.6086081962198,-4814.4150528176151,11291.356816865651,1739.5823116156428,-4911.2212879422968,1623.0154820725136,9100.3595386208981,2193.9981817988955,-4280.8165754252959,4280.8165754252959,-2193.9981817988955,16951.058291384903,0.0
300012.02908761695,3962225.878295721,-27500.0,-3595.7056300021509,-3528.7319659245468,12180.846909323482,983.13244218286002,-4970.0818267070581,1533.2154236545691,9605.0843683557978,4030.2651568324418,-6196.2963734785189,6196.2963734785189,-4030.2651568324418,17568.420101955635,0.0
305012.02908761695,3962225.878295721,-27500.0,-5632.4279522570368,-1619.8031725817646,12608.876970287485,-31.532287727360792,-4716.9960339513518,1312.856647198277,10121.093776335885,6166.4659392155181,-8146.379873781384,8146.379873781384,-6166.4659392155181,18136.029164465002,0.0
310012.02908761695,3962225.878295721,-27500.0,-7600.415914164777,963.89587660430698,12258.529491214613,-1298.6308787525911,-4010.9443686367986,919.97769335086252,10708.24016435068,8449.5511385531117,-9890.288136215122,9890.288136215122,-8449.5511385531117,18811.656620358746,0.0
315012.02908761695,3962225.878295721,-27500.0,-9221.5557478362352,4166.7483609907904,10745.813092062819,-2762.290835640275,-2698.1660949962534,314.10254633433664,11473.941719123955,10587.206049387099,-11084.168934240104,11084.168934240104,-10587.206049387099,19900.729125406855,0.0
320012.02908761695,3962225.878295721,-27500.0,-10158.85630616842,7758.6670469400015,7679.1634713731974,-4295.5373373242901,-642.39277654186469,-534.33770462322946,12561.97571011396,12126.059454279472,-11310.178333981683,11310.178333981683,-12126.059454279472,21824.931300113956,0.0
325012.02908761695,3962225.878295721,-27500.0,-10093.824695216206,11283.138594694092,2779.9478243356366,-5689.1233722791358,2224.6747070553311,-1630.8070093361839,14099.923527491565,12482.665286549194,-10165.782812871186,10165.782812871186,-12482.665286549194,24945.526237235845,0.0
330012.02908761695,3962225.878295721,-27500.0,-8857.077675708224,14069.812977000625,-3943.0645440974631,-6666.2711711975026,5839.1714054578088,-2941.9313631560976,16118.325901705924,11065.795558927526,-7420.8027015091393,7420.8027015091393,-11065.795558927526,29318.144007002778,0.0
335012.02908761695,3962225.878295721,-27500.0,-6572.6595647392405,15364.71142601742,-12025.283724970532,-6937.9999055254784,9951.1846643243916,-4384.7223229402471,18496.224699850987,7497.7458860889883,-3201.4140365281391,3201.4140365281391,-7497.7458860889883,34585.502850537428,0.0
340012.02908761695,3962225.878295721,-27500.0,-3726.0348859794694,14582.76958206724,-20499.56321139869,-6296.1988495080068,14120.674004660083,-5827.8434729485161,20976.937490287633,1864.4178425519674,1903.2877160647815,-1903.2877160647815,-1864.4178425519674,40069.842461607535,0.0
345012.02908761695,3962225.878295721,-27500.0,-1064.3263112221928,11585.994364469376,-28076.003449333901,-4709.8348628639615,17795.002176671373,-7111.2463421486864,23240.999861749558,-5157.0406700809763,6930.2565516679315,-6930.2565516679315,5157.0406700809763,44967.746542035558,0.0
350012.02908761695,3962225.878295721,-27500.0,667.94652269390656,6815.879873917037,-33527.188456045384,-2368.3954964164745,20456.605451960051,-8082.0085007760117,24972.068363979226,-12427.622314907121,10845.132633278559,-10845.132633278559,12427.622314907121,48562.101920554494,0.0
355012.02908761695,3962225.878295721,-27500.0,1019.7684124976236,1168.0380764369788,-36092.786400586119,363.32198307807533,21775.9448270024,-8633.2119670967295,25897.628993890528,-18710.19274837965,12912.737033186524,-12912.737033186524,18710.19274837965,50391.857063178359,0.0
360012.02908761695,3962225.878295721,-27500.0,-21.956583473026676,-4328.2507241552266,-35681.174993487009,3059.7693390443001,21692.885033084862,-8728.7828073423389,25881.253331440828,-23071.411093428109,12923.302079793411,-12923.302079793411,23071.411093428109,50328.338676381616,0.0
365012.02908761695,3962225.878295721,-27500.0,-2096.1210741531218,-8837.4184303769089,-32789.635603935247,5357.4882696189279,20395.576660391383,-8404.8352578473168,24971.716800023856,-25110.611502619478,11172.268645677166,-11172.268645677166,25110.611502619478,48544.841904446934,0.0
370012.02908761695,3962225.878295721,-27500.0,-4660.2109675558186,-11898.0500174961,-28243.403022319544,7031.7961374744045,18226.534794539435,-7750.6778976789128,23350.636421892748,-24948.419238432078,8260.4011969150506,-8260.4011969150506,24948.419238432078,45414.577213151024,0.0
375012.02908761695,3962225.878295721,-27500.0,-7187.5171729985796,-13428.390200458789,-22915.418525173747,8011.2616073092313,15571.786165943302,-6880.6058879395487,21256.771090074042,-23054.622977769366,4855.5673325135904,-4855.5673325135904,23054.622977769366,41391.250848930511,0.0
380012.02908761695,3962225.878295721,-27500.0,-9291.0907262719084,-13621.413959948359,-17533.323407876887,8346.7748968876058,12775.551531407686,-5907.6737451719418,18928.341922248885,-20038.023738020907,1519.5122008589551,-1519.5122008589551,20038.023738020907,36912.703493520494,0.0
385012.02908761695,3962225.878295721,-27500.0,-10762.535267643359,-12810.114378363998,-12597.348594358165,8162.3452142101751,10095.535895412047,-4925.9978556750684,16569.76823285811,-16481.61417695276,-1370.4842841429199,1370.4842841429199,16481.61417695276,32342.988883610105,0.0
390012.02908761695,3962225.878295721,-27500.0,-11551.246452657446,-11355.446876287073,-8382.1668463571132,7608.7629748229811,7693.5176421324704,-4002.9153750139817,14335.19574485357,-12850.173389612606,-3624.2922242046961,3624.2922242046961,12850.173389612606,27949.742216343955,0.0
395012.02908761695,3962225.878295721,-27500.0,-11716.726360558658,-9575.7886799938678,-4983.1493997521957,6830.4611345647254,5647.9609149503867,-3178.9617583178974,12317.001909616631,-9460.8926792640559,-5200.0740235385001,5200.0740235385001,9460.8926792640559,23905.981678702457,0.0
400012.02908761695,3962225.878295721,-27500.0,-11378.249229487596,-7715.1918136355644,-2375.2449924648627,5947.2624357155701,3975.8435957300262,-2472.4098502564889,10547.59316027885,-6494.4240721776405,-6152.8161485503988,6152.8161485503988,6494.4240721776405,20305.001678639706,0.0
405012.02908761695,3962225.878295721,-27500.0,-10674.615103246242,-5938.9030454716312,-465.96221700594481,5048.0680557524274,2654.9884122559215,-1885.4795244038542,9023.9706094664016,-4024.8341009229816,-6587.7201308189133,6587.7201308189133,4024.8341009229816,17179.8671567975,0.0
410012.02908761695,3962225.878295721,-27500.0,-9737.7630838814439,-4343.9307110335967,865.06831076388528,4192.1609679626272,1642.4344952508711,-1410.2976019295111,7729.1042459523633,-2053.4354663737777,-6625.7722002299051,6625.7722002299051,2053.4354663737777,14522.280072729392,0.0
415012.02908761695,3962225.878295721,-27500.0,-8678.8671311693761,-2975.3503585258541,1740.5824030947576,3414.2825723332517,887.51234870066662,-1033.6793183549332,6639.9949440754845,-538.34875149439495,-6382.2382431022979,6382.2382431022979,538.34875149439495,12298.305449172118,0.0
420012.02908761695,3962225.878295721,-27500.0,-7583.5294848242602,-1842.6756464014838,2271.6208450457934,2730.8230467333651,340.04567865398906,-740.50767639522235,5730.9129055966387,583.23352022023528,-5955.6701786805061,5955.6701786805061,-583.23352022023528,10460.275531948158,0.0
425012.02908761695,3962225.878295721,-27500.0,-6512.5521304433832,-933.54680680943909,2551.4857240362926,2145.5971088541687,-45.214659553216535,-515.85746686333277,4975.6740561051611,1380.132110421536,-5424.1464441353573,5424.1464441353573,-1380.132110421536,8955.126161121465,0.0
260012.02908761695,3967225.878295721,-27500.0,3493.8372623871796,-4393.1734372359115,4335.2488074732555,2087.0208122306444,-2166.7851732193317,818.94696878082016,4953.1272765487474,-1893.0658053416832,1812.7380843667988,-1812.7380843667988,1893.0658053416832,9755.2783234267263,0.0
265012.02908761695,3967225.878295721,-27500.0,3149.8390224102423,-4652.7745804133392,5015.3017482358482,2144.5124455973428,-2455.1316823312295,908.66498676962829,5340.5392563910646,-1701.9018376637844,1371.3288129807495,-1371.3288129807495,1701.9018376637844,10464.6255725753,0.0
270012.02908761695,3967225.878295721,-27500.0,2658.4203511653523,-4847.8115469514933,5778.2396367987876,2158.2095302564912,-2762.5975991883861,998.77237155245029,5742.5433892231031,-1390.9529214512718,782.99069757461405,-782.99069757461405,1390.9529214512718,11182.073938418809,0.0
275012.02908761695,3967225.878295721,-27500.0,1994.5515999742897,-4939.6000310105765,6616.3372194040921,2110.0971059235872,-3079.1910132480407,1083.9949303280423,6153.6837660009633,-927.96207719546737,25.705191949211041,-25.705191949211041,927.96207719546737,11891.137042293947,0.0
280012.02908761695,3967225.878295721,-27500.0,1136.6204289052184,-4878.0936990368173,7509.3277273651229,1978.4024000704496,-3388.0296607128294,1156.5003026590973,6567.4342093669438,-278.19983804763751,-917.60481146155485,917.60481146155485,278.19983804763751,12571.832103151552,0.0
285012.02908761695,3967225.878295721,-27500.0,71.604948408576888,-4601.37805250153,8417.9425666574534,1738.1411841617596,-3662.7450930761211,1205.2062646066306,6977.123169450525,591.78223101264018,-2053.1589773419951,2053.1589773419951,-591.78223101264018,13202.785062149878,0.0
290012.02908761695,3967225.878295721,-27500.0,-1197.4337843184378,-4037.2761750646805,9275.6688105407866,1362.7393439044645,-3864.5432489330947,1215.1343694276336,7378.0389687441584,1707.3206055106234,-3367.7540977532731,3367.7540977532731,-1707.3206055106234,13766.38460656164,0.0
295012.02908761695,3967225.878295721,-27500.0,-2641.4654974766299,-3108.7699704818747,9979.2656725196666,827.31712302274741,-3939.3658605553987,1167.0035697107676,7771.3767044486958,3074.5598631815637,-4817.4050423312046,4817.4050423312046,-3074.5598631815637,14259.17777569934,0.0
300012.02908761695,3967225.878295721,-27500.0,-4194.0099397834047,-1745.482848752999,10379.760471442059,114.27801039012932,-3816.0763944299924,1037.373166642074,8170.6142636908116,4664.2433263063422,-6314.0031870000685,6314.0031870000685,-4664.2433263063422,14710.125884584488,0.0
305012.02908761695,3967225.878295721,-27500.0,-5740.5141195276283,96.426339886100109,10277.632586524902,-778.33346445291284,-3407.2681227138255,799.76764423301427,8609.9784942723654,6390.6993850148692,-7712.6752114782039,7712.6752114782039,-6390.6993850148692,15207.460271132792,0.0
310012.02908761695,3967225.878295721,-27500.0,-7113.5813343150621,2404.7522189490564,9428.6437602807364,-1825.9018281146689,-2615.0512826812701,427.2941659394927,9151.8638650804678,8089.1475077839714,-8805.5063471833455,8805.5063471833455,-8089.1475077839714,15925.855903203415,0.0
315012.02908761695,3967225.878295721,-27500.0,-8101.9610383936406,5074.541341965888,7569.4063869257088,-2965.3667469741358,-1344.6166963480293,-102.80295730027966,9885.1892532231104,9499.3553692491805,-9330.9053431427419,9330.9053431427419,-9499.3553692491805,17125.350598165609,0.0
320012.02908761695,3967225.878295721,-27500.0,-8482.545288633235,7873.7600583834183,4471.8386614754754,-4086.343478652771,472.33191373548669,-802.55236872746821,10904.163426968445,10269.971446611595,-9010.0299004057997,9010.0299004057997,-10269.971446611595,19080.381849319103,0.0
325012.02908761695,3967225.878295721,-27500.0,-8080.6251937070683,10430.62365919711,28.785179409561881,-5031.7948330780491,2845.2348808604838,-1665.3102586207483,12266.576154659395,10001.923671757675,-7617.9936991562327,7617.9936991562327,-10001.923671757675,21943.816279360548,0.0
330012.02908761695,3967225.878295721,-27500.0,-6850.2143973226848,12268.431086148894,-5644.6837644193893,-5615.8379371385536,5690.4983445865619,-2658.3569706791473,13951.554715706028,8343.5032327911849,-5082.7502359217397,5082.7502359217397,-8343.5032327911849,25637.335775001797,0.0
335012.02908761695,3967225.878295721,-27500.0,-4944.5126502109597,12905.878474294397,-12135.488200137521,-5662.600750931535,8810.1705784383357,-3719.2245542052115,15844.430516708004,5126.3010438967867,-1578.6513805359014,1578.6513805359014,-5126.3010438967867,29845.60324829282,0.0
340012.02908761695,3967225.878295721,-27500.0,-2730.0582840062079,12009.360799818358,-18739.74647704378,-5059.7431458630263,11901.705334471822,-4759.3449420120351,17758.804160049229,493.35240091475259,2440.9925619573273,-2440.9925619573273,-493.35240091475259,34093.531437831894,0.0
345012.02908761695,3967225.878295721,-27500.0,-709.80512421754395,9538.7279017186793,-24590.700819122427,-3806.9751303020694,14609.115785961665,-5676.9082730371047,19483.250916593741,-5055.4170147493987,6320.0183225350283,-6320.0183225350283,5055.4170147493987,37855.91607264764,0.0
350012.02908761695,3967225.878295721,-27500.0,630.90493071403046,5805.8270896266249,-28881.919428940404,-2034.2212983499564,16605.306690941063,-6376.8393600749305,20820.082080704593,-10753.792299901315,9378.3463722188626,-9378.3463722188626,10753.792299901315,40669.923035014705,0.0
355012.02908761695,3967225.878295721,-27500.0,985.79442426284152,1400.0012298577826,-31092.569818574335,24.751478588013779,17674.327643031182,-6791.5357079969708,21596.224960962125,-15775.683478595016,11118.595473746871,-11118.595473746871,15775.683478595016,42226.196949292083,0.0
360012.02908761695,3967225.878295721,-27500.0,315.06656172540534,-2988.7053895503882,-31110.053623717235,2093.9543999218072,17758.576498569597,-6894.6721913220454,21705.049839332853,-19463.961954008031,11360.355332877323,-11360.355332877323,19463.961954008031,42414.66417769486,0.0
365012.02908761695,3967225.878295721,-27500.0,-1175.803613646035,-6761.223550843948,-29205.810517824797,3924.5222760433485,16954.582114446785,-6703.3835668374113,21153.097610690362,-21478.663815861109,10247.706459551315,-10247.706459551315,21478.663815861109,41316.085777350418,0.0
370012.02908761695,3967225.878295721,-27500.0,-3136.6598198099791,-9535.1912571934809,-25901.041936448135,5344.4586005091851,15467.244914945033,-6269.4312285291653,20041.975276447381,-21819.075904855919,8150.6973387420148,-8150.6973387420148,21819.075904855919,39151.910174697317,0.0
375012.02908761695,3967225.878295721,-27500.0,-5192.572659103118,-11175.832573115717,-21799.469489821859,6276.4008261943973,13547.625487779127,-5664.0694334622904,18523.90108294232,-20744.36263301627,5526.0812061821489,-5526.0812061821489,20744.36263301627,36217.026733817322,0.0
380012.02908761695,3967225.878295721,-27500.0,-7034.7053661883037,-11752.667766958348,-17451.644581442808,6727.4001012201379,11437.850964993197,-4962.3478534709839,16763.563991719813,-18651.487687497793,2797.8484727566647,-2797.8484727566647,18651.487687497793,32817.945546552124,0.0
385012.02908761695,3967225.878295721,-27500.0,-8463.89652019807,-11462.543424768362,-13278.408496844742,6763.1473118709591,9335.6958399401592,-4231.0429751511556,14913.126209105034,-15962.325275164581,286.82262541142973,-286.82262541142973,15962.325275164581,29228.950361294919,0.0
390012.02908761695,3967225.878295721,-27500.0,-9393.0840163269258,-10553.504145154164,-9549.672806420107,6479.1190232739855,7380.1837607182269,-3521.885623934415,13098.242147669276,-13046.658704340316,-1810.808417658176,1810.808417658176,13046.658704340316,25668.706447135108,0.0
395012.02908761695,3967225.878295721,-27500.0,-9824.9481408971969,-9268.065672691042,-6400.0604377268619,5976.7013355287618,5653.0524711584931,-2869.6815167981435,11407.258169973467,-10184.890836955828,-3411.1943883222302,3411.1943883222302,10184.890836955828,22293.711886668294,0.0
400012.02908761695,3967225.878295721,-27500.0,-9820.7113621119624,-7810.3550313548003,-3861.7098874763069,5347.4542425675463,4189.1005392630404,-2293.8256119282169,9884.2422154726864,-7561.6106833300382,-4514.3308072154941,4514.3308072154941,7561.6106833300382,19202.796987598471,0.0
405012.02908761695,3967225.878295721,-27500.0,-9470.8175843096178,-6333.3548090179775,-1899.8478860255968,4665.2139500745416,2989.5501230350255,-1801.5434826747219,8540.3604411346514,-5277.6433129044981,-5172.6937395183231,5172.6937395183231,5277.6433129044981,16447.265681932979,0.0
410012.02908761695,3967225.878295721,-27500.0,-8872.6221474920512,-4939.5971856815995,-443.18497232357095,3984.080553821701,2034.673712523778,-1391.5532645516864,7371.746476822952,-3369.931334706976,-5464.5322660628754,5464.5322660628754,3369.931334706976,14042.715142281584,0.0
415012.02908761695,3967225.878295721,-27500.0,-8116.1585781774465,-3688.9755414561432,593.78427773671604,3340.0038986179056,1293.8825102212761,-1057.3503573738099,6367.6471489979494,-1832.1077991462157,-5474.6277184852861,5474.6277184852861,1832.1077991462157,11980.106737121389,0.0
420012.02908761695,3967225.878295721,-27500.0,-7276.8250425248489,-2609.0449135313061,1296.3985991381192,2754.0813530677174,732.8651728148825,-789.77398462222448,5513.2255458507807,-632.03761597507128,-5282.3770294983597,5282.3770294983597,632.03761597507128,10234.967904615543,0.0
425012.02908761695,3967225.878295721,-27500.0,-6413.0355570198535,-1704.9993129283573,1741.8253262166704,2236.2714554436011,318.08410780788512,-578.80230436963518,4791.4327455990724,275.00069584816129,-4955.7151395615128,4955.7151395615128,-275.00069584816129,8774.3947753123994,0.0
265012.02908761695,3972225.878295721,-27500.0,2148.5061840961839,-4041.0004368811979,4961.7469992681235,1681.5932670452178,-2232.2687598664807,756.33953228008988,4768.9442272844071,-1071.1793626001834,552.94524487701142,-552.94524487701142,1071.1793626001834,9283.8755218795013,0.0
270012.02908761695,3972225.878295721,-27500.0,1618.9851294554717,-4100.2574299017097,5622.4374864640631,1638.5707445409541,-2470.5053781793595,817.25502438373474,5088.966468188717,-694.32358445581474,-50.539517658708291,50.539517658708291,694.32358445581474,9832.6677923582138,0.0
275012.02908761695,3972225.878295721,-27500.0,946.5714672790499,-4043.8581819274509,6319.9701786475425,1535.5571370068483,-2702.6727387247506,869.65745400586366,5411.0337567583529,-179.54078605551689,-790.18942972812602,790.18942972812602,179.54078605551689,10360.410854989455,0.0
280012.02908761695,3972225.878295721,-27500.0,122.52178089314468,-3828.9877867964215,7026.0341088944078,1355.8699239043781,-2911.149789190993,906.494520358861,5730.7845342216469,495.64229832602973,-1669.7229633281038,1669.7229633281038,-495.64229832602973,10852.829202500447,0.0
285012.02908761695,3972225.878295721,-27500.0,-851.58299614562975,-3406.3353721211502,7694.6601846792737,1081.787573085272,-3070.5894663649392,918.33133642393534,6045.1946281689088,1348.3279700553712,-2680.3241036600398,2680.3241036600398,-1348.3279700553712,11298.250529610987,0.0
290012.02908761695,3972225.878295721,-27500.0,-1957.9663684414109,-2723.3250645526955,8256.6209775707484,696.41921590843197,-3146.2538305082717,893.07672943917407,6354.9333660618295,2383.6771342943975,-3793.9077107775147,3793.9077107775147,-2383.6771342943975,11693.81244664135,0.0
295012.02908761695,3972225.878295721,-27500.0,-3155.8859894118095,-1730.6472393546194,8614.0982830890916,186.8122450645937,-3092.8684718149179,815.98109739119241,6668.0606092026846,3585.5453721734639,-4955.2848886191323,4955.2848886191323,-3585.5453721734639,12055.997137683313,0.0
300012.02908761695,3972225.878295721,-27500.0,-4375.1571416064562,-393.28304793143576,8637.4520826913558,-451.45482372417723,-2854.771422006896,670.12490940923783,7004.9431468009479,4904.4565947643887,-6074.5349514991003,6074.5349514991003,-4904.4565947643887,12436.044174054485,0.0
305012.02908761695,3972225.878295721,-27500.0,-5512.3278880643711,1293.2678091904916,8167.1708995661675,-1208.2284779403849,-2368.4820554637226,437.66078510739999,7403.0239302909249,6244.2853426925176,-7022.2456742934082,7022.2456742934082,-6244.2853426925176,12936.938750544254,0.0
310012.02908761695,3972225.878295721,-27500.0,-6433.2176681955352,3282.325233096758,7025.3454544102497,-2051.9228086534818,-1569.0551377966804,102.06136925462846,7917.8106156573631,7451.1416658587004,-7631.941547618384,7631.941547618384,-7451.1416658587004,13719.521438263118,0.0
315012.02908761695,3972225.878295721,-27500.0,-6986.421870160365,5454.6162707239155,5041.4139779261413,-2923.4607153263237,-401.42097397112707,-348.50312191663699,8614.5576399459387,8310.7760367737228,-7715.2773566104233,7715.2773566104233,-8310.7760367737228,14975.740497876141,0.0
320012.02908761695,3972225.878295721,-27500.0,-7031.4915672495199,7604.0397863274875,2094.945351316268,-3733.826001817888,1163.0969240086667,-916.83860872467426,9547.6435634474765,8563.2542448078621,-7094.9268138165498,7094.9268138165498,-8563.2542448078621,16858.910212184008,0.0
325012.02908761695,3972225.878295721,-27500.0,-6481.1166653515484,9442.5547859472772,-1827.9182619041637,-4368.9043127843242,3107.1300528480729,-1592.1363255946048,10733.790042973103,7943.1861628418283,-5655.4459574282409,5655.4459574282409,-7943.1861628418283,19404.001068555724,0.0
330012.02908761695,3972225.878295721,-27500.0,-5348.0838628719193,10636.275175331235,-6578.3329896365303,-4704.762967859524,5349.8076516293449,-2346.4131582542122,12133.251857695461,6247.063344610624,-3402.552657478167,3402.552657478167,-6247.063344610624,22491.62290702212,0.0
335012.02908761695,3972225.878295721,-27500.0,-3777.7918881796495,10876.499459140816,-11814.076984224628,-4633.482125206433,7739.7783737160398,-3133.7227104975668,13649.56794385676,3414.793993750267,-508.82465481205668,508.82465481205668,-3414.793993750267,25868.655277663824,0.0
340012.02908761695,3972225.878295721,-27500.0,-2043.2099341787521,9971.4294850317692,-17022.02722901004,-4094.1409455456323,10066.949831096348,-3893.7084024083879,15147.92671073468,-404.70982026055322,2682.7874108174483,-2682.7874108174483,404.70982026055322,29200.61058521166,0.0
345012.02908761695,3972225.878295721,-27500.0,-489.80191726683881,7924.6738548486483,-21606.067400386361,-3098.0639901789841,12095.771649583892,-4559.9327825446799,16484.670892560192,-4841.1030867541385,5716.3835563209841,-5716.3835563209841,4841.1030867541385,32134.640394554808,0.0
350012.02908761695,3972225.878295721,-27500.0,557.15683390918457,4961.2123165195253,-25020.990329645974,-1736.3343379151038,13613.010555105926,-5071.4977232151214,17531.590101515074,-9364.8089161549597,8132.1336703105853,-8132.1336703105853,9364.8089161549597,34362.485834367086,0.0
355012.02908761695,3972225.878295721,-27500.0,886.15624789549827,1481.1677333181722,-26903.56275011825,-163.68193921347796,14474.136937166404,-5384.6716079625376,18177.104347344437,-13409.500709450214,9586.6650156193282,-9586.6650156193282,13409.500709450214,35671.993063312802,0.0
360012.02908761695,3972225.878295721,-27500.0,453.26560067738757,-2042.4950515169201,-27148.46948814112,1436.4247548961609,14631.355503571574,-5480.7924927956547,18340.941028453875,-16507.59250443551,9934.7758858395719,-9934.7758858395719,16507.59250443551,35975.17927438108,0.0
365012.02908761695,3972225.878295721,-27500.0,-623.21440609011938,-5179.1743512129115,-25904.218935606379,2892.1856661626121,14134.499908146388,-5368.0518231900869,18011.55013119354,-18385.883056783277,9242.8733789845755,-9242.8733789845755,18385.883056783277,35307.314164719988,0.0
370012.02908761695,3972225.878295721,-27500.0,-2116.2863794331265,-7625.4274175011487,-23502.60050558914,4075.2479483787038,13108.061963687955,-5077.1771594674692,17245.013045077107,-18993.087314522563,7739.7442991285479,-7739.7442991285479,18993.087314522563,33801.582781750563,0.0
375012.02908761695,3972225.878295721,-27500.0,-3762.590480304234,-9238.1266979221491,-20359.087764419171,4915.8022393370593,11715.962860333444,-4653.1232572095332,16138.641535072775,-18465.08327391943,5735.3495098291696,-5735.3495098291696,18465.08327391943,31650.792924958292,0.0
380012.02908761695,3972225.878295721,-27500.0,-5325.154803537459,-10020.520563347534,-16881.451432136484,5400.9945703266103,10126.824884837224,-4145.7157631884056,14805.70431416632,-17055.533503860948,3541.730041708508,-3541.730041708508,17055.533503860948,29068.393256175543,0.0
385012.02908761695,3972225.878295721,-27500.0,-6631.2485194048268,-10080.44650320334,-13408.265534282717,5562.0798285296059,8488.3124301150892,-3601.737720919069,13357.434070261716,-15062.022404074887,1417.6819829641508,-1417.6819829641508,15062.022404074887,26257.335859309122,0.0
390012.02908761695,3972225.878295721,-27500.0,-7583.9862319347812,-9581.3790130577181,-10181.466431951949,5457.1928113288332,6913.3881430642678,-3059.7775428197629,11892.209286229609,-12767.824909306291,-457.03421912102203,457.03421912102203,12767.824909306291,23390.234041336505,0.0
395012.02908761695,3972225.878295721,-27500.0,-8154.7265939984154,-8700.5260135529479,-7345.9180907098671,5155.1658844742433,5477.0685481186256,-2548.0029591058374,10487.605631266058,-10406.762563118131,-1983.1582546422633,1983.1582546422633,10406.762563118131,20600.34610463649,0.0
400012.02908761695,3972225.878295721,-27500.0,-8365.577716503285,-7600.1886163210174,-4965.058778296815,4723.3415732378444,4220.2441736516594,-2084.2466650383467,9191.3594154999992,-8149.37275857635,-3128.5507592148338,3128.5507592148338,8149.37275857635,17980.787361755549,0.0
405012.02908761695,3972225.878295721,-27500.0,-8269.7233467344467,-6412.5816830037193,-3042.8359123584523,4220.1295020842326,3157.003853094297,-1677.5159349471678,8022.5488113797637,-6104.2820246937299,-3908.8860788778243,3908.8860788778243,6104.2820246937299,15588.872161840822,0.0
410012.02908761695,3972225.878295721,-27500.0,-7934.3144454714884,-5235.1839551307503,-1545.2910313445047,3691.6868673373292,2282.7443354455363,-1330.1094554029821,6984.981049273576,-4328.0796683608805,-4368.609044093253,4368.609044093253,4328.0796683608805,13452.902937228109,0.0
415012.02908761695,3972225.878295721,-27500.0,-7427.9329689005735,-4132.8272253783471,-418.32744525032626,3171.5307775403962,1581.4180183758469,-1039.7523272313163,6075.6961916692135,-2838.3151755035915,-4565.4167881905005,4565.4167881905005,2838.3151755035915,11579.466701257888,0.0
420012.02908761695,3972225.878295721,-27500.0,-6812.7804048225389,-3143.2138144047149,399.3977449323998,2681.8866435873529,1031.2125383730506,-801.42911052308307,5287.5011257215583,-1626.1925378357657,-4559.2785663118129,4559.2785663118129,1626.1925378357657,9960.1228228508644,0.0
270012.02908761695,3977225.878295721,-27500.0,800.4225816223593,-3380.9961119492336,5355.6022194158149,1207.5021286468398,-2175.9616047449499,661.35868813984405,4499.5594262163704,-112.44320840852515,-678.60561717045789,678.60561717045789,112.44320840852515,8618.2641135011927,0.0
275012.02908761695,3977225.878295721,-27500.0,154.83399585116143,-3212.3841462129258,5911.3372078379689,1071.5239761294361,-2335.9070122024377,689.21646952102526,4751.7793449021337,417.95276532909935,-1368.3899481186304,1368.3899481186304,-417.95276532909935,9006.5992884895513,0.0
280012.02908761695,3977225.878295721,-27500.0,-602.94221920160862,-2891.0138963116306,6439.236509500719,868.51132100353868,-2462.220346517563,700.63872477203734,5000.7078055792754,1078.9033054907859,-2155.774516631368,2155.774516631368,-1078.9033054907859,9361.4080898247321,0.0
285012.02908761695,3977225.878295721,-27500.0,-1461.8659541664256,-2380.2126151855209,6891.8191385202927,586.80446386265896,-2532.0620254815135,687.90784897836818,5246.7408890980296,1874.6360383086208,-3022.4514560314988,3022.4514560314988,-1874.6360383086208,9680.4089624371572,0.0
290012.02908761695,3977225.878295721,-27500.0,-2396.4220129925989,-1644.8687855231474,7203.1910101172516,216.91042421478778,-2515.9215744631597,641.59598423484658,5494.8730607570978,2796.1694677061751,-3932.9829968023614,3932.9829968023614,-2796.1694677061751,9973.2562827806323,0.0
295012.02908761695,3977225.878295721,-27500.0,-3362.5644871429067,-657.76816897393223,7286.8596771071607,-245.89323947142415,-2377.5379807972977,550.76831212289346,5757.6480151181822,3814.1804104989201,-4830.0623226689868,4830.0623226689868,-3814.1804104989201,10270.69109899959,0.0
300012.02908761695,3977225.878295721,-27500.0,-4294.8956729939564,591.13966974255561,7036.1932315538934,-798.11391998213867,-2075.0450523636623,403.57441111627668,6058.2158410514967,4870.961111766268,-5631.1062923064183,5631.1062923064183,-4870.961111766268,10635.184360362047,0.0
305012.02908761695,3977225.878295721,-27500.0,-5106.9156856190975,2082.7617998438,6329.7074782009558,-1424.0114856032512,-1564.0396275200972,188.37088988171934,6431.7815842257469,5873.0744870097824,-6228.3026997838169,6228.3026997838169,-5873.0744870097824,11167.452186908255,0.0
310012.02908761695,3977225.878295721,-27500.0,-5696.7034485586692,3755.6510843740352,5043.6942680411894,-2091.6652964490131,-803.25004914148178,-104.52596402262455,6922.5734682104985,6687.6415067523967,-6494.9333248245593,6494.9333248245593,-6687.6415067523967,11997.581010674077,0.0
315012.02908761695,3977225.878295721,-27500.0,-5960.2831355825283,5494.9680159677137,3074.1506307971563,-2750.3958893388185,236.86253254552139,-480.47996845779591,7573.8793891707501,7146.521799074827,-6300.8360384160906,6300.8360384160906,-7146.521799074827,13250.987969774829,0.0
320012.02908761695,3977225.878295721,-27500.0,-5813.4843115722524,7129.1578433458089,367.76735873772498,-3331.3200079520366,1563.0879703808985,-937.80554432125109,8412.4202346679976,7063.0943207722767,-5538.4059960268323,5538.4059960268323,-7063.0943207722767,14997.993325467827,0.0
325012.02908761695,3977225.878295721,-27500.0,-5219.7765276501277,8441.0251275674618,-3042.5695089418132,-3752.9169085262874,3147.9503772180115,-1465.1985886160105,9433.447086120912,6264.5551792408587,-4156.8212420543277,4156.8212420543277,-6264.5551792408587,17216.191180784048,0.0
330012.02908761695,3977225.878295721,-27500.0,-4216.7434841232935,9198.1343420223966,-7007.9865878498513,-3932.6778144349023,4921.215571551088,-2040.1370865916731,10593.925371981397,4637.4575248928777,-2196.4465268460517,2196.4465268460517,-4637.4575248928777,19785.703668903599,0.0
335012.02908761695,3977225.878295721,-27500.0,-2929.7248051009101,9201.2929209969607,-11254.042972685829,-3803.8900621236389,6768.9139262335921,-2629.1717940274411,11816.70765171363,2176.0992707920009,190.09998540652089,-190.09998540652089,-2176.0992707920009,22510.91300344043,0.0
340012.02908761695,3977225.878295721,-27500.0,-1561.3683841987092,8340.1573483979482,-15404.411887446522,-3333.7795170863028,8543.5267558455835,-3190.7778440441416,13003.943663587979,-984.11459406018957,2744.6416942693263,-2744.6416942693263,984.11459406018957,25153.952418271991,0.0
345012.02908761695,3977225.878295721,-27500.0,-353.23449767236571,6636.5266248432617,-19040.756877553398,-2536.9779366445468,10085.673236921459,-3680.7530901536547,14055.87703319914,-4567.016402284964,5144.8448481757096,-5144.8448481757096,4567.016402284964,27472.066477079657,0.0
350012.02908761695,3977225.878295721,-27500.0,471.55298892671021,4255.5127751059126,-21785.517096014508,-1478.4334047266041,11252.761576211631,-4059.1830986064251,14886.718963995048,-8198.3004329458945,7072.4345425957563,-7072.4345425957563,8198.3004329458945,29254.456409773877,0.0
355012.02908761695,3977225.878295721,-27500.0,764.52111170255546,1475.8691601454498,-23381.022278810855,-263.23077260869763,11946.180787487065,-4297.2086286151452,15423.281586341727,-11480.915939826989,8285.9362993647101,-8285.9362993647101,11480.915939826989,30352.698486062367,0.0
360012.02908761695,3977225.878295721,-27500.0,485.62446583145288,-1371.6095476208559,-23737.465231176127,984.01683954651469,12128.342174692394,-4381.6721413420637,15606.090839544666,-14078.021255319745,8671.6239187330211,-8671.6239187330211,14078.021255319745,30698.315032394607,0.0
365012.02908761695,3977225.878295721,-27500.0,-296.44662127893571,-3975.1540600816647,-22935.519823204842,2143.4088309716258,11824.772777749964,-4316.3910044851691,15416.903057825622,-15775.208940223631,8256.1694828252221,-8256.1694828252221,15775.208940223631,30304.185858023244,0.0
370012.02908761695,3977225.878295721,-27500.0,-1433.349489431597,-6098.7305566766818,-21188.50122464665,3120.0882333129157,11112.2679213018,-4119.9621564497756,14885.736353870687,-16504.814849175556,7181.7804362525139,-7181.7804362525139,16504.814849175556,29251.416321905421,0.0
375012.02908761695,3977225.878295721,-27500.0,-2740.8704968490147,-7610.2738627315139,-18782.644925315002,3855.6916957752705,10098.649104698565,-3821.0942524029647,14075.087099634924,-16332.166875907958,5658.5631968297566,-5658.5631968297566,16332.166875907958,27667.177769559392,0.0
380012.02908761695,3977225.878295721,-27500.0,-4041.073014919637,-8480.6794313200571,-16016.707382238261,4329.9466106430255,8901.0265634350817,-3452.9982130960925,13062.893244924195,-15416.670467931026,3913.0981194313081,-3913.0981194313081,15416.670467931026,25700.196978465909,0.0
385012.02908761695,3977225.878295721,-27500.0,-5191.8955835744655,-8762.2712877951672,-13155.89301405733,4554.6530795001336,7627.9908717846738,-3048.2813491352485,11929.745615177588,-13964.689935950344,2147.6943589289049,-2147.6943589289049,13964.689935950344,23499.310583940518,0.0
390012.02908761695,3977225.878295721,-27500.0,-6100.7994344094423,-8558.51018089014,-10405.856410095244,4563.7054588699957,6368.3481272749877,-2635.2538479813375,10750.747705371818,-12187.82775098343,516.66702015981627,-516.66702015981627,12187.82775098343,21198.041859628975,0.0
395012.02908761695,3977225.878295721,-27500.0,-6724.7996047949582,-7994.6552791166878,-7905.1317628151937,4402.5430368108364,5186.4642806830643,-2235.9360538396459,9590.2712311713494,-10273.721027247298,-881.04474116426263,881.04474116426263,10273.721027247298,18905.828727076558,0.0
400012.02908761695,3977225.878295721,-27500.0,-7061.8360444298414,-7195.0092455802605,-5730.5488233494816,4119.2894925747332,4122.7293607771217,-1865.5705202917995,8494.8541786938531,-8370.5977897018965,-1997.4622313350419,1997.4622313350419,8370.5977897018965,16704.986777074664,0.0
405012.02908761695,3977225.878295721,-27500.0,-7138.5010960190093,-6268.5012827669025,-3909.533603388883,3758.5640432848941,3197.1251750745705,-1533.1886668969528,7488.0144589691381,-6583.1556398666489,-2824.7968220477196,2824.7968220477196,6583.1556398666489,14651.755902645986,0.0
410012.02908761695,3977225.878295721,-27500.0,-6997.8310438025601,-5301.8166904841482,-2434.4272048700777,3357.985715905299,2414.1101912521053,-1242.7552717377694,6577.7749444911169,-4975.9816630395098,-3382.8087563501313,3382.8087563501313,4975.9816630395098,12779.772524481246,0.0
415012.02908761695,3977225.878295721,-27500.0,-6689.2508303401064,-4358.1006325780745,-1275.6887675047956,2946.8522076415761,1767.5359644537166,-994.49151316332495,5765.6398012619384,-3580.8649147732322,-3707.2040249811071,3707.2040249811071,3580.8649147732322,11104.570780596869,0.0
275012.02908761695,3982225.878295721,-27500.0,-422.92480668713375,-2467.7529723368066,5431.7791313007156,704.25598560144886,-1991.6877423088413,539.65207548727767,4173.1334929864743,873.59910885970339,-1750.7075780584241,1750.7075780584241,-873.59910885970339,7824.7245100829059,0.0
280012.02908761695,3982225.878295721,-27500.0,-1097.7137608605713,-2079.9479835518273,5799.030216527115,495.31091916285141,-2053.3031919091168,533.73597846094469,4370.0997407258319,1493.3399197567783,-2433.1923668125755,2433.1923668125755,-1493.3399197567783,8083.1754981548893,0.0
285012.02908761695,3982225.878295721,-27500.0,-1834.3347126337999,-1526.715164758521,6066.7105068679202,222.91329905126935,-2056.4430737239195,505.67685084840906,4568.4316125571713,2208.9855400672441,-3153.9835598929958,3153.9835598929958,-2208.9855400672441,8321.1871416646754,0.0
290012.02908761695,3982225.878295721,-27500.0,-2604.5534512466679,-787.15562525303733,6175.7828382499401,-117.15951356707494,-1977.0067688170573,448.32505151012879,4776.0893940807618,3002.765143677645,-3875.6980613364158,3875.6980613364158,-3002.765143677645,8557.7310594498049,0.0
295012.02908761695,3982225.878295721,-27500.0,-3366.1860103570129,149.71147707068869,6053.4723394603434,-524.38796779799554,-1786.9419748812991,353.78299880694726,5007.7780475115742,3839.162437380709,-4544.4564217977959,4544.4564217977959,-3839.162437380709,8831.7025190154036,0.0
300012.02908761695,3982225.878295721,-27500.0,-4062.6199609498503,1277.8170444497698,5615.7289900685428,-991.09920969674204,-1455.7588317442001,213.97157336320453,5286.2341921077132,4660.0897899209012,-5089.2183509712959,5089.2183509712959,-4660.0897899209012,9207.1880525615015,0.0
305012.02908761695,3982225.878295721,-27500.0,-4625.1150084249875,2565.8521207146391,4773.605602969059,-1499.959588794886,-953.43789378462509,21.548262320599136,5641.3208875986138,5381.6406331722847,-5424.3140225190145,5424.3140225190145,-5381.6406331722847,9771.5043825333869,0.0
310012.02908761695,3982225.878295721,-27500.0,-4979.1973754956653,3949.5360474188992,3444.7858930649868,-2021.9491516979281,-254.9975137790438,-228.80366834249915,6105.3080770801316,5894.5542781669146,-5456.7966846695899,5456.7966846695899,-5894.5542781669146,10619.270627291511,0.0
315012.02908761695,3982225.878295721,-27500.0,-5055.9962325300157,5326.9620092685354,1570.6944635587563,-2515.6848613138995,653.34694447402933,-538.78829222523837,6704.131287720922,6070.9735916422442,-5099.8048984315765,5099.8048984315765,-6070.9735916422442,11822.868844985524,0.0
320012.02908761695,3982225.878295721,-27500.0,-4808.0695578891791,6560.5282359800294,-862.15481349474999,-2929.1278336166683,1767.0991572462722,-904.82398723866049,7447.1960245428481,5779.7049085089729,-4291.7103142583692,4291.7103142583692,-5779.7049085089729,13402.707748940471,0.0
325012.02908761695,3982225.878295721,-27500.0,-4227.090464473411,7488.884892099979,-3800.5866322564243,-3204.5484424831025,3056.934271791155,-1316.6511178982448,8320.052390604993,4910.3951578856258,-3018.3151129600974,3018.3151129600974,-4910.3951578856258,15313.50298078221,0.0
330012.02908761695,3982225.878295721,-27500.0,-3358.2704799518506,7950.4362967539146,-7109.7890668095733,-3286.937551559844,4464.8779670481581,-1756.7040017525121,9282.9747805072675,3403.586630218103,-1332.282888224112,1332.282888224112,-3403.586630218103,17449.722244619516,0.0
335012.02908761695,3982225.878295721,-27500.0,-2304.9234285273374,7815.9134914860706,-10573.047916115946,-3134.8216171761806,5905.5929357595096,-2200.724179648485,10275.655166298573,1279.285880626893,638.1741889602888,-638.1741889602888,-1279.285880626893,19662.379993006394,0.0
340012.02908761695,3982225.878295721,-27500.0,-1217.7982829604725,7022.4254190795746,-13912.176224396289,-2731.0161513553617,7274.3347634035044,-2619.887738114066,11226.575788955304,-1346.3664902943131,2698.5313229223648,-2698.5313229223648,1346.3664902943131,21780.289149033866,0.0
345012.02908761695,3982225.878295721,-27500.0,-268.5187657666454,5597.8059576821597,-16828.362041896577,-2089.9502177111922,8461.1876485495432,-2984.3165861112043,12065.202662298178,-4265.8089911824036,4617.2990551899993,-4617.2990551899993,4265.8089911824036,23632.939734307984,0.0
350012.02908761695,3982225.878295721,-27500.0,386.77584152157203,3664.9818383413353,-19054.722739597131,-1258.5840194901446,9368.7318074110171,-3267.3538563534476,12732.697113020065,-7209.4328853064335,6169.727743429693,-6169.727743429693,7209.4328853064335,25072.90484682858,0.0
355012.02908761695,3982225.878295721,-27500.0,642.23973981878169,1422.401402538773,-20405.556853512928,-309.81154307975515,9928.4966574014434,-3449.6142509458841,13180.203594162715,-9893.4223246949168,7183.123397065342,-7183.123397065342,9893.4223246949168,25994.44680087228,0.0
360012.02908761695,3982225.878295721,-27500.0,463.94002641265627,-894.3202496560998,-20807.270300592329,670.1210369237491,10111.562820358129,-3521.7862240035788,13363.762512392921,-12072.039713342696,7569.3464248149903,-7569.3464248149903,12072.039713342696,26344.769915295066,0.0
365012.02908761695,3982225.878295721,-27500.0,-108.10100810141199,-3057.3240655172672,-20302.681850250738,1596.5409529110743,9930.6121694432768,-3485.501395780484,13263.683334734633,-13578.617822112821,7335.0446005302329,-7335.0446005302329,13578.617822112821,26125.895930109869,0.0
370012.02908761695,3982225.878295721,-27500.0,-976.01481200270621,-4884.5334477341885,-19030.347009546942,2399.4699821126565,9433.678522204289,-3352.1877549312612,12895.029673197487,-14344.82526515951,6569.0429349504047,-6569.0429349504047,14344.82526515951,25387.716207956117,0.0
375012.02908761695,3982225.878295721,-27500.0,-2010.8182826784316,-6261.7138975125399,-17188.340370345577,3031.9133182393389,8692.321742325681,-3140.3899563220079,12298.142497557119,-14396.522522806879,5414.1208339499481,-5414.1208339499481,14396.522522806879,24214.934639357849,0.0
380012.02908761695,3982225.878295721,-27500.0,-3080.401882040931,-7146.4870650301291,-14994.585904050788,3472.3172734717768,7787.9985534075058,-2872.3742238775885,11526.860773477551,-13832.165322697125,4033.7755357560081,-4033.7755357560081,13832.165322697125,22711.585027831385,0.0
385012.02908761695,3982225.878295721,-27500.0,-4071.4931312428753,-7558.0049970772252,-12653.558780452973,3722.0354316621379,6799.9572011131349,-2570.8493333644042,10639.418307526559,-12793.16335637273,2583.2162580175091,-2583.2162580175091,12793.16335637273,20986.462824569204,0.0
390012.02908761695,3982225.878295721,-27500.0,-4902.2336727676748,-7558.7605758454856,-10334.458264098266,3799.6981069460503,5796.6360686566368,-2256.3960317475021,9692.322485786528,-11434.915928396287,1189.8211280708329,-1189.8211280708329,11434.915928396287,19141.655511201829,0.0
395012.02908761695,3982225.878295721,-27500.0,-5525.596790389206,-7234.7767578590792,-8161.4187792146358,3734.5164836281224,4831.100851433861,-1945.8704545751143,8736.8196517812812,-9904.1390694638103,-55.903131024792856,55.903131024792856,9904.1390694638103,17265.049962390265,0.0
400012.02908761695,3982225.878295721,-27500.0,-5926.0362816630504,-6678.5285594201405,-6213.3859317209835,3560.094718315393,3939.9887401715528,-1651.7572631516816,7814.9749907685837,-8324.6188271245901,-1100.7004421036295,1100.7004421036295,8324.6188271245901,15426.659771798724,0.0
405012.02908761695,3982225.878295721,-27500.0,-6112.3952607525162,-5976.6680966409667,-4530.1375146372056,3309.6353271286994,3144.9007827159126,-1382.2623710088928,6952.8201855151619,-6790.871859373161,-1923.3499213490486,1923.3499213490486,6790.871859373161,13677.987890481514,0.0
410012.02908761695,3982225.878295721,-27500.0,-6109.6969352623855,-5202.8075441522305,-3121.1584912821445,3012.8056905560193,2455.1381970090015,-1141.8765859683849,6160.9660394407683,-5367.817716264356,-2526.8429465392337,2526.8429465392337,5367.817716264356,12053.45606322913,0.0
275012.02908761695,3987225.878295721,-27500.0,-827.76628511860531,-1819.680935670684,4915.8365477140069,419.11212919270525,-1677.5658130333961,417.31784888431753,3669.7208786559577,1203.5220751074939,-1977.726470294293,1977.726470294293,-1203.5220751074939,6803.7711210408133,0.0
280012.02908761695,3987225.878295721,-27500.0,-1414.0120597960379,-1397.5237861222931,5144.4078053820449,215.76289629473561,-1690.087872732722,400.20729930555206,3829.4813289703138,1765.8078186261,-2553.566374367244,2553.566374367244,-1765.8078186261,6998.1369563362241,0.0
285012.02908761695,3987225.878295721,-27500.0,-2032.1212401500961,-835.73766234371919,5260.315611981312,-37.338611385702777,-1645.7710007669352,363.50855468292639,3995.336258937692,2390.8836122242205,-3137.1092711092783,3137.1092711092783,-2390.8836122242205,7188.4587884808516,0.0
290012.02908761695,3987225.878295721,-27500.0,-2654.3771504436759,-124.2033724297192,5212.955127598254,-340.90110092410566,-1525.5316254015534,301.92373350794804,4176.8563712771274,3056.4027751592675,-3692.4886605136871,3692.4886605136871,-3056.4027751592675,7399.5331647990142,0.0
295012.02908761695,3987225.878295721,-27500.0,-3243.1681128946175,736.98252509653366,4943.3723394095368,-691.36945602771243,-1308.274151619524,209.87874806903224,4389.0000301086548,3725.4719705160405,-4172.1018992678573,4172.1018992678573,-3725.4719705160405,7672.8494093594072,0.0
300012.02908761695,3987225.878295721,-27500.0,-3751.8223447678265,1732.3747773770028,4387.5574946319566,-1079.3333055481316,-972.41557937800303,82.008935076166225,4652.0253467324419,4344.155207520007,-4517.512662587189,4517.512662587189,-4344.155207520007,8067.0801324791055,0.0
305012.02908761695,3987225.878295721,-27500.0,-4127.666042179274,2825.9574080999359,3482.6482442534716,-1488.0808348774456,-498.35632215434759,-86.133893419814868,4989.315618053638,4840.7658617929492,-4662.9551139079149,4662.9551139079149,-4840.7658617929492,8651.0041266331864,0.0
310012.02908761695,3987225.878295721,-27500.0,-4317.9285916755125,3957.0980839329127,2176.4990729140322,-1892.7280156439992,128.05442509867424,-297.16897742039509,5422.6097299588482,5128.3554581979524,-4542.2548258583438,4542.2548258583438,-5128.3554581979524,9487.0381923600198,0.0
315012.02908761695,3987225.878295721,-27500.0,-4278.6092369008875,5039.5011299341486,440.33131098386337,-2260.4771127361896,911.27239507320212,-550.84893866024106,5965.5053582558085,5111.8151977138123,-4099.445676918881,4099.445676918881,-5111.8151977138123,10610.549226734194,0.0
320012.02908761695,3987225.878295721,-27500.0,-3985.4545799953698,5965.2236005238647,-1717.0558042540408,-2552.5690539751763,1841.6234673680506,-843.05841246230489,6617.5080659769628,4700.4201998055023,-3302.275966807013,3302.275966807013,-4700.4201998055023,12015.21178280029,0.0
325012.02908761695,3987225.878295721,-27500.0,-3444.8897340817612,6615.3488641505328,-4236.5782343186484,-2728.2817871652433,2891.7008739465823,-1165.0899350986683,7360.9330224448304,3825.2398519646576,-2156.2412022767257,2156.2412022767257,-3825.2398519646576,13650.422602816534,0.0
330012.02908761695,3987225.878295721,-27500.0,-2701.5438405941636,6877.3990970331715,-7001.9944790375575,-2750.8378995208295,4014.9063081184413,-1503.4773513146467,8161.5841778016329,2458.7068425185112,-715.23017868660872,715.23017868660872,-2458.7068425185112,15428.449865815699,0.0
335012.02908761695,3987225.878295721,-27500.0,-1838.6623031825227,6667.1003402531296,-9843.3159273456695,-2594.365938703419,5147.3787522101056,-1840.6298411539733,8972.7689799610162,631.42230751763498,915.8197364949857,-915.8197364949857,-631.42230751763498,17236.245032573552,0.0
340012.02908761695,3987225.878295721,-27500.0,-968.91601251138434,5949.4653203533981,-12553.120349180233,-2250.3521876555187,6213.9321806008293,-2156.3654240734995,9741.7749447320402,-1559.8394009220456,2589.7762086676184,-2589.7762086676184,1559.8394009220456,18949.081685685069,0.0
345012.02908761695,3987225.878295721,-27500.0,-216.01395613213185,4752.7012704450599,-14914.60761815592,-1731.6813327960126,7137.4956928589518,-2430.2097728265926,10417.967598274188,-3957.7892115940654,4138.0273437267952,-4138.0273437267952,3957.7892115940654,20444.998343562715,0.0
350012.02908761695,3987225.878295721,-27500.0,308.85192422217142,3169.4694273073292,-16735.733247867258,-1072.7170992894653,7850.2662042151824,-2644.0691661914357,10960.237041784279,-6365.0365546205594,5399.0738920334134,-5399.0738920334134,6365.0365546205594,21618.860407782064,0.0
355012.02908761695,3987225.878295721,-27500.0,529.12782303120321,1343.6856111678505,-17880.702239514849,-324.93925386671992,8303.9396463717767,-2784.7137663503108,11335.475170280741,-8575.2410378460954,6247.5099829386181,-6247.5099829386181,8575.2410378460954,22394.097415825247,0.0
360012.02908761695,3987225.878295721,-27500.0,417.0015944368198,-554.05229369793551,-18290.286716026199,450.95494176814373,8476.4432070973635,-2845.5032530108947,11510.935175223352,-10406.906984975129,6615.1919093380093,-6615.1919093380093,10406.906984975129,22730.051171419091,0.0
365012.02908761695,3987225.878295721,-27500.0,-4.2908631129123762,-2355.5069097381452,-17986.043469737404,1194.4572200175467,8373.624302533537,-2826.9760807796138,11467.73166078505,-11730.779039326515,6499.0527694128632,-6499.0527694128632,11730.779039326515,22623.711583429296,0.0
370012.02908761695,3987225.878295721,-27500.0,-669.53986565877472,-3920.4988807015216,-17058.836025742406,1853.815230834696,8025.8916010176699,-2736.2379279678362,11212.391653316701,-12484.4363308184,5954.7439053178605,-5954.7439053178605,12484.4363308184,22105.976070100522,0.0
375012.02908761695,3987225.878295721,-27500.0,-1488.0717062293284,-5153.4940238844401,-15646.584657957872,2391.9157691684072,7481.191816132955,-2585.3952987211019,10771.08852931918,-12672.327146663534,5079.7217969861786,-5079.7217969861786,12672.327146663534,21233.82009546852,0.0
380012.02908761695,3987225.878295721,-27500.0,-2362.2852073685417,-6009.0262761810136,-13908.190308583251,2788.6890233192876,6796.4096157626227,-2389.4774806194896,10181.245524074604,-12353.936040837256,3991.7513289546978,-3991.7513289546978,12353.936040837256,20080.433396345703,0.0
385012.02908761695,3987225.878295721,-27500.0,-3203.5073660806725,-6487.3581501096778,-11999.91077467755,3040.2842645262695,6029.2109546918782,-2164.3278075799381,9485.0086334145708,-11625.276414740263,2808.6162710019353,-2808.6162710019353,11625.276414740263,18725.363452585152,0.0
390012.02908761695,3987225.878295721,-27500.0,-3942.4560695858763,-6623.8599640904176,-10058.121870370554,3155.9808206484827,5231.7194831934976,-1924.8421549364348,8724.6401428564459,-10599.155374531856,1632.9125586958262,-1632.9125586958262,10599.155374531856,17246.189725777273,0.0
395012.02908761695,3987225.878295721,-27500.0,-4533.7444852396102,-6475.975152384357,-8189.7106577991717,3154.0209220896259,4446.6059412467966,-1683.7574305325093,7939.8373396397874,-9388.2619755095475,543.38595581261507,-543.38595581261507,9388.2619755095475,15712.517009542735,0.0
400012.02908761695,3987225.878295721,-27500.0,-4955.4238179129652,-6110.878602891984,-6469.3222672914017,3057.4041130778073,3705.5037183426921,-1451.030650995383,7166.0664392716353,-8093.1861528261006,-407.67347901773883,407.67347901773883,8093.1861528261006,14182.45043758578,0.0
405012.02908761695,3987225.878295721,-27500.0,-5205.2762850368026,-5595.676740149157,-4941.5626503417679,2890.3341901890171,3029.2305633490255,-1233.7170795118784,6430.0221462746722,-6795.7042502681115,-1192.572617490222,1192.572617490222,6795.7042502681115,12701.223415170198,0.0
410012.02908761695,3987225.878295721,-27500.0,-5295.5963778961486,-4990.8123895804883,-3626.0757803637352,2675.6378473821969,2429.1726890450095,-1036.2058262347948,5744.7789155545715,-5556.5509379495925,-1803.7582967799042,1803.7582967799042,5556.5509379495925,11301.457653455258,0.0
285012.02908761695,3992225.878295721,-27500.0,-2105.7818940348488,-289.84294923060514,4499.6112014829241,-217.48870204980432,-1297.4638003210159,253.9550168008561,3512.4698746083768,2456.7402232727081,-3021.0962051102342,3021.0962051102342,-2456.7402232727081,6249.5403101545035,0.0
290012.02908761695,3992225.878295721,-27500.0,-2600.102177509295,373.95283873017274,4336.3283102047753,-482.81765771962904,-1153.4412558147474,192.54628379336208,3677.0350863285589,3001.7707194458148,-3435.4842373843244,3435.4842373843244,-3001.7707194458148,6453.8424563437329,0.0
295012.02908761695,3992225.878295721,-27500.0,-3047.1886312987567,1147.6755832610488,3967.5532609179631,-779.66086496422201,-926.22324955327178,106.54866431530394,3875.9140130782339,3523.6317524192496,-3763.3013106891535,3763.3013106891535,-3523.6317524192496,6736.3765534541762,0.0
300012.02908761695,3992225.878295721,-27500.0,-3409.8848416166757,2011.2496236119255,3345.9771329625601,-1098.3508567627171,-600.94460960669437,-7.4999449688364344,4125.8637458037219,3974.724525407039,-3958.0253898646729,3958.0253898646729,-3974.724525407039,7146.3104808631642,0.0
305012.02908761695,3992225.878295721,-27500.0,-3648.9443700565025,2928.5152540563508,2428.7347063945076,-1423.87016282427,-165.32419339287014,-152.15069434177863,4443.9771469512834,4295.8311331841051,-3970.5159296326678,3970.5159296326678,-4295.8311331841051,7733.4454790552636,0.0
310012.02908761695,3992225.878295721,-27500.0,-3727.980579978298,3845.4953565454475,1184.9012628223402,-1735.6308018531861,387.8083571960089,-328.41561172381603,4843.7068024345563,4419.3315043619532,-3754.9022646616941,3754.9022646616941,-4419.3315043619532,8534.853331319775,0.0
315012.02908761695,3992225.878295721,-27500.0,-3620.0690457634691,4691.195335109478,-395.48518548163969,-2008.1219118731672,1057.6621033418055,-535.10325378710638,5330.5553545423672,4275.6233670458751,-3276.6063641443911,3276.6063641443911,-4275.6233670458751,9562.5714814141993,0.0
320012.02908761695,3992225.878295721,-27500.0,-3315.1429586258641,5382.0753082647079,-2292.2140135760715,-2212.7113320410508,1832.7727597874589,-768.23355913563103,5898.9333725656106,3802.8825292233582,-2521.599953483526,2521.599953483526,-3802.8825292233582,10797.845615031634,0.0
325012.02908761695,3992225.878295721,-27500.0,-2826.5866179105428,5830.8189785951745,-4447.6720912935143,-2320.7029011955228,2689.1041017906168,-1020.6838820946316,6531.1881956743555,2959.3176510587564,-1505.0941517982983,1505.0941517982983,-2959.3176510587564,12192.739801033429,0.0
330012.02908761695,3992225.878295721,-27500.0,-2194.9014766708547,5958.9491105717925,-6764.2681296522824,-2307.4274911630714,3589.7343738148643,-1282.2260812362163,7198.9024006711852,1735.8143125837792,-277.12777682566025,277.12777682566025,-1735.8143125837792,13676.289830046331,0.0
335012.02908761695,3992225.878295721,-27500.0,-1486.3948373545081,5711.3722993807396,-9108.9093953179326,-2156.7360275317742,4486.7643446127886,-1540.0761974298387,7866.0223482873798,165.77025696698905,1077.5657629442894,-1077.5657629442894,-165.77025696698905,15162.566975355649,0.0
340012.02908761695,3992225.878295721,-27500.0,-785.79487101147674,5069.577426984928,-11325.571792646704,-1864.9153541105472,5325.6581863962228,-1779.9812320829296,8493.3503335363675,-1671.3785262067333,2447.093515647382,-2447.093515647382,1671.3785262067333,16559.597841364208,0.0
345012.02908761695,3992225.878295721,-27500.0,-183.45805930138755,4059.6732808569341,-13254.737580993544,-1442.9380275906906,6051.5702535880173,-1987.7351077743001,9044.0636649411081,-3655.4484514923042,3707.0502535423766,-3707.0502535423766,3655.4484514923042,17778.726441040122,0.0
350012.02908761695,3992225.878295721,-27500.0,240.189364581056,2752.2796213475904,-14756.0252246702,-916.22247944267986,6616.5343301056519,-2150.8777855658309,9489.0687363510024,-5639.8374452262251,4739.5812753649952,-4739.5812753649952,5639.8374452262251,18743.686881311136,0.0
355012.02908761695,3992225.878295721,-27500.0,429.0314344112125,1253.4571860153958,-15728.795158399642,-321.69809587488652,6985.9737818128006,-2260.2482322169226,9805.6953970068353,-7472.2609270934527,5452.3413685766345,-5452.3413685766345,7472.2609270934527,19398.198205051245,0.0
360012.02908761695,3992225.878295721,-27500.0,360.62998305128053,-311.42831289606835,-16125.742788391914,297.2720819934197,7143.0619753641831,-2311.0683406281446,9969.1528633117232,-9017.0877867376075,5792.5533545494036,-5792.5533545494036,9017.0877867376075,19710.857987434625,0.0
365012.02908761695,3992225.878295721,-27500.0,48.292224878943117,-1816.8698759785093,-15956.485393031233,896.94504985212689,7090.0233044047627,-2303.3431168195125,9962.1736066706908,-10173.917007579306,5752.8308895259561,-5752.8308895259561,10173.917007579306,19676.574035483583,0.0
370012.02908761695,3992225.878295721,-27500.0,-464.11298625984676,-3154.766370656916,-15281.115193471287,1438.8635863563093,6846.3049063263343,-2241.5308667192307,9786.5008891039088,-10888.420666806587,5368.0435803614291,-5368.0435803614291,10888.420666806587,19314.530139360268,0.0
375012.02908761695,3992225.878295721,-27500.0,-1112.4791641105487,-4246.6770531437796,-14196.344750574524,1894.0019932476528,6444.3379351789545,-2133.6125501526108,9459.2072000348762,-11154.003895880622,4705.0632795466154,-4705.0632795466154,11154.003895880622,18663.410272740959,0.0
380012.02908761695,3992225.878295721,-27500.0,-1824.7693501890546,-5049.1218031445651,-12818.283182773248,2244.8144682381421,5924.0634070226724,-1989.8051738069523,9006.5059529200171,-11005.449454196696,3848.797008868537,-3848.797008868537,11005.449454196696,17775.047406157897,0.0
385012.02908761695,3992225.878295721,-27500.0,-2532.3012889602778,-5552.3138571730924,-11265.823503104186,2485.2032257995825,5327.4488968985333,-1821.1999804323286,8459.0341925354951,-10507.412767012716,2888.1114129386924,-2888.1114129386924,10507.412767012716,16707.749770208735,0.0
390012.02908761695,3992225.878295721,-27500.0,-3178.0006768369444,-5774.1531837621087,-9647.4782711529915,2618.8856569501386,4693.9321587774257,-1638.5633582003545,7848.4038105593327,-9741.1192500620946,1904.3725157446966,-1904.3725157446966,9741.1192500620946,15520.328005456086,0.0
395012.02908761695,3992225.878295721,-27500.0,-3720.8673117163376,-5751.821656433076,-8052.9544724205743,2656.843410247573,4057.2862755681826,-1451.4457270711071,7205.0024450402007,-8792.0579772847523,963.967757764,-963.967757764,8792.0579772847523,14267.449288277367,0.0
400012.02908761695,3992225.878295721,-27500.0,-4136.9415142144071,-5533.0958695653981,-6549.435626514166,2614.5181926994569,3443.9920892551486,-1267.6527735031118,6557.0890862728638,-7740.4252182197797,114.93191669358976,-114.93191669358976,7740.4252182197797,12996.572559361104,0.0
290012.02908761695,3997225.878295721,-27500.0,-2481.1837034689524,736.91886287688897,3555.2979027654533,-565.31227839094925,-850.90272543618323,111.96364827783212,3258.8572327259708,2874.5972279092193,-3141.6955048140344,3141.6955048140344,-2874.5972279092193,5680.6712254237136,0.0
295012.02908761695,3997225.878295721,-27500.0,-2814.6773150722352,1420.5108314612428,3125.0907105890565,-813.81998491495335,-625.31475068956718,33.776630625726661,3447.4256445906694,3271.1536636485266,-3350.7831374569382,3350.7831374569382,-3271.1536636485266,5974.018412503593,0.0
300012.02908761695,3997225.878295721,-27500.0,-3066.0144045718275,2160.4978327533495,2475.887833950907,-1073.3576461107732,-319.59712978130892,-66.208555316309329,3684.493103855234,3586.9285083569243,-3434.5227779213351,3434.5227779213351,-3586.9285083569243,6391.623764344291,0.0
305012.02908761695,3997225.878295721,-27500.0,-3206.6282486836863,2923.0940560317108,1579.6486287097723,-1330.9921707420003,73.52469669443154,-189.33185842685484,3981.7584703958205,3774.1577111893876,-3357.0259665178355,3357.0259665178355,-3774.1577111893876,6966.7196447700235,0.0
310012.02908761695,3997225.878295721,-27500.0,-3212.1106341356613,3661.9350012566379,419.92499078801893,-1570.0777937698854,556.8661911825028,-335.69094362324159,4346.6578824621774,3781.1331432529314,-3087.3515351002006,3087.3515351002006,-3781.1331432529314,7718.3709932154061,0.0
315012.02908761695,3997225.878295721,-27500.0,-3066.9701309401858,4319.6847140169593,-1001.8721764636279,-1771.0051947869831,1126.9101272870855,-503.72370241115459,4779.7522822902556,3557.5805448950309,-2605.3716998094601,2605.3716998094601,-3557.5805448950309,8645.212111275503,0.0
320012.02908761695,3997225.878295721,-27500.0,-2769.5062993203228,4832.2105677694499,-2660.6433266465219,-1912.715472548759,1772.1865219219294,-689.87535138936141,5273.2525827304753,3062.0086293812733,-1907.9873878035919,1907.9873878035919,-3062.0086293812733,9724.1182004010698,0.0
325012.02908761695,3997225.878295721,-27500.0,-2335.683026313533,5135.4736531592443,-4503.6799658477721,-1974.9716382743561,2472.339940030497,-888.44418368429558,5811.0124247177009,2270.2150937575216,-1014.4003874339286,1014.4003874339286,-2270.2150937575216,10912.860420581423,0.0
330012.02908761695,3997225.878295721,-27500.0,-1800.688644701215,5174.5636400248995,-6450.2718022293047,-1941.1728186320283,3198.3307718714386,-1091.6959806550594,6369.8498028973409,1183.4176332805062,31.157672061575568,-31.157672061575568,-1183.4176332805062,12154.775028534668,0.0
335012.02908761695,3997225.878295721,-27500.0,-1217.0624617259018,4913.4484573659383,-8396.1089335977085,-1801.2684990395485,3914.0890656440492,-1290.3049029493877,6921.8947458059019,-166.04009446451101,1160.7177781209186,-1160.7177781209186,166.04009446451101,13384.25094277186,0.0
340012.02908761695,3997225.878295721,-27500.0,-648.95837784645164,4343.3250503304289,-10222.802714496309,-1554.1604394051683,4579.6583874820244,-1474.118184172959,7437.7398256483284,-1713.4419258494806,2288.6502206259265,-2288.6502206259265,1713.4419258494806,14532.684090716757,0.0
345012.02908761695,3997225.878295721,-27500.0,-163.18003713211741,3487.298167038934,-11811.486214793573,-1208.9603938260354,5155.4842650453947,-1633.1641582525465,7890.3108278174686,-3366.2086823833756,3322.0744597266862,-3322.0744597266862,3366.2086823833756,15534.690864197843,0.0
350012.02908761695,3997225.878295721,-27500.0,181.27637707621301,2399.7282803578692,-13058.089377667313,-784.65796319735671,5607.1334475246458,-1758.7478826991621,8258.8673528628442,-5014.0563245533049,4173.7847976414523,-4173.7847976414523,5014.0563245533049,16334.099218489981,0.0
355012.02908761695,3997225.878295721,-27500.0,342.76072104764131,1159.8957232026451,-13887.101911307705,-308.11631204902233,5909.5229384028344,-1844.4401550128384,8527.8286814381227,-6543.0715487456555,4774.9069287402226,-4774.9069287402226,6543.0715487456555,16888.976745857828,0.0
360012.02908761695,3997225.878295721,-27500.0,303.29520247050419,-138.82517933655055,-14260.8199336164,189.25964299682278,6049.7950951166531,-1886.7707641471561,8677.9708224712176,-7850.7677757779038,5084.4000049446095,-5084.4000049446095,7850.7677757779038,17174.946950405283,0.0
365012.02908761695,3997225.878295721,-27500.0,70.277511290952404,-1401.8498802454344,-14182.223721048882,675.49316055392546,6028.2912474331943,-1885.5017651657386,8693.8054682631391,-8858.8631627909817,5093.3548384879914,-5093.3548384879914,8858.8631627909817,17186.315073043417,0.0
370012.02908761695,3997225.878295721,-27500.0,-326.51264666209778,-2545.5021192755275,-13691.33099174862,1121.832316870559,5857.5494529167327,-1843.4490074280966,8574.5097424047508,-9521.2771291963054,4823.5277423055268,-4823.5277423055268,9521.2771291963054,16934.958209467488,0.0
375012.02908761695,3997225.878295721,-27500.0,-841.45219468335711,-3506.0054764324118,-12856.45599871561,1505.6701892979527,5559.7081783147123,-1765.9217032683221,8331.2900574420564,-9826.2495782667283,4321.0552149953155,-4321.0552149953155,9826.2495782667283,16447.366721273502,0.0
380012.02908761695,3997225.878295721,-27500.0,-1421.2891709636447,-4244.1024164514292,-11762.751660524578,1812.1851699847755,5162.9868373643731,-1659.9162474308916,7982.6682738491163,-9793.0433567078926,3647.3191148968913,-3647.3191148968913,9793.0433567078926,15760.507505396454,0.0
385012.02908761695,3997225.878295721,-27500.0,-2013.1241547099314,-4745.2717088924537,-10500.560265115155,2034.6391324259291,4697.993123566047,-1533.2316376541137,7551.0488114943882,-9464.8140382766669,2869.2068142192998,-2869.2068142192998,9464.8140382766669,14917.286072639798,0.0
390012.02908761695,3997225.878295721,-27500.0,-2570.7293866957248,-5016.4778189425051,-9155.5524000857822,2173.5641851031082,4194.4751302689729,-1393.6549164185467,7060.1618072582414,-8899.6967532896506,2050.6308582747602,-2050.6308582747602,8899.6967532896506,13962.284314038838,0.0
395012.02908761695,3997225.878295721,-27500.0,-3058.4982627877894,-5080.8465364392941,-7801.7594422757875,2235.2253847284196,3678.8991242699635,-1248.3170072370017,6533.2649971547889,-8161.9883636716895,1246.4237789145664,-1246.4237789145664,8161.9883636716895,12938.239590990866,0.0
295012.02908761695,4002225.878295721,-27500.0,-2569.5079836559798,1588.1107839527081,2407.9905159107443,-811.82493226153986,-391.18812992335415,-16.276622801035124,3086.4847129558621,2994.8027519269781,-2954.6340125967608,2954.6340125967608,-2994.8027519269781,5346.8053672042151,0.0
300012.02908761695,4002225.878295721,-27500.0,-2737.1893735940398,2216.4000502465824,1757.9315515556714,-1021.8641948722051,-109.6877550267627,-102.88988740755725,3310.0349684376697,3203.5807735862395,-2958.7410886614075,2958.7410886614075,-3203.5807735862395,5762.8250215034523,0.0
305012.02908761695,4002225.878295721,-27500.0,-2808.1933356270347,2846.2887944446338,903.4679694462302,-1224.8451029807979,240.67228208362218,-206.9417878464848,3585.2868376794609,3290.7581556664859,-2823.0138411566263,2823.0138411566263,-3290.7581556664859,6313.9971704833169,0.0
310012.02908761695,4002225.878295721,-27500.0,-2766.6610335649452,3438.8700631967049,-162.2647284898753,-1407.5120317065873,660.09688525741808,-328.04475473286601,3915.5805490587363,3217.3049065449163,-2527.2354043481387,2527.2354043481387,-3217.3049065449163,7007.6060270119951,0.0
315012.02908761695,4002225.878295721,-27500.0,-2604.5790563671667,3948.3903786469605,-1431.3877772090282,-1554.9020309921848,1143.8530798345334,-464.57705769626506,4298.6930877434543,2947.324517596252,-2060.8244092852929,2060.8244092852929,-2947.324517596252,7835.3733145813694,0.0
320012.02908761695,4002225.878295721,-27500.0,-2324.9322497439339,4325.8409569096948,-2877.6801823447763,-1651.5552135640821,1681.3293835250745,-613.50016302818437,4726.2722346056307,2453.4742089288684,-1426.9390661121965,1426.9390661121965,-2453.4742089288684,8773.9802782803454,0.0
325012.02908761695,4002225.878295721,-27500.0,-1943.903180530242,4524.2355679202565,-4454.6148851949683,-1683.1743895744696,2255.6369876221775,-770.30834157946367,5184.2039920701218,1722.8180342991209,-645.60057203701047,645.60057203701047,-1722.8180342991209,9787.5738345971204,0.0
330012.02908761695,4002225.878295721,-27500.0,-1491.3195311737688,4505.0460635994968,-6095.9965068534511,-1638.5571000300588,2844.0080366530015,-929.16058660932185,5653.7550343513703,762.03587873492722,245.16057022712198,-245.16057022712198,-762.03587873492722,10831.145204053633,0.0
335012.02908761695,4002225.878295721,-27500.0,-1008.7491497958035,4244.7700672394203,-7719.8506346723316,-1511.4972159419194,3419.1445011249007,-1083.2207654552083,6113.3109762835393,-399.31551959205274,1190.9588719425974,-1190.9588719425974,399.31551959205274,11854.297964144971,0.0
340012.02908761695,4002225.878295721,-27500.0,-545.1190368143441,3740.2655589301771,-9235.5810779998974,-1302.2721870114449,3951.4889133454567,-1225.1946224228766,6540.6192525590786,-1708.6794128719782,2125.8237679302183,-2125.8237679302183,1708.6794128719782,12805.301793694071,0.0
345012.02908761695,4002225.878295721,-27500.0,-150.37950135803496,3011.4816730430889,-10553.579604538159,-1018.3450879841902,4412.163120596254,-1348.0051481561809,6915.589797823739,-3094.1756281567327,2979.6477119435381,-2979.6477119435381,3094.1756281567327,13635.301107363604,0.0
350012.02908761695,4002225.878295721,-27500.0,131.63561789937464,2100.6481116452173,-11595.710079193366,-674.03533590346399,4776.1182763676907,-1445.5097024175175,7223.422624837578,-4471.8761260398769,3687.0871842180768,-3687.0871842180768,4471.8761260398769,14302.354764624757,0.0
355012.02908761695,4002225.878295721,-27500.0,269.65252312311992,1067.7839343802152,-12304.668127634377,-289.13170668141152,5024.9328230494011,-1513.1396622269576,7453.4584760073012,-5755.5253857281732,4196.1656844160934,-4196.1656844160934,5755.5253857281732,14774.830485099292,0.0
360012.02908761695,4002225.878295721,-27500.0,249.29705922130927,-16.704352168985636,-12650.37011553262,113.33454287914557,5148.7395653846643,-1548.3512594070382,7590.2987742719079,-6866.8701490115191,4474.8012467720901,-4474.8012467720901,6866.8701490115191,15033.689377121476,0.0
365012.02908761695,4002225.878295721,-27500.0,74.443653248941231,-1080.834163250656,-12632.20065054957,509.73823694709097,5146.9456660830065,-1550.8139740514746,7620.1415358019558,-7744.5708698565095,4513.9730575734184,-4513.9730575734184,7744.5708698565095,15073.352546497754,0.0
370012.02908761695,4002225.878295721,-27500.0,-234.52572957648124,-2059.5137346941465,-12276.947186716226,878.43740011974728,5027.683300030325,-1522.314407214134,7540.9221430493062,-8350.0926014709839,4327.1147554313629,-4327.1147554313629,8350.0926014709839,14901.099475876485,0.0
375012.02908761695,4002225.878295721,-27500.0,-644.91320281085598,-2901.1340521724856,-11633.213899144095,1201.8373832977054,4806.1964925037955,-1466.4140770680876,7360.0574073000407,-8669.7789505099081,3946.223617822197,-3946.223617822197,8669.7789505099081,14535.207844340277,0.0
380012.02908761695,4002225.878295721,-27500.0,-1117.2279474678271,-3571.3791396625234,-10763.7389507262,1467.6626678688781,4502.5558870879531,-1387.9392145028748,7090.7573763348455,-8713.2479762198709,3415.8393683990807,-3415.8393683990807,8713.2479762198709,14002.228981722657,0.0
385012.02908761695,4002225.878295721,-27500.0,-1610.8213087505198,-4054.0878903931921,-9737.2174108121926,1669.3611668708768,4139.1607356592622,-1292.4019492392604,6749.5171728578425,-8508.9894188073449,2786.2986695902923,-2786.2986695902923,8508.9894188073449,13333.883421959477,0.0
390012.02908761695,4002225.878295721,-27500.0,-2088.6422936140461,-4349.6152112046038,-8620.9930235539923,1805.7410741659901,3738.4349461839074,-1185.4461137456722,6354.2387832954782,-8098.4088181816433,2107.523021630087,-2107.523021630087,8098.4088181816433,12564.020499071259,0.0
305012.02908761695,4007225.878295721,-27500.0,-2455.1336378559176,2724.5625655118315,370.82913926435913,-1115.1642181842078,353.86481228466931,-211.57565592089608,3241.6920138960772,2852.5650380291995,-2363.847076143194,2363.847076143194,-2852.5650380291995,5749.3969098988509,0.0
310012.02908761695,4007225.878295721,-27500.0,-2385.0115380421648,3198.1194751870357,-598.70009629677065,-1254.2603154023454,716.19604249305985,-311.60716998249552,3538.730091664193,2725.5841846303865,-2060.6089588352534,2060.6089588352534,-2725.5841846303865,6381.8798137624872,0.0
315012.02908761695,4007225.878295721,-27500.0,-2218.7934384767732,3591.2522794612337,-1725.7172940997659,-1361.7113079770486,1126.2318739837083,-422.61793405974629,3876.3726864949581,2432.3529586586974,-1620.6799162349512,1620.6799162349512,-2432.3529586586974,7116.3871310823106,0.0
320012.02908761695,4007225.878295721,-27500.0,-1961.8697926019802,3866.5938372411365,-2984.9427281037156,-1426.1698657206225,1574.5702580905463,-542.07825621495351,4246.5643063631696,1955.2852676852831,-1050.5408975334703,1050.5408975334703,-1955.2852676852831,7931.353994767629,0.0
325012.02908761695,4007225.878295721,-27500.0,-1629.4519606360702,3989.6234984063635,-4336.1776754555949,-1437.5113088072117,2047.3685369798975,-666.45395292285673,4637.2778962537213,1288.5545097139648,-369.36898026251981,369.36898026251981,-1288.5545097139648,8796.9345668546684,0.0
330012.02908761695,4007225.878295721,-27500.0,-1246.4621855082128,3933.2437187342875,-5725.3596010938109,-1388.1612234768838,2526.7849773037333,-791.33003230875954,5033.4384962164704,441.41695931066033,390.66499292522451,-390.66499292522451,-441.41695931066033,9677.410693232785,0.0
335012.02908761695,4007225.878295721,-27500.0,-845.81567544104098,3682.2297236324212,-7087.8237431585248,-1274.3442401480613,2992.0440098919953,-911.6676219934202,5418.2076223768618,-559.97272345569013,1186.042156148023,-1186.042156148023,559.97272345569013,10533.814210724124,0.0
340012.02908761695,4007225.878295721,-27500.0,-465.09973465236283,3236.6667274484726,-8353.6703820062994,-1097.012707622147,3421.078209771591,-1022.1808533460168,5774.6089088146118,-1672.9543340702332,1965.5889045209303,-1965.5889045209303,1672.9543340702332,11326.737658208063,0.0
345012.02908761695,4007225.878295721,-27500.0,-142.05863895698616,2613.5394557992358,-9454.6246535044247,-862.23477868108796,3792.564014718906,-1117.7944044069716,6087.6270219386124,-2841.2920667412554,2675.8452026782516,-2675.8452026782516,2841.2920667412554,12019.237898043153,0.0
350012.02908761695,4007225.878295721,-27500.0,90.354794538086622,1845.9337742303337,-10331.338502311213,-580.90380146091627,4088.0560371969709,-1194.1180655221372,6346.7800727516196,-4000.4370897856188,3267.2826997959492,-3267.2826997959492,4000.4370897856188,12579.608426820219,0.0
355012.02908761695,4007225.878295721,-27500.0,208.40310669967013,979.81178211168481,-10939.8633391802,-267.7665989558115,4293.8695448194694,-1247.8672973322696,6544.8801766378456,-5084.3456473703227,3700.2483589428971,-3700.2483589428971,5084.3456473703227,12983.713451860433,0.0
360012.02908761695,4007225.878295721,-27500.0,200.58460378906676,68.864024996591198,-11256.127401402615,60.089696376981628,4402.3917670478113,-1277.1607181918419,6669.0728282687096,-6032.6801652998129,3949.5158433358374,-3949.5158433358374,6032.6801652998129,13216.5841851798,0.0
365012.02908761695,4007225.878295721,-27500.0,68.68228616201003,-831.61171481235874,-11277.669123853833,385.03268965071288,4412.6125113887783,-1281.6510856577227,6707.0934043162051,-6797.1058067195327,4006.6238567561695,-4006.6238567561695,6797.1058067195327,13273.080492229874,0.0
370012.02908761695,4007225.878295721,-27500.0,-173.25158544945958,-1670.6952836561602,-11022.475144048603,690.65614093270165,4329.8254179183814,-1262.4744755987056,6656.4296688906998,-7345.6418462172824,3879.7042200346114,-3879.7042200346114,7345.6418462172824,13157.571434158664,0.0
375012.02908761695,4007225.878295721,-27500.0,-501.61496635521996,-2406.6867771571087,-10525.367708423921,963.24638285635979,4164.6130766036777,-1222.0388538077,6522.0466893930161,-7664.4959741320727,3591.0519422580237,-3591.0519422580237,7664.4959741320727,12882.74968475984,0.0
380012.02908761695,4007225.878295721,-27500.0,-886.99869415982744,-3010.1632866039408,-9832.8076269951653,1192.7535921314961,3931.347623173674,-1163.6977563598416,6313.4576245191965,-7757.387384600288,3173.1243421147337,-3173.1243421147337,7757.387384600288,12467.817680928172,0.0
320012.02908761695,4012225.878295721,-27500.0,-1664.421396504096,3454.2505248724765,-3013.5504049579295,-1232.6833562818301,1461.3656063437709,-476.99867317726341,3824.7088176670195,1548.3244076100186,-756.5123620438236,756.5123620438236,-1548.3244076100186,7182.8226616827751,0.0
325012.02908761695,4012225.878295721,-27500.0,-1375.5541049325614,3523.3606427045015,-4173.7372650828866,-1230.8446789475063,1852.1195952571888,-576.11313404766474,4158.8940579157133,944.42430986898808,-163.44836722400873,163.44836722400873,-944.42430986898808,7923.642132132607,0.0
330012.02908761695,4012225.878295721,-27500.0,-1051.0332242633169,3444.2283139364931,-5354.0044831373798,-1180.508870297263,2244.8531619461369,-674.85883246259925,4494.5489305142673,198.37366286806017,486.43687898859173,-486.43687898859173,-198.37366286806017,8669.6460824073783,0.0
335012.02908761695,4012225.878295721,-27500.0,-716.98218986031986,3207.1164238434908,-6503.1162609692592,-1079.4386076037713,2623.6604935110749,-769.4990180728139,4818.4877510386477,-667.11931375599715,1158.2621844001635,-1158.2621844001635,667.11931375599715,9390.4935782798584,0.0
340012.02908761695,4012225.878295721,-27500.0,-402.48842478206831,2813.8722538144548,-7566.7141796511942,-928.869023742644,2971.9199588504221,-856.17096175737117,5117.6607642427462,-1617.3865551411436,1812.0585481876547,-1812.0585481876547,1617.3865551411436,10055.875063501953,0.0
345012.02908761695,4012225.878295721,-27500.0,-136.35446873176346,2278.8419864476432,-8492.2610080281793,-733.71732523479579,3273.7192018908308,-931.19776582370457,5380.7902640203474,-2608.1077415296577,2406.6708998643626,-2406.6708998643626,2608.1077415296577,10637.547256422751,0.0
350012.02908761695,4012225.878295721,-27500.0,56.376377173555937,1628.1546645393589,-9234.1984652681713,-502.34031335913932,3515.3218783934144,-991.40749557774575,5600.6087876371757,-3589.153813317319,2904.1585871927864,-2904.1585871927864,3589.153813317319,11111.268217035562,0.0
355012.02908761695,4012225.878295721,-27500.0,157.50460553887848,897.37804359386155,-9758.4885000622598,-245.84540115960172,3686.4532937955782,-1034.4124569666019,5772.3841311506976,-4509.4367022758643,3273.9635116272648,-3273.9635116272648,4509.4367022758643,11458.426584185283,0.0
360012.02908761695,4012225.878295721,-27500.0,157.80440678610267,127.8840692511466,-10045.79547867124,22.95300738346095,3781.205543978901,-1058.8093422504883,5884.8509557114821,-5322.0034771529945,3496.1277076590586,-3496.1277076590586,5322.0034771529945,11667.174008779217,0.0
365012.02908761695,4012225.878295721,-27500.0,57.833021207642304,-637.46618231451578,-10092.814825749731,290.76778761540453,3798.4286155767122,-1064.2703793543785,5927.1708156998729,-5988.5406181910203,3563.0279394153695,-3563.0279394153695,5988.5406181910203,11732.927948732107,0.0
335012.02908761695,3797225.878295721,-32500.0,97.702460137030798,-858.61480414459163,-9576.29134448486,-457.78533133247629,-4378.4766030252686,-1485.031420674984,6012.0081236328278,-5765.3430883075034,3313.8405095290505,-3313.8405095290505,5765.3430883075034,11879.956960197704,0.0
340012.02908761695,3797225.878295721,-32500.0,230.63169760252234,-99.720961546503915,-9607.2815669415941,-145.09162962552887,-4387.0628423784619,-1485.3493204185829,5997.392035955535,-5165.2427915475919,3313.0767879295136,-3313.0767879295136,5165.2427915475919,11860.834900563159,0.0
345012.02908761695,3797225.878295721,-32500.0,260.80566131529491,677.21067608151759,-9402.5261210629833,173.88365303212427,-4304.8415467516488,-1458.9247150582949,5910.7776451091877,-4412.1274803100341,3157.2909722471122,-3157.2909722471122,4412.1274803100341,11695.326425641189,0.0
350012.02908761695,3797225.878295721,-32500.0,184.46073181134972,1428.7100051433129,-8960.092607268185,483.30414705081802,-4131.3601037175085,-1405.7396613648216,5758.4950354011371,-3540.8517820304837,2849.3490269397357,-2849.3490269397357,3540.8517820304837,11385.899841397235,0.0
355012.02908761695,3797225.878295721,-32500.0,8.1173067979847033,2111.4004658650838,-8294.3120154245171,767.41960390504471,-3871.8930540340002,-1327.3341988484683,5550.0010674283885,-2596.1399398175827,2404.9690736126349,-2404.9690736126349,2596.1399398175827,10942.658426009535,0.0
360012.02908761695,3797225.878295721,-32500.0,-251.81717862001722,2686.5686640784193,-7435.0529972443092,1012.1005469531427,-3537.176847619915,-1226.7263750057223,5293.7737313594689,-1628.3229590564044,1851.5314221180363,-1851.5314221180363,1628.3229590564044,10383.023566074011,0.0
365012.02908761695,3797225.878295721,-32500.0,-570.91553687074941,3124.2368820695397,-6425.0021760727404,1206.2053404324868,-3142.4891133150263,-1108.166537586121,4998.6505893130097,-688.24410032544233,1225.2291488384503,-1225.2291488384503,688.24410032544233,9730.7209830254651,0.0
370012.02908761695,3797225.878295721,-32500.0,-919.75865118435865,3406.0502034763463,-5315.353439344608,1342.565229716769,-2706.2046724992024,-976.75957505148256,4675.8657125458876,177.83649248647032,567.01843115453062,-567.01843115453062,-177.83649248647032,9014.1865426370787,0.0
375012.02908761695,3797225.878295721,-32500.0,-1267.5616346422437,3526.5181846750079,-4160.6310083244707,1418.4399130626077,-2248.0564652596759,-838.01138843963781,4338.4890951556645,932.4950310549516,-81.914745636120017,81.914745636120017,-932.4950310549516,8264.5788138974476,0.0
380012.02908761695,3797225.878295721,-32500.0,-1585.7406286894432,3492.5173598963152,-3013.4960322135512,1435.4105696195184,-1787.3719565462311,-697.36639917307014,4000.0563285364301,1549.9406278919719,-684.39720608565221,684.39720608565221,-1549.9406278919719,7513.6152377737553,0.0
385012.02908761695,3797225.878295721,-32500.0,-1850.8216510750183,3321.2974595910919,-1920.3291654175928,1398.7778579673745,-1341.5396108925263,-559.79852621890905,3673.2752414681372,2017.0609645648462,-1210.5574094688889,1210.5574094688889,-2017.0609645648462,6791.412395642752,0.0
320012.02908761695,3802225.878295721,-32500.0,-950.60512479762235,-3133.6289983031038,-8977.6194717351718,-1491.7072319656675,-4407.0612474184727,-1587.3008035848434,6291.6910493722462,-7205.2475040894606,2668.3186800109875,-2668.3186800109875,7205.2475040894606,12414.854222876593,0.0
325012.02908761695,3802225.878295721,-32500.0,-541.50084836501287,-2582.9994014572353,-9708.7398553331186,-1242.1419639147805,-4701.8054149410345,-1676.1021936779332,6528.2723684250914,-7185.2437521576276,3129.040792374416,-3129.040792374416,7185.2437521576276,12879.819862591179,0.0
330012.02908761695,3802225.878295721,-32500.0,-181.19223927465322,-1891.1528378707121,-10266.236897407933,-938.28472739660458,-4923.2479084951156,-1741.4026345430916,6693.8308073365733,-6949.2322096302451,3477.0403665558024,-3477.0403665558024,6949.2322096302451,13209.587899883223,0.0
335012.02908761695,3802225.878295721,-32500.0,98.519058255907709,-1083.3420646222464,-10600.912112887569,-590.4877799858026,-5053.2366116542771,-1778.0916483895569,6777.6889717152335,-6488.1467741270162,3676.5143873421212,-3676.5143873421212,6488.1467741270162,13382.576222144842,0.0
340012.02908761695,3802225.878295721,-32500.0,270.53155415114281,-198.08018966703534,-10673.257085524037,-213.77823309190569,-5077.4559690158785,-1782.2317631367628,6773.3265209004676,-5809.7526210553224,3700.1861554507195,-3700.1861554507195,5809.7526210553224,13383.26668606515,0.0
345012.02908761695,3802225.878295721,-32500.0,316.582590944983,715.33601256515271,-10459.090182614564,173.09302204693603,-4987.3665274126279,-1751.5698652436347,6680.3440843489598,-4940.0992027867851,3533.8300481294846,-3533.8300481294846,4940.0992027867851,13204.284124589232,0.0
350012.02908761695,3802225.878295721,-32500.0,230.56323011368858,1601.3063767082117,-9953.8979667933654,549.26057519891117,-4781.6621062064696,-1685.9081634754871,6505.6226948634221,-3922.5022900460585,3179.4782359326541,-3179.4782359326541,3922.5022900460585,12847.893574404134,0.0
355012.02908761695,3802225.878295721,-32500.0,20.217801977764992,2403.863808586922,-9174.9002229937687,893.81713884053852,-4466.9313078354271,-1587.2576654535324,6260.5749560376007,-2813.8900291852974,2656.4863661526283,-2656.4863661526283,2813.8900291852974,12326.641189585724,0.0
360012.02908761695,3802225.878295721,-32500.0,-293.28746809153887,3073.1117111210701,-8160.2162253053039,1188.0328479456891,-4057.3317442921593,-1459.7324362163197,5956.5667332646981,-1678.9159280514173,2000.0144505340804,-2000.0144505340804,1678.9159280514173,11662.973807374234,0.0
365012.02908761695,3802225.878295721,-32500.0,-677.97625733151995,3570.9774815093529,-6965.0893519832216,1417.3360749523849,-3573.2720228286184,-1309.1864593719329,5605.7422961804259,-582.80217288553672,1257.0443203533991,-1257.0443203533991,582.80217288553672,10887.824000836392,0.0
370012.02908761695,3802225.878295721,-32500.0,-1095.3855621047705,3875.2136388821646,-5655.7807399751282,1572.7141343595335,-3039.306262656693,-1142.648322113426,5223.0416179686754,415.80676668412349,480.63251314910082,-480.63251314910082,-415.80676668412349,10038.335531592917,0.0
375012.02908761695,3802225.878295721,-32500.0,-1505.7264914997113,3980.9528639393229,-4302.2522374135178,1651.3071257994609,-2481.6046206820856,-967.64508315354692,4825.4836416450353,1270.6914173432017,-276.49271057383498,276.49271057383498,-1270.6914173432017,9155.0168556614153,0.0
380012.02908761695,3802225.878295721,-32500.0,-1872.860057654405,3899.7105293631889,-2970.9520283855377,1656.1543886371633,-1925.4277298130869,-791.52277163586211,4430.3774935896608,1951.6872062054442,-967.79493780784628,967.79493780784628,-1951.6872062054442,8278.6525858639397,0.0
385012.02908761695,3802225.878295721,-32500.0,-2168.1930890074768,3656.2699516961293,-1718.8877528278085,1595.2205027807045,-1392.9971792397189,-620.86225066976715,4053.5723901029774,2445.7176712735227,-1557.2729462335274,1557.2729462335274,-2445.7176712735227,7447.2359078052059,0.0
390012.02908761695,3802225.878295721,-32500.0,-2372.9555414183365,3284.2743986957894,-589.73926201478491,1479.9552852010399,-902.02184856828251,-461.05818650573849,3707.9937720757944,2755.4532745431407,-2021.7624019815637,2021.7624019815637,-2755.4532745431407,6693.0556152833351,0.0
395012.02908761695,3802225.878295721,-32500.0,-2478.7474377261783,2821.4614257297708,387.75181806106849,1323.6846542984372,-464.9806355261133,-316.09144865435559,3402.5597358584246,2896.2401438678612,-2351.1724265074768,2351.1724265074768,-2896.2401438678612,6040.0020715443798,0.0
310012.02908761695,3807225.878295721,-32500.0,-2186.0780458413897,-4308.6584629403733,-7565.6948344749089,-2156.6791852344072,-4087.8720874254313,-1586.0865915683898,6247.6721881669191,-7270.8024908266962,1460.8905483171329,-1460.8905483171329,7270.8024908266962,12341.292226607431,0.0
315012.02908761695,3807225.878295721,-32500.0,-1709.257292523394,-4083.7397893604993,-8659.3066820304739,-2025.8160712075214,-4561.0192372181637,-1738.6980125902617,6662.1041461238365,-7722.8585303646723,2136.1448984193303,-2136.1448984193303,7722.8585303646723,13147.270154887177,0.0
320012.02908761695,3807225.878295721,-32500.0,-1204.9910817687057,-3674.6446309237763,-9690.2228119953488,-1818.5978498057643,-4999.9162502971831,-1877.9844174619448,7029.2615006555934,-7991.7736936056754,2784.8660019373074,-2784.8660019373074,7991.7736936056754,13862.539254332874,0.0
325012.02908761695,3807225.878295721,-32500.0,-709.54685668941818,-3075.5391788606621,-10593.736546564838,-1534.3205915361668,-5378.6771366043067,-1996.0590008692802,7330.4483200816157,-8033.7189133608772,3358.4474426521174,-3358.4474426521174,8033.7189133608772,14452.19482381848,0.0
330012.02908761695,3807225.878295721,-32500.0,-264.35261523940466,-2296.4317918995011,-11301.393055565923,-1178.3950076107101,-5670.5571614110113,-2084.9653664168673,7548.0380380024289,-7815.4438302968365,3805.5390341654502,-3805.5390341654502,7815.4438302968365,14882.506938656146,0.0
335012.02908761695,3807225.878295721,-32500.0,88.531668998285298,-1365.6059555498559,-11747.838135691683,-763.06228870088341,-5850.5479252814257,-2137.4349186127715,7667.2694628641193,-7320.5293795414173,4077.9611945496445,-4077.9611945496445,7320.5293795414173,15124.000060286478,0.0
340012.02908761695,3807225.878295721,-32500.0,312.14508434265116,-329.71626899495948,-11878.958812392188,-307.25538147214496,-5898.3556516466524,-2147.7229470790248,7678.5004054110941,-6554.5271374739377,4137.5882936085554,-4137.5882936085554,6554.5271374739377,15154.755440193097,0.0
345012.02908761695,3807225.878295721,-32500.0,380.62777820877204,749.10660130922497,-11660.049295246083,164.58656676538371,-5801.3058945583798,-2112.3957480174422,7579.7629062598926,-5547.6451477979463,3963.0082331751141,-3963.0082331751141,5547.6451477979463,14963.47479814399,0.0
350012.02908761695,3807225.878295721,-32500.0,284.23048541002925,1799.2047721585927,-11082.374624047916,624.73534962145129,-5556.6159228105416,-2030.9222410318939,7378.3953699350477,-4353.8999340964792,3554.4889319725353,-3554.4889319725353,4353.8999340964792,14551.785278794021,0.0
355012.02908761695,3807225.878295721,-32500.0,32.055526366534259,2747.6768140888421,-10166.547426540956,1045.1550740605583,-5172.5112218241993,-1905.9394348896515,7088.4087621475755,-3046.330204114327,2935.9003725383955,-2935.9003725383955,3046.330204114327,13935.326819151403,0.0
360012.02908761695,3807225.878295721,-32500.0,-348.35104626093414,3529.5671087134692,-8961.6265957687756,1400.7565672338471,-4667.8396599073094,-1743.1118591571499,6725.1838392254203,-1708.7757516519964,2152.7956291479627,-2152.7956291479627,1708.7757516519964,13143.305683438348,0.0
365012.02908761695,3807225.878295721,-32500.0,-814.69632691975949,4096.1148442839785,-7539.8217074928289,1672.3108025063732,-4070.1621181107794,-1550.5890166907923,6305.4478968766653,-425.68769474620422,1266.7771666705539,-1266.7771666705539,425.68769474620422,12216.500257695352,0.0
370012.02908761695,3807225.878295721,-32500.0,-1316.2049002810811,4420.3716447373663,-5987.7154776821708,1848.4663647570446,-3412.6354589698772,-1338.1467034575753,5849.2082186285452,728.03603342263068,347.22124168105574,-347.22124168105574,-728.03603342263068,11203.962406980625,0.0
375012.02908761695,3807225.878295721,-32500.0,-1801.0642367202386,4499.1217447562558,-4395.7801402144323,1926.517151981737,-2730.2794618109237,-1116.1656017022808,5378.7957171632897,1695.1753042647497,-537.8868937974695,537.8868937974695,-1695.1753042647497,10158.874267972438,0.0
380012.02908761695,3807225.878295721,-32500.0,-2223.43442462762,4351.001652463794,-2848.2524820919743,1911.8745906546992,-2056.3200246946271,-894.62254087863823,4916.4625467318601,2440.8818775641989,-1330.1306584057897,1330.1306584057897,-2440.8818775641989,9134.0680920139457,0.0
385012.02908761695,3807225.878295721,-32500.0,-2548.6699347333711,4011.6062692719238,-1415.1557675774641,1816.483076538867,-1419.2154074155935,-682.25141292639773,4481.9685966717798,2953.4793144534347,-1986.3900774726239,1986.3900774726239,-2953.4793144534347,8177.5952839667925,0.0
390012.02908761695,3807225.878295721,-32500.0,-2756.0144131024003,3526.9375947134545,-147.51556535055093,1656.6092809129586,-840.74486270896625,-485.97429066487587,4090.5900325862435,3241.8548004290697,-2481.4325176932271,2481.4325176932271,-3241.8548004290697,7328.5357640401126,0.0
395012.02908761695,3807225.878295721,-32500.0,-2838.7394852095808,2946.6570210824834,924.0470602806115,1450.4830969416082,-335.2579368116713,-310.63718336989842,3751.7500114682457,3330.5667517294155,-2807.4971616012704,2807.4971616012704,-3330.5667517294155,6613.2000275444334,0.0
400012.02908761695,3807225.878295721,-32500.0,-2802.2581129107725,2318.3132075752997,1787.883587342146,1216.1925565216306,90.056574181168585,-159.02349066919072,3468.4838400212107,3254.0049553359963,-2971.6086002626694,2971.6086002626694,-3254.0049553359963,6042.2430091849046,0.0
405012.02908761695,3807225.878295721,-32500.0,-2661.0256381857689,1683.2210452913994,2447.9876883685724,970.08607839323452,434.17223823916561,-32.078037952604525,3237.9181310836757,3050.7731086294789,-2991.6212055416627,2991.6212055416627,-3050.7731086294789,5609.8548278064,0.0
305012.02908761695,3812225.878295721,-32500.0,-3146.7708092033554,-4892.7051653547433,-6595.641289123113,-2608.5156920492682,-3939.7645522803323,-1644.2151964848451,6363.723768154151,-7111.1451646102832,514.18884812400074,-514.18884812400074,7111.1451646102832,12574.915056897966,0.0
310012.02908761695,3812225.878295721,-32500.0,-2680.5349024596217,-4901.9909893322092,-7874.2551508024162,-2569.7587440626326,-4530.2936393424143,-1845.8947822298574,6898.627463049178,-7854.4458035162106,1275.0748511726624,-1275.0748511726624,7854.4458035162106,13618.973889519004,0.0
315012.02908761695,3812225.878295721,-32500.0,-2133.4465228689819,-4717.0501331308687,-9170.6521077760754,-2444.3086272580872,-5117.3163260864631,-2042.7892917171139,7407.3705605794503,-8455.8854754220702,2073.6189431725766,-2073.6189431725766,8455.8854754220702,14608.382996285045,0.0
320012.02908761695,3812225.878295721,-32500.0,-1537.8146591807649,-4309.8679509406984,-10417.8048152759,-2222.6923416078112,-5671.7905255240203,-2225.3845103075055,7866.2401457106962,-8852.4270653323947,2860.2132007919226,-2860.2132007919226,8852.4270653323947,15500.805019711966,0.0
325012.02908761695,3812225.878295721,-32500.0,-937.84294472166255,-3666.584258324634,-11535.142688067617,-1901.4836478362147,-6159.9717207319109,-2382.9695245313965,8250.6830118446615,-8984.1292770595137,3574.110882352777,-3574.110882352777,8984.1292770595137,16250.874084444536,0.0
330012.02908761695,3812225.878295721,-32500.0,-386.41826537384901,-2793.4137015865931,-12434.355534440716,-1485.3645377207854,-6545.8859448112344,-2504.4436761494921,8536.9623857197275,-8802.5856690374949,4148.5298198422224,-4148.5298198422224,8802.5856690374949,16813.543914314123,0.0
335012.02908761695,3812225.878295721,-32500.0,60.703338095734807,-1720.9513864851483,-13028.339526288695,-988.49012753474312,-6794.8874674227691,-2579.4022046609361,8704.5335146610632,-8280.0191220478755,4518.4631241482166,-4518.4631241482166,8280.0191220478755,17148.311639120631,0.0
340012.02908761695,3812225.878295721,-32500.0,352.82287849389866,-505.3566227427242,-13242.548659611646,-434.65448887192815,-6877.9904985462299,-2599.3983572202228,8739.1134515881386,-7417.3161431536791,4630.3787997149539,-4630.3787997149539,7417.3161431536791,17224.005989848287,0.0
345012.02908761695,3812225.878295721,-32500.0,453.05108182365689,774.81916696328426,-13026.895824257743,144.12840466234613,-6776.2522406411381,-2559.1640937297734,8636.1070073017909,-6248.8178443956076,4452.0797941816854,-4452.0797941816854,6248.8178443956076,17023.338236679941,0.0
350012.02908761695,3812225.878295721,-32500.0,345.96043949571242,2026.4997011314915,-12365.796094496036,710.68095782754654,-6484.3677447150958,-2457.5683854025269,8403.0582172224003,-4842.0555805578197,3980.4728029091884,-3980.4728029091884,4842.0555805578197,16546.514216807162,0.0
355012.02908761695,3812225.878295721,-32500.0,42.053052403792577,3153.7492381883662,-11283.72168075883,1226.9954932284836,-6012.5684715660182,-2298.0785549190769,8057.3835055982536,-3291.5161429303025,3244.9852041703634,-3244.9852041703634,3291.5161429303025,15813.079437117336,0.0
360012.02908761695,3812225.878295721,-32500.0,-422.48905964682245,4071.0798118958978,-9844.3779495383133,1659.0797364556693,-5386.20388353613,-2088.5782491873274,7620.0945421619554,-1707.0396982186164,2305.1975028715146,-2305.1975028715146,1707.0396982186164,14861.440786873802,0.0
365012.02908761695,3812225.878295721,-32500.0,-991.09881527602124,4715.4720813495151,-8143.1793178371418,1981.3124346946934,-4642.9371297763373,-1840.5438045090416,7114.3931026952796,-199.08895350597379,1242.7686914009009,-1242.7686914009009,199.08895350597379,13746.015301683296,0.0
370012.02908761695,3812225.878295721,-32500.0,-1596.048739019159,5054.3767155576897,-6294.4322265808487,2179.3924299548944,-3828.0523924167096,-1567.7201645338635,6567.3225574853532,1135.9307197170285,149.3285003309179,-149.3285003309179,-1135.9307197170285,12532.361701120972,0.0
375012.02908761695,3812225.878295721,-32500.0,-2169.3503252745231,5088.0216742564826,-4416.09003637359,2251.3127270742689,-2988.8597429985834,-1284.5547545580978,6008.4317108341311,2227.0863623723353,-886.82974488220771,886.82974488220771,-2227.0863623723353,11291.039643214692,0.0
380012.02908761695,3812225.878295721,-32500.0,-2652.7320197691133,4845.9789161334447,-2615.3867190576038,2206.3252558484564,-2169.3338530898827,-1004.6838423908418,5466.465620581419,3034.9393132444538,-1792.2631908571648,1792.2631908571648,-3034.9393132444538,10090.990391471652,0.0
385012.02908761695,3812225.878295721,-32500.0,-3004.6178813344982,4379.4146270937426,-978.0892607994449,2062.3438478061389,-1405.9474510619707,-739.72195936016806,4965.9805291501889,3551.6458248070821,-2515.8869491529977,2515.8869491529977,-3551.6458248070821,8993.0175109365737,0.0
390012.02908761695,3812225.878295721,-32500.0,-3203.1290172137565,3751.295023733288,437.20360823725207,1842.5261592424356,-725.23981187955133,-498.50370439333454,4524.6290311405201,3796.1574395514181,-3031.6206981176756,3031.6206981176756,-3796.1574395514181,8043.6654146435558,0.0
395012.02908761695,3812225.878295721,-32500.0,-3245.30892131053,3026.8364859071239,1599.7421393041211,1571.8088517925185,-143.17733084716716,-286.80809393053352,4151.5114497478635,3806.4792676349853,-3336.6623606427229,3336.6623606427229,-3806.4792676349853,7269.9123196380961,0.0
400012.02908761695,3812225.878295721,-32500.0,-3143.6112652536672,2265.8734194016306,2503.3975988247767,1273.9946851088603,334.01535261008087,-107.49764472981767,3846.9586312597157,3631.1124106208326,-3446.7564956386932,3446.7564956386932,-3631.1124106208326,6675.9394618967735,0.0
405012.02908761695,3812225.878295721,-32500.0,-2921.0149604181179,1517.9364790707962,3161.1371277732051,969.71608689680158,708.07471375705325,39.052873981828739,3603.9229530885368,3321.3751237761085,-3390.0994327072008,3390.0994327072008,-3321.3751237761085,6244.0806833178358,0.0
410012.02908761695,3812225.878295721,-32500.0,-2606.0044596309185,820.03791261329195,3598.758894063059,675.33429219831794,986.50629866335851,154.37682457326633,3410.6528889336505,2925.5847662201313,-3201.2967316744871,3201.2967316744871,-2925.5847662201313,5941.0840980421699,0.0
415012.02908761695,3812225.878295721,-32500.0,-2228.2717761373051,196.64270871913186,3849.0537838993737,402.64519099933165,1180.4142065410499,241.30524359765062,3253.7868695638476,2485.3914588624039,-2916.3057027891073,2916.3057027891073,-2485.3914588624039,5727.7203742638558,0.0
300012.02908761695,3817225.878295721,-32500.0,-4174.5079485853503,-5169.9500018872095,-5254.2828143144925,-2982.5471048865393,-3597.2818358871978,-1640.4807388629606,6331.2780870797706,-6490.008801496313,-647.39896086158615,647.39896086158615,6490.008801496313,12490.660796589571,0.0
305012.02908761695,3817225.878295721,-32500.0,-3801.123257398127,-5449.4777637386023,-6621.8664442303098,-3064.7494774548263,-4279.3761237390681,-1888.8728789453053,6970.0965361823546,-7492.5955602505874,112.03937236080856,-112.03937236080856,7492.5955602505874,13755.54188895874,0.0
310012.02908761695,3817225.878295721,-32500.0,-3294.7688405169679,-5554.9872265895101,-8099.3745019321277,-3061.0730945380665,-4998.1881374977984,-2145.204613744188,7615.2021867753665,-8425.8217029956413,980.47745355936422,-980.47745355936422,8425.8217029956413,15018.613283915211,0.0
315012.02908761695,3817225.878295721,-32500.0,-2673.9021481176064,-5436.5759895221863,-9630.7330638867916,-2952.0744727748929,-5726.4621605757029,-2399.6208463794492,8240.2407844932732,-9216.0344121077851,1918.9761772352663,-1918.9761772352663,9216.0344121077851,16234.878146759367,0.0
320012.02908761695,3817225.878295721,-32500.0,-1974.2073422401929,-5051.8484117271255,-11137.123997884099,-2722.3568622770331,-6428.0108988977572,-2639.6465122491463,8814.9570510922676,-9781.5547945389553,2869.582341119004,-2869.582341119004,9781.5547945389553,17351.070785518707,0.0
325012.02908761695,3817225.878295721,-32500.0,-1248.7249806159107,-4374.4933990264644,-12519.025202637316,-2363.8919748950798,-7058.9987461709607,-2850.7409448373737,9307.0829059583848,-10040.901888393973,3757.1239297015491,-3757.1239297015491,10040.901888393973,18308.245261725588,0.0
330012.02908761695,3817225.878295721,-32500.0,-564.59223954382367,-3403.2497081312986,-13662.743542684708,-1879.3019380499238,-7570.9674941797148,-3017.3621915738408,9684.510745732834,-9924.1637836577247,4495.0191692635335,-4495.0191692635335,9924.1637836577247,19046.02833922613,0.0
335012.02908761695,3817225.878295721,-32500.0,4.2185043840496128,-2169.2590473538635,-14451.930482505535,-1284.3455442449924,-7915.6861915316313,-3124.5270522160972,9918.4823363012056,-9386.1843034722715,4995.4225556834408,-4995.4225556834408,9386.1843034722715,19508.450192259588,0.0
340012.02908761695,3817225.878295721,-32500.0,387.79215949391943,-739.34309074439386,-14783.274692161762,-608.73874620324648,-8051.4072123792112,-3159.7027573223618,9987.7694978211093,-8419.0303316519748,5182.8187699582459,-5182.8187699582459,8419.0303316519748,19650.795265404708,0.0
345012.02908761695,3817225.878295721,-32500.0,533.089952202424,787.00329845803219,-14584.027790467631,105.40516202494558,-7949.5886883259827,-3114.7417322500805,9883.4684601055978,-7060.4286768106331,5008.7289694999954,-5008.7289694999954,7060.4286768106331,19446.556456738334,0.0
350012.02908761695,3817225.878295721,-32500.0,415.76481384869868,2287.9244480674697,-13827.50357377223,807.77713356196421,-7600.6326836941262,-2987.4461152080116,9612.768704610362,-5394.8903327594089,4463.9690614869105,-4463.9690614869105,5394.8903327594089,18893.116483450889,0.0
355012.02908761695,3817225.878295721,-32500.0,47.533127011613438,3635.7725029996168,-12542.326149236802,1446.2389395055611,-7017.1589228037938,-2782.379726013005,9197.4925521709811,-3545.7119308029573,3584.7036571454414,-3584.7036571454414,3545.7119308029573,18014.928895297118,0.0
360012.02908761695,3817225.878295721,-32500.0,-523.61186435190041,4716.6713554915086,-10811.993058724911,1974.1543982605092,-6233.6295077843297,-2510.6385326734057,8666.6172839611718,-1658.4102655022077,2449.6503072725063,-2449.6503072725063,1658.4102655022077,16863.066390395521,0.0
365012.02908761695,3817225.878295721,-32500.0,-1221.0844375473821,5448.3621257801706,-8764.0903477417432,2357.0252249038194,-5302.1897744317457,-2188.5893951533899,8052.6800669355589,120.91349217675565,1168.3537837005576,-1168.3537837005576,-120.91349217675565,15511.138285004323,0.0
370012.02908761695,3817225.878295721,-32500.0,-1953.5290033715301,5791.7794337645719,-6551.2232211553855,2576.8701078464924,-4285.4594592362228,-1835.7856945662097,7392.66361680918,1667.14678658711,-136.84633463600642,136.84633463600642,-1667.14678658711,14047.932137992175,0.0
375012.02908761695,3817225.878295721,-32500.0,-2631.0373672259338,5753.6855252218738,-4328.4869611680961,2633.4195668435241,-3248.0022284167917,-1472.5293105179176,6726.0307425986002,2892.3955558361304,-1350.4451042221438,1350.4451042221438,-2892.3955558361304,12568.131432866903,0.0
380012.02908761695,3817225.878295721,-32500.0,-3179.4962059077766,5380.4871738255715,-2232.8501895774311,2542.1405275865218,-2248.3634410514551,-1117.5716325490448,6090.0578683103167,3753.5755793020853,-2380.1324789468063,2380.1324789468063,-3753.5755793020853,11162.32661685633,0.0
385012.02908761695,3817225.878295721,-32500.0,-3549.8398803097389,4745.8550307872083,-368.71700721062172,2329.9398362499046,-1333.2240287040756,-786.36416447138072,5515.0197223553205,4250.8815358527081,-3166.5040500087493,3166.5040500087493,-4250.8815358527081,9907.2257837597808,0.0
390012.02908761695,3817225.878295721,-32500.0,-3720.9891018616408,3936.0010064450398,1198.4687932491202,2029.8434679149946,-534.41956142851905,-490.07291897377337,5020.5152248452914,4419.219416498544,-3685.1776302436801,3685.1776302436801,-4419.219416498544,8856.6047287941237,0.0
395012.02908761695,3817225.878295721,-32500.0,-3697.2265104317057,3036.2100273952778,2441.1545542346912,1675.9095079688775,131.26480364189342,-235.36041206224201,4613.6915311313978,4316.019118393594,-3942.5761018461881,3942.5761018461881,-4316.019118393594,8034.1402181905532,0.0
400012.02908761695,3817225.878295721,-32500.0,-3501.988875472091,2120.9534124713491,3363.3448204699962,1299.2513847502103,660.20681494726637,-24.781621202140492,4289.9296978709608,4008.7991486509363,-3967.8838814853998,3967.8838814853998,-4008.7991486509363,7430.9286530505542,0.0
405012.02908761695,3817225.878295721,-32500.0,-3170.3255629200489,1248.3668016625129,3991.7112415452875,925.54567903028612,1058.8881949899123,142.43549573931023,4035.9513847043904,3564.8646901673551,-3803.8238888256287,3803.8238888256287,-3564.8646901673551,7010.8442037053819,0.0
410012.02908761695,3817225.878295721,-32500.0,-2741.8357658713703,458.65887112259497,4366.4812359530242,573.97204513496717,1340.5157546679573,269.45334507815767,3834.3146674285299,3044.2455481041907,-3498.2825731857956,3498.2825731857956,-3044.2455481041907,6723.1851227587313,0.0
415012.02908761695,3817225.878295721,-32500.0,-2255.1483964136464,-224.63551925151609,4533.6287389515601,257.2741584812789,1521.9320165774188,360.91083837125535,3667.6721049412427,2495.9066376690407,-3097.9019807382101,3097.9019807382101,-2495.9066376690407,6516.9166261612654,0.0
420012.02908761695,3817225.878295721,-32500.0,-1744.3000798896321,-791.77965398421861,4539.0605693824909,-17.458556574707195,1621.1473063590283,422.14474879517485,3521.5707724635058,1956.6191425635957,-2643.9481122608627,2643.9481122608627,-1956.6191425635957,6350.39882927898,0.0
290012.02908761695,3822225.878295721,-32500.0,-5183.5167093844939,-4442.2053951062053,-2515.8545271921521,-2956.5746778296048,-2427.1012987980762,-1307.5031120310193,5493.144474609383,-4299.0940625415378,-2391.8370453198013,2391.8370453198013,4299.0940625415378,10718.956944190448,0.0
295012.02908761695,3822225.878295721,-32500.0,-5143.7613414901734,-5052.3783475079999,-3643.188654559423,-3221.5043003448905,-3066.9610627767315,-1564.9667534531848,6153.3793042199786,-5405.0808957735126,-1910.2040388103762,1910.2040388103762,5405.0808957735126,12067.387825601369,0.0
300012.02908761695,3822225.878295721,-32500.0,-4951.3833943934678,-5597.2347297041551,-4976.3183251248147,-3441.3554814088725,-3796.8142244851097,-1851.021502032123,6866.2469665181352,-6585.5450455500295,-1258.4266296056785,1258.4266296056785,6585.5450455500295,13507.533460837712,0.0
305012.02908761695,3822225.878295721,-32500.0,-4589.8401500314831,-6020.8349187391714,-6505.5638427990534,-3590.6945047512322,-4607.5119043138393,-2160.9324280295004,7621.4086750419992,-7790.9791530322036,-435.39449884293344,435.39449884293344,7790.9791530322036,15011.356512330154,0.0
310012.02908761695,3822225.878295721,-32500.0,-4055.2298163350679,-6258.6697590030872,-8199.3895438380659,-3641.5323375352596,-5479.8067600313279,-2486.481301291306,8398.4893458497936,-8951.5153302590188,542.36592753507375,-542.36592753507375,8951.5153302590188,16538.323291788485,0.0
315012.02908761695,3822225.878295721,-32500.0,-3361.8941056183585,-6243.0078392776713,-9998.6440007965575,-3565.8921760929411,-6382.3439529988946,-2815.4876093359176,9166.6630575416693,-9977.6007420641781,1635.4527706619519,-1635.4527706619519,9977.6007420641781,18034.5922373867,0.0
320012.02908761695,3822225.878295721,-32500.0,-2547.0711733994171,-5911.5589424241762,-11812.840806739594,-3339.6057302153822,-7270.7075269971974,-3131.7348953230562,9887.852966669152,-10764.645515027398,2778.1864735530953,-2778.1864735530953,10764.645515027398,19433.656622572998,0.0
325012.02908761695,3822225.878295721,-32500.0,-1672.8751750105907,-5219.1892830883762,-13520.577802736456,-2947.1192444501371,-8088.3263639778934,-3415.5307980694456,10519.755766929979,-11202.759696957584,3878.9586263527058,-3878.9586263527058,11202.759696957584,20659.086536506511,0.0
330012.02908761695,3822225.878295721,-32500.0,-823.68744214843616,-4151.2656467453226,-14976.199777487584,-2386.6467844467093,-8769.9609335000241,-3645.0677422827944,11018.831162256569,-11191.757512238964,4826.2238851011052,-4826.2238851011052,11191.757512238964,21629.796232410572,0.0
335012.02908761695,3822225.878295721,-32500.0,-97.51005083074682,-2735.8576940090943,-16024.130721997304,-1674.5509982854637,-9248.1599780716824,-3798.6303359533085,11344.58322237902,-10660.059660946856,5501.2696747281443,-5501.2696747281443,10660.059660946856,22267.952365942216,0.0
340012.02908761695,3822225.878295721,-32500.0,408.80782106679465,-1050.9061356243435,-16520.459886061159,-847.50004363832579,-9462.3206160319696,-3857.4598939236034,11465.382353983458,-9584.0331078861582,5797.1366949590983,-5797.1366949590983,9584.0331078861582,22508.906492087881,0.0
345012.02908761695,3822225.878295721,-32500.0,618.38008041106832,777.6110499072629,-16358.739460333902,38.958223993475215,-9369.0101742482675,-3808.8226121600865,11365.292121163437,-8002.5669679052289,5640.5918628716217,-5640.5918628716217,8002.5669679052289,22311.772839443554,0.0
350012.02908761695,3822225.878295721,-32500.0,492.72164458461117,2588.9093522742955,-15494.256089866181,916.09910735730068,-8951.3111095474233,-3648.6265903962567,11050.022967740308,-6021.2660555461252,5011.6968380553726,-5011.6968380553726,6021.2660555461252,21668.63077418743,0.0
355012.02908761695,3822225.878295721,-32500.0,44.079322118893785,4211.0970115878927,-13959.508618860906,1711.4691053404538,-8224.4834256592476,-3382.8492627561636,10546.945189388302,-3802.4401076258246,3954.5195689936527,-3954.5195689936527,3802.4401076258246,20609.919830418592,0.0
360012.02908761695,3822225.878295721,-32500.0,-663.22822485490951,5490.4418383339753,-11865.086498263896,2360.1854305656552,-7235.9595163876565,-3027.3145797029556,9896.4555610831794,-1541.2746477757664,2574.2101012085641,-2574.2101012085641,1541.2746477757664,19204.478219581048,0.0
365012.02908761695,3822225.878295721,-32500.0,-1524.1151765085801,6318.3837327893716,-9383.8227477248638,2815.253805637803,-6058.9772232096011,-2605.6870259978386,9144.8208855917546,566.61267836186039,1019.6583249511743,-1019.6583249511743,-566.61267836186039,17553.360312069082,0.0
370012.02908761695,3822225.878295721,-32500.0,-2413.8471835244991,6648.6029842009593,-6721.9663768069768,3054.1942219499729,-4781.3279950489959,-2146.1461987572729,8343.3438778253167,2357.4432762248671,-543.85759450491219,543.85759450491219,-2357.4432762248671,15778.599643212458,0.0
375012.02908761695,3822225.878295721,-32500.0,-3212.6108127087491,6499.7088739904457,-4085.2562897759772,3080.4097297712383,-3492.0817537065718,-1677.5166029935153,7545.262062313971,3722.6607312753954,-1964.1480751927361,1964.1480751927361,-3722.6607312753954,14008.816543653376,0.0
380012.02908761695,3822225.878295721,-32500.0,-3826.3451121588978,5944.1400039472483,-1648.9942938655556,2919.4532681797964,-2269.5979609146962,-1225.7302683604751,6799.0178785510034,4618.1691853337898,-3125.5541137465143,3125.5541137465143,-4618.1691853337898,12363.771727142832,0.0
385012.02908761695,3822225.878295721,-32500.0,-4198.7986779779685,5088.1860177971766,461.18296263318865,2611.8431765007194,-1173.3447139740686,-811.30178744060811,6141.3382719773454,5059.3376839627799,-3961.1816177484088,3961.1816177484088,-5059.3376839627799,10939.341360482118,0.0
390012.02908761695,3822225.878295721,-32500.0,-4313.4796311345617,4049.7624533854237,2175.5963689947716,2204.7268011038886,-240.50503933125447,-448.10783203855232,5592.3881049139927,5105.968899928891,-4453.1796736713304,4453.1796736713304,-5105.968899928891,9794.0916739894765,0.0
395012.02908761695,3822225.878295721,-32500.0,-4187.4916854310413,2939.5799259395189,3475.7796305001007,1744.4433799211677,513.11958146063841,-143.38915509741724,5154.3999191941721,4843.2221897285817,-4623.9605610324579,4623.9605610324579,-4843.2221897285817,8940.4670612267691,0.0
400012.02908761695,3822225.878295721,-32500.0,-3860.9402249368568,1848.7794580160785,4382.9082631968058,1271.2218443180034,1089.3009109024003,101.35453433871325,4814.4553916389532,4363.7708889236146,-4522.8813899369616,4522.8813899369616,-4363.7708889236146,8346.1344826770728,0.0
405012.02908761695,3822225.878295721,-32500.0,-3385.5523773688024,843.45051027059571,4943.8805839930355,816.34665918199028,1502.2777851212838,288.9911776061179,4550.5597335167768,3754.384092165652,-4212.5797468048941,4212.5797468048941,-3754.384092165652,7948.5135160712707,0.0
410012.02908761695,3822225.878295721,-32500.0,-2815.0375040361782,-35.330743695631718,5218.4143004815633,401.45859562451926,1773.6593432559778,425.27216552326968,4338.5472539749107,3087.8969647035051,-3757.7144642889057,3757.7144642889057,-3087.8969647035051,7676.583698634543,0.0
415012.02908761695,3822225.878295721,-32500.0,-2198.3463350630618,-767.99417015545214,5268.9802118184934,39.343515784951592,1928.1470713031383,517.49322663722171,4157.282043650278,2419.9628104100811,-3217.2565381345921,3217.2565381345921,-2419.9628104100811,7468.8708440505588,0.0
420012.02908761695,3822225.878295721,-32500.0,-1575.9013967928506,-1351.4221521989575,5154.0683534424861,-264.47056089110367,1990.4036689925317,573.43395643222664,3991.1063581043804,1789.246090814795,-2640.2659902350752,2640.2659902350752,-1789.246090814795,7281.5625534017636,0.0
425012.02908761695,3822225.878295721,-32500.0,-978.25073070033159,-1793.7503227090808,4924.4452050459277,-509.85197794509816,1983.0598040685045,600.61181774621969,3830.0238677417829,1219.6306909466546,-2064.4387663677448,2064.4387663677448,-1219.6306909466546,7088.3797194691906,0.0
290012.02908761695,3827225.878295721,-32500.0,-5904.8372521835363,-4504.3350232331968,-1917.162132865333,-3276.7797808806913,-2383.0348944357083,-1415.4252403532371,5842.355518745313,-3929.2961970856395,-3117.7334266182843,3117.7334266182843,3929.2961970856395,11325.616169343175,0.0
295012.02908761695,3827225.878295721,-32500.0,-5965.967951520488,-5261.1894602362499,-3087.5351771593132,-3631.8269039228098,-3103.9843984145027,-1723.3891940874369,6595.8007628894393,-5165.4203094156019,-2676.7264782785819,2676.7264782785819,5165.4203094156019,12868.095159455903,0.0
300012.02908761695,3827225.878295721,-32500.0,-5851.3511481913683,-5974.6460257119779,-4514.6850797729858,-3946.3565591110537,-3945.6033703172434,-2072.13025781429,7421.8876408489086,-6524.232869483244,-2028.8710248952257,2028.8710248952257,6524.232869483244,14544.117846320525,0.0
305012.02908761695,3827225.878295721,-32500.0,-5531.7772181004202,-6578.9723218527251,-6200.3582638122462,-4188.3210793674625,-4902.2867678936727,-2457.3207323399174,8312.0037793160918,-7955.8277740139674,-1161.355938824061,1161.355938824061,7955.8277740139674,16325.648045958102,0.0
310012.02908761695,3827225.878295721,-32500.0,-4991.2402597672726,-6993.7005735578186,-8121.0253242632052,-4320.4988995849553,-5955.7591449734509,-2869.9494916575677,9246.2335858391143,-9382.9293255655793,-81.397785677730099,81.397785677730099,9382.9293255655793,18168.199954227446,0.0
315012.02908761695,3827225.878295721,-32500.0,-4235.2631003511442,-7128.9229204158246,-10218.646112269193,-4303.3928340248231,-7071.5041682948467,-3295.3569476901039,10190.005561575532,-10699.325256860764,1175.375493635227,-1175.375493635227,10699.325256860764,20008.718690208094,0.0
320012.02908761695,3827225.878295721,-32500.0,-3298.9380402200113,-6895.5082775385508,-12393.039944317063,-4100.0954500868938,-8196.2524524366818,-3712.7543081475264,11096.397011739009,-11773.291157541717,2537.9720722628781,-2537.9720722628781,11773.291157541717,21765.173101634125,0.0
325012.02908761695,3827225.878295721,-32500.0,-2252.2466346777524,-6220.5766593248845,-14498.945132864377,-3683.0713916036066,-9257.8177723526442,-4095.6216569131993,11910.327038328769,-12458.239677882604,3897.3607399719558,-3897.3607399719558,12458.239677882604,23338.974564674143,0.0
330012.02908761695,3827225.878295721,-32500.0,-1199.497554315253,-5066.91818311719,-16351.413672940365,-3042.1089668469017,-10168.648648311539,-4413.3418391811883,12572.729718190787,-12611.845006832118,5111.3998472734565,-5111.3998472734565,12611.845006832118,24621.169035014424,0.0
335012.02908761695,3827225.878295721,-32500.0,-269.9076557751938,-3452.7539201315599,-17742.71079152466,-2191.8531101057702,-10834.128116007825,-4634.265624789412,13026.326054830279,-12122.703417940815,6020.0785798905636,-6020.0785798905636,12122.703417940815,25502.962327263802,0.0
340012.02908761695,3827225.878295721,-32500.0,401.95611324459992,-1465.8741132106356,-18471.483157396306,-1176.5532349332486,-11165.561206568922,-4730.0331323951468,13223.790225857463,-10940.12174187309,6471.4114017082593,-6471.4114017082593,10940.12174187309,25890.040568120348,0.0
345012.02908761695,3827225.878295721,-32500.0,703.71376936398383,734.81957770300494,-18380.772094770993,-69.497682455393544,-11096.135174435638,-4680.4978385254662,13137.733041720971,-9099.1121923837618,6354.2839722391063,-6354.2839722391063,9099.1121923837618,25718.853817065621,0.0
350012.02908761695,3827225.878295721,-32500.0,574.22189617763081,2935.5982230261943,-17396.336343587402,1034.533995082131,-10596.30314738899,-4478.1569376875987,12770.159722500297,-6730.8562932034874,5629.9642713486901,-5629.9642713486901,6730.8562932034874,24971.630722932136,0.0
355012.02908761695,3827225.878295721,-32500.0,24.533133730511121,4901.9757595485889,-15553.152593603618,2033.4146948975028,-9683.8905119711562,-4130.7702817462132,12155.291275892238,-4050.9923234517491,4351.270114173004,-4351.270114173004,4050.9923234517491,23685.997123525613,0.0
360012.02908761695,3827225.878295721,-32500.0,-858.22941215957303,6423.2498316793844,-12999.171904246576,2835.4256299728863,-8424.9745001943757,-3661.1979089740589,11349.944086074211,-1324.8841849696109,2660.2701800953228,-2660.2701800953228,1324.8841849696109,21955.918435810112,0.0
365012.02908761695,3827225.878295721,-32500.0,-1927.7130583130765,7354.3742014022973,-9971.9790934129433,3375.7023334507758,-6924.1240093724782,-3104.2093129400032,10421.051251975636,1181.9170185047797,762.31923770581261,-762.31923770581261,-1181.9170185047797,19922.533697437939,0.0
370012.02908761695,3827225.878295721,-32500.0,-3011.328890523373,7641.6560152835718,-6754.1267765524199,3626.4812628549303,-5306.3452779545705,-2501.0240876442081,9441.0278840939645,3253.0684007116297,-1116.3965013619427,1116.3965013619427,-3253.0684007116297,17756.396999077162,0.0
375012.02908761695,3827225.878295721,-32500.0,-3948.2188173110503,7324.7089449979976,-3620.9996649396012,3598.4142949950865,-3695.9526629543802,-1893.0302776560777,8482.4755676530967,4755.5630529864529,-2773.9870590046935,2773.9870590046935,-4755.5630529864529,15634.526318944661,0.0
380012.02908761695,3827225.878295721,-32500.0,-4619.779942674234,6516.4609080903583,-796.90702558634621,3333.517609788491,-2198.2710508831015,-1316.2717619396215,7608.2782182226183,5650.1718259672534,-4066.6846453494863,4066.6846453494863,-5650.1718259672534,13715.889536907447,0.0
385012.02908761695,3827225.878295721,-32500.0,-4964.8201136628195,5370.5574918328148,1570.0261499784294,2893.003408660923,-888.2981876268758,-797.82739743027298,6861.6205601462771,5979.3963020854771,-4923.4517639578316,4923.4517639578316,-5979.3963020854771,12117.824792490948,0.0
390012.02908761695,3827225.878295721,-32500.0,-4978.4415275118763,4047.7441878558325,3412.0014469481553,2344.1524305168109,192.53912273046839,-354.44708458651911,6260.0013033807227,5841.3695207336013,-5341.6747120879181,5341.6747120879181,-5841.3695207336013,10896.447175712179,0.0
395012.02908761695,3827225.878295721,-32500.0,-4699.3339401060011,2689.9884078531886,4729.5840643183556,1749.5548585727786,1033.0139570741183,6.8701655341465928,5795.6962086848189,5360.2225638517448,-5370.2274773824538,5370.2274773824538,-5360.2225638517448,10038.462641913153,0.0
400012.02908761695,3827225.878295721,-32500.0,-4192.2172144129763,1405.9700912814619,5571.5305828074979,1160.335573678356,1644.890430855733,287.04303688348404,5442.8738380005307,4661.0073731568364,-5087.9469324344182,5087.9469324344182,-4661.0073731568364,9473.4661685533993,0.0
405012.02908761695,3827225.878295721,-32500.0,-3531.1454759327526,267.12764538769409,6013.6031828765454,613.38711864754441,2054.6155990731745,492.5554957554545,5168.2828120868826,3853.0391948613533,-4583.9343822785986,4583.9343822785986,-3853.0391948613533,9104.6318214994117,0.0
410012.02908761695,3827225.878295721,-32500.0,-2786.9231199589872,-688.93291737162178,6140.9313353132866,131.66639975142311,2295.838229576716,633.15713077442149,4940.7329570515158,3021.815103334472,-3943.0894346049226,3943.0894346049226,-3021.815103334472,8840.7052172112108,0.0
415012.02908761695,3827225.878295721,-32500.0,-2019.5216344934663,-1451.2590068305888,6035.7194161728685,-273.68227059660859,2403.7064969453932,719.95543231870147,4736.3610843987954,2227.5619199156067,-3237.5927512861203,3237.5927512861203,-2227.5619199156067,8614.0045100287407,0.0
420012.02908761695,3827225.878295721,-32500.0,-1274.864221190699,-2027.4341793557144,5770.1459963329553,-600.45904893843306,2411.1281351393563,764.02892974357803,4539.7566072092905,1507.8762826171608,-2523.4132191233102,2523.4132191233102,-1507.8762826171608,8383.2552794583098,0.0
425012.02908761695,3827225.878295721,-32500.0,-584.71188935005341,-2436.2556380358938,5403.3399115354914,-852.54475661432912,2346.7288939911159,775.54730486446556,4342.6645821427892,882.25126847652814,-1840.2978379011804,1840.2978379011804,-882.25126847652814,8128.3269324813391,0.0
430012.02908761695,3827225.878295721,-32500.0,31.642948697569135,-2701.980485711349,4981.085794444527,-1037.450462188282,2234.0711353842744,763.30940491404908,4141.9041594383234,356.96188255897664,-1213.7459473762044,1213.7459473762044,-356.96188255897664,7843.1630426202937,0.0
285012.02908761695,3832225.878295721,-32500.0,-6314.1028449911792,-3559.9228177969949,-257.5698116348338,-3120.3386735234599,-1604.7176047055891,-1199.0047265731232,5427.0976926804551,-2207.0680419039932,-4099.2945039969445,4099.2945039969445,2207.0680419039932,10335.381362734144,0.0
290012.02908761695,3832225.878295721,-32500.0,-6663.461485716316,-4432.975011434557,-1159.5586399933311,-3585.7765343766423,-2256.9039831482155,-1508.1162832912364,6182.4937998388987,-3358.4185815463984,-3942.8252172772104,3942.8252172772104,3358.4185815463984,11887.137617943696,0.0
295012.02908761695,3832225.878295721,-32500.0,-6866.8300080257304,-5348.9961505409838,-2338.8868450446603,-4051.0362988882762,-3056.7052584776761,-1872.9098597880047,7035.5195476350445,-4711.1091075600352,-3582.6595071552679,3582.6595071552679,4711.1091075600352,13635.528115710396,0.0
300012.02908761695,3832225.878295721,-32500.0,-6874.937949567322,-6256.3406917009324,-3830.3334463125798,-4486.6720147423976,-4014.9971937576875,-2294.7680237311083,7986.9855444767218,-6247.1076518345035,-2978.4417861630609,2978.4417861630609,6247.1076518345035,15571.75161637454,0.0
305012.02908761695,3832225.878295721,-32500.0,-6641.6040173898573,-7080.8266262171146,-5652.9940929130062,-4853.482274496143,-5132.8596434710762,-2770.7719960429135,9031.4180046587462,-7920.940973978838,-2100.360845515509,2100.360845515509,7920.940973978838,17670.76340243611,0.0
310012.02908761695,3832225.878295721,-32500.0,-6132.7205284342817,-7725.1948162702747,-7798.4486823917478,-5103.147166623794,-6396.1276893457643,-3291.8872770626322,10151.022408137665,-9651.8035731350574,-939.69044846300221,939.69044846300221,9651.8035731350574,19886.443268930449,0.0
315012.02908761695,3832225.878295721,-32500.0,-5337.9550737407217,-8073.2317957657933,-10216.905204297411,-5181.0926709585619,-7769.4922682253409,-3841.1976525389555,11308.999709523778,-11318.123152738921,478.67000701624238,-478.67000701624238,11318.123152738921,22147.335075978765,0.0
320012.02908761695,3832225.878295721,-32500.0,-4283.6418065963562,-8000.7785465149263,-12803.640083585677,-5032.3500012089571,-9191.3363173258494,-4392.6372423177054,12449.182051697306,-12757.865117552359,2083.8500398090273,-2083.8500398090273,12757.865117552359,24354.19083587189,0.0
325012.02908761695,3832225.878295721,-32500.0,-3043.6784801316035,-7395.1882515111547,-15389.951860784136,-4610.7794587665467,-10571.240951547796,-4910.8668463324584,13500.736297073032,-13778.530255204154,3750.7960817068442,-3750.7960817068442,13778.530255204154,26381.086710131098,0.0
330012.02908761695,3832225.878295721,-32500.0,-1743.5569223828086,-6182.7174622511193,-17744.499722544024,-3891.0496007565616,-11792.582772450212,-5352.995376951787,14383.764532039484,-14180.164718564611,5301.6183112412064,-5301.6183112412064,14180.164718564611,28081.980168340666,0.0
335012.02908761695,3832225.878295721,-32500.0,-551.94971885209623,-4359.7089519850806,-19591.253429034245,-2881.2992710064295,-12722.509274136029,-5672.674049960784,15016.989619419583,-13791.955349895719,6522.0398683571893,-6522.0398683571893,13791.955349895719,29304.188220874876,0.0
340012.02908761695,3832225.878295721,-32500.0,344.05871127325463,-2018.8803540234546,-20647.721705490891,-1632.7693737833488,-13230.217067700214,-5826.5637649601804,15329.259501540571,-12517.61550932844,7195.7850559656918,-7195.7850559656918,12517.61550932844,29908.86903353046,0.0
345012.02908761695,3832225.878295721,-32500.0,778.91315001281498,641.26945715391105,-20680.67788029095,-241.77129447900154,-13211.678365085265,-5782.3053308550743,15274.445385640052,-10377.92457866011,7153.4214050626715,-7153.4214050626715,10377.92457866011,29796.257234350818,0.0
350012.02908761695,3832225.878295721,-32500.0,654.70706733497582,3334.8084164324196,-19567.161135897499,1159.7685427592667,-12615.315608326637,-5526.1611361608984,14846.651249525285,-7533.6927502507478,6323.507807779928,-6323.507807779928,7533.6927502507478,28930.519829750094,0.0
355012.02908761695,3832225.878295721,-32500.0,-22.583104411122306,5737.3357645702008,-17340.526196910185,2425.5917930298078,-11460.382031054769,-5067.936206022302,14088.071716488643,-4273.9507142057955,4767.238429904126,-4767.238429904126,4273.9507142057955,27357.160370520312,0.0
360012.02908761695,3832225.878295721,-32500.0,-1133.6425115935476,7555.0730603495522,-14200.877235402426,3423.6305721259641,-9840.1945554329304,-4441.1591975995407,13079.362441238025,-964.98512421615089,2678.9323283476597,-2678.9323283476597,964.98512421615089,25206.380252974257,0.0
365012.02908761695,3832225.878295721,-32500.0,-2471.2168704734877,8591.4874772593448,-10480.184148556644,4062.9756627384127,-7906.8750131652614,-3697.8828686989818,11919.22866986969,2027.079301105362,346.51087618119618,-346.51087618119618,-2027.079301105362,22679.158733005534,0.0
370012.02908761695,3832225.878295721,-32500.0,-3792.9647751126613,8786.9461605169672,-6571.3752564684719,4310.1436541850899,-5841.590093587427,-2899.4667300799329,10712.006351234355,4413.7771878124449,-1916.0562268186675,1916.0562268186675,-4413.7771878124449,20018.396933817621,0.0
375012.02908761695,3832225.878295721,-32500.0,-4881.4592552534123,8217.9877968979326,-2846.3810347626477,4189.6707720941049,-3820.0382959019971,-2106.103665850274,9557.8558682365874,6034.7970198000139,-3839.3598198212867,3839.3598198212867,-6034.7970198000139,17471.123257221268,0.0
380012.02908761695,3832225.878295721,-32500.0,-5589.236882989564,7060.9487396346303,408.94708502612991,3770.6722785800039,-1984.1128963853898,-1368.0950109340886,8537.8369824848451,6867.7872100436834,-5247.5711361575432,5247.5711361575432,-6867.7872100436834,15248.346653978735,0.0
385012.02908761695,3832225.878295721,-32500.0,-5856.4356990733968,5538.1579036567427,3026.2760731654212,3145.9342535843139,-426.5658913999211,-720.74943341648179,7699.6602556057078,7002.2304882858398,-6073.8883453077369,6073.8883453077369,-7002.2304882858398,13487.371213757724,0.0
390012.02908761695,3832225.878295721,-32500.0,-5702.1853414312864,3867.2149391011412,4952.0808103304935,2411.1962122795167,810.49585413583588,-183.23999711346559,7051.5169718293027,6594.4453450806304,-6346.0552845482707,6346.0552845482707,-6594.4453450806304,12224.982561845396,0.0
395012.02908761695,3832225.878295721,-32500.0,-5200.1410613775861,2226.5691649835376,6222.1136363624091,1649.9216005498511,1727.1083902079431,239.48637408260609,6567.7314903451088,5822.1234124675402,-6155.1729538945228,6155.1729538945228,-5822.1234124675402,11397.93418852045,0.0
400012.02908761695,3832225.878295721,-32500.0,-4450.2258273138823,740.56951799984859,6927.5244592399013,925.31861463369125,2352.3653128538408,553.1550501249535,6203.9379129924819,4850.2724126758267,-5621.8214045311552,5621.8214045311552,-4850.2724126758267,10880.011237124983,0.0
405012.02908761695,3832225.878295721,-32500.0,-3555.0894043311464,-519.94830936980122,7183.7177437093796,278.6625890619099,2731.2777828789444,770.23605240611812,5913.8876686370249,3812.2303556020443,-4868.7712051140652,4868.7712051140652,-3812.2303556020443,10535.901269835253,0.0
410012.02908761695,3832225.878295721,-32500.0,-2604.7956802670624,-1528.0836168238818,7107.4388105838343,-268.2590726231121,2914.1930226786171,906.48250287875078,5660.5000746254937,2803.6218337318037,-4003.6988647962994,4003.6988647962994,-2803.6218337318037,10259.278070986549,0.0
415012.02908761695,3832225.878295721,-32500.0,-1669.5114827037282,-2288.1386823083549,6803.0076751858423,-708.7661110290943,2949.6210563861741,978.32096919697096,5419.4053906802565,1884.8195788227467,-3111.1939144165208,3111.1939144165208,-1884.8195788227467,9983.7549857867307,0.0
420012.02908761695,3832225.878295721,-32500.0,-798.13617221941684,-2823.5316448375811,6356.0686006505421,-1046.5690186195843,2880.1922501670547,1001.1457939875997,5177.5274411275504,1087.5989035582452,-2251.4669930146697,2251.4669930146697,-1087.5989035582452,9676.6246734005363,0.0
425012.02908761695,3832225.878295721,-32500.0,-20.483434025286709,-3167.159895285658,5832.4428549378927,-1291.6286953070173,2740.9865782749653,988.3856484204764,4929.8508074542269,422.88909503534592,-1462.9633261946519,1462.9633261946519,-422.88909503534592,9327.7204250648429,0.0
430012.02908761695,3832225.878295721,-32500.0,648.93816910545343,-3354.6322267999099,5279.8784963437884,-1456.9599293025178,2559.4076485084292,951.14119297807724,4676.2673017747802,-112.14542179837275,-766.67336047974322,766.67336047974322,112.14542179837275,8939.6880361441235,0.0
435012.02908761695,3832225.878295721,-32500.0,1206.8405996572485,-3420.047747755435,4731.0820632733139,-1556.4037182966244,2355.9184295053792,898.19556438981351,4419.1956152313205,-528.44345554104882,-170.71435737950807,170.71435737950807,528.44345554104882,8521.2494163536685,0.0
280012.02908761695,3837225.878295721,-32500.0,-6268.641139001822,-2322.7817442411369,1164.6957846389862,-2753.1808720051758,-806.61160487958932,-931.94919747904828,4958.1535818201792,-429.68926896230096,-4707.8266558786354,4707.8266558786354,429.68926896230096,9216.4622344749368,0.0
285012.02908761695,3837225.878295721,-32500.0,-6888.9979670225011,-3193.2970520159815,590.70790105809976,-3284.3747822154228,-1338.6713074120462,-1219.6596283738847,5674.1665442231497,-1368.2246288588801,-4859.4136662436376,4859.4136662436376,1368.2246288588801,10677.608709660159,0.0
290012.02908761695,3837225.878295721,-32500.0,-7425.1474955736412,-4181.0847488289864,-237.4768571940545,-3858.1270358810852,-2026.4114188861631,-1572.9102562480118,6504.90949470756,-2549.221186595988,-4850.1031684762729,4850.1031684762729,2549.221186595988,12380.073002962414,0.0
295012.02908761695,3837225.878295721,-32500.0,-7820.2124609498887,-5259.9774459996815,-1377.8916921826051,-4454.287394816216,-2895.8116484357406,-1999.4510458247464,7460.1071174000872,-3989.1445456454026,-4622.780542616184,4622.780542616184,3989.1445456454026,14337.602319724876,0.0
300012.02908761695,3837225.878295721,-32500.0,-8008.9875765317001,-6380.4263974197593,-2886.3419274734561,-5040.8225971323427,-3968.7672649177043,-2504.3373910369455,8546.1146718597611,-5684.959909515328,-4118.1900996122567,4118.1900996122567,5684.959909515328,16551.64164073674,0.0
305012.02908761695,3837225.878295721,-32500.0,-7923.8816453953305,-7463.3170484646498,-4806.3001759073377,-5571.6772677581139,-5257.5116485195085,-3087.7212852113876,9763.033379687362,-7602.8631126633154,-3283.4636381296641,3283.4636381296641,7602.8631126633154,19004.972779637166,0.0
310012.02908761695,3837225.878295721,-32500.0,-7505.3914474722224,-8395.9425971599285,-7154.0027875351907,-5986.0820499195415,-6757.0483017410352,-3742.1036610235237,11097.966378410983,-9665.6713043075797,-2085.243783967916,2085.243783967916,9665.6713043075797,21654.367429399397,0.0
315012.02908761695,3837225.878295721,-32500.0,-6717.4959291114501,-9033.057630906389,-9898.9583892445971,-6210.5973014969713,-8435.9855591748037,-4449.3099455407055,12514.730539444268,-11741.367724510179,-527.20741657667077,527.20741657667077,11741.367724510179,24423.001938303245,0.0
320012.02908761695,3837225.878295721,-32500.0,-5566.9634564580929,-9206.8745893641772,-12942.042094411452,-6165.4539173145358,-10227.152916781401,-5177.8147080907947,13948.782156756635,-13637.300584339926,1330.0042645053281,-1330.0042645053281,13637.300584339926,27194.397948245518,0.0
325012.02908761695,3837225.878295721,-32500.0,-4122.9003779484183,-8749.7061265654429,-16096.320898507216,-5776.4020204325861,-12020.632924206533,-5881.3836903903393,15310.798685845277,-15106.328771395172,3351.350139921451,-3351.350139921451,15106.328771395172,29810.390518212276,0.0
330012.02908761695,3837225.878295721,-32500.0,-2529.6425633796521,-7530.8976362671519,-19079.362183205973,-4992.1455805819314,-13663.22062849089,-6500.3260790860386,16493.480674813869,-15871.823746757376,5320.6068390423443,-5320.6068390423443,15871.823746757376,32076.540526343997,0.0
335012.02908761695,3837225.878295721,-32500.0,-1003.3601148642607,-5504.4880168808777,-21528.201589406701,-3805.0792991212325,-14968.877522906285,-6966.572080114378,17381.417359960265,-15675.738519579387,6954.4609668227813,-6954.4609668227813,15675.738519579387,33778.261759907262,0.0
340012.02908761695,3837225.878295721,-32500.0,196.74855946178289,-2755.9921611859331,-23046.653783160007,-2269.867306777739,-15743.501111428752,-7213.1470853957844,17867.135082698605,-14346.384777868063,7945.6957775388782,-7945.6957775388782,14346.384777868063,34709.479584456123,0.0
345012.02908761695,3837225.878295721,-32500.0,825.16375804383028,471.51665493269883,-23285.700615423324,-511.61854508218192,-15822.986077984384,-7187.0993262085785,17873.56971508843,-11870.094126874425,8034.7285797993864,-8034.7285797993864,11870.094126874425,34711.676158966577,0.0
350012.02908761695,3837225.878295721,-32500.0,723.53678023200814,3793.842759522684,-22041.202559283545,1284.5053912725957,-15116.679955996349,-6862.9877860012703,17378.987232208863,-8438.7570835240076,7093.0900059747337,-7093.0900059747337,8438.7570835240076,33715.798782998696,0.0
355012.02908761695,3837225.878295721,-32500.0,-115.56021731628249,6755.3885653081543,-19335.201848057051,2905.2809393475723,-13641.582988579614,-6252.4368814667614,16433.961322393974,-4442.9281773832136,5186.8221653754463,-5186.8221653754463,4442.9281773832136,31774.415253557123,0.0
360012.02908761695,3837225.878295721,-32500.0,-1526.9460009989059,8938.404817832803,-15441.253395167791,4156.3370467754048,-11531.37582811754,-5405.4494608211971,15153.966454309233,-396.82757294689645,2585.1178065559334,-2585.1178065559334,396.82757294689645,29070.820257560772,0.0
365012.02908761695,3837225.878295721,-32500.0,-3211.5032315420649,10072.243277803909,-10831.835651029935,4907.907584963119,-9012.2347461783356,-4401.7683604823505,13687.627913862218,3185.7318122089246,-300.74603999996384,300.74603999996384,-3185.7318122089246,25897.683896458879,0.0
370012.02908761695,3837225.878295721,-32500.0,-4823.3056111405676,10096.32435223364,-6062.5394237674509,5121.4851434823286,-6352.1280419679724,-3334.7224067572097,12188.887635133178,5916.4703842725585,-3028.0229366049434,3028.0229366049434,-5916.4703842725585,22608.427665904306,0.0
375012.02908761695,3837225.878295721,-32500.0,-6066.912402045099,9152.1509579198319,-1639.9485903051348,4847.9606529492949,-3802.7664563268918,-2293.1891803388194,10797.588537188731,7608.3904621132169,-5235.7314383383655,5235.7314383383655,-7608.3904621132169,19552.742173870949,0.0
380012.02908761695,3837225.878295721,-32500.0,-6764.0392413611207,7516.0457354916798,2075.6039190225274,4201.5275365352945,-1555.0351175564265,-1347.5132393800986,9616.2873893157084,8279.5376770830189,-6715.5712037419826,6715.5712037419826,-8279.5376770830189,17008.339782938972,0.0
385012.02908761695,3837225.878295721,-32500.0,-6870.4050167196683,5509.3849160116224,4905.8121537683101,3323.212607057967,280.58266684543679,-542.63355800095269,8690.7932755062502,8098.9877208817397,-7423.0544629655797,7423.0544629655797,-8098.9877208817397,15120.520626930906,0.0
390012.02908761695,3837225.878295721,-32500.0,-6450.4941047771117,3422.862595160243,6834.6579182683126,2348.2869419192002,1669.8097878169608,101.76806042993125,8007.4734656541696,7309.7886642049061,-7441.7247745596587,7441.7247745596587,-7309.7886642049061,13872.120194861391,0.0
395012.02908761695,3837225.878295721,-32500.0,-5632.5683775622356,1473.5406727194365,7958.2850673939165,1385.6389793803007,2635.8361445550468,586.46086643215938,7511.2026521584612,6160.7407886765595,-6927.7258768673928,6927.7258768673928,-6160.7407886765595,13114.211989431462,0.0
400012.02908761695,3837225.878295721,-32500.0,-4564.7978471963488,-205.87898929923267,8430.1853597726331,509.95859764048191,3236.3833819068791,926.02937842331642,7133.6601804896663,4862.8263366135834,-6058.3051208477391,6058.3051208477391,-4862.8263366135834,12648.92993712876,0.0
405012.02908761695,3837225.878295721,-32500.0,-3384.0492249824119,-1556.3918051641649,8417.5861817223213,-236.66049726859592,3543.6698559501547,1142.5101737843868,6816.1074559792942,3571.1048762575451,-4996.3170481137931,4996.3170481137931,-3571.1048762575451,12306.722295667139,0.0
410012.02908761695,3837225.878295721,-32500.0,-2199.4648274891333,-2572.8395087670146,8073.9892864739522,-838.19416372391549,3630.2593688511288,1260.3943676540914,6518.8964236845777,2384.7401218049804,-3872.1366605656744,3872.1366605656744,-2384.7401218049804,11977.994299429234,0.0
415012.02908761695,3837225.878295721,-32500.0,-1087.7924495807265,-3283.4940180788826,7526.0381471442633,-1296.783147183756,3560.8605061422072,1303.2758188578155,6220.6529404464145,1356.5768256435726,-2778.9160522275956,2778.9160522275956,-1356.5768256435726,11608.063969897143,0.0
420012.02908761695,3837225.878295721,-32500.0,-95.927988394674344,-3733.4263985159546,6870.3054787019664,-1625.5537398490133,3388.7537739662548,1291.9609753117604,5913.2046454333904,505.70848866857807,-1775.7978693843979,1775.7978693843979,-505.70848866857807,11179.44252951013,0.0
425012.02908761695,3837225.878295721,-32500.0,753.22224529544997,-3972.8677384460539,6175.6899570744099,-1843.0451706495271,3155.2363043812588,1243.6737983792348,5596.2961286021864,-170.75288045514912,-894.6592908486291,894.6592908486291,170.75288045514912,10695.432212612803,0.0
430012.02908761695,3837225.878295721,-32500.0,1454.1477310038529,-4050.083619200796,5488.2494327784943,-1969.3628366679475,2890.7265591119749,1171.9782098523192,5273.6101345225416,-688.3112884863707,-147.53042769890737,147.53042769890737,688.3112884863707,10168.849431374363,0.0
435012.02908761695,3837225.878295721,-32500.0,2012.7953004908968,-4007.6621692274612,4836.5290824711792,-2023.8028393447732,2616.5793116982441,1087.106624700265,4950.2333175101112,-1068.4059117043782,466.79910982368574,-466.79910982368574,1068.4059117043782,9615.3592886705464,0.0
275012.02908761695,3842225.878295721,-32500.0,-5733.4149144195653,-946.10278612504146,2224.8088669039607,-2207.0100282863586,-64.580002770949307,-637.080243685612,4500.3950933232099,1203.9859744625032,-4854.552387633863,4854.552387633863,-1203.9859744625032,8127.6505846655209,0.0
280012.02908761695,3842225.878295721,-32500.0,-6555.8885188599006,-1699.6451839260969,1981.8070696767822,-2747.6510847422869,-443.67271452074709,-882.99384247920057,5142.0185667654468,565.60972139933165,-5280.3301441398116,5280.3301441398116,-565.60972139933165,9409.8995348555618,0.0
285012.02908761695,3842225.878295721,-32500.0,-7373.1577440787278,-2615.6872935659389,1542.5562905175184,-3366.7813914697545,-966.43969759892525,-1197.1917621353275,5903.2563000134796,-311.3849026631101,-5616.1998013480334,5616.1998013480334,311.3849026631101,10949.999721858901,0.0
290012.02908761695,3842225.878295721,-32500.0,-8135.8026315915358,-3696.6272798034688,841.32149662879726,-4057.8325435306333,-1668.6340307085118,-1592.9160832137566,6802.1596825534616,-1470.2550828718877,-5804.0607028631694,5804.0607028631694,1470.2550828718877,12783.114271313319,0.0
295012.02908761695,3842225.878295721,-32500.0,-8777.9739481951819,-4927.5949888166951,-197.59616378283084,-4803.5833721152258,-2588.5780867388657,-2083.1577780552425,7856.0577042272425,-2947.3722347880175,-5772.8693187865829,5772.8693187865829,2947.3722347880175,14938.822605267946,0.0
300012.02908761695,3842225.878295721,-32500.0,-9218.113178766429,-6267.4775167995222,-1654.7919219604582,-5571.999638322528,-3763.3583623002969,-2678.7623548746401,9079.8638789741726,-4761.995451141438,-5442.0666382674699,5442.0666382674699,4761.995451141438,17435.070639604062,0.0
305012.02908761695,3842225.878295721,-32500.0,-9363.6692878863978,-7638.7815452202976,-3605.4954773062382,-6312.0211493761981,-5222.30882475414,-3385.5482336597038,10483.006852803959,-6901.8035785421216,-4729.8001873473895,4729.8001873473895,6901.8035785421216,20269.848265873643,0.0
310012.02908761695,3842225.878295721,-32500.0,-9121.8962830473683,-8918.3293418515605,-6102.2719069678096,-6950.4504091517329,-6977.144983943338,-4200.3539301284709,12062.01281920287,-9304.5968640245228,-3567.7951026851488,3567.7951026851488,9304.5968640245228,23410.600911717924,0.0
315012.02908761695,3842225.878295721,-32500.0,-8418.5065470753834,-9932.5174129094012,-9149.5569260245811,-7391.8198577508219,-9008.6463900134131,-5106.1996908540805,13786.439609254825,-11838.439902280981,-1924.0253336578417,1924.0253336578417,11838.439902280981,26782.010992291802,0.0
320012.02908761695,3842225.878295721,-32500.0,-7224.4648926602413,-10462.881830015931,-12671.035620839133,-7523.8300873309681,-11250.997301969855,-6067.2323380596054,15586.67039141143,-14285.52325705305,167.74002801833467,-167.74002801833467,14285.52325705305,30253.955705371456,0.0
325012.02908761695,3842225.878295721,-32500.0,-5587.8427738472164,-10269.111526308663,-16475.147113650924,-7231.2027656808277,-13577.022069970633,-7024.8515668825576,17353.474150604707,-16338.889457280035,2576.5052053783902,-2576.5052053783902,16338.889457280035,33633.237396805795,0.0
330012.02908761695,3842225.878295721,-32500.0,-3662.0548954915657,-9135.4803854291022,-20230.310897287345,-6419.7167070431296,-15790.285807081471,-7897.1481591424626,18944.719723544818,-17624.272999759291,5051.7314113620159,-5051.7314113620159,17624.272999759291,36664.474406854839,0.0
335012.02908761695,3842225.878295721,-32500.0,-1715.3940376639071,-6940.573282983104,-23468.270616037775,-5049.0182525164819,-17632.505758542804,-8584.2307518931357,20197.041489654053,-17758.664911667111,7227.2041419484467,-7227.2041419484467,17758.664911667111,39046.892403446443,0.0
340012.02908761695,3842225.878295721,-32500.0,-103.32342552232491,-3737.1498022107289,-25636.353064647428,-3167.0447737661711,-18814.652807467508,-8981.4474571632545,20947.491645420865,-16448.072935232725,8669.6349338198379,-8669.6349338198379,16448.072935232725,40472.634573995434,0.0
345012.02908761695,3842225.878295721,-32500.0,808.58839113093632,188.52978870861384,-26209.764138890579,-932.14064178545584,-19074.488323255631,-9000.2420929978871,21067.525985901339,-13606.371830867982,8980.1893068818281,-8980.1893068818281,13606.371830867982,40686.701664418899,0.0
350012.02908761695,3842225.878295721,-32500.0,761.33280287321713,4320.070284926378,-24847.832620104644,1394.2862664783941,-18250.737209419509,-8592.4466717451432,20504.497282185926,-9450.2904212625435,7930.5560692699501,-7930.5560692699501,9450.2904212625435,39558.430310950578,0.0
355012.02908761695,3842225.878295721,-32500.0,-283.49756443448609,8007.4598711160379,-21539.774854532043,3495.1099691973532,-16348.294613623588,-7769.5860978277415,19315.560737447737,-4510.8016073455265,5580.4790323151838,-5580.4790323151838,4510.8016073455265,37142.298047559532,0.0
360012.02908761695,3842225.878295721,-32500.0,-2094.9487932126599,10643.052186544284,-16663.281299871473,5076.6167327387038,-13561.502644439934,-6607.6366246788111,17667.457506587689,476.41289889765994,2307.6844190811416,-2307.6844190811416,-476.41289889765994,33700.759345697545,0.0
365012.02908761695,3842225.878295721,-32500.0,-4231.7938960275433,11846.962248179905,-10904.940606301869,5949.3236154256547,-10235.369137625861,-5232.3734850857236,15788.959051142723,4775.4413466740534,-1287.6895938717455,1287.6895938717455,-4775.4413466740534,29671.169074722508,0.0
370012.02908761695,3842225.878295721,-32500.0,-6191.0301688713625,11570.614232263511,-5064.9943172972289,6073.4691250779151,-6775.8680089006557,-3789.7461659520773,13913.402964923524,7859.0206157946623,-4570.2808905529319,4570.2808905529319,-7859.0206157946623,25580.574159352615,0.0
375012.02908761695,3842225.878295721,-32500.0,-7570.2967551576412,10070.555385575808,161.89640634594051,5550.1515174448823,-3548.7215871356925,-2413.3871012074183,12238.097105421915,9523.4901805638547,-7056.2035170877643,7056.2035170877643,-9523.4901805638547,21930.512632760961,0.0
380012.02908761695,3842225.878295721,-32500.0,-8165.9820820980631,7781.679421963594,4332.1069357290471,4569.4777337793203,-808.54259938883899,-1201.483811694718,10887.340146123839,9872.3290026404156,-8514.1912139317665,8514.1912139317665,-9872.3290026404156,19076.916770542557,0.0
385012.02908761695,3842225.878295721,-32500.0,-7978.9559539343099,5166.1184636023336,7284.1270063243928,3345.9275476206813,1322.780196968743,-208.48112471124713,9888.9795971365238,9206.9486117646265,-8958.3049201087561,8958.3049201087561,-9206.9486117646265,17135.981276672541,0.0
390012.02908761695,3842225.878295721,-32500.0,-7154.3871837970837,2603.0982673944118,9080.6519499331007,2067.8687435871898,2836.8622174003267,550.61705942722256,9185.9973554859735,7896.221899654045,-8569.2444374570096,8569.2444374570096,-7896.221899654045,15973.493905853593,0.0
395012.02908761695,3842225.878295721,-32500.0,-5902.2009492799752,342.23214324430171,9915.4874383496099,872.07161599376616,3800.3193505040113,1089.3488879132385,8679.6932051691183,6278.0175411957416,-7599.1352390608672,7599.1352390608672,-6278.0175411957416,15311.794640411164,0.0
400012.02908761695,3842225.878295721,-32500.0,-4432.6110853673454,-1492.4126101235624,10029.041326660861,-159.96242429013265,4316.0845701814897,1437.8132026380608,8275.3887233990645,4609.7179789360489,-6297.4501514604726,6297.4501514604726,-4609.7179789360489,14877.823914210723,0.0
405012.02908761695,3842225.878295721,-32500.0,-2918.8834729784239,-2872.4192728339031,9651.6451211022668,-992.93219536814581,4494.4697035128329,1632.7945707919341,7906.5067195769489,3058.5673059622441,-4869.6388140041872,4869.6388140041872,-3058.5673059622441,14485.505078059925,0.0
410012.02908761695,3842225.878295721,-32500.0,-1484.1975659679874,-3829.6842947428472,8975.0994469058351,-1624.196679198463,4435.9227712397615,1711.0149935336481,7536.8286608977196,1714.5751136672989,-3463.3568740441988,3463.3568740441988,-1714.5751136672989,14040.381852798171,0.0
415012.02908761695,3842225.878295721,-32500.0,-203.82141613353011,-4426.6582361378287,8144.4641981236109,-2070.8898894692434,4223.2668088951232,1705.2778985215346,7152.5337704839139,611.39707170742349,-2171.6758708563971,2171.6758708563971,-611.39707170742349,13511.492825911957,0.0
420012.02908761695,3842225.878295721,-32500.0,885.58256531697316,-4735.5978551213902,7261.2275827193025,-2359.8830318561395,3920.1007917659194,1642.7780649093993,6753.0168796146381,-253.41782336581622,-1043.9055566139177,1043.9055566139177,253.41782336581622,12902.750104515853,0.0
425012.02908761695,3842225.878295721,-32500.0,1774.950181292892,-4826.1576648558339,6391.2920541319572,-2520.9547385410019,3572.5156789699859,1544.8155208817536,6343.9895614790439,-902.4109931790781,-98.020599566105261,98.020599566105261,902.4109931790781,12233.380201195974,0.0
430012.02908761695,3842225.878295721,-32500.0,2472.9327932989531,-4759.1909041621666,5573.8691051690839,-2582.6841793032991,3212.1724460551036,1427.2942872582162,5933.2227667420711,-1367.0677871083046,668.33710455007736,-668.33710455007736,1367.0677871083046,11526.762193890287,0.0
435012.02908761695,3842225.878295721,-32500.0,2998.1800487903065,-4584.562356147766,4829.4049939501474,-2570.3323660441342,2859.6069948233526,1301.5726805124341,5528.2773789637786,-1680.8220539670156,1269.3331095049816,-1269.3331095049816,1680.8220539670156,10804.871540159762,0.0
440012.02908761695,3842225.878295721,-32500.0,3373.8748123896235,-4341.2559783696433,4165.879495185095,-2505.0335463367364,2527.2001707247764,1175.3961429877318,5135.4943388723905,-1875.1299969943852,1724.9204141858331,-1724.9204141858331,1875.1299969943852,10085.985177528222,0.0
275012.02908761695,3847225.878295721,-32500.0,-5670.3747838186737,-150.70203951261811,2906.0472797828579,-2031.6175397075183,341.67006660966638,-529.07482454896274,4666.178011825732,2221.1285065269653,-5146.553356557637,5146.553356557637,-2221.1285065269653,8288.2314385082173,0.0
280012.02908761695,3847225.878295721,-32500.0,-6660.944632359141,-873.7933525369599,2824.789261809261,-2625.3374047343955,9.1983067013052775,-781.93681376202699,5325.2459560230709,1717.6989593141636,-5754.6896791317749,5754.6896791317749,-1717.6989593141636,9578.2652121664469,0.0
285012.02908761695,3847225.878295721,-32500.0,-7692.4499292782039,-1793.4145063725539,2564.298591361533,-3326.7136553336163,-476.98100369069647,-1114.8343574630874,6118.274653626182,962.94763841123131,-6308.0718953331716,6308.0718953331716,-962.94763841123131,11159.461397535077,0.0
290012.02908761695,3847225.878295721,-32500.0,-8716.3859525603111,-2927.4407926624212,2049.5586099083457,-4136.5051771661692,-1162.9364130655517,-1546.5818540479095,7071.2389874421069,-103.96213571311318,-6744.1481894578101,6744.1481894578101,103.96213571311318,13085.142605762818,0.0
295012.02908761695,3847225.878295721,-32500.0,-9661.9021490787363,-4278.354486091127,1188.1278026790758,-5044.2730492555875,-2101.6754224881179,-2097.2975787710352,8211.5844996851829,-1543.2786212652045,-6980.368044726245,6980.368044726245,1543.2786212652045,15406.763058958821,0.0
300012.02908761695,3847225.878295721,-32500.0,-10433.481106093688,-5821.8535334524022,-127.11923884647365,-6022.411078308508,-3349.9163170104407,-2786.4040299564726,9566.5634960088209,-3404.0713687077996,-6914.9395883832885,6914.9395883832885,3404.0713687077996,18167.041543681909,0.0
305012.02908761695,3847225.878295721,-32500.0,-10912.62389954963,-7492.2511792152563,-2009.3442350093778,-7019.1493498207292,-4961.3245795499688,-3629.1772360452883,11160.172572553653,-5707.3249047668987,-6432.9021641522204,6432.9021641522204,5707.3249047668987,21389.752271864912,0.0
310012.02908761695,3847225.878295721,-32500.0,-10966.773219476538,-9166.1746761875274,-4559.8881317191272,-7951.6544721840737,-6974.7321162161015,-4631.4564266307925,13005.34419639951,-8421.7966297695802,-5420.7570283433733,5420.7570283433733,8421.7966297695802,25065.476937497668,0.0
315012.02908761695,3847225.878295721,-32500.0,-10469.231692017105,-10648.546429367892,-7837.8928512578541,-8701.5537245001215,-9396.163564543509,-5782.3885377014358,15086.07243519264,-11433.703686434586,-3792.9432759957936,3792.9432759957936,11433.703686434586,29133.265770366517,0.0
320012.02908761695,3847225.878295721,-32500.0,-9333.0765574048819,-11668.419270018077,-11815.775572467346,-9116.7800123113757,-12174.766638925426,-7045.7150682518004,17335.404935226321,-14515.279265778896,-1531.8397910323383,1531.8397910323383,14515.279265778896,33459.715082408664,0.0
325012.02908761695,3847225.878295721,-32500.0,-7558.4226914416531,-11896.142981339211,-16323.869271244392,-9024.9865533779466,-15175.589043434531,-8351.2137167597593,19626.234886727183,-17303.583518846259,1261.8664266190117,-1261.8664266190117,17303.583518846259,37819.488531454459,0.0
330012.02908761695,3847225.878295721,-32500.0,-5284.5845995321997,-10995.349193913924,-20997.192595405941,-8263.8776774349262,-18157.055119239107,-9589.5239806591671,21774.79211895261,-19308.757378937891,4320.7667198091976,-4320.7667198091976,19308.757378937891,41885.329346513718,0.0
335012.02908761695,3847225.878295721,-32500.0,-2826.2846983429945,-8718.4253555093037,-25251.175907024695,-6730.4434765272736,-20767.132668431797,-10615.193864124678,23552.014800205023,-19975.861613707671,7189.5533422013659,-7189.5533422013659,19975.861613707671,45239.675496766526,0.0
340012.02908761695,3847225.878295721,-32500.0,-660.59792737672035,-5036.3120813976238,-28325.390067697954,-4442.0949990808367,-22576.272956199984,-11263.22562387068,24710.671755542182,-18817.686152207159,9266.9900191400557,-9266.9900191400557,18817.686152207159,47421.421222246499,0.0
345012.02908761695,3847225.878295721,-32500.0,668.79682914020816,-260.46488551272569,-29430.593345883812,-1588.3096939695749,-23160.729211139413,-11381.873571735323,25035.963974936105,-15606.459633897834,9941.1636960869146,-9941.1636960869146,15606.459633897834,48015.663667694032,0.0
350012.02908761695,3847225.878295721,-32500.0,733.51528125015807,4920.1470363468534,-27995.086119047977,1461.7028377652016,-22229.11213201538,-10877.082829039919,24415.442395767535,-10558.508383387927,8808.3781873932876,-8808.3781873932876,10558.508383387927,46776.231426174723,0.0
355012.02908761695,3847225.878295721,-32500.0,-572.82605348244431,9563.5664170210093,-23929.076352895372,4225.7666043767522,-19749.673796876494,-9753.2184881670473,22905.360279329216,-4397.0265435019437,5893.3488151693282,-5893.3488151693282,4397.0265435019437,43743.342956657041,0.0
360012.02908761695,3847225.878295721,-32500.0,-2924.9777282183163,12762.654763162,-17757.909535443698,6245.5384284973234,-16008.899423519921,-8128.0801126596061,20748.69389118053,1803.2703700246293,1732.3876816586494,-1732.3876816586494,-1803.2703700246293,39299.38651454974,0.0
365012.02908761695,3847225.878295721,-32500.0,-5655.3441430619341,13972.027185055544,-10502.898746368819,7236.255896861966,-11549.275120295713,-6207.6981225783102,18305.974471766785,6963.3836078598724,-2777.0654552708843,2777.0654552708843,-6963.3836078598724,34117.831277528727,0.0
370012.02908761695,3847225.878295721,-32500.0,-8017.0794550599949,13185.602040108495,-3340.1104792886681,7168.4585970663384,-7003.3659049877524,-4228.7427778398878,15941.232110626406,10362.466428536018,-6705.4831326890335,6705.4831326890335,-10362.466428536018,29006.718220482995,0.0
375012.02908761695,3847225.878295721,-32500.0,-9464.3813421374143,10866.027441337603,2775.1182677901243,6240.3114214591014,-2909.9132689961634,-2396.6145773501603,13934.511213105166,11813.385267168607,-9408.7857769592665,9408.7857769592665,-11813.385267168607,24691.934955760338,0.0
380012.02908761695,3847225.878295721,-32500.0,-9793.1317570849242,7700.0667371637237,7323.1351537953988,4771.3158085820605,399.28750218171615,-846.80292353507821,12421.675321618892,11589.994402131137,-10666.483701447525,10666.483701447525,-11589.994402131137,21599.152270613664,0.0
385012.02908761695,3847225.878295721,-32500.0,-9107.4306451109842,4343.6117230711025,10218.519050046407,3086.3071399843666,2812.6701859113546,361.7915641479878,11377.563196592051,10208.93019530502,-10620.342295277937,10620.342295277937,-10208.93019530502,19724.778660689004,0.0
390012.02908761695,3847225.878295721,-32500.0,-7688.7041468425778,1270.5590203963516,11671.61964707536,1440.229351013988,4383.4866264921156,1231.0832445262374,10668.790372012259,8213.3240159282468,-9611.9534636821409,9611.9534636821409,-8213.3240159282468,18719.118031578411,0.0
395012.02908761695,3847225.878295721,-32500.0,-5861.8842175570444,-1260.3911151059908,12024.740230321069,-6.523137475891378,5254.6694441376139,1800.4301990834313,10141.008972543972,6041.3945487358369,-8026.8016127146284,8026.8016127146284,-6041.3945487358369,18143.593740806129,0.0
400012.02908761695,3847225.878295721,-32500.0,-3908.7463718835597,-3166.1840110766216,11630.653450757301,-1178.3512030842423,5596.9336532174902,2125.9175071505615,9678.4269105955009,3984.3421035277142,-6197.0558658251548,6197.0558658251548,-3984.3421035277142,17672.9102689463,0.0
405012.02908761695,3847225.878295721,-32500.0,-2032.5183329089336,-4476.9547401735781,10788.143376531638,-2060.6681971908092,5570.6049918004055,2266.0808563816581,9217.0717699189718,2200.1079621558902,-4363.7155158617034,4363.7155158617034,-2200.1079621558902,17137.671575951001,0.0
410012.02908761695,3847225.878295721,-32500.0,-356.97878488974612,-5280.3592833835091,9721.2507656286598,-2675.6219340730418,5308.1279171905699,2273.855603262296,8732.5794408704787,748.93852557501816,-2677.2158677984221,2677.2158677984221,-748.93852557501816,16481.200023679306,0.0
415012.02908761695,3847225.878295721,-32500.0,1058.2870664472061,-5682.8758889670617,8583.0604306731875,-3063.1759385737146,4909.969748369479,2193.0748956655684,8223.5385859940943,-370.24896421330158,-1215.3786189033774,1215.3786189033774,370.24896421330158,15707.600732092969,0.0
420012.02908761695,3847225.878295721,-32500.0,2198.6876357111009,-5787.3700828332048,7469.4966961624496,-3268.5598646644039,4447.4646465999676,2057.7911915078957,7698.9922138186212,-1191.3457729490024,-5.1499166603333606,5.1499166603333606,1191.3457729490024,14846.385141049986,0.0
425012.02908761695,3847225.878295721,-32500.0,3077.5439818737891,-5682.4942007557702,6434.8083095120946,-3335.016540015783,3968.3281259322284,1893.1099582939789,7171.0354227090647,-1761.8301459441493,958.37072920104197,-958.37072920104197,1761.8301459441493,13933.150295401665,0.0
430012.02908761695,3847225.878295721,-32500.0,3723.1452641683068,-5439.3790341733156,5505.0009802397872,-3300.2677818088728,3502.493544334463,1716.666994798934,6651.0972039860962,-2131.2685619975709,1697.6435770212652,-1697.6435770212652,2131.2685619975709,13000.55528903519,0.0
435012.02908761695,3847225.878295721,-32500.0,4169.9251331112137,-5112.2343872709462,4688.14507971066,-3195.3115680329483,3067.2245123202615,1540.2399104569402,6148.4366110322908,-2345.2664255199652,2242.9906417472112,-2242.9906417472112,2345.2664255199652,12074.974931133151,0.0
440012.02908761695,3847225.878295721,-32500.0,4452.9794171276053,-4740.6839031560357,3981.6884345905319,-3044.5296295355843,2671.1661212150475,1371.228721145171,5669.8041160081621,-2442.876463450204,2626.5596474887943,-2626.5596474887943,2442.876463450204,11175.957237509218,0.0
445012.02908761695,3847225.878295721,-32500.0,4604.9849374274309,-4352.5996339150297,3377.3592098597533,-2866.431654713198,2317.3627187522843,1213.8932114439533,5219.6361809453429,-2456.0013181733357,2878.8946382231306,-2878.8946382231306,2456.0013181733357,10316.915648455533,0.0
270012.02908761695,3852225.878295721,-32500.0,-4329.9650125397002,1259.9406635758228,3344.8551746449752,-1215.9494579551142,955.26426068888702,-188.93946356493089,4311.5897124240255,3440.5369706228926,-4496.6324456835646,4496.6324456835646,-3440.5369706228926,7496.9908048034949,0.0
275012.02908761695,3852225.878295721,-32500.0,-5356.9599941836505,802.47078376574791,3538.5034841533488,-1720.7860050148788,808.45188615209429,-367.15568086634244,4861.7160302076545,3308.1544992462391,-5258.6617312969975,5258.6617312969975,-3308.1544992462391,8509.8043693548898,0.0
280012.02908761695,3852225.878295721,-32500.0,-6504.7117700739518,160.55246477668149,3643.6097574613473,-2348.3285878375591,549.18740757036153,-614.88408631014613,5525.9355660542724,2993.3723562538607,-6056.2434562965072,6056.2434562965072,-2993.3723562538607,9768.9676051852075,0.0
285012.02908761695,3852225.878295721,-32500.0,-7752.4897771040987,-704.7158766886281,3602.0815867819892,-3115.0511217007752,133.30035940367367,-953.27360529232851,6333.4232489519536,2430.6435664347541,-6849.96259667087,6849.96259667087,-2430.6435664347541,11340.513965325117,0.0
290012.02908761695,3852225.878295721,-32500.0,-9059.0793336102633,-1829.7226243521288,3334.1456183823761,-4032.5446875918674,-495.50717768752367,-1407.7696524586629,7318.8819703211266,1542.3293534495006,-7578.6168495936381,7578.6168495936381,-1542.3293534495006,13299.42288971969,0.0
295012.02908761695,3852225.878295721,-32500.0,-10355.745120017742,-3240.2028238307917,2734.6519621784651,-5102.1800109470023,-1406.285511169935,-2007.6190376610248,8522.1254982638657,242.5557851215608,-8153.9508317777409,8153.9508317777409,-242.5557851215608,15725.641544114851,0.0
300012.02908761695,3852225.878295721,-32500.0,-11539.659849588312,-4938.2790350501564,1671.9392762917562,-6307.3806291058436,-2679.2500209364521,-2784.1829763615265,9986.9429032297303,-1553.5197362530444,-8457.2283945052186,8457.2283945052186,1553.5197362530444,18696.924047686265,0.0
305012.02908761695,3852225.878295721,-32500.0,-12470.318707942262,-6883.7125480582499,-7.5641488405327379,-7603.3641368159388,-4400.1059279886231,-3767.3322648328412,11758.562977409152,-3912.2155908595214,-8340.6644148484647,8340.6644148484647,3912.2155908595214,22277.158048418034,0.0
310012.02908761695,3852225.878295721,-32500.0,-12973.209645819952,-8969.6290247248853,-2464.1902887482397,-8905.0409404938,-6647.7045190296112,-4979.0537060261777,13876.212243271408,-6852.7190160915361,-7638.3861074972792,7638.3861074972792,6852.7190160915361,26498.550915445507,0.0
315012.02908761695,3852225.878295721,-32500.0,-12856.865863710012,-10995.822111691816,-5833.1250618023223,-10075.369246046319,-9472.0777302402512,-6423.4763776658046,16352.171537985208,-10305.855034362754,-6193.0185235995314,6193.0185235995314,10305.855034362754,31336.229073636394,0.0
320012.02908761695,3852225.878295721,-32500.0,-11950.391686627856,-12647.871089395292,-10169.6155131221,-10919.074372322639,-12860.571389451727,-8073.0858559394765,19137.2782914489,-14062.900086463393,-3903.9601619034229,3903.9601619034229,14062.900086463393,36675.160866184458,0.0
325012.02908761695,3852225.878295721,-32500.0,-10166.442423764041,-13497.907214802326,-15369.283928637935,-11190.067644114122,-16692.889307015994,-9852.35668171832,22095.98096582522,-17725.882803663015,-799.4638730782699,799.4638730782699,17725.882803663015,42272.844088606733,0.0
330012.02908761695,3852225.878295721,-32500.0,-7585.8680496044435,-13050.830185212915,-21073.329311125632,-10623.808552803424,-20692.912538797678,-11622.725203313605,25000.347776869021,-20684.821902987114,2876.7548263023782,-2876.7548263023782,20684.821902987114,47727.55169256204,0.0
335012.02908761695,3852225.878295721,-32500.0,-4541.0905682207112,-10861.79504805806,-26591.346820333161,-9004.9875486198853,-24397.292211778782,-13176.815740604563,27535.541329363929,-22163.672538226921,6595.4764793731993,-6595.4764793731993,22163.672538226921,52471.500608559967,0.0
340012.02908761695,3852225.878295721,-32500.0,-1646.4690714613332,-6733.2224823571987,-30905.57725185966,-6270.113409851343,-27175.050914651012,-14253.741385033756,29328.549968817621,-21382.341446811191,9548.4311783193516,-9548.4311783193516,21382.341446811191,55817.230138800696,0.0
345012.02908761695,3852225.878295721,-32500.0,298.13821724091554,-946.66767634760004,-32839.064663810721,-2618.0659730039865,-28337.21697542465,-14587.144440639928,30019.976043073308,-17850.836406009563,10806.03579826506,-10806.03579826506,17850.836406009563,57084.447692267371,0.0
350012.02908761695,3852225.878295721,-32500.0,578.36513086400828,5598.9726092771798,-31429.966540180598,1435.6139267966339,-27348.846566323507,-13986.605047660098,29381.857020111791,-11717.11404433075,9657.221826594845,-9657.221826594845,11717.11404433075,55808.403729326274,0.0
355012.02908761695,3852225.878295721,-32500.0,-1058.3101436748052,11520.217004135277,-26412.146867377385,5140.7191299877322,-24081.959511845424,-12427.166667357626,27447.935495066708,-3959.156984156853,6023.1819906289729,-6023.1819906289729,3959.156984156853,51971.851073532627,0.0
360012.02908761695,3852225.878295721,-32500.0,-4153.5003553472852,15422.501852079758,-18517.413599513104,7753.447927864001,-18963.177937132223,-10095.134463333596,24575.724848309233,3817.5785232592452,671.86125868066597,-671.86125868066597,-3817.5785232592452,46141.031735018019,0.0
365012.02908761695,3852225.878295721,-32500.0,-7666.6515253117714,16501.600622483311,-9304.7326728961598,8829.7021276487994,-12876.549105107828,-7345.0222896795067,21348.485135232386,9988.2066086780142,-5016.4997847037739,5016.4997847037739,-9988.2066086780142,39389.459870227838,0.0
370012.02908761695,3852225.878295721,-32500.0,-10462.631558661076,14863.665433974762,-539.47190451377219,8381.6449553553775,-6840.3343259348194,-4579.216289755961,18351.039191069824,13565.933686058335,-9653.5575148178832,9653.5575148178832,-13565.933686058335,32994.146324266185,0.0
375012.02908761695,3852225.878295721,-32500.0,-11813.845223830107,11345.610591122688,6471.9000626890602,6799.3393696181747,-1656.750110650443,-2121.5101330763009,15977.99882307085,14468.068437162299,-12401.525964236109,12401.525964236109,-14468.068437162299,28003.114450487927,0.0
380012.02908761695,3852225.878295721,-32500.0,-11586.662116659985,7031.1013251787608,11185.730710316273,4624.736604412883,2265.6934778608679,-152.32904000155204,14337.757152727794,13296.320574997955,-13139.881811580881,13139.881811580881,-13296.320574997955,24835.711138603943,0.0
385012.02908761695,3852225.878295721,-32500.0,-10096.884559491007,2825.0847372247536,13711.990842152718,2342.673837193247,4882.3864273547897,1283.8041246222845,13283.871939772918,10905.202767209981,-12263.659214249767,12263.659214249767,-10905.202767209981,23180.638236871626,0.0
390012.02908761695,3852225.878295721,-32500.0,-7842.5605179048916,-726.34999431572726,14515.353114392999,279.48871764437501,6374.7628536869815,2232.6557736352802,12566.383581460183,8059.4835702398577,-10365.179295797063,10365.179295797063,-8059.4835702398577,22357.445487632827,0.0
395012.02908761695,3852225.878295721,-32500.0,-5295.1221241146859,-3410.9963854566458,14146.043734814721,-1401.3019018210855,7011.5545025882275,2782.5002801402948,11976.088979741708,5286.3388788829216,-7997.411024006662,7997.411024006662,-5286.3388788829216,21781.869443792755,0.0
400012.02908761695,3852225.878295721,-32500.0,-2802.1799912252959,-5240.0388010916377,13085.270181166565,-2656.7168576008776,7058.0104019736418,3030.7583690045331,11394.339362117269,2873.8383764607825,-5568.4977098118507,5568.4977098118507,-2873.8383764607825,21136.667455774925,0.0
405012.02908761695,3852225.878295721,-32500.0,-573.87688983601993,-6338.2312215469974,11690.950385871714,-3515.296640911411,6733.8062999413887,3066.0712217498276,10776.141792403503,932.51153972193856,-3329.9029987847043,3329.9029987847043,-932.51153972193856,20313.930535630501,0.0
410012.02908761695,3852225.878295721,-32500.0,1291.0901698214163,-6867.372895146721,10200.581595325542,-4038.9914478077067,6202.7123840832564,2961.1206699158997,10118.312884882633,-535.73854318104338,-1407.3465434271966,1407.3465434271966,535.73854318104338,19316.641189912225,0.0
415012.02908761695,3852225.878295721,-32500.0,2769.9324734435922,-6983.722814851365,8756.4045124526147,-4298.9455476583498,5577.8508749746279,2771.490622657021,9435.5712702167511,-1584.1711040750984,158.94639411157482,-158.94639411157482,1584.1711040750984,18191.364290908856,0.0
420012.02908761695,3852225.878295721,-32500.0,3884.7613048356061,-6819.3570224637042,7433.7239048013653,-4362.3716465683128,4932.3258164852687,2537.4095199526087,8747.1214985575116,-2286.7184816271347,1379.7309103452665,-1379.7309103452665,2286.7184816271347,16993.453359734031,0.0
425012.02908761695,3852225.878295721,-32500.0,4680.1079291483102,-6477.3813443688705,6264.6099089693389,-4286.7241881059472,4310.1093999394943,2286.5534294366075,8070.45931991426,-2718.6316826382026,2291.9569865427802,-2291.9569865427802,2718.6316826382026,15772.155549096693,0.0
430012.02908761695,3852225.878295721,-32500.0,5208.4217157700159,-6033.8994387112098,5255.212848713024,-4118.0953757261432,3735.1668392264078,2036.9570209472631,7419.1574622278758,-2947.170249681405,2942.8576906423568,-2942.8576906423568,2947.170249681405,14565.821088339922,0.0
435012.02908761695,3852225.878295721,-32500.0,5521.6203529805844,-5542.5862537429848,4397.4286551647747,-3891.7960281205628,3218.3949163045686,1799.6042426301342,6802.5901155206184,-3028.2222884647122,3380.6638325597355,-3380.6638325597355,3028.2222884647122,13401.72246073862,0.0
440012.02908761695,3852225.878295721,-32500.0,5666.7428079681649,-5039.704307342472,3676.2797880758835,-3633.8766251072898,2762.5714422816418,1580.5363256553235,6226.4346222772601,-3006.0734020175619,3649.7654782372815,-3649.7654782372815,3006.0734020175619,12297.642984407174,0.0
445012.02908761695,3852225.878295721,-32500.0,5684.1543453143386,-4548.609245110667,3074.3354946105624,-3362.9000999374807,2365.7316311876807,1382.4698459640774,5693.3745679662006,-2914.6301566848761,3788.620936271911,-3788.620936271911,2914.6301566848761,11263.920923118099,0.0
270012.02908761695,3857225.878295721,-32500.0,-3627.6412886735093,2207.3995611663281,3719.7646223973161,-758.20483401045692,1377.6228042168832,11.158181342600964,4565.2061859531923,4330.7322902846017,-4234.0328619911079,4234.0328619911079,-4330.7322902846017,7907.3063947711007,0.0
275012.02908761695,3857225.878295721,-32500.0,-4725.9149770921458,1890.3565190725324,4069.6262477937253,-1246.1710767860911,1321.0521539207493,-142.07207079389883,5113.9916297583313,4408.1084117960636,-5120.0547343115304,5120.0547343115304,-4408.1084117960636,8869.6385903333921,0.0
280012.02908761695,3857225.878295721,-32500.0,-5998.921304417524,1388.5193334837431,4374.0383515686026,-1876.4936852570063,1163.2380655459488,-367.79676655653236,5773.9259022275892,4333.2605180119981,-6095.8112171945786,6095.8112171945786,-4333.2605180119981,10064.960993404713,0.0
285012.02908761695,3857225.878295721,-32500.0,-7441.1915385068787,650.1040403958375,4580.5204161396323,-2676.6005789264696,855.95577662740482,-691.78756419282729,6578.1139209293597,4035.0992406178502,-7133.3047892254835,7133.3047892254835,-4035.0992406178502,11571.304184325918,0.0
290012.02908761695,3857225.878295721,-32500.0,-9026.9088918817088,-380.78320949646962,4611.4688992380243,-3672.3839890894069,334.34348280178079,-1146.738191320075,7569.0557010448083,3423.1758412798577,-8180.8417427680833,8180.8417427680833,-3423.1758412798577,13485.52003861423,0.0
295012.02908761695,3857225.878295721,-32500.0,-10699.890238783157,-1757.2648675980158,4356.8891786892837,-4882.7623614440217,-486.13099520202621,-1772.742238584867,8799.7132650332842,2388.20720564459,-9154.2323263908456,9154.2323263908456,-2388.20720564459,15921.164966513124,0.0
300012.02908761695,3857225.878295721,-32500.0,-12362.003287104735,-3516.835216248242,3668.0519650235669,-6310.7913251928094,-1711.0818526226653,-2616.6330741245802,10333.890436578069,807.82938086742797,-9927.9558706813241,9927.9558706813241,-807.82938086742797,19002.161550519762,0.0
305012.02908761695,3857225.878295721,-32500.0,-13862.195574085328,-5660.1057199230027,2355.3709255307158,-7930.3430187090735,-3464.6863717141468,-3729.150985591873,12245.340313350651,-1438.3842888046474,-10329.295143787547,10329.295143787547,1438.3842888046474,22850.564495712166,0.0
310012.02908761695,3857225.878295721,-32500.0,-14990.775002856693,-8119.2718211536958,196.39844074723518,-9667.9458502248763,-5879.4872738217273,-5158.4312744598365,14612.238201214488,-4439.3567725891589,-10141.025066855604,10141.025066855604,4439.3567725891589,27565.922408913466,0.0
315012.02908761695,3857225.878295721,-32500.0,-15487.078360507221,-10716.872600749328,-3036.886145816869,-11381.056195015231,-9073.1852299787406,-6937.9097240884248,17495.352949622898,-8202.953607060932,-9121.5377755030349,9121.5377755030349,8202.953607060932,33192.834223282574,0.0
320012.02908761695,3857225.878295721,-32500.0,-15072.542455667774,-13121.341598858457,-7519.4481665056828,-12837.518782628234,-13106.140465475706,-9066.7604863824818,20889.722143364848,-12583.896516706203,-7054.2507150715592,7054.2507150715592,12583.896516706203,39673.462769923994,0.0
325012.02908761695,3857225.878295721,-32500.0,-13523.07444210291,-14817.002132787786,-13271.726897459626,-13706.970877782034,-17914.902079965264,-11482.120384272588,24674.493466565837,-17195.901330834771,-3837.8089178568589,3837.8089178568589,17195.901330834771,46784.833422912256,0.0
330012.02908761695,3857225.878295721,-32500.0,-10789.21920863282,-15122.946038932427,-20013.985617276267,-13583.186086486712,-23224.838938632511,-14025.839714659764,28586.745004763463,-21334.807864753831,380.99485629748597,-380.99485629748597,21334.807864753831,54069.52666815729,0.0
335012.02908761695,3857225.878295721,-32500.0,-7150.2091255552905,-13312.279962313902,-27004.67339253701,-12063.354103483816,-28463.728663643094,-16415.824931251449,32209.695283484394,-23972.144764764031,5058.0665071999229,-5058.0665071999229,23972.144764764031,60785.384987162288,0.0
340012.02908761695,3857225.878295721,-32500.0,-3337.9350624707135,-8881.0497554035719,-32948.578078210237,-8905.340565421895,-32730.89926018054,-18243.997053821706,34990.076472039043,-23913.706721110873,9168.2583076239171,-9168.2583076239171,23913.706721110873,65924.74868114214,0.0
345012.02908761695,3857225.878295721,-32500.0,-496.08848255459532,-1952.8219718770929,-36131.960719928124,-4246.227762256859,-34911.028846803187,-19034.427135885941,36329.151655103466,-20212.039913561443,11335.039930671846,-11335.039930671846,20212.039913561443,68372.708147448226,0.0
350012.02908761695,3857225.878295721,-32500.0,183.68770806297184,6359.7230897315303,-34946.36244744782,1220.7810792486114,-34010.382662263444,-18387.672613422343,35776.342679940943,-12790.316933628286,10317.402474370063,-10317.402474370063,12790.316933628286,67249.762584968455,0.0
355012.02908761695,3857225.878295721,-32500.0,-1862.5115337182349,14010.158057763498,-28748.247835485061,6303.9707597402712,-29661.366992453623,-16183.30265355968,33286.687812300261,-2937.2705889525132,5776.6363328713069,-5776.6363328713069,2937.2705889525132,62372.803890141971,0.0
360012.02908761695,3857225.878295721,-32500.0,-5997.8510326992809,18785.399244886612,-18545.319627222816,9738.9252909500192,-22498.949490769268,-12719.911764843755,29390.597685896922,6894.7673578030954,-1187.6355298233693,1187.6355298233693,-6894.7673578030954,54590.311219960684,0.0
365012.02908761695,3857225.878295721,-32500.0,-10543.424345801061,19461.830186520598,-6783.6465033043105,10799.423694481351,-14024.574945024906,-8646.6918679511218,25060.884347389088,14184.964976787842,-8384.1974083967816,8384.1974083967816,-14184.964976787842,45681.938410772636,0.0
370012.02908761695,3857225.878295721,-32500.0,-13729.754176435878,16417.093478472918,3832.1056218872427,9621.8778173898791,-5938.4605821926762,-4689.7451375180917,21263.341308522726,17598.444993638765,-13695.780368193711,13695.780368193711,-17598.444993638765,37729.056799534323,0.0
375012.02908761695,3857225.878295721,-32500.0,-14633.383173141257,11175.82366726367,11558.484908300014,6986.1026718272178,563.00061017289761,-1372.0143312011833,18531.259881709469,17371.445758354279,-16096.940917326441,16096.940917326441,-17371.445758354279,32196.315604127507,0.0
380012.02908761695,3857225.878295721,-32500.0,-13366.735294905116,5429.2382839017018,15988.644469596886,3815.3331449923585,5046.5498185933875,1090.3881695709001,16835.545282891602,14715.935150167903,-15776.760811545251,15776.760811545251,-14715.935150167903,29237.913257444816,0.0
385012.02908761695,3857225.878295721,-32500.0,-10646.68729492395,354.80089258306145,17647.252694858558,806.92410232255565,7664.9987956664736,2722.1246897091105,15795.57635068888,10982.87668177775,-13595.625250750531,13595.625250750531,-10982.87668177775,27921.379982937007,0.0
390012.02908761695,3857225.878295721,-32500.0,-7285.0822954539153,-3518.102586592529,17396.718645376463,-1667.8725190867472,8842.2923756870314,3668.756033072159,15019.303312910239,7171.7592411846126,-10500.877859868757,10500.877859868757,-7171.7592411846126,27181.838636635373,0.0
395012.02908761695,3857225.878295721,-32500.0,-3906.068459674404,-6129.0337250057273,16042.057827136845,-3495.8907571653763,9037.797604479767,4105.4156785420582,14273.3187939333,3835.8426808566633,-7217.3913164391506,7217.3913164391506,-3835.8426808566633,26395.109386040298,0.0
400012.02908761695,3857225.878295721,-32500.0,-882.9150109967668,-7657.1920294745141,14179.282775996406,-4714.2045482835592,8634.1594310782566,4190.4908743909382,13469.931135526076,1185.9177854236741,-4184.868492166971,4184.868492166971,-1185.9177854236741,25345.762499769706,0.0
405012.02908761695,3857225.878295721,-32500.0,1616.323132767586,-8358.2557698548189,12189.619907682807,-5425.4293190781746,7909.4917469045222,4050.1203530426524,12602.312524530636,-770.40828883312781,-1612.6433123874658,1612.6433123874658,770.40828883312781,24032.312847806475,0.0
410012.02908761695,3857225.878295721,-32500.0,3557.7059115283796,-8478.0861003604641,10288.322708683163,-5747.3150649293575,7048.5291089909506,3777.6262915234738,11695.473128258038,-2121.6962273806089,440.19396532714109,-440.19396532714109,2121.6962273806089,22530.942691840337,0.0
415012.02908761695,3857225.878295721,-32500.0,4981.3312358295479,-8218.7353269142932,8579.5916410353602,-5788.1609723867768,6165.1415399929692,3438.4348595619103,10780.705035861889,-2987.6338217515918,1998.2440273856835,-1998.2440273856835,2987.6338217515918,20929.833114109231,0.0
420012.02908761695,3857225.878295721,-32500.0,5960.5217319389103,-7732.2259475662104,7100.2930436975521,-5637.5593911029619,5324.0480618382526,3076.2043120070061,9885.0837406163919,-3485.6159761525832,3124.944345340602,-3124.944345340602,3485.6159761525832,19304.156887646073,0.0
425012.02908761695,3857225.878295721,-32500.0,6577.5267444025294,-7126.2416567005794,5849.9502402477865,-5364.9857016724281,4557.9052964426264,2718.4985034031301,9028.4606089289919,-3716.6426091327489,3895.9436572561331,-3895.9436572561331,3716.6426091327489,17709.782763144212,0.0
430012.02908761695,3857225.878295721,-32500.0,6910.6187305148314,-6473.3618030606349,4809.5600529003241,-5021.8379163676682,3879.5015201741726,2381.4691210401656,8223.5940893932784,-3761.5213906282675,4384.9280240465469,-4384.9280240465469,3761.5213906282675,16184.345463207985,0.0
435012.02908761695,3857225.878295721,-32500.0,7028.3024486886688,-5820.1895652624216,3952.6855367100716,-4644.6932894314759,3290.0073725656903,2073.5089295512034,7477.4323060386278,-3681.9509956140359,4657.1239574825531,-4657.1239574825531,3681.9509956140359,14750.801469200305,0.0
440012.02908761695,3857225.878295721,-32500.0,6987.5114769466136,-5194.9241154884103,3251.523948191033,-4258.6039360771429,2784.2792587974545,1797.9424018251934,6792.5158387470801,-3523.4499046935043,4767.1125767033782,-4767.1125767033782,3523.4499046935043,13421.122523070782,0.0
445012.02908761695,3857225.878295721,-32500.0,6833.9195011659322,-4613.1981502310446,2679.9772296170863,-3880.0123974416192,2354.1655772174331,1554.9487517986629,6168.2721459352433,-3318.6755458303364,4758.9052598201351,-4758.9052598201351,3318.6755458303364,12199.540796670288,0.0
265012.02908761695,3862225.878295721,-32500.0,-1691.6313408048052,3211.3924293662799,3483.0276640826146,162.14628289241131,1705.5543144573035,326.94562412943924,4426.8903635518236,4768.5296466909094,-2861.9849780754862,2861.9849780754862,-4768.5296466909094,7755.710549498529,0.0
270012.02908761695,3862225.878295721,-32500.0,-2601.1800096794004,3198.8183599787872,3948.5579880351138,-149.70919695739698,1803.7448573876559,264.74069392441731,4901.8505793569511,5133.293573038146,-3688.0836117717927,3688.0836117717927,-5133.293573038146,8536.1924386842347,0.0
275012.02908761695,3862225.878295721,-32500.0,-3714.1656212221224,3066.8918950103762,4442.4149989963835,-583.10065102767351,1854.7476127080149,153.6154279536853,5455.1097450702964,5442.9961684921955,-4658.2075080345176,4658.2075080345176,-5442.9961684921955,9460.4139774535106,0.0
280012.02908761695,3862225.878295721,-32500.0,-5054.2806481635216,2766.6433108319766,4941.5442569320785,-1171.7785516139111,1824.9768843546162,-28.193228224010095,6110.1248154090081,5648.4269198060174,-5775.8997450050847,5775.8997450050847,-5648.4269198060174,10583.56947887866,0.0
285012.02908761695,3862225.878295721,-32500.0,-6636.7359447781537,2236.7706695963848,5405.2598382008391,-1954.9031263606932,1665.4532267534407,-310.34965812417988,6900.0253874768914,5679.7859517671441,-7031.0953731455411,7031.0953731455411,-5679.7859517671441,11985.244262710659,0.0
290012.02908761695,3862225.878295721,-32500.0,-8459.8587188413421,1404.2099265823319,5766.9036370153299,-2975.1804699710201,1306.4611851287157,-732.51042845647919,7871.0480412697289,5441.6376894134864,-8391.3070183819527,8391.3070183819527,-5441.6376894134864,13775.651218286024,0.0
295012.02908761695,3862225.878295721,-32500.0,-10492.908277973442,188.19436940100221,5923.2337392314612,-4274.4048423639133,651.46747629197193,-1346.3774829985782,9086.3511093978741,4809.0491676307229,-9789.762502768117,9789.762502768117,-4809.0491676307229,16099.350516921846,0.0
300012.02908761695,3862225.878295721,-32500.0,-12659.764397550678,-1489.3665747497143,5722.3606429334959,-5884.7708196561152,-428.67840569680169,-2217.0856152772594,10629.7817895597,3627.6409999570069,-11110.89094132524,11110.89094132524,-3627.6409999570069,19133.503357422094,0.0
305012.02908761695,3862225.878295721,-32500.0,-14819.478803173879,-3683.2463755054382,4952.8738447694604,-7813.8520340729274,-2098.9341157600825,-3422.7213398219633,12608.902896716882,1722.3384242112425,-12175.278880829404,12175.278880829404,-1722.3384242112425,23077.600351655045,0.0
310012.02908761695,3862225.878295721,-32500.0,-16747.478498133285,-6389.3474058625152,3340.1313618500267,-10021.0375455863,-4556.1159114706134,-5049.8780367622458,15154.312351435985,-1077.6803380267293,-12729.450222148142,12729.450222148142,1077.6803380267293,28131.450903919056,0.0
315012.02908761695,3862225.878295721,-32500.0,-18126.070856129452,-9490.55546401842,560.84619394760011,-12384.167479573933,-8010.0606065006741,-7181.9182900648493,18401.555635827684,-4887.791571565388,-12450.931405614894,12450.931405614894,4887.791571565388,34456.651423680196,0.0
320012.02908761695,3862225.878295721,-32500.0,-18560.239316265324,-12685.348485185223,-3706.1789589225486,-14658.535900601133,-12638.341325992817,-9875.2980931125931,22431.215014824731,-9680.1084810259836,-10985.938135740804,10985.938135740804,9680.1084810259836,42114.367017169083,0.0
325012.02908761695,3862225.878295721,-32500.0,-17643.073307645333,-15413.222218755252,-9669.4925081063811,-16438.281436750807,-18500.374516848773,-13118.569702507726,27182.773719379395,-15155.042383318199,-8043.293699383722,8043.293699383722,15155.042383318199,50971.734791283903,0.0
330012.02908761695,3862225.878295721,-32500.0,-15099.648797551985,-16816.118405867666,-17232.941305320332,-17145.15085622315,-25400.507339630149,-16770.665797020974,32391.841320236272,-20589.540797068315,-3567.3853285497389,3567.3853285497389,20589.540797068315,60576.809873012819,0.0
335012.02908761695,3862225.878295721,-32500.0,-11024.309879238936,-15814.285120276814,-25726.137375614337,-16092.127040555237,-32710.480347955432,-20484.326656708054,37542.544662230386,-24727.148005230512,2010.8764770842845,-2010.8764770842845,24727.148005230512,70025.903691664571,0.0
340012.02908761695,3862225.878295721,-32500.0,-6164.3371390155207,-11413.460032195659,-33639.496278810257,-12688.954501443355,-39216.978380671637,-23645.327334141657,41843.971539060323,-25856.06891227814,7522.0903067389099,-7522.0903067389099,25856.06891227814,77896.858018123807,0.0
345012.02908761695,3862225.878295721,-32500.0,-2058.5114020333931,-3331.1295466591582,-38600.132000713973,-6830.9604693674091,-43157.604344405168,-25402.375808004497,44315.730046265213,-22297.340499132784,11034.33300920691,-11034.33300920691,22297.340499132784,82390.625547867719,0.0
350012.02908761695,3862225.878295721,-32500.0,-661.44528368729414,7211.7894793924252,-37982.788099185644,639.99391908266557,-42686.841799523274,-24896.201113126099,44083.827317779374,-13431.420552638898,10434.470079308725,-10434.470079308725,13431.420552638898,81850.414030054118,0.0
355012.02908761695,3862225.878295721,-32500.0,-3192.5415975273627,17211.534818599077,-30368.196190249866,7810.6945161411386,-36856.420454657615,-21717.08326868109,40884.951262977382,-846.82117086743938,4782.158087122798,-4782.158087122798,846.82117086743938,75664.900223458899,0.0
360012.02908761695,3862225.878295721,-32500.0,-8811.374549850143,23044.175199558325,-17088.995681185501,12416.928816810616,-26584.485901864704,-16337.936543028842,35506.019882989771,11639.968943958622,-4379.1199044443174,4379.1199044443174,-11639.968943958622,65105.400590415135,0.0
365012.02908761695,3862225.878295721,-32500.0,-14700.216648563206,22781.160276241328,-2088.9527613184446,13198.444323630534,-14540.863968564967,-10039.345852480215,29629.279060340912,19993.368640231867,-13448.038360105527,13448.038360105527,-19993.368640231867,53252.596040024109,0.0
370012.02908761695,3862225.878295721,-32500.0,-18031.437465143688,17440.137107278613,10423.016855692675,10637.023775788373,-3676.197563392725,-4226.3944621768678,24885.316935171657,22487.688880532449,-19139.066564170549,19139.066564170549,-22487.688880532449,43587.583948213978,0.0
375012.02908761695,3862225.878295721,-32500.0,-17785.692019183716,9812.4287596450322,18276.652107834052,6324.8207707885049,4265.799328192059,248.01150776333972,21898.569074117717,20178.136172216451,-20395.97089921774,20395.97089921774,-20178.136172216451,37931.80702157793,0.0
380012.02908761695,3862225.878295721,-32500.0,-14718.951045471167,2449.2204270518382,21598.969242570718,1817.3925125226901,9031.4021929700084,3212.3258580788515,20242.630399014983,15355.412645199222,-18170.119736532026,18170.119736532026,-15355.412645199222,35523.215024017016,0.0
385012.02908761695,3862225.878295721,-32500.0,-10240.337121596782,-3299.9939883318357,21681.170752988928,-1967.1571410071754,11241.625405587431,4903.0385598710109,19170.429773278436,10003.818006277581,-14098.089029622888,14098.089029622888,-10003.818006277581,34471.822316980812,0.0
390012.02908761695,3862225.878295721,-32500.0,-5542.2580906525418,-7135.1034203349791,19921.605943468443,-4719.7209119468889,11733.3585634508,5672.3696902771635,18188.83769787335,5260.4143082701976,-9544.7926304794873,9544.7926304794873,-5260.4143082701976,33484.026031202928,0.0
395012.02908761695,3862225.878295721,-32500.0,-1333.4052054542817,-9308.506709472771,17363.587829526179,-6486.3009245857438,11217.970072873215,5836.0033905306464,17114.870523516944,1552.2920327126083,-5328.7402154409883,5328.7402154409883,-1552.2920327126083,32103.29163471581,0.0
400012.02908761695,3862225.878295721,-32500.0,2086.4667008315869,-10243.988991077904,14645.099925686556,-7453.8030091589171,10194.653313860337,5630.9943903998428,15935.013746861508,-1102.006318097194,-1814.3374381558112,1814.3374381558112,1102.006318097194,30315.950580929206,0.0
405012.02908761695,3862225.878295721,-32500.0,4670.5923054390914,-10345.602614451478,12099.204796114756,-7831.9081480537925,8976.6352834627323,5221.3469109202588,14694.973685045532,-2859.9709387615499,914.52353598900436,-914.52353598900436,2859.9709387615499,28253.266196220931,0.0
410012.02908761695,3862225.878295721,-32500.0,6498.4848481302188,-9932.3063113659882,9867.8052391571619,-7804.0691930348339,7744.2361449888449,4715.2723427212613,13447.759360045859,-3924.4168784718076,2915.7651681321995,-2915.7651681321995,3924.4168784718076,26059.980339561436,0.0
415012.02908761695,3862225.878295721,-32500.0,7697.3799966402248,-9232.3174575410467,7986.3773886654044,-7514.220762506171,6591.8931448448739,4181.3128253487375,12235.820509684507,-4484.1614192805555,4303.5277317712789,-4303.5277317712789,4484.1614192805555,23852.026029269844,0.0
420012.02908761695,3862225.878295721,-32500.0,8400.623521578369,-8398.6836528693984,6437.4258353387104,-7068.4469967840905,5561.9676979188844,3660.7118092141659,11087.794523923914,-4693.6497236602281,5202.7302822877973,-5202.7302822877973,4693.6497236602281,21710.008490316504,0.0
425012.02908761695,3862225.878295721,-32500.0,8728.6312727960612,-7528.6564265879852,5181.1138941059626,-6541.5191849318635,4666.9066828688547,3176.3744075383097,10020.296953649822,-4670.6598773002388,5728.0552423669269,-5728.0552423669269,4670.6598773002388,19684.31316044792,0.0
430012.02908761695,3862225.878295721,-32500.0,8782.1974928134405,-6680.6119351599018,4171.5466089090814,-5984.1373744745069,3903.0636345700241,2739.2547850444912,9040.9317835801321,-4501.0752132622456,5976.2393117929241,-5976.2393117929241,4501.0752132622456,17802.710581440322,0.0
435012.02908761695,3862225.878295721,-32500.0,8641.8247639791916,-5886.9412585745249,3364.664458663412,-5429.2611130978266,3258.958172478247,2352.7976003860813,8151.0302924142561,-4245.4569125012813,6024.8921182116528,-6024.8921182116528,4245.4569125012813,16077.106860497144,0.0
440012.02908761695,3862225.878295721,-32500.0,8369.7708899668887,-5163.2946262349496,2721.570347184896,-4897.2117190393647,2720.0580621488793,2015.9824666988843,7347.8782190579677,-3945.3054497689977,5934.2466023515881,-5934.2466023515881,3945.3054497689977,14508.90606206086,0.0
445012.02908761695,3862225.878295721,-32500.0,8013.005114376313,-4514.9255962540283,2209.4761142093657,-4399.5564605510881,2271.4108416981089,1725.3454727108242,6626.3762538985357,-3628.2565983493641,5749.9226797749452,-5749.9226797749452,3628.2565983493641,13092.93205339558,0.0
450012.02908761695,3862225.878295721,-32500.0,7606.2102588035541,-3940.9097437077485,1801.4978349035009,-3941.9583475121767,1898.9835421175367,1476.2724717790097,5980.2043195415135,-3312.1057614879346,5505.7891220927368,-5505.7891220927368,3312.1057614879346,11820.157727852447,0.0
265012.02908761695,3867225.878295721,-32500.0,-400.72695056489187,3996.7168293099458,3452.3687560371673,832.69779075617646,2012.5832081462331,582.2711101997761,4835.583175799894,5223.5019307041084,-2004.4577051034385,2004.4577051034385,-5223.5019307041084,8612.6600238583196,0.0
270012.02908761695,3867225.878295721,-32500.0,-1222.9502355981692,4170.6021177825232,3993.8309572550438,617.10431032800614,2204.3423333545788,573.08141721533241,5340.2945661468111,5771.0473641576573,-2816.5734076040681,2816.5734076040681,-5771.0473641576573,9432.5302117585725,0.0
275012.02908761695,3867225.878295721,-32500.0,-2273.4221800366554,4259.8511799457792,4602.4856816234824,284.65951718554089,2373.9837528344419,523.87442113743498,5915.6210132304204,6316.4202548323192,-3808.6649559902799,3808.6649559902799,-6316.4202548323192,10366.219630596612,0.0
280012.02908761695,3867225.878295721,-32500.0,-3593.5457789651468,4216.3639516853391,5269.4211972217208,-204.54259283264577,2492.533649520451,412.4904611890052,6580.142585639227,6821.1235612002965,-5002.1841541266731,5002.1841541266731,-6821.1235612002965,11453.907760871462,0.0
285012.02908761695,3867225.878295721,-32500.0,-5222.7462956479785,3975.4947499480209,5971.4014817738871,-900.28428148449098,2514.7311430931231,207.13736165103171,7361.7456406964357,7225.2594490601568,-6410.3233732408371,6410.3233732408371,-7225.2594490601568,12760.348348291005,0.0
290012.02908761695,3867225.878295721,-32500.0,-7190.8824539779343,3453.5855911737513,6661.8946015239444,-1862.3577340866225,2371.8674955044557,-137.0684581071188,8302.8169811163061,7439.7633306611278,-8029.1995978627947,8029.1995978627947,-7439.7633306611278,14387.667180836599,0.0
295012.02908761695,3867225.878295721,-32500.0,-9505.6668554458975,2547.8703368234069,7258.2996800686351,-3158.4857190280363,1962.4829781497556,-682.30651134246204,9467.5634472296224,7337.9306528109882,-9824.4544802744822,9824.4544802744822,-7337.9306528109882,16490.142158777791,0.0
300012.02908761695,3867225.878295721,-32500.0,-12133.424084668553,1141.8363276160876,7625.0456162033643,-4857.961808678132,1141.2628966211773,-1512.6672945481323,10951.540966211645,6748.3940356683361,-11712.351949885213,11712.351949885213,-6748.3940356683361,19286.417263861345,0.0
305012.02908761695,3867225.878295721,-32500.0,-14972.158306922945,-878.86445341241085,7553.7429428114292,-7017.7871819656484,-292.20099671936305,-2738.1928287793789,12892.819525444273,5454.2450665636552,-13535.686616665744,13535.686616665744,-5454.2450665636552,23061.361699254081,0.0
310012.02908761695,3867225.878295721,-32500.0,-17818.3051935404,-3592.5602313946501,6745.028015299411,-9656.8314922238005,-2600.4298953163084,-4496.1180264798004,15482.054018864184,3207.0329928122228,-15038.009245887348,15038.009245887348,-3207.0329928122228,28149.068264602003,0.0
315012.02908761695,3867225.878295721,-32500.0,-20333.806331701508,-6980.8466824291454,4803.1788203420847,-12712.746427479469,-6101.6948880125092,-6944.8519286730561,18957.044629695851,-230.30321481876217,-15845.817273660083,15845.817273660083,230.30321481876217,34889.893127211406,0.0
320012.02908761695,3867225.878295721,-32500.0,-22030.17171507093,-10834.168800401239,1264.859459798231,-15977.817255857941,-11133.66896999752,-10242.718652643192,23540.920781685953,-4992.5258359794416,-15478.737629132465,15478.737629132465,4992.5258359794416,43553.401340739147,0.0
325012.02908761695,3867225.878295721,-32500.0,-22301.554983878596,-14627.483597017386,-4303.4609663788769,-19016.795441803726,-17960.925832554043,-14498.459866671596,29311.141528258697,-10954.065671124779,-13421.777423243944,13421.777423243944,10954.065671124779,54212.256623209629,0.0
330012.02908761695,3867225.878295721,-32500.0,-20558.287790602069,-17397.748771332273,-12093.618289367534,-21088.791156100448,-26592.734237111632,-19675.613604011596,36076.80357419439,-17499.423731789648,-9307.786524151712,9307.786524151712,17499.423731789648,66548.742024496911,0.0
335012.02908761695,3867225.878295721,-32500.0,-16524.241500664888,-17713.176695993821,-21689.935726496733,-21136.842889452615,-36486.446657755281,-25435.300534630009,43272.300849761887,-23267.406199578094,-3257.1746464827283,3257.1746464827283,23267.406199578094,79595.290067077265,0.0
340012.02908761695,3867225.878295721,-32500.0,-10723.642804879491,-13921.737270004916,-31576.616467343407,-17979.272918003528,-46174.045485739261,-30934.396768452574,49842.999267473264,-26034.895620095856,3640.1241311899539,-3640.1241311899539,26034.895620095856,91483.338732389995,0.0
345012.02908761695,3867225.878295721,-32500.0,-4989.8739187740139,-4954.6839988430802,-38762.897404241208,-10893.032010075662,-53030.118166622618,-34699.944707265538,54249.391753404925,-23117.943901700532,8938.7343010099539,-8938.7343010099539,23117.943901700532,99428.908880230141,0.0
350012.02908761695,3867225.878295721,-32500.0,-2369.6351351968688,8215.0132788423598,-39210.580761450306,-629.20038123235418,-53714.457907051765,-34881.993985769172,54843.21059531418,-12813.782144103501,9241.4130642184864,-9241.4130642184864,12813.782144103501,100378.77605195732,0.0
355012.02908761695,3867225.878295721,-32500.0,-5414.6285353781759,21348.82342306654,-30013.474276142952,9793.9859838083303,-45915.051667470907,-30223.656747550034,50807.944468963484,3221.6085011119917,2317.8182626596167,-2317.8182626596167,-3221.6085011119917,92682.127794528322,0.0
360012.02908761695,3867225.878295721,-32500.0,-13179.534037385873,28366.905767575718,-12753.937574348718,16105.571809869489,-30821.20321175475,-21402.373287012637,43280.757471101111,19002.119140225215,-9807.4582603425551,9807.4582603425551,-19002.119140225215,78187.901172011931,0.0
365012.02908761695,3867225.878295721,-32500.0,-20728.751632143711,26119.312574306401,6066.4881104180886,15957.073925964287,-13412.861692799361,-11160.297450000906,35296.171110694224,27876.66962317887,-21004.632405392909,21004.632405392909,-27876.66962317887,62477.242527102731,0.0
370012.02908761695,3867225.878295721,-32500.0,-23464.017449049603,17129.534413345478,19893.507766875922,10788.162612877693,1005.3869797809657,-2425.7882262602134,29625.28698928329,27919.249378435103,-26151.268728924078,26151.268728924078,-27919.249378435103,51407.831523336106,0.0
375012.02908761695,3867225.878295721,-32500.0,-20759.933925472222,6465.1396670271051,26521.805991971043,3905.8656565243491,10112.568500269259,3468.0169541580908,26645.885123404783,22109.381267850778,-24781.800272211916,24781.800272211916,-22109.381267850778,46421.659153504239,0.0
380012.02908761695,3867225.878295721,-32500.0,-14826.294144685275,-2342.7344499279411,27436.93728636899,-2196.841481074056,14428.279302975636,6719.9146936694142,25051.482047728387,14448.426192422401,-19479.909260326593,19479.909260326593,-14448.426192422401,44668.520439177264,0.0
385012.02908761695,3867225.878295721,-32500.0,-8089.5969039150468,-8184.6258659828272,25115.253646208785,-6562.8197686218555,15522.908620972938,8111.3939417380534,23717.098339016131,7469.1024269553363,-12970.284976392466,12970.284976392466,-7469.1024269553363,43360.591698603152,0.0
390012.02908761695,3867225.878295721,-32500.0,-2026.9509564217619,-11365.826117235638,21487.550826135786,-9213.6218639746294,14828.595146073107,8374.2471440899171,22223.179113437247,2117.3662766966208,-6910.5020073406849,6910.5020073406849,-2117.3662766966208,41453.804653974112,0.0
395012.02908761695,3867225.878295721,-32500.0,2781.5959924360345,-12625.425164721531,17675.1607381383,-10528.471774257245,13309.879726232848,8016.0086245737248,20545.681251420465,-1562.2396983916753,-1980.9216995015865,1980.9216995015865,1562.2396983916753,38903.30594499319,0.0
400012.02908761695,3867225.878295721,-32500.0,6278.9405674354475,-12662.238598847418,14205.346740800216,-10918.430419425222,11524.974998239228,7349.3189427535308,18778.080124327942,-3870.2451661389932,1706.022618454909,-1706.022618454909,3870.2451661389932,35952.715398611821,0.0
405012.02908761695,3867225.878295721,-32500.0,8634.9700727134696,-11998.264668695931,11263.378293481766,-10716.347694076772,9764.2488265204211,6557.8054803442346,17016.027395250119,-5167.9680400663565,4288.9841388548193,-4288.9841388548193,5167.9680400663565,32849.654995587822,0.0
410012.02908761695,3867225.878295721,-32500.0,10083.344032414185,-10982.317102841562,8864.999440101139,-10162.725465444524,8161.5705702454306,5746.5498759768598,15327.357861700439,-5769.0276485865825,5983.2614732736265,-5983.2614732736265,5769.0276485865825,29774.468482440276,0.0
415012.02908761695,3867225.878295721,-32500.0,10848.403757861439,-9831.706341358813,6954.0204827563794,-9421.5479499623525,6765.5460373142951,4973.3932281617508,13752.042703253786,-5913.5573393442346,7001.7977272801318,-7001.7977272801318,5913.5573393442346,26840.348594738727,0.0
420012.02908761695,3867225.878295721,-32500.0,11119.309598491101,-8673.9507986987701,5451.7957738733239,-8600.3679229649824,5581.0568277048997,4267.5335255241807,12309.303047343959,-5773.8021527876299,7526.2576723773818,-7526.2576723773818,5773.8021527876299,24109.974102799039,0.0
425012.02908761695,3867225.878295721,-32500.0,11045.489182420544,-7578.6829419872465,4279.9538807877007,-7767.1553882281714,4592.3711641742475,3640.8076140836938,11004.597056829907,-5468.3117279313028,7700.9304495501674,-7700.9304495501674,5468.3117279313028,21611.806382321305,0.0
430012.02908761695,3867225.878295721,-32500.0,10740.474982045456,-6579.6909276782435,3369.4412699932132,-6962.8881903191477,3775.5999245259063,3094.7811600786135,9834.9261417985017,-5076.1441564353463,7635.7738057257666,-7635.7738057257666,5076.1441564353463,19352.519304316338,0.0
435012.02908761695,3867225.878295721,-32500.0,10288.180647636194,-5689.3469141628984,2662.9823376459576,-6210.5000924563556,3105.1348217700629,2625.2629406952815,8792.4505062661119,-4648.463672119703,7412.2733613444643,-7412.2733613444643,4648.463672119703,17325.565382112618,0.0
440012.02908761695,3867225.878295721,-32500.0,9749.2854003786961,-4907.8027307615303,2114.6615107029497,-5521.1534606931191,2556.7866990197144,2225.1842075318377,7866.9090828244962,-4217.2780780085213,7089.5561470946213,-7089.5561470946213,4217.2780780085213,15516.97013583499,0.0
445012.02908761695,3867225.878295721,-32500.0,9166.7581682243435,-4228.6775971394272,1688.4004484383649,-4898.5284035918721,2109.1049103020969,1886.3671633152023,7047.1298256079817,-3801.7061957457772,6709.727407538543,-6709.727407538543,3801.7061957457772,13909.040724896839,0.0
450012.02908761695,3867225.878295721,-32500.0,8570.3587836627703,-3642.5057172894844,1356.1942046802255,-4341.7338148174413,1743.751771908238,1600.5694587317269,6321.9563593293151,-3412.3636771683314,6302.2158006198306,-6302.2158006198306,3412.3636771683314,12482.725604587638,0.0
260012.02908761695,3872225.878295721,-32500.0,1640.3896783657337,4296.9192033751224,2764.2618752995154,1629.9262890850696,1997.7323640668217,803.42616393846049,4829.49765592533,4819.5393373646712,-305.46020477968432,305.46020477968432,-4819.5393373646712,8845.2000261785743,0.0
265012.02908761695,3872225.878295721,-32500.0,1168.2772229745115,4674.8465513618776,3252.7571769830797,1618.0867765737567,2261.6529555623274,874.40904963557944,5329.7578248218151,5458.7184148421184,-868.37194784202211,868.37194784202211,-5458.7184148421184,9685.3696397469248,0.0
270012.02908761695,3872225.878295721,-32500.0,510.10233208360432,5042.0283066733591,3830.4428175699277,1538.3531934667792,2543.8976825690906,933.37839522308661,5888.7850908297833,6162.5119165184497,-1597.1422736108025,1597.1422736108025,-6162.5119165184497,10610.296374455478,0.0
275012.02908761695,3872225.878295721,-32500.0,-383.30422231564569,5371.2559043077254,4507.8106353868088,1359.3002248499067,2833.1584460928698,967.33401272032052,6515.3779542591537,6920.9916254479504,-2528.0967810738512,2528.0967810738512,-6920.9916254479504,11632.528661857148,0.0
280012.02908761695,3872225.878295721,-32500.0,-1569.2690154841155,5621.5706119857223,5291.4260191093335,1038.3318491535747,3108.3540889593578,956.02876579148881,7221.8231582689623,7712.017067408111,-3700.5549055585693,3700.5549055585693,-7712.017067408111,12772.906100160564,0.0
285012.02908761695,3872225.878295721,-32500.0,-3111.3731306200184,5733.4221029758373,6179.0798083665486,518.78310949042555,3332.9854772983631,868.54025078790573,8026.7646860939331,8494.4608953602728,-5153.2374586219457,5153.2374586219457,-8494.4608953602728,14068.660196202743,0.0
290012.02908761695,3872225.878295721,-32500.0,-5074.3749281155333,5623.2734423974107,7151.6928264894577,-272.86164330512759,3446.79555870168,658.43460184773426,8960.4364301473579,9198.8508881585112,-6917.2191568959061,6917.2191568959061,-9198.8508881585112,15587.825121965798,0.0
295012.02908761695,3872225.878295721,-32500.0,-7513.7753429486465,5178.8155495007568,8160.459195536032,-1428.6303068409877,3353.8401672539349,257.10808788633273,10073.801352292416,9715.3036471281703,-9003.4883518849201,9003.4883518849201,-9715.3036471281703,17452.612553640898,0.0
300012.02908761695,3872225.878295721,-32500.0,-10456.994981773651,4257.5269250924912,9107.6243073576989,-3057.5220959924582,2906.2620944555629,-435.00812459996985,11453.65714881824,9879.7647560524147,-11382.735704103974,11382.735704103974,-9879.7647560524147,19872.146332337816,0.0
305012.02908761695,3872225.878295721,-32500.0,-13872.676799799907,2693.9825817315832,9820.0636566845915,-5276.8987478903473,1883.9953018267345,-1559.2677256792344,13245.704295352252,9462.1182588039628,-13955.265724841101,13955.265724841101,-9462.1182588039628,23177.262792825812,0.0
310012.02908761695,3872225.878295721,-32500.0,-17625.606358707737,325.27764196528915,10017.6760470591,-8190.2519067559933,-26.784035096388216,-3310.3242751781809,15685.292093351367,8164.6200959510061,-16511.08974078378,16511.08974078378,-8164.6200959510061,27837.33510266088,0.0
315012.02908761695,3872225.878295721,-32500.0,-21419.142868941097,-2951.5430101698662,9285.3758621140114,-11841.390864369972,-3247.9410055582161,-5944.149402718409,19122.778479248842,5646.9605545500817,-18686.260085227521,18686.260085227521,-5646.9605545500817,34431.503889556137,0.0
320012.02908761695,3872225.878295721,-32500.0,-24737.795904131592,-7073.7828475760916,7070.1779888294122,-16132.298370879596,-8297.1422649622764,-9772.4254286814157,23986.025546560541,1604.2376709983855,-19933.740133195868,19933.740133195868,-1604.2376709983855,43555.567681542896,0.0
325012.02908761695,3872225.878295721,-32500.0,-26822.976308687732,-11648.636362715501,2744.0561148045363,-20693.370040154914,-15712.410905284305,-15121.864964827077,30606.53356538419,-4068.0584624844496,-19547.328107414301,19547.328107414301,4068.0584624844496,55655.338666444346,0.0
330012.02908761695,3872225.878295721,-32500.0,-26747.70355620687,-15743.667606493647,-4204.1594928985487,-24709.554595728394,-25853.18680036924,-22217.935732870508,38999.903274005585,-10991.992291659524,-16804.994617413628,16804.994617413628,10991.992291659524,70760.514640717491,0.0
335012.02908761695,3872225.878295721,-32500.0,-23701.423608443813,-17707.145266691496,-13767.675454159831,-26756.257343930782,-38497.075189266317,-30928.897519297974,48679.836465089844,-17913.792806558064,-11328.466552905171,11328.466552905171,17913.792806558064,88074.439726756536,0.0
340012.02908761695,3872225.878295721,-32500.0,-17628.053031173935,-15229.035494440093,-24750.021931996314,-24828.296542425836,-52176.488116917841,-40311.523880776796,58402.75208818393,-22321.903289873208,-3755.9182058864571,3755.9182058864571,22321.903289873208,105432.31263407219,0.0
345012.02908761695,3872225.878295721,-32500.0,-10238.693648752829,-6101.2822428881191,-33931.048829340216,-16977.959931815116,-63402.267671411937,-48046.838300582946,65944.524824346547,-20506.563249741317,3350.0449602215467,-3350.0449602215467,20506.563249741317,118873.85098161761,0.0
350012.02908761695,3872225.878295721,-32500.0,-5764.0089414731883,9665.5087223110513,-35813.921892409977,-3113.0885950714683,-66558.658179954611,-50331.411508668112,68371.598661400931,-9071.5842333081819,5146.8553651594157,-5146.8553651594157,9071.5842333081819,123083.34228028337,0.0
355012.02908761695,3872225.878295721,-32500.0,-9214.6344677626366,26674.85661248818,-25067.929519764242,12401.25338505599,-56354.338168526941,-43533.366503676487,63564.913441236808,10956.063732922694,-3017.5475425554523,3017.5475425554523,-10956.063732922694,114054.76237962327,0.0
360012.02908761695,3872225.878295721,-32500.0,-20079.763445370703,34703.706173874598,-3112.5322289155692,21187.927881185653,-33782.349545278412,-28196.416830238144,53009.834765818799,30331.336761567884,-18958.268352936375,18958.268352936375,-30331.336761567884,94207.4948436087,0.0
365012.02908761695,3872225.878295721,-32500.0,-29349.214047825375,28495.561009142853,19273.049383205402,18517.556792541804,-8544.1596895425064,-10700.744973706627,42437.299372727161,37931.2765313946,-31943.891300243064,31943.891300243064,-37931.2765313946,74086.826351459284,0.0
370012.02908761695,3872225.878295721,-32500.0,-29616.241306538301,14102.949848634513,32306.876758758724,8552.74679620405,9655.6279828651841,2427.1635592294692,36362.730914601518,32718.633463614809,-34256.192626013682,34256.192626013682,-32718.633463614809,63030.518603394637,0.0
375012.02908761695,3872225.878295721,-32500.0,-22278.194223012008,298.39631533317686,35227.902162939121,-1883.9286421232448,18625.767903985572,9551.7258658778246,33723.865820285595,21754.059212211971,-27868.660281851953,27868.660281851953,-21754.059212211971,59509.266961834255,0.0
380012.02908761695,3872225.878295721,-32500.0,-12328.451454951068,-8994.0055148785759,32153.436912390556,-9365.5386177397431,21046.882483233945,12296.43930792529,31862.483127511237,11087.406369929795,-18285.019666552053,18285.019666552053,-11087.406369929795,57657.541822655716,0.0
385012.02908761695,3872225.878295721,-32500.0,-3210.1465698553261,-13835.597278514575,26839.218258677567,-13585.289782794167,20039.253522981457,12630.202429675039,29689.140722053351,3071.1109602194001,-9214.9382261766477,9214.9382261766477,-3071.1109602194001,54868.526076514827,0.0
390012.02908761695,3872225.878295721,-32500.0,3799.2916309769921,-15564.622329682979,21359.178518146375,-15377.519181844684,17640.704386334237,11845.020055860205,27163.928983783881,-2161.3118567084289,-2070.7641313288955,2070.7641313288955,2161.3118567084289,51005.503030657601,0.0
395012.02908761695,3872225.878295721,-32500.0,8636.5065462312232,-15454.415523717636,16562.386078516043,-15638.250853277696,14911.32171361546,10622.561035151553,24504.476663033038,-5219.2376656058623,3006.4856537037485,-3006.4856537037485,5219.2376656058623,46564.437532301752,0.0
400012.02908761695,3872225.878295721,-32500.0,11681.979958302722,-14391.421419195658,12666.464138750234,-15025.599400919993,12326.538497389909,9290.4620630851805,21899.019826302403,-6777.5010657166367,6349.3126319755575,-6349.3126319755575,6777.5010657166367,41994.268369958918,0.0
405012.02908761695,3872225.878295721,-32500.0,13388.294471932519,-12917.08285686393,9622.221095800478,-13962.701192912755,10063.366940603852,8000.1024457614876,19458.96849218828,-7372.3502485874542,8380.5536334409408,-8380.5536334409408,7372.3502485874542,37578.741602064554,0.0
410012.02908761695,3872225.878295721,-32500.0,14147.504467645458,-11337.037402353235,7292.6872463119307,-12705.945314394532,8159.6056766578704,6818.4857678825329,17235.790325204325,-7381.4452037408582,9473.9554183167111,-9473.9554183167111,7381.4452037408582,33468.041998608438,0.0
415012.02908761695,3872225.878295721,-32500.0,14262.83423345023,-9811.7857198591209,5529.990334377012,-11405.322660681666,6593.5497938908829,5771.1811247350161,15244.155654316704,-7055.4924539482536,9921.3865089838764,-9921.3865089838764,7055.4924539482536,29727.036897653743,0.0
420012.02908761695,3872225.878295721,-32500.0,13956.732368367555,-8417.2295379593616,4203.6383932479985,-10145.329663137554,5321.8799624795602,4862.4759277295261,13478.599008039251,-6554.9832822705494,9938.1226944546215,-9938.1226944546215,6554.9832822705494,26371.022445226656,0.0
425012.02908761695,3872225.878295721,-32500.0,13387.672809190381,-7181.8575492878654,3207.7236891271923,-8970.5633709091016,4296.9674900038062,4085.5700968666574,11923.663613211098,-5979.6526320720923,9678.0641881762749,-9678.0641881762749,5979.6526320720923,23388.193402149805,0.0
430012.02908761695,3872225.878295721,-32500.0,12666.285264270329,-6108.6915389434153,2459.8285103828539,-7901.4552468626798,3474.2741465304498,3428.2182405722961,10559.654815975302,-5389.4809766968565,9248.9921920491706,-9248.9921920491706,5389.4809766968565,20752.946171099924,0.0
435012.02908761695,3872225.878295721,-32500.0,11868.413295585917,-5187.9636246056452,1897.2796024462286,-6944.0120598757358,2815.0704529076424,2876.0411721021492,9365.813512325034,-4818.9420290182452,8725.1192926045642,-8725.1192926045642,4818.9420290182452,18433.632143727085,0.0
440012.02908761695,3872225.878295721,-32500.0,11044.992347627092,-4404.2649698967962,1473.0242369811522,-6095.878396861056,2286.9629700484497,2414.4554091666027,8321.9785694512302,-4286.4134404140314,8156.6494172436833,-8156.6494172436833,4286.4134404140314,16396.949897676368,0.0
445012.02908761695,3872225.878295721,-32500.0,10229.348179631375,-3740.4902824827604,1151.9872160865284,-5350.149420281703,1863.4817953509694,2029.7517972509356,7409.4374163423672,-3800.3210682112995,7576.8397334163028,-7576.8397334163028,3800.3210682112995,14610.440072122055,0.0
450012.02908761695,3872225.878295721,-32500.0,9442.4669509614978,-3179.8979175882127,908.10806319296069,-4697.727291723394,1523.30173857773,1709.6169208042852,6611.2740131500177,-3363.0888150644587,7007.0926958218406,-7007.0926958218406,3363.0888150644587,13043.766933397683,0.0
260012.02908761695,3877225.878295721,-32500.0,3230.9878676036924,4659.5780558302577,2420.9746739983061,2366.0092797378084,2104.7541768461469,1060.4237915441413,5325.5748344603744,4711.7567821600933,939.28124701419483,-939.28124701419483,-4711.7567821600933,9941.2402339102409,0.0
265012.02908761695,3877225.878295721,-32500.0,2981.3054011374456,5174.4990509859726,2886.7779490552084,2500.2412811365871,2423.9399234259986,1196.4547637301114,5900.0386078061956,5420.6550290851847,530.48190541818667,-530.48190541818667,-5420.6550290851847,10942.225769410325,0.0
270012.02908761695,3877225.878295721,-32500.0,2567.3423546929694,5720.9687297433466,3453.1913955663799,2595.2449545835698,2783.3586732461963,1337.728898012793,6541.1948045767904,6232.0877105224718,-37.440615222106771,37.440615222106771,-6232.0877105224718,12042.488319782298,0.0
275012.02908761695,3877225.878295721,-32500.0,1934.8023839766436,6283.1356798719589,4139.9798948312346,2623.3510911512631,3179.6604594375212,1475.5122371380639,7255.7192495802228,7151.1444262673149,-809.18292556025426,809.18292556025426,-7151.1444262673149,13247.512531242701,0.0
280012.02908761695,3877225.878295721,-32500.0,1015.7118191698964,6833.2299981517317,4967.8677971688621,2544.5581733179806,3602.2005337155015,1594.4200185043705,8051.1553878316809,8175.5820579189322,-1838.38079234218,1838.38079234218,-8175.5820579189322,14563.593874978596,0.0
285012.02908761695,3877225.878295721,-32500.0,-272.66973687696566,7325.9250147711227,5955.7051908341,2302.0156077857655,4027.749816904925,1668.5881781552673,8937.1285897670004,9289.8828887277887,-3186.7939574777911,3186.7939574777911,-9289.8828887277887,16001.372432105829,0.0
290012.02908761695,3877225.878295721,-32500.0,-2026.7737781060516,7690.9649769416901,7114.7933504882776,1816.4740390050165,4412.0802960978435,1655.8374905072108,9928.345683449239,10456.11701233352,-4920.7657693811616,4920.7657693811616,-10456.11701233352,17584.537396593092,0.0
295012.02908761695,3877225.878295721,-32500.0,-4351.1178879724912,7824.4196038584314,8438.4617894872408,980.13240186842074,4676.8942500092353,1488.8562648116695,11051.385967305669,11600.59565730274,-7102.657114740472,7102.657114740472,-11600.59565730274,19368.904361232126,0.0
300012.02908761695,3877225.878295721,-32500.0,-7344.2102306632978,7580.3122951534888,9884.2524523320462,-348.64310179237725,4690.1996502829752,1062.106655647337,12359.184085503201,12595.848637804915,-9773.729872758513,9773.729872758513,-12595.848637804915,21480.226978018378,0.0
305012.02908761695,3877225.878295721,-32500.0,-11070.101581844881,6767.2885830405485,11345.782710473313,-2346.1309788485009,4238.3765666358413,212.95585628244817,13960.087355710757,13239.469541268123,-12923.858886157561,12923.858886157561,-13239.469541268123,24179.59113657735,0.0
310012.02908761695,3877225.878295721,-32500.0,-15508.450293588097,5160.292847164319,12612.915599907117,-5212.0417968613419,2989.9154593324611,-1304.0022786570121,16071.266965219475,13236.391379286146,-16443.722678168415,16443.722678168415,-13236.391379286146,27952.278483618207,0.0
315012.02908761695,3877225.878295721,-32500.0,-20477.857336418991,2545.0692945982328,13325.006003307484,-9132.2567180967744,456.35353539497265,-3848.0331148067762,19099.317473414209,12201.071002323082,-20059.508472701909,20059.508472701909,-12201.071002323082,33575.291438281063,0.0
320012.02908761695,3877225.878295721,-32500.0,-25537.111879758559,-1178.9456415327813,12936.634625893899,-14192.906207784448,-4031.2055085620686,-7920.1770169503789,23691.608759210983,9711.3234191735937,-23263.061122048592,23263.061122048592,-9711.3234191735937,42071.7652342531,0.0
325012.02908761695,3877225.878295721,-32500.0,-29892.609371659284,-5812.2723211125522,10740.26186153993,-20215.50398195762,-11287.242765893354,-14162.016987399193,30576.551016569105,5461.0348266289384,-25275.408464353801,25275.408464353801,-5461.0348266289384,54487.204981981646,0.0
330012.02908761695,3877225.878295721,-32500.0,-32381.686685819615,-10582.978188135474,6019.5004555398973,-26485.253913524368,-22097.414931753647,-23262.120480119411,40183.103494617506,-439.43313159258105,-25117.781155688743,25117.781155688743,439.43313159258105,71504.594535695767,0.0
335012.02908761695,3877225.878295721,-32500.0,-31665.341399970326,-13844.464805817808,-1574.2684523398334,-31382.608302801738,-36771.632544177686,-35637.718912683973,52327.245973259131,-6997.3293995311651,-21908.455709829246,21908.455709829246,6997.3293995311651,92880.87189828507,0.0
340012.02908761695,3877225.878295721,-32500.0,-26857.68552999794,-12924.493742704974,-11327.548205626259,-32077.390592555919,-54246.652640266388,-50674.392301393324,65822.197112093825,-11777.344831998425,-15557.128056914016,15557.128056914016,11777.344831998425,116595.02544594924,0.0
345012.02908761695,3877225.878295721,-32500.0,-18869.737607743187,-4597.2677279812669,-20405.807376250585,-24847.652281262894,-70645.359318269169,-65365.088346147633,77888.380141329762,-10571.549298436754,-8016.5352538033958,8016.5352538033958,10571.549298436754,137770.38691590252,0.0
350012.02908761695,3877225.878295721,-32500.0,-12381.329669951418,12731.838180655694,-22780.591328637307,-7304.1280414208322,-77837.154818073715,-72823.671218510965,83877.396711774345,1621.2505667504322,-4785.2903933923599,4785.2903933923599,-1621.2505667504322,148172.47905775692,0.0
355012.02908761695,3877225.878295721,-32500.0,-15942.461316564402,33459.031588974234,-10632.752389322814,15699.31446673933,-65132.949806797005,-63447.461833149297,78983.678723320016,25327.205837664082,-13838.136031805097,13838.136031805097,-25327.205837664082,139147.35020366419,0.0
360012.02908761695,3877225.878295721,-32500.0,-31086.047039741541,41232.799227602874,15359.241885228415,27734.865282669023,-31535.898422697843,-35400.854344561783,64601.014703903682,46958.881545807308,-33971.740112408515,33971.740112408515,-46958.881545807308,112994.79199717396,0.0
365012.02908761695,3877225.878295721,-32500.0,-40926.657204533207,27717.16496707666,38124.249750391944,18738.978580525836,3661.6518638896637,-4669.0392395453209,51924.682003966758,48668.097060027692,-46396.226246771199,46396.226246771199,-48668.097060027692,89976.985424114901,0.0
370012.02908761695,3877225.878295721,-32500.0,-34659.06661808442,6745.8041843067895,45478.872454223136,705.69876710976973,23526.908666845338,13762.166240400846,46839.307263421797,34177.074904539259,-41203.110150493201,41203.110150493201,-34177.074904539259,81761.147316168397,0.0
375012.02908761695,3877225.878295721,-32500.0,-19928.776757189444,-8622.707380766069,41518.408803794424,-13386.57496981119,29209.453921724311,20274.06554602414,44272.828037634557,17383.200447813648,-27010.771654282795,27010.771654282795,-17383.200447813648,79005.725379522919,0.0
380012.02908761695,3877225.878295721,-32500.0,-5551.0758839499103,-16368.516209496664,33564.33433239346,-20778.183691813359,27697.790468497169,20569.676022017669,41021.726498180833,4893.1422136414803,-12851.361565277904,12851.361565277904,-4893.1422136414803,74773.468438804397,0.0
385012.02908761695,3877225.878295721,-32500.0,5148.1568305252113,-18865.689450560298,25591.495329753798,-23296.797768268094,23696.845915716156,18550.891035442459,37001.085178447916,-2765.1892863497224,-2098.150608659038,2098.150608659038,2765.1892863497224,68586.830617522035,0.0
390012.02908761695,3877225.878295721,-32500.0,12049.103763560133,-18520.69402357014,18956.850048913493,-23079.577824008837,19361.794638805284,15984.101274076293,32767.619678774554,-6866.2695271998055,5055.5885790142784,-5055.5885790142784,6866.2695271998055,61544.33794889511,0.0
395012.02908761695,3877225.878295721,-32500.0,16012.218403411947,-16879.781368349966,13847.484213219732,-21548.17726679087,15481.747206827678,13512.399573058918,28723.982059011854,-8708.3252289870543,9390.4975334234987,-9390.4975334234987,8708.3252289870543,54519.080168586675,0.0
400012.02908761695,3877225.878295721,-32500.0,17947.779764058538,-14790.047508209454,10054.656093306488,-19494.553606918616,12256.448994871522,11322.263469561953,25059.402140173956,-9222.9182488398765,11755.671833705783,-11755.671833705783,9222.9182488398765,47967.841839417735,0.0
405012.02908761695,3877225.878295721,-32500.0,18563.818293675857,-12673.383412023872,7289.4765189526179,-17324.202094166008,9663.8045283543306,9441.4811529098388,21828.605173995609,-9004.2803440056705,12820.089034631306,-12820.089034631306,9004.2803440056705,42069.878778807382,0.0
410012.02908761695,3877225.878295721,-32500.0,18355.562153556999,-10719.636501579924,5290.6498671534437,-15233.085551596558,7613.0658123626208,7849.7039530814673,19019.950770698037,-8411.6844003855877,13056.369642187932,-13056.369642187932,8411.6844003855877,36858.590495733843,0.0
415012.02908761695,3877225.878295721,-32500.0,17654.410613358283,-8999.1206773883368,3850.6742741096532,-13308.771140990571,6003.4492901359827,6514.4087990599255,16594.837833015921,-7655.4664803914729,12783.474008556257,-12783.474008556257,7655.4664803914729,32300.402882453738,0.0
420012.02908761695,3877225.878295721,-32500.0,16677.703761774621,-7523.4580604526445,2813.7868068574871,-11583.452951176867,4744.2062872847491,5401.5688277927402,14507.029067200558,-6855.1512059291053,12212.12618063833,-12212.12618063833,6855.1512059291053,28335.259030976402,0.0
425012.02908761695,3877225.878295721,-32500.0,15566.191772267057,-6277.3763956520661,2066.2331000041449,-10061.143004093408,3759.7855534111136,4478.8239552093382,12711.108650584762,-6075.8982061494171,11479.765947309283,-11479.765947309283,6075.8982061494171,24895.857548124677,0.0
430012.02908761695,3877225.878295721,-32500.0,14409.751092659631,-5234.9388963345546,1526.0683028335766,-8731.7823401294991,2989.5421298390534,3716.593691376188,11165.707078450885,-5350.7190550513478,10674.911314025834,-10674.911314025834,5350.7190550513478,21916.285272535937,0.0
435012.02908761695,3877225.878295721,-32500.0,13264.543198185582,-4367.6293473508831,1134.6519120421021,-7578.7866773170244,2385.7233167844784,3088.5618246064714,9834.4375692592439,-4693.9060571957834,9853.5799832192952,-9853.5799832192952,4693.9060571957834,19335.690311412629,0.0
440012.02908761695,3877225.878295721,-32500.0,12164.388344997118,-3648.1571832665795,850.12155458767393,-6583.1541157211559,1911.1191013560149,2571.8282113651985,8685.844389605405,-4109.0997960284512,9050.239675778219,-9050.239675778219,4109.0997960284512,17099.564142431256,0.0
445012.02908761695,3877225.878295721,-32500.0,11128.344547044506,-3052.0662547473648,642.59301424486944,-5725.7131335721951,1536.9012990739636,2146.8309591566976,7692.9856469044998,-3594.124910512603,8285.1167130727172,-8285.1167130727172,3594.124910512603,15159.932269282743,0.0
450012.02908761695,3877225.878295721,-32500.0,10165.823286080289,-2558.2311682004924,490.70377285391419,-4988.3323206627538,1240.8037196598107,1797.1154979120122,6832.9262422795582,-3143.8732237034187,7569.113405590555,-7569.113405590555,3143.8732237034187,13475.079197663128,0.0
255012.02908761695,3882225.878295721,-32500.0,4837.7546149268865,4261.6935764601212,1643.7818278669663,2854.1102684790044,1816.695070560535,1146.8867558645313,5267.2188248101575,3739.28941664165,2444.7076381754177,-2444.7076381754177,-3739.28941664165,10042.933428341181,0.0
260012.02908761695,3882225.878295721,-32500.0,4947.7089354868522,4809.7569664360326,1970.8162975124583,3145.7697658223542,2118.5523808243061,1329.2106739370636,5859.7728022719339,4350.7408757829044,2344.3451201819266,-2344.3451201819266,-4350.7408757829044,11123.723282680552,0.0
265012.02908761695,3882225.878295721,-32500.0,4974.0843066847765,5426.4178305404284,2377.110005705355,3448.8538101399658,2472.3633094108054,1537.6383243469072,6526.8773674071417,5072.5077923044801,2146.8973470849423,-2146.8973470849423,-5072.5077923044801,12328.366673398896,0.0
270012.02908761695,3882225.878295721,-32500.0,4877.8126592708932,6113.8991701279629,2883.2537724904682,3751.8105517016434,2884.4543619481665,1772.5452637704786,7276.496216545429,5922.8344018802454,1816.3375461863184,-1816.3375461863184,-5922.8344018802454,13665.836213141396,0.0
275012.02908761695,3882225.878295721,-32500.0,4606.1978659742526,6869.7825943720927,3514.7114765650831,4035.3562538735,3359.50975797209,2031.5798860591956,8116.3911981436622,6920.6668576364737,1305.5191534230203,-1305.5191534230203,-6920.6668576364737,15142.747313758235,0.0
280012.02908761695,3882225.878295721,-32500.0,4089.1020273582203,7683.5896999529432,4302.2372680685594,4268.6602489238285,3898.229546385191,2307.4638762221584,9053.6157727828195,8083.6219229147891,553.63384504642363,-553.63384504642363,-8083.6219229147891,16762.010762180205,0.0
285012.02908761695,3882225.878295721,-32500.0,3234.7873008237839,8531.5521335798439,5281.4929174710423,4403.8799346122614,4493.1789590865646,2584.3501779082917,10093.979031808911,9424.1116771376328,-516.10800803596703,516.10800803596703,-9424.1116771376328,18521.714768870024,0.0
290012.02908761695,3882225.878295721,-32500.0,1926.2791643422697,9368.9212291313288,6490.864577974321,4368.5450264232404,5121.6241545778994,2831.8376323811685,11241.892916127939,10942.457462231643,-1997.5380156449601,1997.5380156449601,-10942.457462231643,20415.62369955692,0.0
295012.02908761695,3882225.878295721,-32500.0,20.187434603748699,10119.291972337563,7965.6506945841138,4055.3802725022988,5733.4431619704474,2995.14955760371,12501.752320780883,12615.356155070618,-3999.2624223065186,3999.2624223065186,-12615.356155070618,22438.783006293786,0.0
300012.02908761695,3882225.878295721,-32500.0,-2647.9638892549101,10661.250726754486,9725.5254928114045,3309.8168553646224,6231.2537613937375,2979.1096376515643,13883.888590874829,14377.809085670051,-6635.1511482729447,6635.1511482729447,-14377.809085670051,24606.456383823828,0.0
305012.02908761695,3882225.878295721,-32500.0,-6244.5007392764255,10815.197092571228,11750.722389365932,1917.3647477654124,6439.0044714181695,2622.3517757273371,15422.672315418989,16097.515557387682,-10001.083179798503,10001.083179798503,-16097.515557387682,27003.792371562024,0.0
310012.02908761695,3882225.878295721,-32500.0,-10892.744539510759,10339.147836860873,13941.898845665179,-402.34496198187242,6055.4536460484778,1657.0658442800752,17224.415444295872,17544.822051667663,-14128.917262077506,14128.917262077506,-17544.822051667663,29896.025191753524,0.0
315012.02908761695,3882225.878295721,-32500.0,-16588.184845469259,8953.6901285536424,16062.761807994932,-3978.5676466339764,4593.1646560649533,-349.88919524713032,19579.743691520889,18372.467954871969,-18909.528013401385,18909.528013401385,-18372.467954871969,33924.254228456994,0.0
320012.02908761695,3882225.878295721,-32500.0,-23066.249882054526,6431.9517337627749,17680.705461164092,-9117.5118241388263,1317.7930320137452,-4072.3486919354996,23163.962098178308,18141.578111120176,-23989.000070236903,23989.000070236903,-18141.578111120176,40321.778469047407,0.0
325012.02908761695,3882225.878295721,-32500.0,-29644.557718185715,2798.4829182498315,18156.880410521633,-15924.327475286382,-4765.1564883312385,-10493.102640483219,29127.584516036703,16459.337246855026,-28675.849956253169,28675.849956253169,-16459.337246855026,50878.835574538491,0.0
330012.02908761695,3882225.878295721,-32500.0,-35121.102477155458,-1349.0330674620329,16784.669713166881,-23958.178980414759,-14774.626532990804,-20887.864575335614,38612.756114492629,13300.612045675842,-31950.977114909605,31950.977114909605,-13300.612045675842,67381.885564097029,0.0
335012.02908761695,3882225.878295721,-32500.0,-37882.081365928701,-4477.360068721734,13182.405693411218,-31685.669944421079,-29501.789192228975,-36532.425573480672,52068.53474180185,9517.4634196021052,-32712.237149599503,32712.237149599503,-9517.4634196021052,90684.265031520394,0.0
340012.02908761695,3882225.878295721,-32500.0,-36439.230661051064,-3930.6153312597921,7956.4474974289624,-35826.563105233276,-48406.47615176993,-57736.054130413264,68748.619980049116,7390.4651783086065,-30385.924258953884,30385.924258953884,-7390.4651783086065,119568.20535712123,0.0
345012.02908761695,3882225.878295721,-32500.0,-30687.569702183315,3697.1069115484379,3550.8242833970589,-31104.519652119092,-67781.682349691197,-81630.14049589014,85826.083658273288,10899.555048361879,-26040.501208266054,26040.501208266054,-10899.555048361879,149124.6242732355,0.0
350012.02908761695,3882225.878295721,-32500.0,-24246.405159111888,20733.421387911902,5078.9171173516106,-11808.623178242995,-78031.319439621468,-98292.962736612448,97222.901815737758,24930.748425283953,-24098.272393841271,24098.272393841271,-24930.748425283953,168786.61632969487,0.0
355012.02908761695,3882225.878295721,-32500.0,-28167.860236684486,42076.420315902607,19457.56649382081,19714.646616624519,-62427.811140210935,-86653.249622100688,94108.788440381293,50132.585670867527,-33990.389399007341,33990.389399007341,-50132.585670867527,163227.09883636626,0.0
360012.02908761695,3882225.878295721,-32500.0,-48193.155221731031,45184.507019238241,44217.017881389533,33764.929324327692,-15930.654115320654,-34705.719969435086,76951.698137461368,67564.958546083391,-56332.703353934739,56332.703353934739,-67564.958546083391,133347.89979007177,0.0
365012.02908761695,3882225.878295721,-32500.0,-53638.498278947802,20909.464258267781,57578.123653026407,10622.524503081862,25751.939606916229,16481.551243928589,66107.061343784211,54842.313398402875,-61023.285853420086,61023.285853420086,-54842.313398402875,114573.38979504409,0.0
370012.02908761695,3882225.878295721,-32500.0,-34402.293017287084,-4167.1972252886371,52755.265772267085,-17588.177850268741,40069.48433213876,36238.952585863561,63013.453291681108,29009.966547711163,-41987.408131373937,41987.408131373937,-29009.966547711163,110573.62452342441,0.0
375012.02908761695,3882225.878295721,-32500.0,-10997.75043997644,-17214.339229317531,41011.197014277168,-32293.526043285485,38276.616621029621,36752.10385876982,58376.341769627077,9007.5348173175516,-19330.389744009579,19330.389744009579,-9007.5348173175516,104472.35795065621,0.0
380012.02908761695,3882225.878295721,-32500.0,6216.9060478251567,-21297.215990152483,29686.737564300562,-36295.195188242491,31646.759869414993,31359.464854000675,51819.68773909931,-2566.7792093359731,-2520.8737109937874,2520.8737109937874,2566.7792093359731,94393.748068441753,0.0
385012.02908761695,3882225.878295721,-32500.0,16551.556929954466,-20878.702457776195,20809.312777431682,-34941.448548296532,24779.218968882273,25417.533264337868,44842.854079255056,-8248.3662441113884,7875.973576377768,-7875.973576377768,8248.3662441113884,82894.445324650806,0.0
390012.02908761695,3882225.878295721,-32500.0,21869.328554063672,-18645.194611587529,14370.424074670384,-31509.978400602318,19001.409445661553,20375.51520785618,38353.509729148056,-10497.952241736422,13575.864435397061,-13575.864435397061,10497.952241736422,71777.362925976413,0.0
395012.02908761695,3882225.878295721,-32500.0,24013.445638425048,-15919.100095959304,9855.7942936254876,-27578.686588268552,14475.255384679418,16371.072302835428,32689.262304606083,-10915.278258451812,16265.428429441477,-16265.428429441477,10915.278258451812,61816.268614514316,0.0
400012.02908761695,3882225.878295721,-32500.0,24289.090376928783,-13278.574701694788,6738.6241217860643,-23804.883000055641,11024.491451641423,13221.774484858079,27886.484167814531,-10424.135260050829,17145.647896391645,-17145.647896391645,10424.135260050829,53196.475731907463,0.0
405012.02908761695,3882225.878295721,-32500.0,23520.969438424043,-10939.880112070367,4600.7958469204659,-20418.146080284259,8417.9758501678807,10727.571451958971,23860.042771395165,-9530.5242452187595,16983.893804529991,-16983.893804529991,9530.5242452187595,45846.729882866632,0.0
410012.02908761695,3882225.878295721,-32500.0,22206.220705112853,-8955.4250152863315,3138.4383798647791,-17467.809966668512,6452.3356539611441,8734.1380045720052,20492.773366302685,-8502.4525122363775,16249.372159337345,-16249.372159337345,8502.4525122363775,39611.419661177461,0.0
415012.02908761695,3882225.878295721,-32500.0,20638.758009815578,-7308.9998284707663,2138.8551434797832,-14933.82602640708,4967.3554033817163,7130.2609862006911,17672.045479584634,-7476.7115466360028,15223.91375905186,-15223.91375905186,7476.7115466360028,34324.419718956102,0.0
420012.02908761695,3882225.878295721,-32500.0,18990.5532870963,-5959.6157636440448,1455.6448042603542,-12772.996133061717,3841.7748208913536,5834.7082385359599,15301.156555168562,-6518.7763668133266,14075.294381435211,-14075.294381435211,6518.7763668133266,29835.210534233585,0.0
425012.02908761695,3882225.878295721,-32500.0,17360.747820659479,-4860.9046394311054,988.74952653343666,-10937.29621842732,2985.1613891720935,4785.9583039721929,13300.544713928681,-5655.7844107878364,12902.24948599342,-12902.24948599342,5655.7844107878364,26015.097924545098,0.0
430012.02908761695,3882225.878295721,-32500.0,15804.668756440715,-3969.1559404644645,669.92827337901474,-9380.7881266689019,2330.3673022074363,3935.8809885681176,11605.66183278164,-4894.6413731994717,11761.516380920377,-11761.516380920377,4894.6413731994717,22756.305926363846,0.0
435012.02908761695,3882225.878295721,-32500.0,14351.05399157492,-3246.190426718666,452.62140423111668,-8062.0178401687508,1827.5390557916044,3246.0571195049806,10164.241111439562,-4231.9906925692012,10684.120668312198,-10684.120668312198,4231.9906925692012,19969.143254806517,0.0
440012.02908761695,3882225.878295721,-32500.0,13012.447285691223,-2659.9240980934428,305.00583620804173,-6944.6208205275789,1439.5920014079543,2685.5305962464572,8933.8296160066366,-3659.6892275579003,9685.3092933443695,-9685.3092933443695,3659.6892275579003,17579.013804963277,0.0
445012.02908761695,3882225.878295721,-32500.0,11791.581864531072,-2183.9681420120987,205.27747246123738,-5997.2050000976487,1138.8590125725971,2229.2923457889024,7879.7755098153402,-3167.783581617613,8770.6906811977933,-8770.6906811977933,3167.783581617613,15523.781330069396,0.0
450012.02908761695,3882225.878295721,-32500.0,10685.399288692191,-1796.8934658147814,138.45803099296441,-5192.9650336014829,904.63000631954253,1857.15712093919,6973.6674575722964,-2746.0963809308741,7940.1032489128829,-7940.1032489128829,2746.0963809308741,13751.621008517646,0.0
455012.02908761695,3882225.878295721,-32500.0,9687.5709015381108,-1481.4248967400408,94.232510479083089,-4509.1773546150171,721.34329319795631,1552.8641816243603,6192.1012187212737,-2385.0177213000748,7190.0454888182594,-7190.0454888182594,2385.0177213000748,12219.227041360271,0.0
255012.02908761695,3887225.878295721,-32500.0,6339.8302530657875,4129.8700619473184,1201.2512600565431,3499.0053200328243,1722.5101888574411,1358.4872769303631,5730.0447118654138,3177.282468141786,3728.1238460891491,-3728.1238460891491,-3177.282468141786,11064.333078222982,0.0
260012.02908761695,3887225.878295721,-32500.0,6712.7432969990732,4707.2252921706677,1451.0763211757378,3936.1382129270269,2024.7401414863718,1598.9929187036453,6409.6886336456619,3733.7146014759392,3845.4079884437933,-3845.4079884437933,-3733.7146014759392,12336.162720923021,0.0
265012.02908761695,3887225.878295721,-32500.0,7052.4387281903264,5373.3543221939562,1767.7041950112548,4421.8727649193816,2385.4894070111795,1883.5895734619312,7182.6972971825653,4403.1573116583604,3904.6158415019909,-3904.6158415019909,-4403.1573116583604,13772.392328188365,0.0
270012.02908761695,3887225.878295721,-32500.0,7328.6009930187884,6139.5580807693605,2171.3206187369265,4954.8011726156419,2815.3003223447399,2218.704711454785,8061.1866881545648,5209.8352209414916,3875.2001113822084,-3875.2001113822084,-5209.8352209414916,15390.446550916986,0.0
275012.02908761695,3887225.878295721,-32500.0,7497.5518813031304,7016.1911339412391,2688.4422472452452,5528.4428059843003,3325.3344329277375,2610.1752457379553,9057.6866541040072,6182.4413144964519,3714.7380715746885,-3714.7380715746885,-6182.4413144964519,17206.262136804762,0.0
280012.02908761695,3887225.878295721,-32500.0,7497.2350787927498,8010.5545388307328,3353.6710444962473,6127.8669137225079,3926.1735936131386,3061.7885875229231,10184.326574120798,7354.0593071312469,3364.8909322661789,-3364.8909322661789,-7354.0593071312469,19231.939059365432,0.0
285012.02908761695,3887225.878295721,-32500.0,7240.7181383129837,9123.2246130653984,4211.5689441215718,6724.421542095225,4625.3393271590476,3572.5827479552245,11451.425463651454,8761.0911133613099,2746.4089819276765,-2746.4089819276765,-8761.0911133613099,21472.171330435594,0.0
290012.02908761695,3887225.878295721,-32500.0,6608.3142519909807,10341.913652678311,5318.1302756517925,7267.6348035797701,5422.474069459081,4131.9554840418123,12865.245775629206,10440.172123207125,1753.5304406894575,-1753.5304406894575,-10440.172123207125,23919.296081891054,0.0
295012.02908761695,3887225.878295721,-32500.0,5439.2285640257196,11631.653204316654,6740.6129051717362,7673.0202874940724,6300.3221134636406,4710.8615712954279,14424.730947683125,12421.330699830531,248.97474997837162,-248.97474997837162,-12421.330699830531,26547.42870923621,0.0
300012.02908761695,3887225.878295721,-32500.0,3525.678475744955,12920.094063443452,8553.0324805822711,7804.4656772580829,7208.3073179630774,5246.0153461900136,16117.620080629484,14714.624887437683,-1937.3075632930077,1937.3075632930077,-14714.624887437683,29308.356032030249,0.0
305012.02908761695,3887225.878295721,-32500.0,616.69797538190505,14078.037256829723,10822.165772317223,7450.9135522882871,8033.5606670404077,5611.7443496652213,17918.560387356225,17286.732944889027,-4998.7306853257569,4998.7306853257569,-17286.732944889027,32138.159633008087,0.0
310012.02908761695,3887225.878295721,-32500.0,-3553.5481923767716,14900.385112537202,13575.73637535307,6301.235283833902,8552.2914307920419,5570.8798048182889,19799.183951359057,20025.487986186359,-9119.1799996388509,9119.1799996388509,-20025.487986186359,34999.697803846924,0.0
315012.02908761695,3887225.878295721,-32500.0,-9188.1230934321502,15106.300053015711,16743.664788328781,3932.9018850622806,8355.4802254416736,4693.2599073994807,21782.697367283494,22699.788741292941,-14397.977957204996,14397.977957204996,-22699.788741292941,38021.408998857762,0.0
320012.02908761695,3887225.878295721,-32500.0,-16272.910928706675,14404.453372202159,20075.870557137892,-144.91560299706401,6756.2324225545763,2233.9704233232178,24134.146853572071,24950.773628080693,-20719.648035512691,20719.648035512691,-24950.773628080693,41839.02303745813,0.0
325012.02908761695,3887225.878295721,-32500.0,-24351.503475386704,12700.868180057698,23089.195001388485,-6314.9506001928221,2730.6940526169178,-3010.7371100374062,27806.077461774879,26405.861909969331,-27599.505399685702,27599.505399685702,-26405.861909969331,48161.907660308745,0.0
330012.02908761695,3887225.878295721,-32500.0,-32345.692132629807,10503.969961636183,25196.368328204146,-14440.041628907853,-4962.9856198307561,-12774.904696484517,34622.525076210673,27054.042648282615,-34144.820400327153,34144.820400327153,-27054.042648282615,59986.658928622084,0.0
335012.02908761695,3887225.878295721,-32500.0,-38691.779312035775,9383.1862683284016,26230.450381373474,-23179.599593043491,-17242.066448796199,-29066.928615459172,46196.345821628653,27905.886830670795,-39374.002200166557,39374.002200166557,-27905.886830670795,80315.300680513436,0.0
340012.02908761695,3887225.878295721,-32500.0,-42025.111120874819,11981.101626441865,27306.953077507853,-29213.445980868044,-33511.73273401089,-53074.764252026427,62875.715352580577,31516.586270233056,-42969.511628198954,42969.511628198954,-31516.586270233056,109795.94974257603,0.0
345012.02908761695,3887225.878295721,-32500.0,-42219.082676529637,21041.757581238391,31302.303912226889,-26869.86520271979,-49730.060222491091,-82409.883658818289,82514.675890294413,41518.420791261677,-46011.25233023303,46011.25233023303,-41518.420791261677,144530.44838171481,0.0
350012.02908761695,3887225.878295721,-32500.0,-41506.453543553311,37039.562570439237,41989.721724026691,-8968.9693634014457,-55578.97562656839,-105301.34816590098,98623.608178301685,60282.595243345917,-51126.761319821584,51126.761319821584,-60282.595243345917,173182.59722733308,0.0
355012.02908761695,3887225.878295721,-32500.0,-49145.15971628156,51810.380680988368,59425.402553231426,25051.41324539141,-33799.829309585904,-87895.643124122696,100279.32377610405,81890.066789467208,-63596.797429007012,63596.797429007012,-81890.066789467208,175668.09803557568,0.0
360012.02908761695,3887225.878295721,-32500.0,-70809.81992250953,42367.459484286941,70639.150795566573,30976.860640359359,15112.72599322604,-3060.3052224515213,89374.852214702434,81874.966056574151,-80879.990885206076,80879.990885206076,-81874.966056574151,154801.79247676031,0.0
365012.02908761695,3887225.878295721,-32500.0,-61121.471249214301,11373.498636699409,63266.203838660571,-13677.502966849308,45885.293280751546,61566.126120104367,86655.886005416367,51123.130041165736,-67262.981023530621,67262.981023530621,-51123.130041165736,150097.92589326217,0.0
370012.02908761695,3887225.878295721,-32500.0,-25516.783530120902,-10306.73260524324,47056.712823979033,-46548.768170364085,47535.256263263465,68719.800012159001,82611.532643760394,20231.054358438912,-33270.495724638822,33270.495724638822,-20231.054358438912,144589.83065283817,0.0
375012.02908761695,3887225.878295721,-32500.0,3555.3427210791638,-18466.789419412384,32227.357760640174,-55517.675761006816,38871.893123095608,56182.272355964298,72928.765239609435,1921.9026777223003,-6137.3925037858116,6137.3925037858116,-1921.9026777223003,129944.35030528378,0.0
380012.02908761695,3887225.878295721,-32500.0,20407.432841702197,-19415.632472613794,21266.287062892818,-52770.502618734812,29407.897324458994,42548.696277968331,61837.031174610282,-6889.8917503316825,9936.0641064710562,-9936.0641064710562,6889.8917503316825,112033.51519762716,0.0
385012.02908761695,3887225.878295721,-32500.0,28399.366434666717,-17471.941761764352,13760.821212865629,-46146.531208249413,21654.520023636967,31899.331987927759,51575.542810825362,-10360.879203929331,18047.746971998335,-18047.746971998335,10360.879203929331,94809.488744083268,0.0
390012.02908761695,3887225.878295721,-32500.0,31131.441926278047,-14710.405156325083,8785.7441393562076,-39040.722003992742,15834.940426602681,24217.991648629308,42858.696373929219,-11133.970045540038,21378.316376906791,-21378.316376906791,11133.970045540038,79790.965228324741,0.0
395012.02908761695,3887225.878295721,-32500.0,31035.462095597966,-11993.24280682648,5537.7585409785697,-32648.267619578532,11596.464115529598,18715.729686010276,35718.031409973642,-10653.869195300271,22073.535805281368,-22073.535805281368,10653.869195300271,67234.362516862137,0.0
400012.02908761695,3887225.878295721,-32500.0,29538.36827487548,-9620.3720812098163,3434.8753855448667,-27243.474843389933,8533.4567010218798,14693.339485402979,29940.686329120985,-9660.9363451026838,21405.743094187903,-21405.743094187903,9660.9363451026838,56894.597359594474,0.0
405012.02908761695,3887225.878295721,-32500.0,27422.735455730144,-7653.8543302543858,2081.8568250251942,-22772.753376518056,6316.6785154869794,11673.760123135678,25267.289326854359,-8518.7181921004449,20085.985001050885,-20085.985001050885,8518.7181921004449,48397.707705169203,0.0
410012.02908761695,3887225.878295721,-32500.0,25102.077449127009,-6065.2199692268296,1217.2405293398015,-19095.493973431679,4704.115694926817,9354.3490877921395,21465.931219280013,-7397.3835915028703,18499.970508534134,-18499.970508534134,7397.3835915028703,41388.463645885917,0.0
415012.02908761695,3887225.878295721,-32500.0,22789.084860595234,-4798.3055635113242,669.89127247460578,-16068.611381169774,3523.6254238107203,7542.8075502496813,18350.213996560899,-6369.9641652667851,16853.029725622022,-16853.029725622022,6369.9641652667851,35572.35119961336,0.0
420012.02908761695,3887225.878295721,-32500.0,20589.21062383398,-3794.3403597578181,328.2206818677563,-13569.815599450423,2653.7429683302666,6112.1127919701639,15776.258709579579,-5461.5310626345736,15251.905459584614,-15251.905459584614,5461.5310626345736,30716.632941026768,0.0
425012.02908761695,3887225.878295721,-32500.0,18550.674201667305,-3000.9116220501701,119.53046147692064,-11499.969998245913,2008.6114612400245,4973.9378485099205,13634.167977000974,-4674.1455120335822,13749.363565963409,-13749.363565963409,4674.1455120335822,26639.593688819703,0.0
430012.02908761695,3887225.878295721,-32500.0,16690.970800828272,-2374.2631915268767,-3.5556949454610347,-9779.7414665062988,1527.2041427134091,4063.9192421065109,11839.667654149798,-3999.4804916333987,12368.414041835185,-12368.414041835185,3999.4804916333987,23198.824608538216,0.0
435012.02908761695,3887225.878295721,-32500.0,15011.09294088155,-1879.0372224167686,-71.924182856791305,-8345.5745779079352,1165.8555016903019,3333.5149710619971,10327.483351649287,-3425.1897113850673,11115.625463927052,-11115.625463927052,3425.1897113850673,20281.665839423531,0.0
440012.02908761695,3887225.878295721,-32500.0,13503.303594791983,-1487.1389303843973,-105.7095696269229,-7146.2748356304655,893.10507034024113,2745.2995323708728,9046.4405934409278,-2938.0480911989507,9988.5682600129821,-9988.5682600129821,2938.0480911989507,17798.018442566234,0.0
445012.02908761695,3887225.878295721,-32500.0,12155.540218905826,-1176.4559775084754,-118.01986795826977,-6140.3933156224266,686.13896432119338,2270.0560337735046,7955.9733774959659,-2525.45237858359,8980.0999259703094,-8980.0999259703094,2525.45237858359,15675.16465285601,0.0
450012.02908761695,3887225.878295721,-32500.0,10953.90786770884,-929.66191337463727,-117.36536071881015,-5294.2201550219397,528.30570696719087,1884.8175517994362,7023.5929515829084,-2176.0485970118034,8080.8315783627122,-8080.8315783627122,2176.0485970118034,13853.936226394377,0.0
455012.02908761695,3887225.878295721,-32500.0,9884.11326700469,-733.2064339337154,-109.24152100666139,-4580.2449083676138,407.37654763409097,1571.4624862256549,6223.0488126727541,-1879.9252454915477,7280.5645830891881,-7280.5645830891881,1879.9252454915477,12285.870204505078,0.0
250012.02908761695,3892225.878295721,-32500.0,7182.7627235427226,3301.1411241266205,625.23840316753717,3611.8386974579648,1307.9899484248401,1313.843171989985,5509.9253395892183,2060.3943114881477,4661.4086632479302,-4661.4086632479302,-2060.3943114881477,10766.661823907316,0.0
255012.02908761695,3892225.878295721,-32500.0,7790.1085781775928,3775.0194324547506,750.56021662061653,4116.2313200038334,1538.5691774293116,1559.8494918216563,6180.3678892748458,2431.1245133578736,5008.4628595013874,-5008.4628595013874,-2431.1245133578736,12049.777616253696,0.0
260012.02908761695,3892225.878295721,-32500.0,8431.756255445569,4329.9090148444066,911.83164297207975,4698.0768000963362,1816.322230774048,1857.2935864659773,6950.0728144000941,2882.3168430371184,5358.9522011690442,-5358.9522011690442,-2882.3168430371184,13516.30697905896,0.0
265012.02908761695,3892225.878295721,-32500.0,9097.6541104596708,4980.6222240392062,1121.2311305281451,5367.9703119944625,2151.5209657925375,2217.2111275158031,7835.0031162305986,3433.90516298696,5699.6098275315135,-5699.6098275315135,-3433.90516298696,15193.24626605306,0.0
270012.02908761695,3892225.878295721,-32500.0,9770.403065238208,5744.2881478696509,1395.4889481657356,6136.5375888657782,2556.4606294827581,2652.6543534286639,8853.3889053386465,4111.1541761223407,6009.9450228241158,-6009.9450228241158,-4111.1541761223407,17110.21015624121,0.0
275012.02908761695,3892225.878295721,-32500.0,10421.661974130646,6640.2647421503189,1757.683354509785,7013.2651499349286,3045.5762393157547,3178.7130789823095,10025.70213112077,4946.0478659477112,6258.9963530776758,-6258.9963530776758,-4946.0478659477112,19298.593095463435,0.0
280012.02908761695,3892225.878295721,-32500.0,11006.950690083801,7689.57991548275,2239.7191379180363,8004.3862912897612,3635.2727422182634,3812.1967144621676,11374.306718069376,5978.884226507379,6400.7272561174368,-6400.7272561174368,-5978.884226507379,21789.811863693754,0.0
285012.02908761695,3892225.878295721,-32500.0,11458.181157430425,8913.446674769606,2885.6738396314367,9109.1461920624042,4343.124241745646,4570.6060512848617,12922.456025563841,7259.9015238414731,6367.5589430457994,-6367.5589430457994,-7259.9015238414731,24611.972635526086,0.0
290012.02908761695,3892225.878295721,-32500.0,11673.190091256765,10330.024646907945,3756.0842999482666,10313.354295317255,5185.7594820626327,5469.684779711366,14692.078995087821,8850.4090517381173,6061.5728757589259,-6061.5728757589259,-8850.4090517381173,27783.998933369789,0.0
295012.02908761695,3892225.878295721,-32500.0,11501.716339014958,11948.002515160109,4932.8749457241611,11578.416416498276,6174.0668214432417,6518.1072864649295,16699.352823048197,10822.197708925827,5343.2260457152061,-5343.2260457152061,-10822.197708925827,31305.754659515344,0.0
300012.02908761695,3892225.878295721,-32500.0,10728.434476544979,13754.726921247417,6523.5219010832943,12823.137283939528,7302.978683973809,7706.3748812659869,18946.427243760379,13252.585612110606,4018.7338027674359,-4018.7338027674359,-13252.585612110606,35142.328010349338,0.0
305012.02908761695,3892225.878295721,-32500.0,9057.356916247867,15695.99421077363,8660.4280919308148,13894.988987518427,8530.4936783196608,8984.0746804589362,21407.052983967085,16210.105372057493,1830.8981754241568,-1830.8981754241568,-16210.105372057493,39201.360458754578,0.0
310012.02908761695,3892225.878295721,-32500.0,6111.0776531497895,17646.319163183176,11486.108729489843,14529.363376737187,9736.2353789518384,10214.386882301942,24004.565850933814,19723.213008163191,-1533.6161274914975,1533.6161274914975,-19723.213008163191,43307.510544578719,0.0
315012.02908761695,3892225.878295721,-32500.0,1476.6933927630521,19378.958815305978,15106.560298501696,14305.935658647855,10644.956660831807,11087.38507282335,26588.138207622847,23726.231005601177,-6392.7664038850908,6392.7664038850908,-23726.231005601177,47198.549176887565,0.0
320012.02908761695,3892225.878295721,-32500.0,-5146.1436203498843,20578.871258146508,19492.400420165821,12644.652333786673,10704.614135564942,10970.877519361768,28948.419123975669,27999.88442559195,-12931.630281157242,12931.630281157242,-27999.88442559195,50632.144965236839,0.0
325012.02908761695,3892225.878295721,-32500.0,-13651.116995144394,21013.579470118581,24346.390149759427,8956.1972662540338,8955.7939892026352,8706.8228522835252,31051.767140207823,32204.305529629135,-20967.062780311178,20967.062780311178,-32204.305529629135,53852.694984916947,0.0
330012.02908761695,3892225.878295721,-32500.0,-23210.080094058656,21031.970487995524,29116.535766452544,3139.0249439843442,4087.8051577444039,2489.1849506212748,33953.780798715256,36252.641546080631,-29784.005861826288,29784.005861826288,-36252.641546080631,58825.960383179838,0.0
335012.02908761695,3892225.878295721,-32500.0,-32490.204271725142,22307.393651880928,33604.159026726396,-3527.4635979961786,-4855.3288383627905,-9756.4950122825521,40253.7445255567,41259.299541576605,-38577.574623467473,38577.574623467473,-41259.299541576605,70594.81174220251,0.0
340012.02908761695,3892225.878295721,-32500.0,-41074.675883511321,27788.124668104003,39382.747610818384,-7795.1896181719394,-16724.815316436681,-28853.707006015051,51128.357481232306,50401.698555583236,-47917.77705464061,47917.77705464061,-50401.698555583236,94749.534619066588,0.0
345012.02908761695,3892225.878295721,-32500.0,-50735.205478157666,39173.375096046606,50295.175691487151,-5600.2950234328346,-26294.53306741011,-51641.730672621226,67492.718690580237,67218.80142648342,-60460.779186958069,60460.779186958069,-67218.80142648342,130657.96402494176,0.0
350012.02908761695,3892225.878295721,-32500.0,-62386.15607615254,52824.247386495459,68074.150123948726,6426.1347094082648,-23777.556161266479,-66454.676244920804,89829.839657251199,89444.536681964179,-76663.688164866791,76663.688164866791,-89444.536681964179,166608.61390082029,0.0
355012.02908761695,3892225.878295721,-32500.0,-76514.814860274928,55896.278481402653,83385.489327892952,26437.055264901825,94.823917886722029,-38577.372370592828,102669.08845426311,101211.34378782912,-91717.057124892002,91717.057124892002,-101211.34378782912,180030.86046586966,0.0
360012.02908761695,3892225.878295721,-32500.0,-88231.90126538038,36492.825855131683,77890.810109583996,11806.32888570971,28364.235907564194,51839.862029225202,99718.208006750181,83377.529844915131,-95455.537185085923,95455.537185085923,-83377.529844915131,175427.16397202868,0.0
365012.02908761695,3892225.878295721,-32500.0,-59814.603349137964,12491.176494215217,56180.730097663945,-42149.407707328275,37866.504162117009,102834.31505518634,101475.26636066005,48969.794011197751,-64968.269067431334,64968.269067431334,-48969.794011197751,176472.36358054369,0.0
370012.02908761695,3892225.878295721,-32500.0,-14865.293450860721,-2020.2658636898027,35877.073021908662,-70698.891683991867,34421.375654264833,93421.28506372936,95117.38150717481,20685.809835328721,-23829.252549746496,23829.252549746496,-20685.809835328721,165432.13465011623,0.0
375012.02908761695,3892225.878295721,-32500.0,15574.622117863913,-7930.3876967631586,21883.041226534009,-72614.32833417326,26955.717869778004,69950.853528941108,81663.115307502914,4345.1103296908113,3881.9374205291715,-3881.9374205291715,-4345.1103296908113,144362.63366878557,0.0
380012.02908761695,3892225.878295721,-32500.0,30731.484128871944,-9108.753329637977,13023.203872443712,-64049.997595579778,19783.425409973959,50056.829643922705,67560.92108012957,-3499.4590096309321,18232.260837224763,-18232.260837224763,3499.4590096309321,121488.83612845677,0.0
385012.02908761695,3892225.878295721,-32500.0,36362.772653621942,-8296.3056893370886,7560.5065780709137,-53366.188466583691,14135.718640492834,36001.357700027511,55221.75362511861,-6661.1468352607735,24243.06255542627,-24243.06255542627,6661.1468352607735,100841.87366998658,0.0
390012.02908761695,3892225.878295721,-32500.0,36960.746913772273,-6874.3119977349788,4228.506095498009,-43612.178600387662,10004.713993575591,26492.602097864117,45150.008298565124,-7501.833036131251,25761.319344631276,-25761.319344631276,7501.833036131251,83585.008089131254,0.0
395012.02908761695,3892225.878295721,-32500.0,35185.93083088196,-5427.986550222764,2214.1024659069094,-35538.510051972757,7067.4381851369881,20001.208219447286,37146.873726133614,-7279.280688752182,25073.040285348186,-25073.040285348186,7279.280688752182,69600.585129828483,0.0
400012.02908761695,3892225.878295721,-32500.0,32446.488751590623,-4165.435407115353,1012.0923275213927,-29073.793115367418,4998.2050264616801,15432.184148978309,30824.938694357814,-6622.8121140918556,23407.225526242433,-23407.225526242433,6622.8121140918556,58357.762971993543,0.0
405012.02908761695,3892225.878295721,-32500.0,29437.913252963717,-3134.1965146536268,310.36364865901282,-23932.970082814849,3541.8554836714297,12103.012987951279,25807.587135405163,-5834.8668268478432,21388.252466643709,-21388.252466643709,5834.8668268478432,49289.498891022464,0.0
410012.02908761695,3892225.878295721,-32500.0,26484.309714562067,-2320.1198043725431,-84.268444017795659,-19829.190983672004,2514.1304176843473,9604.1900419542617,21788.114900600933,-5054.0857970281641,19320.391784633823,-19320.391784633823,5054.0857970281641,41917.166827856898,0.0
415012.02908761695,3892225.878295721,-32500.0,23725.549089976354,-1689.7367076585479,-291.70889139918438,-16528.815604652347,1785.9162395645956,7686.7492192472109,18533.442616528864,-4338.6985699697516,17345.00231404421,-17345.00231404421,4338.6985699697516,35869.250686011481,0.0
420012.02908761695,3892225.878295721,-32500.0,21212.661018739152,-1207.3196048222301,-386.48097445428846,-13853.557920775231,1267.6173369458709,6192.7651849895065,15870.699272952254,-3708.20729965385,15522.052157396038,-15522.052157396038,3708.20729965385,30865.190216145653,0.0
425012.02908761695,3892225.878295721,-32500.0,18954.728384865182,-841.04780364286717,-414.86406925534095,-11669.41568342678,897.12573956258234,5016.5512742581968,13671.921735087564,-3164.0702573748886,13871.239463441456,-13871.239463441456,3164.0702573748886,26693.434735889234,0.0
430012.02908761695,3892225.878295721,-32500.0,16941.562158501867,-564.62195916784162,-405.49263110161098,-9875.104281389873,631.25898115333609,4083.7135279007134,11841.471660023684,-2699.8970605406421,12392.554261282319,-12392.554261282319,2699.8970605406421,23192.750761577412,0.0
435012.02908761695,3892225.878295721,-32500.0,15154.692812801144,-357.10979213231911,-375.95674884611697,-8393.0797657316671,439.85275725757043,3339.7725733547813,10306.840722910087,-2306.4378495176743,11076.649265887714,-11076.649265887714,2306.4378495176743,20238.438369855365,0.0
440012.02908761695,3892225.878295721,-32500.0,13572.734690946541,-202.18846246861224,-336.92905882876823,-7163.1405338265395,301.72028130130042,2743.7225057886335,9012.2074192404652,-1973.957979102533,9910.1327060247477,-9910.1327060247477,1973.957979102533,17732.62036840307,0.0
445012.02908761695,3892225.878295721,-32500.0,12174.015243417763,-87.27805231186872,-294.75652107385582,-6137.9668272648023,201.89515292615027,2264.1511928229947,7913.9723909285922,-1693.3086021412255,8878.2984355811823,-8878.2984355811823,1693.3086021412255,15597.464197863321,0.0
450012.02908761695,3892225.878295721,-32500.0,10937.859813258172,-2.7477025706498281,-253.09199686354717,-5279.9912800748261,129.74373533964027,1876.7323046564145,6977.6515009574287,-1456.3472602803577,7966.5410846799641,-7966.5410846799641,1456.3472602803577,13770.411742669927,0.0
455012.02908761695,3892225.878295721,-32500.0,9845.1862078064987,58.747834349899534,-213.92191951780052,-4559.1554856385555,77.668318305770796,1562.4982355102318,6175.6777625953191,-1256.0413914293272,7161.0704257811267,-7161.0704257811267,1256.0413914293272,12200.748736008723,0.0
250012.02908761695,3897225.878295721,-32500.0,8295.4622176474004,2796.1119447749215,281.36491132267406,4065.3909371191044,1078.8907941799944,1456.0695379690731,5858.9752316713857,1293.7806396277983,5676.9728540253309,-5676.9728540253309,-1293.7806396277983,11520.43583751241,0.0
255012.02908761695,3897225.878295721,-32500.0,9108.7650420526697,3201.6734790107098,336.35286374819162,4674.552611445215,1267.7913992414199,1741.4941311222867,6598.7875465356419,1539.7988173576819,6210.9152345805014,-6210.9152345805014,-1539.7988173576819,12951.12001671178,0.0
260012.02908761695,3897225.878295721,-32500.0,10002.167421305989,3679.7000251679019,410.70097707380631,5389.8769433999005,1495.7212739643264,2090.9815302835937,7455.202349529528,1843.5088440520231,6789.3027642276447,-6789.3027642276447,-1843.5088440520231,14600.947241673448,0.0
265012.02908761695,3897225.878295721,-32500.0,10977.219305079399,4245.0564555483679,512.37010224297615,6231.0376260488774,1771.5546754518052,2520.151421408611,8449.4194154092784,2220.8884944099814,7408.9784938894609,-7408.9784938894609,-2220.8884944099814,16507.190749936555,0.0
270012.02908761695,3897225.878295721,-32500.0,12031.259532390246,4915.8674129425017,652.8624565999778,7220.9902331441726,2106.2005570887654,3048.5151644765533,9606.7574393396444,2693.0057697458678,8062.13529000371,-8062.13529000371,-2693.0057697458678,18713.150018412722,0.0
275012.02908761695,3897225.878295721,-32500.0,13154.589195636581,5714.1722011916381,848.90790282851231,8386.098381891974,2512.9895280769674,3700.3695942290624,10957.362559996571,3287.8380137430995,8733.5917144691921,-8733.5917144691921,-3287.8380137430995,21268.568974340178,0.0
280012.02908761695,3897225.878295721,-32500.0,14326.061805284482,6666.5859460802958,1124.9922453376621,9755.8678431363624,3008.0517111938143,4505.8273099684975,12536.89625827606,4042.7654638182444,9396.6162970742571,-9396.6162970742571,-4042.7654638182444,24229.604749999373,0.0
285012.02908761695,3897225.878295721,-32500.0,15506.159685873095,7804.7829968571396,1517.1440563439539,11361.825234696249,3610.5842550353445,5501.9134704642966,14386.979573540508,5007.9424374328673,10006.494462402279,-10006.494462402279,-5007.9424374328673,27657.80234972186,0.0
290012.02908761695,3897225.878295721,-32500.0,16626.182722163398,9165.340916070576,2078.5506062463519,13234.672822861037,4342.7571894453968,6733.5378324713511,16554.931570699307,6250.6680248730281,10490.686183803928,-10490.686183803928,-6250.6680248730281,31617.118798402935,0.0
295012.02908761695,3897225.878295721,-32500.0,17571.514364809151,10787.868980676762,2887.672178418356,15397.976457193872,5228.6262016385454,8253.7561040376149,19091.745937956759,7860.5267394798702,10733.971187060664,-10733.971187060664,-7860.5267394798702,36167.089083307692,0.0
300012.02908761695,3897225.878295721,-32500.0,18156.493187986751,12709.098797609111,4059.2854573679497,17855.074931699117,6290.4620457392775,10121.726404176916,22046.105215985051,9954.000302329192,10556.874636285056,-10556.874636285056,-9954.000302329192,41348.583822068045,0.0
305012.02908761695,3897225.878295721,-32500.0,18089.34162852864,14948.290534969818,5757.4701935740732,20563.318586120822,7538.4695312404883,12394.199341346592,25450.016503120056,12674.510092652621,9687.068400326858,-9687.068400326858,-12674.510092652621,47155.783192170929,0.0
310012.02908761695,3897225.878295721,-32500.0,16931.522646230442,17476.159576062579,8204.8609571333018,23386.802185576853,8944.1170869005491,15100.298489545026,29288.012610845213,16178.059798440605,7729.664503493038,-7729.664503493038,-16178.059798440605,53484.532659771525,0.0
315012.02908761695,3897225.878295721,-32500.0,14075.431031103657,20159.423606683533,11670.330094626799,26020.481053040887,10375.259974689267,18176.869142813553,33438.018443861431,20585.621643579056,4160.5613692402367,-4160.5613692402367,-20585.621643579056,60048.414796108322,0.0
320012.02908761695,3897225.878295721,-32500.0,8810.1774996802378,22694.068717031325,16394.350481076995,27904.271526202563,11453.915522143951,21323.625914197382,37577.921875107029,25882.47399695174,-1594.5853815850896,1594.5853815850896,-25882.47399695174,66285.638180939452,0.0
325012.02908761695,3897225.878295721,-32500.0,602.26949880215648,24632.539884256774,22399.886190997709,28243.590515963991,11306.369340333316,23743.030429866212,41111.548267617902,31806.343851131103,-9899.0806740504249,9899.0806740504249,-31806.343851131103,71436.032331845112,0.0
330012.02908761695,3897225.878295721,-32500.0,-10395.936104897772,25819.388135824629,29269.101205638985,26455.154138635455,8350.4289270669269,23888.303203045692,43447.784222600945,38021.247562661702,-20516.792155836782,20516.792155836782,-38021.247562661702,75482.286404676546,0.0
335012.02908761695,3897225.878295721,-32500.0,-23376.259210271252,27546.175950415894,36502.924103143378,23303.443074916428,857.46250884237793,19888.004254989617,46156.124845250408,45252.827603487312,-32893.447788880425,32893.447788880425,-45252.827603487312,82306.845743780243,0.0
340012.02908761695,3897225.878295721,-32500.0,-39159.597583065675,33244.100353322232,45430.36494874629,21278.39703003431,-10466.370288378996,11695.580369253461,57848.339571764925,57147.302399049477,-48524.79961359052,48524.79961359052,-57147.302399049477,102187.71538012323,0.0
345012.02908761695,3897225.878295721,-32500.0,-62024.599649127347,45116.712663775768,60688.319768316738,19932.930150163109,-18894.62874411017,2538.5569307322821,80727.620423078362,78520.019292774145,-72339.339686928783,72339.339686928783,-78520.019292774145,140262.8522909458,0.0
350012.02908761695,3897225.878295721,-32500.0,-86659.848367610015,56977.544340139772,83097.13251711661,13598.990800981881,-13351.826344374906,-7289.370991978536,104030.68978237834,103849.02265095161,-99750.304493041913,99750.304493041913,-103849.02265095161,180200.84838027458,0.0
355012.02908761695,3897225.878295721,-32500.0,-94946.39203144818,53948.223823809705,94890.426668843545,11225.530450747901,7897.2218093114761,1901.7863679238005,110040.15759003597,108415.99650464102,-109029.32053336661,109029.32053336661,-108415.99650464102,190600.64482870713,0.0
360012.02908761695,3897225.878295721,-32500.0,-88937.317226149811,34494.671032733961,80890.845107752204,-6713.4474403539443,19589.193116028273,61036.207508868152,96569.848513670164,83984.387428134272,-97269.999614645756,97269.999614645756,-83984.387428134272,175271.22501441304,0.0
365012.02908761695,3897225.878295721,-32500.0,-55886.56146462902,20461.53089320576,55015.606101798447,-48647.610031339762,15652.131514633369,99328.330078474173,94603.732718655287,55067.768867281244,-63420.420082629855,63420.420082629855,-55067.768867281244,168131.0373029621,0.0
370012.02908761695,3897225.878295721,-32500.0,-12958.731823432707,13090.223788316302,32734.833228649393,-72661.14779060171,11416.045180852629,92080.079973043365,91398.000080048339,31936.02251575881,-24095.121890564285,24095.121890564285,-31936.02251575881,158320.63486769536,0.0
375012.02908761695,3897225.878295721,-32500.0,16789.991761128647,8377.6433767957242,18308.355576072798,-73894.871267586961,8525.56390123862,70084.893250698005,79812.321555009024,16384.747739513565,3155.1200228994257,-3155.1200228994257,-16384.747739513565,139898.88258175264,0.0
380012.02908761695,3897225.878295721,-32500.0,31643.888394776171,5478.819231081925,9905.4817850569016,-64889.521655424884,6159.5819858320028,50308.077967006757,66482.97437212283,7285.5048536582053,17477.761849706614,-17477.761849706614,-7285.5048536582053,118585.25974804132,0.0
385012.02908761695,3897225.878295721,-32500.0,36909.593084019842,3830.9470437414193,5145.3024608195365,-53752.890901556158,4232.6727157732057,36060.829147156393,54438.759738894456,2398.0200005039533,23430.954310418223,-23430.954310418223,-2398.0200005039533,98735.125645288063,0.0
390012.02908761695,3897225.878295721,-32500.0,37143.443889094749,2928.0420289614999,2463.6786534339867,-43653.209664559567,2759.4816929366266,26392.020714017384,44495.173717595106,-63.341314972105465,24870.750403459089,-24870.750403459089,63.341314972105465,81919.4423534136,0.0
395012.02908761695,3897225.878295721,-32500.0,35077.970256282366,2428.179468906998,963.85393688327576,-35363.19084472151,1693.4471290997012,19817.231658352332,36568.930025663212,-1208.1385439676123,24129.983569130683,-24129.983569130683,1208.1385439676123,68220.332155857614,0.0
400012.02908761695,3897225.878295721,-32500.0,32138.385590822007,2132.6579723640643,142.02804067767755,-28783.914113459858,953.67347716063591,15220.60913836803,30309.360545673142,-1663.5877182379754,22452.573466187256,-22452.573466187256,1663.5877182379754,57189.029863280921,0.0
405012.02908761695,3897225.878295721,-32500.0,29008.549872424359,1935.4396949398038,-288.11351714835439,-23596.213335018994,457.35915322367111,11895.360652598549,25349.347679596474,-1769.7700646786998,20458.18923935217,-20458.18923935217,1769.7700646786998,48290.843343419983,0.0
410012.02908761695,3897225.878295721,-32500.0,25993.032587569694,1783.5181175503651,-492.08788033589497,-19486.27529672192,134.61157047072777,9415.4238934867444,21383.456433517091,-1707.2043161724978,18440.263890973856,-18440.263890973856,1707.2043161724978,41060.451765068668,0.0
415012.02908761695,3897225.878295721,-32500.0,23213.361875285664,1652.1534483019302,-566.91504851446962,-16202.166056262118,-68.155097991403224,7522.2615650988282,18178.042152707832,-1570.3345056446078,16529.614106856727,-16529.614106856727,1570.3345056446078,35132.702885602572,0.0
420012.02908761695,3897225.878295721,-32500.0,20706.098588788984,1530.8478171973757,-569.9119183993115,-13554.09844923076,-189.84304574442984,6052.9366749557948,15559.663904508399,-1407.7352411931161,14778.014490003341,-14778.014490003341,1407.7352411931161,30230.817238562657,0.0
425012.02908761695,3897225.878295721,-32500.0,18469.863639660929,1415.845561430908,-534.98148456256422,-11401.238964173397,-257.7583323567552,4899.4231760209695,13400.18369428491,-1243.6763588337199,13199.524824945442,-13199.524824945442,1243.6763588337199,26146.028323316565,0.0
430012.02908761695,3897225.878295721,-32500.0,16487.279737143639,1306.3118636636227,-482.04852654617162,-9638.4526704634191,-290.65321629700281,3986.4390935452548,11604.122715540288,-1089.5936116725888,11790.591156007682,-11790.591156007682,1089.5936116725888,22719.382686120098,0.0
435012.02908761695,3897225.878295721,-32500.0,14735.132066647177,1202.4809359766584,-422.63923292405383,-8186.1781454591091,-301.21061247016951,3259.360412791154,10099.343294808425,-950.20127857981151,10539.855902481122,-10539.855902481122,950.20127857981151,19828.132695673354,0.0
440012.02908761695,3897225.878295721,-32500.0,13189.000615471203,1104.8179599192647,-363.22414936435308,-6983.2766391301011,-297.90834137892824,2677.3821241500063,8830.4864491363896,-826.75374039263716,9432.9496156803871,-9432.9496156803871,826.75374039263716,17376.066215235609,0.0
445012.02908761695,3897225.878295721,-32500.0,11825.362153361015,1013.6863529903352,-307.24178290298397,-5982.117898068328,-286.35511078748129,2209.4315654715965,7754.4471931834978,-718.79080196447785,8454.8622439278697,-8454.8622439278697,718.79080196447785,15286.785257149209,0.0
450012.02908761695,3897225.878295721,-32500.0,10622.47625031349,929.24832332343817,-256.33042859904162,-5145.1649245181598,-270.22173465604413,1831.5517590463196,6837.2205058081718,-625.06974289407981,7591.0915309001139,-7591.0915309001139,625.06974289407981,13498.953777875355,0.0
455012.02908761695,3897225.878295721,-32500.0,9560.702968459922,851.46797511361376,-211.07820907672883,-4442.5608133433579,-251.87927443529574,1525.1237474713053,6051.6787029612842,-544.05701615538555,6828.1774729818171,-6828.1774729818171,544.05701615538555,11962.887669854086,0.0
250012.02908761695,3902225.878295721,-32500.0,9233.2678802110695,2135.6580655430134,4.9622937315096021,4447.4388897753724,790.39217288247903,1576.0419315756026,6166.2394045781602,457.5439272545168,6563.0365704643282,-6563.0365704643282,-457.5439272545168,12166.672336413721,0.0
255012.02908761695,3902225.878295721,-32500.0,10219.19193392719,2434.2335153302483,2.5513515761993446,5144.2698862221469,920.48108498134252,1894.4845261835035,6966.9020718263173,558.14117427573638,7260.3707068114099,-7260.3707068114099,-558.14117427573638,13723.659401453544,0.0
260012.02908761695,3902225.878295721,-32500.0,11324.130394426211,2785.3276936201564,5.399738705434423,5971.3919646211052,1075.6814246213141,2287.5507266635054,7899.7082757763274,686.45677751482981,8038.833039313482,-8038.833039313482,-686.45677751482981,15530.898656871068,0.0
265012.02908761695,3902225.878295721,-32500.0,12559.953779597288,3199.9974852753066,17.547443510056883,6956.2675481728311,1261.2433455124392,2774.7201129544387,8990.7115169435328,851.64006734616987,8904.864980549999,-8904.864980549999,-851.64006734616987,17635.008038617856,0.0
270012.02908761695,3902225.878295721,-32500.0,13937.433768193789,3692.049552018485,45.409252402744485,8132.5659087405957,1483.4961910837883,3380.9758614360244,10271.900203931047,1066.4031688287514,9863.0659058312376,-9863.0659058312376,-1066.4031688287514,20091.999252301433,0.0
275012.02908761695,3902225.878295721,-32500.0,15464.422986878493,4278.8610068856451,99.132582215830723,9541.5696426372233,1750.0399193353342,4138.4863382293397,11782.706366807848,1348.6417532045316,10914.32042034623,-10914.32042034623,-1348.6417532045316,22969.136072563902,0.0
280012.02908761695,3902225.878295721,-32500.0,17142.729757074208,4982.4748961257174,194.75804784472942,11233.836485891448,2069.9648303782692,5088.8934523349999,13571.907491742397,1723.8824082305819,12052.666922593369,-12052.666922593369,-1723.8824082305819,26347.055169064039,0.0
285012.02908761695,3902225.878295721,-32500.0,18962.712807670217,5831.0399612958345,357.68495547227883,13271.010038799768,2454.1216715201458,6286.4885865747256,15699.936453347773,2229.0148989018635,13260.012766366257,-13260.012766366257,-2229.0148989018635,30321.981468345621,0.0
290012.02908761695,3902225.878295721,-32500.0,20893.916836025906,6860.5718267621178,628.25244385190797,15727.441087003303,2915.4640664292669,7802.7416664048396,18241.50592220078,2917.9533344203146,14497.190845136651,-14497.190845136651,-2917.9533344203146,35007.627698333337,0.0
295012.02908761695,3902225.878295721,-32500.0,22868.706707256679,8116.7033543262596,1070.7445475205238,18690.559641897686,3469.4396587947235,9732.8407588827959,21288.012774500941,3870.0737978197112,15688.716175901525,-15688.716175901525,-3870.0737978197112,40535.561344322879,0.0
300012.02908761695,3902225.878295721,-32500.0,24753.63731115526,9655.1781551156291,1787.8089420437843,22257.229155535857,4134.0967010715949,12204.956464072902,24948.119404695208,5202.2093202746892,16696.838503142986,-16696.838503142986,-5202.2093202746892,47051.038504555581,0.0
305012.02908761695,3902225.878295721,-32500.0,26300.052618268357,11537.407818427551,2942.9349516178227,26519.305657429966,4928.264715247944,15392.06946153735,29342.272453076683,7083.8264777365312,17278.142695211609,-17278.142695211609,-7083.8264777365312,54697.161083707833,0.0
310012.02908761695,3902225.878295721,-32500.0,27062.656355054802,13811.882350668491,4793.0769552750953,31523.130795557081,5861.6889804635348,19521.857016471462,34581.097386080633,9750.6793124889009,17014.682683407675,-17014.682683407675,-9750.6793124889009,63571.795573808289,0.0
315012.02908761695,3902225.878295721,-32500.0,26280.233100109657,16461.838971651086,7727.3633414518072,37172.633531161831,6897.2682856157835,24865.277406961981,40706.133494730173,13500.042329966003,15218.666792356991,-15218.666792356991,-13500.042329966003,73627.895491649237,0.0
320012.02908761695,3902225.878295721,-32500.0,22752.458990336996,19291.28730263852,12283.862084769185,43032.10059392234,7829.9463079801608,31643.951607348085,47555.824165469247,18626.419738565146,10847.223973222211,-10847.223973222211,-18626.419738565146,84483.147039742209,0.0
325012.02908761695,3902225.878295721,-32500.0,14874.441000898169,21769.647792299609,19055.933187637613,48030.194390769691,7963.5455419093078,39718.423707948277,54530.706098570314,25247.983097526165,2570.3225561973049,-2570.3225561973049,-25247.983097526165,95202.568355695272,0.0
330012.02908761695,3902225.878295721,-32500.0,1164.1945772298754,23157.361739540804,28363.390490210477,50353.337024058586,5506.1351174071369,47912.60159370258,60424.859106938362,33179.28675720458,-10764.201071970017,10764.201071970017,-33179.28675720458,104689.10718984215,0.0
335012.02908761695,3902225.878295721,-32500.0,-18955.316824063346,23903.020530407699,40049.553486786775,48293.034975328737,-2551.4019273645185,53457.345372482181,64226.927057850829,42881.54502142869,-29684.326013298043,29684.326013298043,-42881.54502142869,114815.99380409427,0.0
340012.02908761695,3902225.878295721,-32500.0,-46449.447635337187,28164.287254008796,55100.227977404866,40932.329744909948,-17021.503940168041,53141.710455034678,70904.171311463753,58561.994362931895,-55898.826755490045,55898.826755490045,-58561.994362931895,135619.0564140327,0.0
345012.02908761695,3902225.878295721,-32500.0,-81311.5525014874,41373.654020101269,76734.35102073304,23601.674594697823,-28371.401394506003,42199.516519618453,97237.444223633283,86510.381369112321,-91285.934322821355,91285.934322821355,-86510.381369112321,173015.42536914765,0.0
350012.02908761695,3902225.878295721,-32500.0,-102396.23622295378,57801.798502810605,98626.824417245487,-2748.6141994978698,-15060.061104209821,9472.0395339437819,117043.06952972499,115356.20260960006,-117022.31874963242,117022.31874963242,-115356.20260960006,202886.43015416362,0.0
355012.02908761695,3902225.878295721,-32500.0,-92101.18089382285,51972.620504751751,98193.602085424485,-6137.4417983873391,16177.612601390105,-11190.483838767124,109750.70896225105,108449.36779507107,-108063.66818758933,108063.66818758933,-108449.36779507107,190691.82379059415,0.0
360012.02908761695,3902225.878295721,-32500.0,-77870.245077425716,31385.460211791462,77098.699984923223,-9495.1289610428375,19353.703798473864,28794.102232996775,86876.497775138007,77937.808939218492,-87495.731306387461,87495.731306387461,-77937.808939218492,152355.85599074003,0.0
365012.02908761695,3902225.878295721,-32500.0,-52118.610034170342,23252.999376907323,54324.881597530097,-35344.514820958197,4528.166646640253,65189.729532739977,70890.98307951256,56384.741747965374,-60680.780909293106,60680.780909293106,-56384.741747965374,134298.46307783161,0.0
370012.02908761695,3902225.878295721,-32500.0,-18637.291950997958,22303.333896605644,35234.477300485574,-55365.3034874031,-4337.294459695443,69027.94849645342,74112.831873126648,41607.649216820922,-30290.925932484883,30290.925932484883,-41607.649216820922,128877.39627021927,0.0
375012.02908761695,3902225.878295721,-32500.0,7788.2203534768141,20596.229891654071,21365.216629990471,-59920.340647613259,-6336.0638891966655,56952.534643588799,68237.787133615842,29409.921915737432,-6194.4597309677483,6194.4597309677483,-29409.921915737432,118736.48874506431,0.0
380012.02908761695,3902225.878295721,-32500.0,23016.546135344164,17633.83903342393,12441.110161890299,-55026.196964583949,-5808.0929535587638,42979.266294028777,58842.216704173232,19992.081415754899,8523.1503531822709,-8523.1503531822709,-19992.081415754899,104111.33577403534,0.0
385012.02908761695,3902225.878295721,-32500.0,29711.619577461581,14523.714065646051,7057.3888999506298,-46966.893255117073,-4854.5418942626638,31793.408770504004,49297.047637788397,13381.470347925062,15919.303449062694,-15919.303449062694,-13381.470347925062,88802.539796671117,0.0
390012.02908761695,3902225.878295721,-32500.0,31384.357127648844,11837.987283329463,3894.275337056461,-38918.909097099902,-4032.0055801345038,23745.353878324593,40927.892436217102,8982.4817205214913,18828.585797111467,-18828.585797111467,-8982.4817205214913,74948.593282693633,0.0
395012.02908761695,3902225.878295721,-32500.0,30502.296699389808,9687.2621887876212,2055.1310205485433,-31972.923488176868,-3392.4992658996298,18072.455317290016,34013.151898166718,6111.9843946106866,19311.95194802132,-19311.95194802132,-6111.9843946106866,63190.254342565102,0.0
400012.02908761695,3902225.878295721,-32500.0,28481.553203255324,8003.4754927366876,994.22918729735954,-26290.204487974479,-2888.1162275168822,14012.78392953488,28423.310391417064,4236.9466038288519,18595.80163180473,-18595.80163180473,-4236.9466038288519,53459.382513208322,0.0
405012.02908761695,3902225.878295721,-32500.0,26057.231392523627,6683.2547373040961,390.65300022874169,-21718.859644771805,-2475.0606977055786,11029.15661320425,23921.53788567954,2996.7170190104116,17346.047122523942,-17346.047122523942,-2996.7170190104116,45457.662383397226,0.0
410012.02908761695,3902225.878295721,-32500.0,23586.778642843157,5636.1726361648534,56.564462007197392,-18046.040880424349,-2126.912818727782,8778.7578983934363,20279.196758109942,2161.3598420914759,15906.875182442629,-15906.875182442629,-2161.3598420914759,38863.375211066093,0.0
415012.02908761695,3902225.878295721,-32500.0,21233.217971725731,4793.8634710156348,-118.67314808117052,-15080.521445719107,-1829.1318464001301,7046.1367038753497,17308.700948766309,1587.2971711521268,14450.185020806101,-14450.185020806101,-1587.2971711521268,33399.138414767971,0.0
420012.02908761695,3902225.878295721,-32500.0,19063.294922949532,4107.0412960244867,-200.78833482898287,-12669.891839541462,-1573.2354320077927,5692.280288836042,14865.000932447385,1184.8984388249546,13058.362525378136,-13058.362525378136,-1184.8984388249546,28842.947984353581,0.0
425012.02908761695,3902225.878295721,-32500.0,17097.201521507293,3540.4156460286736,-229.11262341553217,-10697.138411455746,-1353.4285339982466,4623.4386567043148,12838.004169789921,897.57267767170924,11767.797622082935,-11767.797622082935,-897.57267767170924,25021.127746415103,0.0
430012.02908761695,3902225.878295721,-32500.0,15333.101951975052,3068.4001300605305,-227.26789651487175,-9072.8989574783645,-1165.0611494520554,3773.4137604751991,11144.093970334068,688.96348896931158,10591.294072199054,-10591.294072199054,-688.96348896931158,21797.896786427034,0.0
435012.02908761695,3902225.878295721,-32500.0,13759.146873587777,2672.0527201585419,-209.42512462243289,-7728.4137750623686,-1004.0405023171535,3093.6486856259585,9719.1642014064473,535.23971092407101,9529.61581703099,-9529.61581703099,-535.23971092407101,19066.229401111152,0.0
440012.02908761695,3902225.878295721,-32500.0,12359.400740168303,2337.0311674730424,-184.02317943246763,-6610.1721471102555,-866.66181993161786,2547.5400116162482,8513.4603801057347,420.45662079280009,8577.5218757958119,-8577.5218757958119,-420.45662079280009,16740.888436158424,0.0
445012.02908761695,3902225.878295721,-32500.0,11116.777318131548,2052.2456610967138,-156.0062956656615,-5676.0535191637164,-749.58277509384061,2106.9926792519336,7487.8780006637107,333.73431358493144,7726.9683200137752,-7726.9683200137752,-333.73431358493144,14753.305644137441,0.0
450012.02908761695,3902225.878295721,-32500.0,10014.498724311912,1808.9673440780368,-128.18597469960426,-4892.5768602449043,-649.82999795562569,1750.196711838078,6611.3290884402468,267.51337382508927,6968.838005492571,-6968.838005492571,-267.51337382508927,13047.849697240379,0.0
250012.02908761695,3907225.878295721,-32500.0,9946.2285489749611,1354.0849582510273,-175.56805520847101,4739.3320108356593,455.70069518569193,1668.3507285973681,6417.6776884554638,-397.23628072624524,7267.9973772517496,-7267.9973772517496,397.23628072624524,12676.531994732361,0.0
255012.02908761695,3907225.878295721,-32500.0,11056.493883246785,1515.8006415948946,-213.56051741039832,5500.3190033686915,513.81323984086112,2011.3117539809261,7265.4729186926115,-448.50259204407985,8089.86430866521,-8089.86430866521,448.50259204407985,14329.52356474654,0.0
260012.02908761695,3907225.878295721,-32500.0,12312.540948924223,1701.2045624836635,-254.66377539407358,6408.5765618861251,578.68890406444359,2436.462840533979,8257.095366456082,-504.6256657961676,9019.8465745877547,-9019.8465745877547,504.6256657961676,16255.871308743528,0.0
265012.02908761695,3907225.878295721,-32500.0,13733.139934078414,1914.431868847382,-297.11025342493804,7496.8821714511196,650.22031969555405,2965.9512075979928,9422.1606371136641,-564.49754243141069,10071.316757982546,-10071.316757982546,564.49754243141069,18509.110085540964,0.0
270012.02908761695,3907225.878295721,-32500.0,15338.066741028302,2160.5919559591753,-337.45239598011818,8806.1954137350531,727.63917125811224,3628.5072011095494,10797.553822334132,-625.62456689769715,11257.876149177013,-11257.876149177013,625.62456689769715,21154.723875897384,0.0
275012.02908761695,3907225.878295721,-32500.0,17147.039305306811,2446.1717973921395,-369.43804334910999,10387.956933738955,809.10073841407473,4461.6511616496491,12429.55925106438,-683.09844892273304,12592.191958287098,-12592.191958287098,683.09844892273304,24273.172148636779,0.0
280012.02908761695,3907225.878295721,-32500.0,19177.632211673063,2779.6920318814036,-382.16163820197107,12307.137572818292,891.0853485350782,5514.8341717293879,14376.737314064063,-727.84842955089698,14083.822560359518,-14083.822560359518,727.84842955089698,27963.818427324735,0.0
285012.02908761695,3907225.878295721,-32500.0,21441.282669002645,3172.7978823490166,-357.00442611667262,14646.267885643994,967.58616908228123,6854.0740507533137,16713.812485240796,-743.64873681152494,15735.196306739943,-15735.196306739943,743.64873681152494,32350.021812994652,0.0
290012.02908761695,3907225.878295721,-32500.0,23935.686361430344,3642.0528156059263,-262.52942137728019,17510.660752063362,1029.09134115863,8569.108081992943,19536.887424700817,-701.98971739499757,17534.183858169235,-17534.183858169235,701.98971739499757,37585.6628392005,0.0
295012.02908761695,3907225.878295721,-32500.0,26630.174314434484,4211.7753398774194,-45.868956584740765,21034.684765657974,1061.4640673758015,10784.890446717887,22970.161189506249,-553.29062944920406,19440.224978286285,-19440.224978286285,553.29062944920406,43863.036709291104,0.0
300012.02908761695,3907225.878295721,-32500.0,29437.280654296672,4918.1822790756823,381.97584546262306,25387.630696488239,1044.9714083492238,13680.588152112374,27173.703120266371,-211.92064174172447,21358.100838709834,-21358.100838709834,211.92064174172447,51420.865574004813,0.0
305012.02908761695,3907225.878295721,-32500.0,32157.081850173658,5814.3198023709574,1171.5111357583976,30773.595397682595,953.70128002767262,17520.915688178964,32349.730020032464,468.89930944748448,23087.93095147251,-23087.93095147251,-468.89930944748448,60547.527568078694,0.0
310012.02908761695,3907225.878295721,-32500.0,34368.9337593659,6972.4180380270609,2578.7056223854811,37408.294755288771,754.43911083955891,22704.898370376475,38739.025570425838,1737.5009816458369,24230.233315839821,-24230.233315839821,-1737.5009816458369,71565.067631112252,0.0
315012.02908761695,3907225.878295721,-32500.0,35227.828605969327,8471.762229689828,5039.6156771271708,45425.799054784817,397.65581554394743,29827.622233581136,46584.304688332617,4002.8436440881942,24011.185699505135,-24011.185699505135,-4002.8436440881942,84757.089169233033,0.0
320012.02908761695,3907225.878295721,-32500.0,33117.234683941184,10340.152931146395,9285.9511848755719,54599.765064202096,-232.61365811416891,39700.826091719486,56004.261802675588,7900.5643496315497,20990.8347916194,-20990.8347916194,-7900.5643496315497,100162.32242104145,0.0
325012.02908761695,3907225.878295721,-32500.0,25213.805395004219,12396.83758819198,16469.576457889529,63651.242507358656,-1527.9236294351276,53095.809351660741,66669.064726906785,14305.09125226315,12705.888298688549,-12705.888298688549,-14305.09125226315,117133.10687749276,0.0
330012.02908761695,3907225.878295721,-32500.0,7547.3503664433583,14102.265364885938,28080.817487683293,68973.171319502813,-4804.2435849259828,69495.106859433145,77218.238151751779,24193.375431496093,-4278.4656685728769,4278.4656685728769,-24193.375431496093,133883.92213217291,0.0
335012.02908761695,3907225.878295721,-32500.0,-22808.416615390874,15625.273481041777,45188.607702908892,63860.598042523234,-13176.114736138001,83828.645988585762,85322.822339559672,38884.804105199888,-32706.625513323394,32706.625513323394,-38884.804105199888,149103.52429627889,0.0
340012.02908761695,3907225.878295721,-32500.0,-63235.499751705043,22406.974045167077,67599.663147942338,41431.315966372764,-27678.866969326096,83112.615696665278,93331.447258362634,62724.903582673462,-71622.263808065327,71622.263808065327,-62724.903582673462,168351.92169184904,0.0
345012.02908761695,3907225.878295721,-32500.0,-98065.355261993318,42775.902146185057,92206.977405832804,1782.1398163837669,-31851.537066627119,47553.20066614222,111555.74390483362,98778.120679850152,-109539.92401316458,109539.92401316458,-98778.120679850152,195559.61958962891,0.0
350012.02908761695,3907225.878295721,-32500.0,-97031.825391636594,61388.137658708212,100215.94260517736,-23304.695189417816,-849.95068393801273,-17680.230512467573,118785.33524428979,118842.22692320622,-114487.18427438657,114487.18427438657,-118842.22692320622,206127.23413079866,0.0
355012.02908761695,3907225.878295721,-32500.0,-75893.508626782146,47883.236459917083,80911.015117488685,-10871.636635983043,33917.264878964263,-39656.92079169886,98737.129290549827,93486.283317633264,-89665.706118440314,89665.706118440314,-93486.283317633264,175791.98243569757,0.0
360012.02908761695,3907225.878295721,-32500.0,-63350.571889350656,25713.641582722077,60786.127192286716,-2631.3332817762184,27824.631883146274,-7294.8806726638213,72143.005267275759,62216.369130362022,-70254.553357958808,70254.553357958808,-62216.369130362022,126176.73461235911,0.0
365012.02908761695,3907225.878295721,-32500.0,-48208.68605612978,20267.126290240984,47743.910091115489,-15354.710851233755,5681.2234316086015,26004.369698873277,53822.025305446703,49302.045627487511,-54636.998259697291,54636.998259697291,-49302.045627487511,98132.270652354899,0.0
370012.02908761695,3907225.878295721,-32500.0,-26279.686297885739,22929.588738305298,36294.641841765035,-30715.21289749664,-8196.8325861898684,38512.259924318285,52558.397202047869,43141.933352517561,-35764.731686334373,35764.731686334373,-43141.933352517561,93104.057678234545,0.0
375012.02908761695,3907225.878295721,-32500.0,-5520.2014451696086,24452.955521866996,25777.728799453198,-38248.6442217273,-12592.09043612707,37081.896019957254,52008.265490319158,36328.561446639578,-17543.632010212441,17543.632010212441,-36328.561446639578,90108.497665903444,0.0
380012.02908761695,3907225.878295721,-32500.0,9105.909335635055,23250.559550660437,17399.300843650395,-38584.441931756184,-12323.667098909096,30852.460130387717,47333.753237899218,28908.858050719969,-3856.9921021489608,3856.9921021489608,-28908.858050719969,83096.338683422015,0.0
385012.02908761695,3907225.878295721,-32500.0,17475.508656789956,20558.89822967595,11436.955612576789,-35180.154625165676,-10611.286283756295,24401.517367200144,41254.678098399861,22229.88406077605,4786.4347683879332,-4786.4347683879332,-22229.88406077605,73790.17351856998,0.0
390012.02908761695,3907225.878295721,-32500.0,21353.941234332313,17526.347450545341,7446.4407757273957,-30575.457095173198,-8767.5863026173174,19105.671958980383,35270.766843208781,16876.852651781868,9567.409946142925,-9567.409946142925,-16876.852651781868,64217.688226003062,0.0
395012.02908761695,3907225.878295721,-32500.0,22500.240388433056,14716.467271845455,4848.1789601956361,-26021.496841539909,-7171.2836049206635,15043.916321323681,29968.00565044376,12821.924480329548,11843.723153873765,-11843.723153873765,-12821.924480329548,55415.995858036193,0.0
400012.02908761695,3907225.878295721,-32500.0,22142.405773015234,12309.476953718467,3171.7811978075097,-21978.09553642989,-5870.0849911447276,11960.23267566442,25472.288586466879,9816.3712386040243,12631.684264142044,-12631.684264142044,-9816.3712386040243,47722.662067677564,0.0
405012.02908761695,3907225.878295721,-32500.0,21023.901477098461,10312.704981384979,2090.3004795884458,-18539.371167663237,-4823.7101036434169,9593.8279606635842,21724.579826749359,7595.2599912783107,12581.992587389432,-12581.992587389432,-7595.2599912783107,41142.440562757154,0.0
410012.02908761695,3907225.878295721,-32500.0,19564.939991058447,8674.4076469167994,1390.0775375013457,-15662.355154302943,-3981.1956099408435,7750.1465842318912,18612.375563428235,5943.2911856992796,12083.494224445611,-12083.494224445611,-5943.2911856992796,35558.355274569556,0.0
415012.02908761695,3907225.878295721,-32500.0,17994.516617427351,7332.0058332136405,934.61601104205522,-13266.690894882528,-3299.5498302852925,6294.900040206323,16022.409173799331,4701.6668393880955,11361.728983083683,-11361.728983083683,-4701.6668393880955,30826.582985745288,0.0
420012.02908761695,3907225.878295721,-32500.0,16434.203457417716,6228.815194158934,637.1299540352594,-11271.592843200362,-2745.416095791441,5135.3628599407384,13857.290406780743,3757.4638947938865,10545.933925359903,-10545.933925359903,-3757.4638947938865,26811.853258434443,0.0
425012.02908761695,3907225.878295721,-32500.0,14946.315826235548,5318.0277510716805,442.24450217125144,-9606.7996015867175,-2293.1368416596961,4205.4894714240754,12037.917700842492,3031.1080265001906,9709.5680740423468,-9709.5680740423468,-3031.1080265001906,23397.418814701723,0.0
430012.02908761695,3907225.878295721,-32500.0,13560.469662973441,4562.2531312558112,314.38403599347924,-8214.0403921686466,-1922.7365248919148,3456.4468582316258,10501.208319549398,2466.2787259814286,8893.7015671314366,-8893.7015671314366,-2466.2787259814286,20485.504554523781,0.0
435012.02908761695,3907225.878295721,-32500.0,12288.168775102575,3931.9223871923068,230.51294147393054,-7045.6999193665069,-1618.4533578230346,2851.0092202192441,9196.9767835495786,2022.6971927776626,8120.4223989924994,-8120.4223989924994,-2022.6971927776626,17995.024300041488,0.0
440012.02908761695,3907225.878295721,-32500.0,11130.868468845143,3403.642752544828,175.60212478157888,-6062.9495503689686,-1367.725609508994,2360.2017034747741,8085.1040206745483,1671.1845708070368,7400.5698067448529,-7400.5698067448529,-1671.1845708070368,15858.811730057714,0.0
445012.02908761695,3907225.878295721,-32500.0,10084.524699820193,2958.824261601083,139.78157450502067,-5234.0556102968412,-1160.4807952820736,1961.1890488799347,7133.2815180326998,1390.324434602152,6738.2802808951828,-6738.2802808951828,-1390.324434602152,14021.130340091606,0.0
450012.02908761695,3907225.878295721,-32500.0,9142.2302287712882,2582.6102865746525,116.53339720306727,-4533.0094353531467,-988.61674785328114,1635.8554370897014,6315.2991407354675,1164.202028136348,6133.7276815659643,-6133.7276815659643,-1164.202028136348,12435.627975985082,0.0
250012.02908761695,3912225.878295721,-32500.0,10399.001150261798,496.42191003398824,-240.81898716543066,4927.8081972038053,91.829682617641083,1729.1370456860082,6597.6266995092001,-1217.3334194645913,7752.5015002562805,-7752.5015002562805,1217.3334194645913,13028.469002741345,0.0
255012.02908761695,3912225.878295721,-32500.0,11575.030563478462,504.1135815877372,-286.64080477753066,5724.994651966027,70.311320237531405,2086.6622023893797,7474.5692138592494,-1411.5890219214912,8648.5393334912478,-8648.5393334912478,1411.5890219214912,14740.569471150948,0.0
260012.02908761695,3912225.878295721,-32500.0,12907.870018627695,501.96308809287871,-336.05846892887865,6677.5314105528387,34.841702763246829,2530.3219885412345,8501.60278782778,-1640.6981462558533,9665.9786924871041,-9665.9786924871041,1640.6981462558533,16738.681572589638,0.0
265012.02908761695,3912225.878295721,-32500.0,14418.28461253949,485.63572434894695,-387.0137726166688,7820.2297979786381,-20.897956979843535,3083.4291859670088,9710.0047661296649,-1910.7902043922222,10820.816516809731,-10820.816516809731,1910.7902043922222,19079.746059512512,0.0
270012.02908761695,3912225.878295721,-32500.0,16128.426684886257,449.37650287604191,-435.53929399687405,9196.6710298949365,-105.99166936951244,3776.2510608470625,11138.876677872504,-2228.5475757435715,12129.832901759513,-12129.832901759513,2228.5475757435715,21833.826721791022,0.0
275012.02908761695,3912225.878295721,-32500.0,18060.868112240169,385.68977956034166,-474.51697043009995,10861.729161991429,-233.5032397147736,4648.3563621423791,12837.527627803291,-2600.7334790332006,13609.564669954694,-13609.564669954694,2600.7334790332006,25087.670750149249,0.0
280012.02908761695,3912225.878295721,-32500.0,20236.660065075135,285.06359550471393,-491.66811174800546,12884.980904954857,-422.21668940747878,5751.9831877725346,14868.764622283157,-3033.1582980566227,15274.31856707306,-15274.31856707306,3033.1582980566227,28949.492235961905,0.0
285012.02908761695,3912225.878295721,-32500.0,22671.562878933881,135.90639276881916,-466.28849949330174,15355.353039628733,-699.09656697590776,7157.0859901489557,17313.477667141451,-3528.5756040059341,17132.414342407192,-17132.414342407192,3528.5756040059341,33555.472275973756,0.0
290012.02908761695,3912225.878295721,-32500.0,25368.770303890597,-74.97478440347399,-363.91927049285346,18387.465549400033,-1102.7085632969379,8959.3161050152157,20277.07374889456,-4082.5837912977177,19179.118065184157,-19179.118065184157,4082.5837912977177,39078.683946936631,0.0
295012.02908761695,3912225.878295721,-32500.0,28304.678920017453,-360.69397285860987,-127.56910421700422,22129.998626959761,-1687.8466713058606,11293.330561734561,23898.391302177708,-4675.7832678543455,21383.180684231411,-21383.180684231411,4675.7832678543455,45741.175347825258,0.0
300012.02908761695,3912225.878295721,-32500.0,31400.550618668589,-730.11101771019435,336.90692103390325,26775.511654158519,-2531.5026740632188,14355.951896578748,28361.525023912724,-5258.8526418592373,23660.728646131207,-23660.728646131207,5258.8526418592373,53829.450493065204,0.0
305012.02908761695,3912225.878295721,-32500.0,34465.080548363752,-1178.7404156012249,1185.5507112345649,32567.589055944958,-3739.9762872970218,18447.300916511758,33909.691787758726,-5724.1218420036384,25823.624997766314,-25823.624997766314,5724.1218420036384,63711.116148389898,0.0
310012.02908761695,3912225.878295721,-32500.0,37076.838330635335,-1670.2632932599467,2678.9762479210249,39789.757829774695,-5456.0322631591253,24042.742099469713,40855.875442851138,-5851.1844576689509,27475.89035125692,-27475.89035125692,5851.1844576689509,75842.628006451254,0.0
315012.02908761695,3912225.878295721,-32500.0,38344.488269094174,-2100.97691786418,5257.3563692554171,48686.096233558936,-7863.275862315917,31908.499282234246,49571.774953917848,-5202.9095184056878,27805.47424680517,-27805.47424680517,5202.9095184056878,90735.744711558422,0.0
320012.02908761695,3912225.878295721,-32500.0,36435.320134497953,-2236.5571495469135,9672.43468623236,59164.454007724533,-11183.316011838344,43238.044957136233,60399.870585642617,-2931.3930787359313,25177.539849862489,-25177.539849862489,2931.3930787359313,108793.81295138896,0.0
325012.02908761695,3912225.878295721,-32500.0,27768.487080028393,-1614.7748323201843,17203.531393962065,69870.757504868612,-15671.842851385103,59571.013322785184,73336.597574869214,2550.3171723757105,16432.732533488903,-16432.732533488903,-2550.3171723757105,129805.32337232849,0.0
330012.02908761695,3912225.878295721,-32500.0,6354.6029196617956,597.91091958483753,29877.86429825598,75754.221536148121,-21695.341770363022,81290.302360770525,87150.937123642885,13958.321962843027,-3755.7425149462688,3755.7425149462688,-13958.321962843027,151773.55873049216,0.0
335012.02908761695,3912225.878295721,-32500.0,-32968.46696630439,6254.5090729597969,49918.3818841842,64322.690184422332,-29934.60887951716,100667.63668607066,97978.868518467658,35061.49021193997,-40525.643018578958,40525.643018578958,-35061.49021193997,169911.70319484529,0.0
340012.02908761695,3912225.878295721,-32500.0,-79031.813963408553,21406.484258191704,75756.947396106974,22622.477150240182,-37866.184201793527,88301.085030915288,103463.88515964083,68956.636191881073,-86393.487752060159,86393.487752060159,-68956.636191881073,182401.18804210078,0.0
345012.02908761695,3912225.878295721,-32500.0,-95760.007832623829,50113.546297224981,93333.402155490156,-25743.169460459583,-23419.14126521369,15650.029217757938,112838.06921485568,105862.78977591998,-109932.43071069656,109932.43071069656,-105862.78977591998,195625.1866851603,0.0
350012.02908761695,3912225.878295721,-32500.0,-75702.776978704176,61329.459079784778,81504.515916725781,-27001.201719430082,22089.608681464637,-59817.027185972431,109793.64380165198,105744.62515225972,-92375.092505375476,92375.092505375476,-105744.62515225972,193401.36772136623,0.0
355012.02908761695,3912225.878295721,-32500.0,-58942.556204018045,40987.789169694755,54604.862469815926,-1483.2984000975057,46720.149672395717,-65433.431039318973,86063.590713973274,70952.672827628689,-67000.060723343151,67000.060723343151,-70952.672827628689,158956.23324621236,0.0
360012.02908761695,3912225.878295721,-32500.0,-52408.788173570101,20224.041454027374,40639.75218863802,9687.5846785283429,35403.107417043779,-35022.80558419224,58149.335935461677,44954.793869175403,-54260.489402487969,54260.489402487969,-44954.793869175403,112299.98417049352,0.0
365012.02908761695,3912225.878295721,-32500.0,-45423.036281636232,14586.557141761363,36874.871154643704,4096.9088133269606,12844.190709289982,-5701.0344739830107,45531.061382268083,37728.413434005881,-47501.397741243884,47501.397741243884,-37728.413434005881,79153.787061651674,0.0
370012.02908761695,3912225.878295721,-32500.0,-32881.311336115912,17579.19194597537,33263.218154264949,-7349.3987278008608,-3425.2222907774844,11084.048293910288,38342.729433970359,37205.546770419205,-38102.468498661729,38102.468498661729,-37205.546770419205,67262.954134668966,0.0
375012.02908761695,3912225.878295721,-32500.0,-18083.638203315521,21029.348711324441,27558.876678943765,-16314.602563566819,-10937.463564293468,17207.901682623968,37403.011141283423,35461.669205022037,-26230.516623983745,26230.516623983745,-35461.669205022037,64822.996980900964,0.0
380012.02908761695,3912225.878295721,-32500.0,-5250.5767086459718,22110.259071741781,21258.277296556746,-20704.686143336632,-12865.633165980274,17603.373252835463,35673.788234745683,31455.986380686874,-15036.240114256094,15036.240114256094,-31455.986380686874,62196.516384484872,0.0
385012.02908761695,3912225.878295721,-32500.0,3927.9631320877888,21133.785645081469,15710.408415557937,-21597.647435679373,-12230.926333261346,15786.159319507517,32522.887832705648,26468.075774719735,-6327.3000149350864,6327.3000149350864,-26468.075774719735,57687.058983725714,0.0
390012.02908761695,3912225.878295721,-32500.0,9668.2705482708534,19088.610227604946,11376.438630411521,-20552.866947920145,-10723.797584152742,13461.6093681655,28854.495116467097,21616.630728194366,-315.40356911326307,315.40356911326307,-21616.630728194366,52117.302710147153,0.0
395012.02908761695,3912225.878295721,-32500.0,12844.816007280851,16714.662891843054,8189.9809929992307,-18672.378618887236,-9086.3554142565008,11264.316349983626,25252.601224990827,17415.541691925497,3509.6022550661983,-3509.6022550661983,-17415.541691925497,46353.070057976882,0.0
400012.02908761695,3912225.878295721,-32500.0,14314.574084522685,14405.695794211508,5912.4061098681714,-16561.777678361694,-7588.1631765606826,9363.6816833738958,21974.960637291959,13976.567534031481,5775.2169522380245,-5775.2169522380245,-13976.567534031481,40886.426199828609,0.0
405012.02908761695,3912225.878295721,-32500.0,14717.964054331651,12326.172774889284,4301.3694755993438,-14507.183484496103,-6301.2317977969378,7767.2303367044588,19096.601934892613,11233.099881336264,6997.7754499747971,-6997.7754499747971,-11233.099881336264,35926.459009569291,0.0
410012.02908761695,3912225.878295721,-32500.0,14483.840190123779,10521.224401343728,3162.6976175587897,-12625.506155472011,-5224.686204281923,6439.1627248154027,16609.40372666829,9065.8946737933256,7546.2670521770169,-7546.2670521770169,-9065.8946737933256,31527.779935949267,0.0
415012.02908761695,3912225.878295721,-32500.0,13885.737816016628,8982.6535687196247,2354.3752801172245,-10952.849733355271,-4334.6601049097881,5338.3694402237725,14474.297569994056,7356.5881858401954,7669.0945069181435,-7669.0945069181435,-7356.5881858401954,27672.979719272465,0.0
420012.02908761695,3912225.878295721,-32500.0,13094.526895020139,7682.220535617932,1776.5059835595639,-9489.3005390182188,-3602.674101190451,4427.9005064493467,12644.869518501566,6004.9418800624462,7529.4739667172526,-7529.4739667172526,-6004.9418800624462,24315.565896866952,0.0
425012.02908761695,3912225.878295721,-32500.0,12215.917742825503,6586.8079495882057,1359.8890615999019,-8220.0491275455261,-3001.8939503441743,3676.1735668728825,11076.754144000884,4931.2418929227142,7233.7609764467097,-7233.7609764467097,-4931.2418929227142,21400.297272543623,0.0
430012.02908761695,3912225.878295721,-32500.0,11314.706060066273,5664.6817405447182,1056.7615802340783,-7125.0020548389066,-2508.9348475687298,3056.3994946270295,9730.670396327765,4073.7172397465961,6851.0653456724449,-6851.0653456724449,-4073.7172397465961,18872.172231933961,0.0
435012.02908761695,3912225.878295721,-32500.0,10429.912924974285,4887.7043143968867,834.08024626320218,-6183.0969756113418,-2104.0965555113926,2545.8897651037282,8572.9007133558334,3384.9363792603535,6426.1283069404608,-6426.1283069404608,-3384.9363792603535,16680.130421405662,0.0
440012.02908761695,3912225.878295721,-32500.0,9584.232266673398,4231.8145489393555,668.86483694601634,-5374.2271527093699,-1771.0726705765974,2125.5117283228687,7574.8810779805162,2828.5225167542453,5987.6769334278488,-5987.6769334278488,-2828.5225167542453,14778.391831697945,0.0
445012.02908761695,3912225.878295721,-32500.0,8789.9466667211873,3676.7999865276702,545.02652263154187,-4680.0366158618035,-1496.5001114110091,1779.2320269879938,6712.5204835395607,2376.4988797362489,5553.8361791965672,-5553.8361791965672,-2376.4988797362489,13126.666977384422,0.0
450012.02908761695,3912225.878295721,-32500.0,8052.7174391431017,3205.842793096831,451.22018978580684,-4084.1987131873866,-1269.4995111409628,1493.7135945161408,5965.5348904007433,2007.2571135908249,5135.6904273410901,-5135.6904273410901,-2007.2571135908249,11689.920899530529,0.0
250012.02908761695,3917225.878295721,-32500.0,10574.50459878629,-386.18808770391803,-182.89827699641984,5006.2707827219647,-282.02358919393259,1756.4392663460635,6693.7447342502837,-1953.1120599580759,7993.6762081581401,-7993.6762081581401,1953.1120599580759,13209.647556036278,0.0
255012.02908761695,3917225.878295721,-32500.0,11753.600203514288,-534.8683446914381,-206.89222647414704,5809.8173204360428,-384.48451146059438,2117.9371643780496,7579.4108399328616,-2267.4285491511628,8907.6425666185642,-8907.6425666185642,2267.4285491511628,14940.407487137449,0.0
260012.02908761695,3917225.878295721,-32500.0,13083.62515160781,-726.57173619178138,-226.55695430907605,6767.2751862972937,-521.54247080783375,2565.6653734656875,8615.2973592229828,-2639.3292917053932,9940.8093268371795,-9940.8093268371795,2639.3292917053932,16958.191088933909,0.0
265012.02908761695,3917225.878295721,-32500.0,14582.034931830036,-973.66187078645737,-236.81200114698254,7911.9708460257207,-705.50880831331528,3122.5132454470549,9832.1926578808179,-3079.5608285346334,11106.846655565367,-11106.846655565367,3079.5608285346334,19319.345026807187,0.0
270012.02908761695,3917225.878295721,-32500.0,16266.151502254712,-1292.0429921320826,-229.44637187822514,9285.0880781505421,-953.38972875073284,3817.9499497461798,11268.370554789173,-3600.3121224317083,12418.960106234448,-12418.960106234448,3600.3121224317083,22092.883630547021,0.0
275012.02908761695,3917225.878295721,-32500.0,18151.526410316434,-1702.0615628636492,-191.36459636354402,10937.675443092547,-1288.784992415058,4690.1072921863215,12971.787134348146,-4214.8489108933472,13888.268996014518,-13888.268996014518,4214.8489108933472,25363.798704737575,0.0
280012.02908761695,3917225.878295721,-32500.0,20249.042370396866,-2229.5029999392605,-101.85432735578421,12933.244004402517,-1744.5825177179645,5788.704373109812,15003.080097380578,-4936.5430233084426,15520.952591466581,-15520.952591466581,4936.5430233084426,29237.453435565218,0.0
285012.02908761695,3917225.878295721,-32500.0,22559.798444505268,-2906.534455715162,71.679815281063895,15351.154380076399,-2366.7820194764054,7179.3624944116118,17439.720356753329,-5776.7479664155144,17313.25685567559,-17313.25685567559,5776.7479664155144,33845.514365937044,0.0
290012.02908761695,3917225.878295721,-32500.0,25065.965979413839,-3772.2101686988922,380.38590517136288,18290.979102361511,-3219.901150122435,8950.3723168718607,20381.787105142674,-6740.4901279960222,19242.683029072803,-19242.683029072803,6740.4901279960222,39354.023852544313,0.0
295012.02908761695,3917225.878295721,-32500.0,27714.058909359552,-4871.6849083539973,904.41857280124771,21877.773652512613,-4394.5791222156267,11224.008112225307,23959.922223008423,-7818.0336888999027,21252.150437181605,-21252.150437181605,7818.0336888999027,45974.276696428329,0.0
300012.02908761695,3917225.878295721,-32500.0,30383.475081668697,-6252.1941834810177,1769.3308281499094,26267.059474177993,-6018.1190807914709,14176.425777653874,28345.828418216402,-8968.5384342740308,23220.842455074919,-23220.842455074919,8968.5384342740308,53976.709423515284,0.0
305012.02908761695,3917225.878295721,-32500.0,32825.768183907268,-7951.4675177773324,3171.777258123961,31644.474418799768,-8268.6612091404804,18073.519290457392,33764.549811986246,-10088.27484746182,24909.152915221384,-24909.152915221384,10088.27484746182,63705.832038983128,0.0
310012.02908761695,3917225.878295721,-32500.0,34545.226448858433,-9968.6167734075207,5419.6358259868202,38203.30271079058,-11392.679732519211,23334.523900526972,40504.025063013098,-10947.914289716253,25852.517031138595,-25852.517031138595,10947.914289716253,75587.287141199398,0.0
315012.02908761695,3917225.878295721,-32500.0,34562.849025079282,-12194.08719283452,8993.7461757400524,46048.278698985428,-15720.754763494511,30635.294702187352,48906.117044630519,-11066.306167886101,25154.453390115927,-25154.453390115927,11066.306167886101,90097.870423614528,0.0
320012.02908761695,3917225.878295721,-32500.0,30961.870636946354,-14242.872345486017,14638.582662264118,54872.739462657024,-21657.166901438839,41029.019272782723,59290.877030404969,-9452.5350386940772,21089.622534074901,-21089.622534074901,9452.5350386940772,107614.3840719112,0.0
325012.02908761695,3917225.878295721,-32500.0,20118.901126191566,-15061.768341909381,23473.468978500416,62968.535265127015,-29542.639905361775,55841.815214969356,71670.329539089085,-4088.8203392853043,10419.755602692521,-10419.755602692521,4088.8203392853043,127912.18625319967,0.0
330012.02908761695,3917225.878295721,-32500.0,-3837.9555536957691,-12067.819248915439,37001.564906960775,64499.16326136134,-39001.17706787178,74973.164068889397,84862.409937335397,8935.6077468006461,-12198.898527897627,12198.898527897627,-8935.6077468006461,148798.68642507278,0.0
335012.02908761695,3917225.878295721,-32500.0,-44477.477163154326,137.7610155946243,56205.262562222575,44954.579807484391,-46461.292206313759,88004.682173917201,94646.173949537406,35506.168173065722,-50856.158327188874,50856.158327188874,-35506.168173065722,163977.51231850981,0.0
340012.02908761695,3917225.878295721,-32500.0,-80676.631634498059,27410.454818813341,76184.78817002388,-6089.0938704384862,-38912.400252042622,55302.768937563051,97400.464975221548,75236.154516614319,-89414.655701405907,89414.655701405907,-75236.154516614319,169333.20860913047,0.0
345012.02908761695,3917225.878295721,-32500.0,-73409.498295875062,56087.185389299731,77112.086882750024,-38154.73690795913,1049.8855428990917,-38142.241211265929,103628.59916933771,99261.853793509144,-89026.793495363279,89026.793495363279,-99261.853793509144,180000.05362462494,0.0
350012.02908761695,3917225.878295721,-32500.0,-51957.750702737765,53121.390745510304,52034.642944634346,-14463.508698494868,47077.232585681952,-94024.908509761182,102445.08617678743,79250.733828977638,-63214.876565716128,63214.876565716128,-79250.733828977638,180833.49063812866,0.0
355012.02908761695,3917225.878295721,-32500.0,-45832.653301238082,29564.107048855065,29642.537147471656,13939.918486574037,58517.121855908306,-84193.718703547827,86501.787776272758,45673.495225416285,-46761.965581055869,46761.965581055869,-45673.495225416285,153431.47766689581,0.0
360012.02908761695,3917225.878295721,-32500.0,-45869.600318052988,11809.473150901154,23036.427891299667,23633.239536940298,43741.05399320017,-53900.86823100008,64781.424303497552,27104.878491888965,-41837.51010126825,41837.51010126825,-27104.878491888965,114890.23098544515,0.0
365012.02908761695,3917225.878295721,-32500.0,-43898.558591957408,6392.8947618604006,24919.935552688577,19945.158794951833,22467.108039650651,-26939.581686128207,46655.585697995659,23673.192149257273,-40599.212779900692,40599.212779900692,-23673.192149257273,81773.155745075273,0.0
370012.02908761695,3917225.878295721,-32500.0,-37214.624818915341,8853.6974017143311,26701.651488390798,10662.783497779441,5523.9623881789666,-8788.1965365977885,35323.763806756353,26306.48177622426,-37160.904876051354,37160.904876051354,-26306.48177622426,61190.129657994592,0.0
375012.02908761695,3917225.878295721,-32500.0,-27219.856192514198,13197.774344688745,25503.966477824026,1461.3570091773654,-4490.7682472759388,1314.5318521201589,29869.294632387177,28401.367030042758,-30488.801165254448,30488.801165254448,-28401.367030042758,51759.271604420166,0.0
380012.02908761695,3917225.878295721,-32500.0,-16796.967737245865,16237.636041243493,22125.885402351851,-5154.0648677888094,-9056.7227335359185,5998.4966821555881,27431.563347242103,28026.862985793778,-22430.102300372768,22430.102300372768,-28026.862985793778,47582.617492124533,0.0
385012.02908761695,3917225.878295721,-32500.0,-7924.1286870617096,17346.356491123679,18036.679692497044,-8984.7759314840005,-10381.410281804383,7655.6568751051636,25382.695533410548,25725.694523188336,-14854.927489394562,14854.927489394562,-25725.694523188336,44501.880261344813,0.0
390012.02908761695,3917225.878295721,-32500.0,-1259.291099057079,16991.074895058999,14186.492972546612,-10731.707430954004,-10093.153995322749,7823.0848900989749,23135.711069285793,22528.927500619124,-8675.4415681639384,8675.4415681639384,-22528.927500619124,41206.688352117992,0.0
395012.02908761695,3917225.878295721,-32500.0,3339.793772609311,15801.388366572939,10958.332527620774,-11163.889796491054,-9130.3933382365994,7328.758730509865,20801.267037149653,19188.153593821116,-4045.0878323185098,4045.0878323185098,-19188.153593821116,37637.814318899509,0.0
400012.02908761695,3917225.878295721,-32500.0,6301.7875106059582,14248.628586813958,8406.3586397243744,-10850.821472165821,-7966.6006757307514,6579.7685847539406,18536.374044480781,16095.768779808768,-761.68508528426446,761.68508528426446,-16095.768779808768,34009.011612057038,0.0
405012.02908761695,3917225.878295721,-32500.0,8069.9614818011014,12616.85117463904,6448.0809240674671,-10154.757780146985,-6818.9483567962989,5768.4444568911767,16434.254882032288,13401.827696267457,1470.976284030663,-1470.976284030663,-13401.827696267457,30505.753210350584,0.0
410012.02908761695,3917225.878295721,-32500.0,9007.0112587291314,11055.11552093564,4966.0172279357412,-9290.0729507718934,-5776.343746738029,4983.9289824847565,14533.751763562203,11128.512870592886,2928.1060365532703,-2928.1060365532703,-11128.512870592886,27238.192255944068,0.0
415012.02908761695,3917225.878295721,-32500.0,9382.5073769259361,9630.8733304955895,3849.7463808991033,-8378.6705837960999,-4866.8369613086315,4265.7462840837234,12841.639502810694,9241.8066390281474,3830.1118351786204,-3830.1118351786204,-9241.8066390281474,24257.137170805192,0.0
420012.02908761695,3917225.878295721,-32500.0,9388.077032371204,8366.6817651551883,3008.6609483327138,-7487.5354489718229,-4090.8540469471809,3628.7334701260943,11348.493608891982,7688.7925317886338,4342.393040504171,-4342.393040504171,-7688.7925317886338,21576.020299490257,0.0
425012.02908761695,3917225.878295721,-32500.0,9157.0137756633121,7262.0947457399443,2372.743528506292,-6651.533245740191,-3437.1786621353449,3075.0296414337909,10037.759938627394,6414.8106899669237,4585.2731087325537,-4585.2731087325537,-6414.8106899669237,19186.984262831204,0.0
430012.02908761695,3917225.878295721,-32500.0,8780.9614471205241,6305.8581246243266,1889.4189294993876,-5886.8060500589063,-2890.5645347782679,2600.267784346951,8890.5169038514687,5370.3407867375945,4644.9465303027328,-4644.9465303027328,-5370.3407867375945,17071.054616680525,0.0
435012.02908761695,3917225.878295721,-32500.0,8322.3705678760034,5482.4185686444607,1519.7314900938532,-5198.6236621271564,-2435.296663717621,2196.9868551605132,7887.8331903259514,4513.0728257262408,4582.6268167186308,-4582.6268167186308,-4513.0728257262408,15204.18570617053,0.0
440012.02908761695,3917225.878295721,-32500.0,7823.3769417920221,4775.286093373913,1234.9647216534995,-4586.0650193268712,-2056.7793855537839,1856.5865200195665,7011.8931436772773,3807.9157954359398,4441.5185677302597,-4441.5185677302597,-3807.9157954359398,13560.795028969487,0.0
445012.02908761695,3917225.878295721,-32500.0,7312.0137642848922,4168.6798710408466,1013.9623561793303,-4044.8397625715943,-1742.1445987498284,1570.4331804070682,6246.4744881230699,3226.2192727789361,4251.9275918808344,-4251.9275918808344,-3226.2192727789361,12115.753983323686,0.0
450012.02908761695,3917225.878295721,-32500.0,6806.5468534301108,3648.2630391029015,841.10635903030254,-3569.0053171058312,-1480.3834440462485,1330.4543469808443,5577.1033646352489,2744.7880673322647,4034.9520937726097,-4034.9520937726097,-2744.7880673322647,10845.470821251782,0.0
250012.02908761695,3922225.878295721,-32500.0,10475.276906071233,-1241.943277126903,-6.268038848695852,4975.2747265106882,-646.38211298757221,1750.3246425688653,6700.7345403954869,-2563.7555970577887,7987.2245904898264,-7987.2245904898264,2563.7555970577887,13216.556729047534,0.0
255012.02908761695,3922225.878295721,-32500.0,11597.279846381383,-1534.6334690504245,18.79774279663468,5756.2098736323678,-824.77550854199717,2105.4383328022059,7574.1920610927773,-2964.502689005405,8863.4048896371496,-8863.4048896371496,2964.502689005405,14925.250615861283,0.0
260012.02908761695,3922225.878295721,-32500.0,12848.881175368542,-1898.2964063119184,63.296740051339057,6680.6983388757144,-1055.9756728176583,2543.2264464922609,8591.9726360222139,-3435.0679459570006,9841.8776697653248,-9841.8776697653248,3435.0679459570006,16910.496815136161,0.0
265012.02908761695,3922225.878295721,-32500.0,14239.717432468186,-2351.0201804612202,137.41473448702527,7777.4451002680071,-1357.0562141740197,3084.7124222902034,9782.3395117992804,-3987.0939233855738,10929.572768892449,-10929.572768892449,3987.0939233855738,19224.215722538516,0.0
270012.02908761695,3922225.878295721,-32500.0,15776.311084156685,-2915.4674375947834,256.32089773463861,9080.8461839229167,-1751.0504039712928,3756.4877574053694,11179.895094063048,-4633.0830080334345,12130.238746183641,-12130.238746183641,4633.0830080334345,21929.030850865634,0.0
275012.02908761695,3922225.878295721,-32500.0,17459.254919386414,-3619.8104536735345,442.615518315825,10631.905849755916,-2269.1446982983721,4592.2095341383965,12827.208380849626,-5385.5015248641594,13441.699332346559,-13441.699332346559,5385.5015248641594,25100.625572191766,0.0
280012.02908761695,3922225.878295721,-32500.0,19278.66666522342,-4498.6069769194846,730.00254071394829,12479.141840336626,-2953.6916169311767,5634.5665588918337,14776.926479134321,-6254.9389101098259,14851.413078463303,-14851.413078463303,6254.9389101098259,28830.657264061978,0.0
285012.02908761695,3922225.878295721,-32500.0,21206.801130194031,-5593.3192685388713,1168.8024002384568,14679.315061933503,-3862.3398545483137,6937.9945102817892,17094.528009875423,-7246.5858009622061,16329.261696700978,-16329.261696700978,7246.5858009622061,33230.369353475646,0.0
290012.02908761695,3922225.878295721,-32500.0,23185.851764002404,-6951.7932538335299,1834.206069888651,17297.556682296505,-5073.6476213691658,8572.7017517297336,19861.863220654472,-8353.6951948696442,17815.703819507104,-17815.703819507104,8353.6951948696442,38434.964758830793,0.0
295012.02908761695,3922225.878295721,-32500.0,25107.336644032279,-8625.2691157220615,2838.578994020655,20405.781704661626,-6694.6101564369646,10631.124314000599,23181.489719174009,-9545.6067314817992,19201.962781751161,-19201.962781751161,9545.6067314817992,44608.49722824488,0.0
300012.02908761695,3922225.878295721,-32500.0,26776.38583443252,-10659.826730070767,4349.5855367383856,24076.415877920797,-8870.4353920396679,13238.858004131775,27181.267234263625,-10745.801417895116,20296.205427356934,-20296.205427356934,10745.801417895116,51947.989303075228,0.0
305012.02908761695,3922225.878295721,-32500.0,27848.476186699983,-13075.485602658731,6616.2816842835437,28363.444190111368,-11796.232715525486,16573.171647663068,32017.008964466389,-11791.250616858648,20764.630506759211,-20764.630506759211,11791.250616858648,60682.388761805123,0.0
310012.02908761695,3922225.878295721,-32500.0,27716.343066129615,-15817.640129714062,10004.749038577605,33249.605670697667,-15727.446217913293,20891.391224944357,37866.592323436285,-12355.803539683235,20027.776642874454,-20027.776642874454,12355.803539683235,71053.919649550706,0.0
315012.02908761695,3922225.878295721,-32500.0,25311.784868085415,-18645.13135310731,15040.294447691196,38504.406028207166,-20975.008852509098,26559.539337573529,44897.755298403754,-11803.091678623068,17080.495562061613,-17080.495562061613,11803.091678623068,83249.146026372036,0.0
320012.02908761695,3922225.878295721,-32500.0,18790.405861848565,-20871.064746496097,22432.859787105615,43312.491370218137,-27830.360898576386,34011.792143101593,53164.540825040487,-8903.3702156896452,10204.287870623537,-10204.287870623537,8903.3702156896452,97199.905313692216,0.0
325012.02908761695,3922225.878295721,-32500.0,5211.6975665024529,-20772.97180155573,32979.141481065533,45346.266345097298,-36211.828673541939,43318.464280888533,62325.711237327312,-1325.4966347029813,-3343.5935629784854,3343.5935629784854,1325.4966347029813,112081.75318863495,0.0
330012.02908761695,3922225.878295721,-32500.0,-18747.508036151637,-14440.063953006595,46911.925535600487,38830.203227839818,-44282.586191271206,52079.052987596944,71013.109933607164,14926.269138351276,-26796.758625382656,26796.758625382656,-14926.269138351276,125335.04614898626,0.0
335012.02908761695,3922225.878295721,-32500.0,-50353.752314348254,4769.3831750583968,61307.81350350671,13714.311253543401,-44122.520782420419,48135.106842824011,76468.16312070709,43691.986352183623,-58338.349448105044,58338.349448105044,-43691.986352183623,132830.03800927941,0.0
340012.02908761695,3922225.878295721,-32500.0,-65266.892830616387,36593.449240519134,64787.482368673096,-26361.347918202562,-17424.568363571096,3180.8381706143655,81054.630278424156,75089.158606640936,-75939.112507767277,75939.112507767277,-75089.158606640936,140392.86242768724,0.0
345012.02908761695,3922225.878295721,-32500.0,-46378.461244111102,52737.776957683091,45567.698820871592,-33252.996388852618,35631.386215020597,-71813.86534667325,94658.680977851385,75391.341814693908,-57567.075129409233,57567.075129409233,-75391.341814693908,164041.56662908869,0.0
350012.02908761695,3922225.878295721,-32500.0,-32773.98177326288,37388.512880378243,18986.894267335563,-1427.4774377795081,70074.840013061024,-102098.81164495274,99971.805833573555,45105.587533856728,-35069.076173043883,35069.076173043883,-45105.587533856728,173218.64686299252,0.0
355012.02908761695,3922225.878295721,-32500.0,-34686.352826879091,14651.141545312374,5606.9664409406605,23625.346718076195,70249.975381348529,-87187.333469990204,88727.830929208067,18344.575101205257,-27884.384890998859,27884.384890998859,-18344.575101205257,153684.60987575745,0.0
360012.02908761695,3922225.878295721,-32500.0,-39279.946446033544,494.02453925593039,5848.7127627798145,31742.792668478476,52920.428520511916,-60817.771696825686,70463.228454676122,7152.3606763987646,-29208.315750592075,29208.315750592075,-7152.3606763987646,122056.1718171715,0.0
365012.02908761695,3922225.878295721,-32500.0,-40803.418717260938,-3561.3239566511766,11895.610777252745,29166.667407715715,32320.051436108683,-37521.849732711707,52686.554902293683,7516.5022413589886,-32086.788930317802,32086.788930317802,-7516.5022413589886,91317.635900447262,0.0
370012.02908761695,3922225.878295721,-32500.0,-38040.892207773126,-1066.6887218101037,17468.330396348538,21737.122258490443,15224.262054993191,-20468.531174816191,38771.024432332546,12673.900136930681,-32743.793007139146,32743.793007139146,-12673.900136930681,67311.878284704129,0.0
375012.02908761695,3922225.878295721,-32500.0,-31847.838846119183,3779.5290378363943,20019.941125781053,13377.442794481,3610.1270524631359,-9308.2073466586426,29597.65025079692,17698.450534526943,-30184.631088156391,30184.631088156391,-17698.450534526943,51459.13367411423,0.0
380012.02908761695,3922225.878295721,-32500.0,-24083.779322459337,8190.5202937025761,19729.175054190408,6233.5458630488665,-3123.0692023297215,-2628.4485920343564,24378.233209971244,20528.014826760718,-25357.888493751478,25357.888493751478,-20528.014826760718,42272.574979373458,0.0
385012.02908761695,3922225.878295721,-32500.0,-16434.116948471525,11094.155882089552,17739.691556478581,1005.4110706497611,-6425.5246292032189,1065.0049220642381,21370.805088426936,21092.118796113515,-19718.393991953395,19718.393991953395,-21092.118796113515,37043.114784223282,0.0
390012.02908761695,3922225.878295721,-32500.0,-9861.6495045559768,12479.810003157916,15093.243696579317,-2426.1887525913344,-7638.3927872647691,2928.9137085195662,19221.529892675204,20087.660332501862,-14339.735298209231,14339.735298209231,-20087.660332501862,33572.151329264845,0.0
395012.02908761695,3922225.878295721,-32500.0,-4681.3726318432455,12732.89766027181,12431.161575962953,-4468.7769249982339,-7705.5097419327849,3727.9591323310938,17372.433540687492,18248.778485307252,-9749.7594791543233,9749.7594791543233,-18248.778485307252,30725.645664496362,0.0
400012.02908761695,3922225.878295721,-32500.0,-832.78423125483005,12271.520196597114,10054.978167628442,-5539.3976587162415,-7206.8556748863093,3928.7471733555703,15667.462590651285,16101.196617582424,-6087.9129361640889,6087.9129361640889,-16101.196617582424,28089.407932706206,0.0
405012.02908761695,3922225.878295721,-32500.0,1897.6111757116828,11419.953877101116,8060.3946147128954,-5969.8010520949592,-6471.5270332888404,3806.5772956646924,14080.87314117566,13955.343292345762,-3292.7215298832334,3292.7215298832334,-13955.343292345762,25566.836066893204,0.0
410012.02908761695,3922225.878295721,-32500.0,3751.9502921172257,10395.217227764913,6441.2448870646185,-5997.4875078218993,-5675.7280726457066,3522.1970962022733,12617.35289083741,11968.119622772538,-1226.6827124076162,1226.6827124076162,-11968.119622772538,23165.401492267498,0.0
415012.02908761695,3922225.878295721,-32500.0,4947.5550874817854,9329.9882395338009,5150.5671730879867,-5783.9425997180379,-4908.0933333397561,3168.8940973356712,11282.704954362333,10203.368252791775,259.2837002719607,-259.2837002719607,-10203.368252791775,20912.725710636212,0.0
420012.02908761695,3922225.878295721,-32500.0,5661.1502670897444,8299.3939446985314,4131.2202703012299,-5435.8367445198792,-4208.839118244422,2799.9247061972728,10077.558737607824,8674.0763348578312,1298.8466731552035,-1298.8466731552035,-8674.0763348578312,18830.230634516873,0.0
425012.02908761695,3922225.878295721,-32500.0,6029.4126877978879,7342.0939393925628,3329.237311196955,-5022.1455720889944,-3592.1733187543355,2444.5238499181887,8997.6269648169055,7368.0300550632837,2002.2169146434248,-2002.2169146434248,-7368.0300550632837,16928.040129286321,0.0
430012.02908761695,3922225.878295721,-32500.0,6155.0919651008307,6474.7155630823772,2698.5126927599163,-4586.4667447970869,-3058.8533446314341,2117.4644830959132,8035.2917259431861,6262.2162148475763,2456.3560306911531,-2456.3560306911531,-6262.2162148475763,15206.465871773982,0.0
435012.02908761695,3922225.878295721,-32500.0,6114.074121674762,5701.1198889196176,2201.559874040599,-4155.5059174254066,-2603.141831100078,1824.9041578658623,7181.0908121137836,5330.4495286923739,2728.1586421806896,-2728.1586421806896,-5330.4495286923739,13658.892435102502,0.0
440012.02908761695,3922225.878295721,-32500.0,5961.7020624797633,5018.1496825481227,1808.703907721097,-3744.8397202387537,-2216.6106939391302,1568.0142389845266,6424.825467160872,4547.1710821927463,2868.2670209029257,-2868.2670209029257,-4547.1710821927463,12274.442966825871,0.0
445012.02908761695,3922225.878295721,-32500.0,5737.910298724606,4419.0950672902609,1496.7931418827591,-3362.7971887050617,-1890.1611675373847,1345.2266456101388,5756.2870816959667,3889.1420876740476,2914.6015919467654,-2914.6015919467654,-3889.1420876740476,11039.991148761357,0.0
250012.02908761695,3927225.878295721,-32500.0,10122.343373116466,-2023.7711438221186,273.23057410733117,4842.1583931644345,-983.37247591101755,1712.790574089443,6619.9466557731093,-3021.118173844025,7747.0605349386879,-7747.0605349386879,3021.118173844025,13054.749098343722,0.0
255012.02908761695,3927225.878295721,-32500.0,11135.632032502197,-2435.6407617248137,368.38379496979758,5574.8877848848415,-1227.2127341323567,2052.1963400995614,7461.5697292610776,-3468.722348202733,8536.3169073807476,-8536.3169073807476,3468.722348202733,14703.473879462925,0.0
260012.02908761695,3927225.878295721,-32500.0,12245.432649116055,-2937.458501172177,502.59156199913923,6433.5517809964604,-1537.7430648491354,2467.6363999443001,8436.381821410494,-3986.6940881658406,9399.3410423731602,-9399.3410423731602,3986.6940881658406,16608.197459280633,0.0
265012.02908761695,3927225.878295721,-32500.0,13450.792865092137,-3549.4995356488284,691.97305060351198,7439.9824996493253,-1934.8521252123824,2977.1621664796089,9568.5171934613591,-4583.7405867342895,10333.445501035902,-10333.445501035902,4583.7405867342895,18813.321718072766,0.0
270012.02908761695,3927225.878295721,-32500.0,14744.105253712327,-4296.1322363087529,959.46437063421877,8618.8049258537976,-2444.6943658823852,3602.9629544827653,10886.751538737792,-5267.495332588227,11329.403635213952,-11329.403635213952,5267.495332588227,21370.914197525814,0.0
275012.02908761695,3927225.878295721,-32500.0,16107.109362501433,-5206.0843007415933,1337.7740620024033,9997.0267181375639,-3101.6615052142593,4372.1131223165194,12425.343903409876,-6042.5977822944205,12367.537205247298,-12367.537205247298,6042.5977822944205,24341.688332608963,0.0
280012.02908761695,3927225.878295721,-32500.0,17504.827261210405,-6312.1563159857324,1873.6177891563952,11602.951506235135,-3950.8918071548464,5317.3451805207987,14224.952465177243,-6907.3240556573091,13411.753792373185,-13411.753792373185,6907.3240556573091,27795.83394939205,0.0
285012.02908761695,3927225.878295721,-32500.0,18876.321381120659,-7649.7515016227881,2633.7442665460976,13463.888471087581,-5051.3697609899082,6477.822980755981,16333.546209022796,-7847.799762738674,14400.438138285483,-14400.438138285483,7847.799762738674,31813.432529609563,0.0
290012.02908761695,3927225.878295721,-32500.0,20120.476779689317,-9252.9856901166222,3713.3815596868335,15601.653727598583,-6479.533262642437,7899.9048282440317,18807.076866240634,-8828.1505422241789,15232.45638717922,-15232.45638717922,8828.1505422241789,36483.861477174709,0.0
295012.02908761695,3927225.878295721,-32500.0,21073.855841485125,-11145.998065890968,5247.7746603836249,18023.857286318951,-8332.9642793042003,9637.90725199386,21709.320870078642,-9773.7820403721034,15745.476496864847,-15745.476496864847,9773.7820403721034,41902.893802933293,0.0
300012.02908761695,3927225.878295721,-32500.0,21475.889690928056,-13324.755584917788,7427.1174663920774,20706.707233892852,-10732.807669259888,11754.679146817885,25109.450920300285,-10542.926232731061,15682.222071960387,-15682.222071960387,10542.926232731061,48164.601646631207,0.0
305012.02908761695,3927225.878295721,-32500.0,20914.367419618273,-15719.873619719699,10513.63213534364,23559.930766537764,-13821.064776449733,14320.47587025678,29073.975540549753,-10877.979668213335,14638.278627886531,-14638.278627886531,10877.979668213335,55341.604308301939,0.0
310012.02908761695,3927225.878295721,-32500.0,18743.530333524057,-18121.085538514555,14854.312634223432,26353.080946614384,-17741.869953402234,17402.956203095564,33645.649429701967,-10322.307055823141,11984.631446378709,-11984.631446378709,10322.307055823141,63439.790876276224,0.0
315012.02908761695,3927225.878295721,-32500.0,13978.419344492577,-20024.284226077183,20866.425074364339,28559.504765146954,-22575.405751564587,21020.823394095158,38794.464800224923,-8081.475839517313,6768.5813951794289,-6768.5813951794289,8081.475839517313,72300.280818415369,0.0
320012.02908761695,3927225.878295721,-32500.0,5233.4069056283033,-20330.303467705031,28922.17099983228,29038.679860519973,-28133.202353623554,24968.778066193296,44316.614833923668,-2816.5365429773756,-2344.2325294227257,2344.2325294227257,2816.5365429773756,81408.019216929504,0.0
325012.02908761695,3927225.878295721,-32500.0,-8968.6856937993853,-16824.473260699695,38909.020147159361,25487.058698482524,-33358.688280284703,28238.555315959773,49673.822305441288,7526.2632896452487,-16782.007675739347,16782.007675739347,-7526.2632896452487,89619.314860559258,0.0
330012.02908761695,3927225.878295721,-32500.0,-28399.255524558266,-5744.3931836801821,48890.681223063439,14057.836457661288,-34754.210800077075,27402.57762779211,53992.028899721408,25115.481417914096,-36356.730829150896,36356.730829150896,-25115.481417914096,95341.946238963341,0.0
335012.02908761695,3927225.878295721,-32500.0,-45927.535458078411,16049.044567191275,52306.804445300593,-7876.1083435292912,-23737.039289353037,13870.357025097883,57622.31247464483,48105.006737998039,-54081.062882459875,54081.062882459875,-48105.006737998039,100003.614090357,0.0
340012.02908761695,3927225.878295721,-32500.0,-45311.873514703846,40340.601002474992,38390.54126403937,-29471.367391537049,9934.3199899225601,-21997.168081211435,66668.027740397127,61218.943824462818,-52779.171462816907,52779.171462816907,-61218.943824462818,115680.6875891345,0.0
345012.02908761695,3927225.878295721,-32500.0,-27309.224025225285,43594.895867017047,9507.1523727939839,-25055.776256593566,54489.707021023649,-65252.483967513661,82515.009251107811,45418.085813489168,-29698.759917126292,29698.759917126292,-45418.085813489168,143820.63484796768,0.0
350012.02908761695,3927225.878295721,-32500.0,-18513.107662031161,24115.047292829229,-12260.422467219658,996.66367417635979,77829.658768808498,-82735.170580930018,89557.085742561729,15153.10261454089,-12005.656849960884,12005.656849960884,-15153.10261454089,156477.10268646214,0.0
355012.02908761695,3927225.878295721,-32500.0,-22945.567404538029,3266.2439453913607,-17293.619100409815,22252.818011211646,74463.816723720141,-74224.894956306467,83007.365134555483,-5077.8216351128103,-9885.3224423591419,9885.3224423591419,5077.8216351128103,145270.40594089087,0.0
360012.02908761695,3927225.878295721,-32500.0,-30048.014247926531,-8709.6892736732425,-11410.497373846491,31050.595543192376,58127.573691353049,-56559.459332723854,69381.630931856489,-11117.443723351269,-15227.714036229841,15227.714036229841,11117.443723351269,121658.37514558381,0.0
365012.02908761695,3927225.878295721,-32500.0,-34446.040268543045,-12020.55294045944,-1874.6882182476522,30930.266426484275,39347.902239838615,-39237.170721316776,54527.004286593619,-7972.5814961746937,-21398.063679779541,21398.063679779541,7972.5814961746937,95855.093535746491,0.0
370012.02908761695,3927225.878295721,-32500.0,-34953.678682384474,-9687.0712531182362,6679.5962069812167,26104.848450400143,23088.447250365956,-25266.791922936445,41484.648218540315,-1007.8028869238806,-25339.884915886825,25339.884915886825,1007.8028869238806,73136.892943086146,0.0
375012.02908761695,3927225.878295721,-32500.0,-32075.46839478107,-4854.9503883277011,12271.007492443938,19572.274252239717,11014.425177769204,-15060.575293455144,31463.651009498895,6024.6893699887878,-26179.377204692555,26179.377204692555,-6024.6893699887878,55546.845439216209,0.0
380012.02908761695,3927225.878295721,-32500.0,-27053.670039050459,179.30667554703837,14806.797461688915,13179.754145790599,3023.2540043956737,-8102.6268733842116,24570.037426470255,11251.297404261442,-24397.912626480414,24397.912626480414,-11251.297404261442,43206.199264843315,0.0
385012.02908761695,3927225.878295721,-32500.0,-21210.074227030684,4228.3562263082476,15084.840912826721,7823.4137390855904,-1747.3973470403598,-3610.691043263655,20160.988832532526,14257.767306434493,-21037.3525335011,21037.3525335011,-14257.767306434493,35138.378213622811,0.0
390012.02908761695,3927225.878295721,-32500.0,-15523.926072751752,6961.4155639341971,14037.212260899914,3747.439957741376,-4282.0854094425986,-847.1892774288001,17295.640123115372,15399.213757855423,-17083.116769592558,17083.116769592558,-15399.213757855423,29965.464469629173,0.0
395012.02908761695,3927225.878295721,-32500.0,-10535.452426564238,8506.1776187191826,12385.775390682644,852.37639051390761,-5395.4809106318226,765.10261902071329,15249.721695913468,15254.696743884329,-13205.560396155577,13205.560396155577,-15254.696743884329,26469.625699566088,0.0
400012.02908761695,3927225.878295721,-32500.0,-6442.3581822982687,9149.119023120873,10583.14361548174,-1087.6036731380113,-5667.0349840402878,1636.2890321083155,13627.546561890293,14348.43798613201,-9758.5285753984917,9758.5285753984917,-14348.43798613201,23845.395112824535,0.0
405012.02908761695,3927225.878295721,-32500.0,-3237.7438790791957,9178.5594471396398,8870.3934948563783,-2309.9205003219881,-5474.6133758843898,2043.235792759634,12244.168323207694,13063.641006182526,-6873.1161135638868,6873.1161135638868,-13063.641006182526,21661.305205332723,0.0
410012.02908761695,3927225.878295721,-32500.0,-817.77256652588824,8826.6110168096111,7353.2177720014597,-3017.8091340493365,-5051.1115542685593,2167.8666158563001,11018.727542605087,11647.909747363556,-4552.6742369742096,4552.6742369742096,-11647.909747363556,19719.872752174506,0.0
415012.02908761695,3927225.878295721,-32500.0,952.8648335013952,8260.6215129898046,6061.3222440016816,-3369.7171465241604,-4533.9033031472563,2127.7299666161134,9916.3277618772081,10246.811871661301,-2739.7020577221833,2739.7020577221833,-10246.811871661301,17942.193803225982,0.0
420012.02908761695,3927225.878295721,-32500.0,2207.4633454421446,7593.1905313330781,4986.4668167771933,-3483.0263654596274,-4000.441494936033,1997.6332379039554,8920.7536391435096,8937.6943848081792,-1355.206297459521,1355.206297459521,-8937.6943848081792,16301.062828877717,0.0
425012.02908761695,3927225.878295721,-32500.0,3063.0961804040794,6896.1374159514662,4104.2739082802091,-3441.9682669868907,-3491.7867660610045,1824.2983149119323,8022.6541347745579,7755.5622182942361,-319.0655762338647,319.0655762338647,-7755.5622182942361,14788.433820059245,0.0
430012.02908761695,3927225.878295721,-32500.0,3616.5551451190036,6212.8880131805909,3385.7039025279228,-3305.60114862829,-3027.4746123542805,1636.1423742661948,7214.7786984203558,6710.6385083536206,440.85043944914696,-440.85043944914696,-6710.6385083536206,13401.338855872733,0.0
435012.02908761695,3927225.878295721,-32500.0,3945.022652038685,5567.9306221167226,2802.5714700707699,-3114.5114855827032,-2614.6751311083717,1449.7739640810221,6490.2745216893145,5799.5238900129852,985.57948743428551,-985.57948743428551,-5799.5238900129852,12136.574419842609,0.0
440012.02908761695,3927225.878295721,-32500.0,4108.6185218384744,4973.5408988271811,2329.8500719888884,-2896.034702563592,-2253.7418284008559,1274.2963389689353,5842.2506918051076,5011.9929344786433,1364.9184051384061,-1364.9184051384061,-5011.9929344786433,10989.232523630495,0.0
445012.02908761695,3927225.878295721,-32500.0,4153.4108283371443,4434.3662519493782,1946.3407195165053,-2668.1554155751955,-1941.515029358872,1114.1360017888539,5263.8046352443853,4334.9789313371848,1618.5547686664431,-1618.5547686664431,-4334.9789313371848,9952.731849915659,0.0
250012.02908761695,3932225.878295721,-32500.0,9551.8935383639255,-2693.7656943557836,630.92024027523996,4619.9191964320371,-1278.2955990374971,1647.462988165621,6457.9194438727254,-3311.6310440765033,7302.6555966257911,-7302.6555966257911,3311.6310440765033,12737.769543436871,0.0
255012.02908761695,3932225.878295721,-32500.0,10417.767136394881,-3191.3594249404518,808.44706429662347,5284.1307599921238,-1573.1003618294285,1963.4907896196728,7250.8789530945141,-3765.7892649775831,7967.1002919895664,-7967.1002919895664,3765.7892649775831,14293.996860579557,0.0
260012.02908761695,3932225.878295721,-32500.0,11340.373419922767,-3786.9430523529445,1045.7474417319897,6051.7545449657973,-1943.0221520037328,2346.6498270100938,8161.9534245226696,-4280.09370359071,8669.7961350726546,-8669.7961350726546,4280.09370359071,16077.916067347032,0.0
265012.02908761695,3932225.878295721,-32500.0,12307.576069602314,-4499.1224531110956,1364.2400186128527,6936.6563402620686,-2408.5294887655878,2811.3587201335367,9210.1903065971492,-4857.3167479098656,9397.6269220888789,-9397.6269220888789,4857.3167479098656,18124.442203623355,0.0
270012.02908761695,3932225.878295721,-32500.0,13297.497970021403,-5348.6862654101888,1793.3008317330732,7952.4886958892212,-2995.6798044311317,3374.5887138712296,10417.379897108085,-5496.4558348746923,10127.936237059628,-10127.936237059628,5496.4558348746923,20472.650824415115,0.0
275012.02908761695,3932225.878295721,-32500.0,14273.847459644237,-6357.6750840062259,2373.2134565278825,9111.0894049909057,-3737.4119808536911,4055.8678226555207,11808.109227732544,-6189.6928570130385,10823.917518699744,-10823.917518699744,6189.6928570130385,23165.328714037838,0.0
280012.02908761695,3932225.878295721,-32500.0,15179.252473893313,-7547.2362379619126,3159.0935172631043,10419.725432121859,-4674.8720693447422,4876.9276968078411,13409.535736849219,-6917.5120511113473,11428.003590549934,-11428.003590549934,6917.5120511113473,26247.746208832228,0.0
285012.02908761695,3932225.878295721,-32500.0,15925.787603938317,-8933.2921280880037,4225.9542717083568,11876.472348023719,-5858.4757300546598,5860.7306843540073,15250.634760154859,-7640.9429456090393,11852.440024432279,-11852.440024432279,7640.9429456090393,29765.082009532543,0.0
290012.02908761695,3932225.878295721,-32500.0,16381.626809427929,-10518.301801378631,5674.8505804749666,13462.538066149524,-7348.0164693131983,7029.460739267136,17360.476507537427,-8289.3439525779941,11965.996902597319,-11965.996902597319,8289.3439525779941,33757.52313268328,0.0
295012.02908761695,3932225.878295721,-32500.0,16352.489985406201,-12276.097835503337,7639.4220681489896,15129.421804497311,-9210.339144642352,8400.7433582156809,19764.699683179646,-8741.3256597932887,11575.573996755553,-11575.573996755553,8741.3256597932887,38251.283725176843,0.0
300012.02908761695,3932225.878295721,-32500.0,15556.805010993552,-14124.465784876378,10290.474144027447,16777.094580809739,-11511.362040517794,9980.5789419496414,22478.670548311798,-8795.3660131793149,10401.826900911281,-10401.826900911281,8795.3660131793149,43242.467129353507,0.0
305012.02908761695,3932225.878295721,-32500.0,13595.645992225527,-15876.170198262636,13832.074432005174,18216.236330244024,-14295.340654678721,11749.266580797503,25494.672309012643,-8125.7939393612387,8050.2630558968822,-8050.2630558968822,8125.7939393612387,48668.511214665406,0.0
310012.02908761695,3932225.878295721,-32500.0,9927.3005541822422,-17153.191487638942,18472.353725529894,19102.754235476656,-17535.308849044428,13630.462766915653,28759.249099208726,-6221.4507870437919,3988.2221972396601,-3988.2221972396601,6221.4507870437919,54359.823290156695,0.0
315012.02908761695,3932225.878295721,-32500.0,3885.0930899550058,-17244.151720196052,24327.375674960444,18829.648353727367,-21018.140180030041,15417.643939030782,32138.200193987526,-2317.560681834163,-2433.0070943230694,2433.0070943230694,2317.560681834163,59968.082426351364,0.0
320012.02908761695,3932225.878295721,-32500.0,-5141.6185111783689,-14902.954419901787,31160.857061880521,16380.693915678048,-24085.501132949594,16597.513880075781,35383.560368474013,4611.8520001932884,-11789.72138978542,11789.72138978542,-4611.8520001932884,64906.740270347669,0.0
325012.02908761695,3932225.878295721,-32500.0,-17062.562885593605,-8221.5077878633601,37768.902086978131,10276.399769997121,-25096.843647111757,15963.368643311098,38196.780654226168,15541.609176786058,-23921.39417210759,23921.39417210759,-15541.609176786058,68523.637726957924,0.0
330012.02908761695,3932225.878295721,-32500.0,-29524.336109265529,4760.5003149253489,40851.009822904962,-798.51831799137119,-20597.000391141195,11002.552035236507,40739.201635491758,30041.89711883101,-36288.125453849949,36288.125453849949,-30041.89711883101,71313.627481861186,0.0
335012.02908761695,3932225.878295721,-32500.0,-36114.515339151825,23008.776917263582,34339.767600824445,-15305.183200759744,-5331.0766867765815,-2043.2768283590306,45083.967498053236,43035.548333053615,-41895.35576009236,41895.35576009236,-43035.548333053615,78105.115582292638,0.0
340012.02908761695,3932225.878295721,-32500.0,-29968.931586936396,37273.467409983205,13727.383659850586,-24751.408058018005,22816.567219686709,-24299.796309561894,54856.588548367174,43132.489542030773,-32544.556030880991,32544.556030880991,-43132.489542030773,96236.192145196488,0.0
345012.02908761695,3932225.878295721,-32500.0,-16307.643493412963,34725.480399131207,-13328.012923396911,-18780.769411432822,53454.572489726801,-47260.530143117285,67424.260497258438,24138.778705996625,-12530.448839310786,12530.448839310786,-24138.778705996625,119612.25014044704,0.0
350012.02908761695,3932225.878295721,-32500.0,-9619.7560617589006,17322.028170034813,-30664.884166890515,-961.69520792041249,69991.623064864965,-58475.611106612021,74068.173150957184,-1416.1843117451767,1512.4069935675893,-1512.4069935675893,1416.1843117451767,131912.95884624869,0.0
355012.02908761695,3932225.878295721,-32500.0,-13030.77725057,-1109.6222028600039,-32769.022866651612,15786.010602995284,68700.462772644038,-56219.665181076605,71601.671105959424,-18091.749245483814,2950.7095087874695,-2950.7095087874695,18091.749245483814,127722.17675453257,0.0
360012.02908761695,3932225.878295721,-32500.0,-20212.938824762259,-12552.773036655701,-25073.581377430102,25123.662381272643,56856.065340376583,-46776.442694657097,62972.225975761903,-22784.739435814416,-3054.5564046763084,3054.5564046763084,22784.739435814416,112535.67412893634,0.0
365012.02908761695,3932225.878295721,-32500.0,-26197.396552791066,-16511.337187218283,-14072.160364591706,27576.890382584814,41802.279736375065,-35609.824109023022,52027.416768097261,-19317.622102288442,-10654.637865969929,10654.637865969929,19317.622102288442,93227.475791573146,0.0
370012.02908761695,3932225.878295721,-32500.0,-29160.878725620692,-15215.216433670383,-3828.9979211680766,25569.407809342556,27725.436054044385,-25415.018645356082,41342.893088338664,-12109.276518395271,-16694.461465720371,16694.461465720371,12109.276518395271,74315.796876982451,0.0
375012.02908761695,3932225.878295721,-32500.0,-29040.919340863315,-11166.586995522055,3826.4561631052425,21310.478442015843,16391.281919658657,-17149.453674796801,32243.363186359638,-4342.9759877727302,-20052.722793477042,20052.722793477042,4342.9759877727302,58080.460565018679,0.0
380012.02908761695,3932225.878295721,-32500.0,-26572.901204237009,-6325.8497021171315,8566.8464112186921,16373.741612077603,8145.1378311877479,-10925.103470851849,25208.774268809277,2200.1436975771667,-20813.192371920151,20813.192371920151,-2200.1436975771667,45311.951521201474,0.0
385012.02908761695,3932225.878295721,-32500.0,-22730.437599304612,-1894.4064071130174,10865.476484658086,11703.937261819687,2616.741592705856,-6482.6589330976849,20158.02975933694,6866.206962488779,-19643.857484061416,19643.857484061416,-6866.206962488779,35903.642677013704,0.0
390012.02908761695,3932225.878295721,-32500.0,-18378.167312787351,1592.5734893542187,11452.58140604965,7748.768295903179,-816.08598031554413,-3444.9148039131937,16659.040359161267,9704.0159399735367,-17337.032767096498,17337.032767096498,-9704.0159399735367,29276.997570150386,0.0
395012.02908761695,3932225.878295721,-32500.0,-14121.501891122956,4039.4042217993829,11002.353518670399,4630.9117164487052,-2767.6081103903934,-1445.9214940729798,14201.488646342124,11078.194297248156,-14552.04339040193,14552.04339040193,-11078.194297248156,24691.787162122953,0.0
400012.02908761695,3932225.878295721,-32500.0,-10303.402460063391,5572.6514477548762,10017.02350794853,2298.4609887969018,-3736.9792149791874,-182.54511334817062,12390.813161642061,11417.724180126896,-11735.514778421724,11735.514778421724,-11417.724180126896,21461.558067679827,0.0
405012.02908761695,3932225.878295721,-32500.0,-7068.4769156848406,6394.4032434799756,8823.554132160225,627.20090448400163,-4089.3362512898698,576.25550857129406,10976.080023118189,11095.631586675572,-9141.8343889382013,9141.8343889382013,-11095.631586675572,19066.242262128573,0.0
410012.02908761695,3932225.878295721,-32500.0,-4436.5370036512022,6704.7893509747564,7612.9774104496064,-521.94860923025851,-4074.7978780911649,998.14713434669125,9811.161063767393,10392.959572094367,-6887.0719682211402,6887.0719682211402,-10392.959572094367,17167.792795094327,0.0
415012.02908761695,3932225.878295721,-32500.0,-2360.617430236558,6670.7216636131134,6484.7103540921144,-1276.02376130022,-3856.9914110806167,1200.9912965299166,8814.4490084770241,9503.3674200617988,-5001.1842695739815,5001.1842695739815,-9503.3674200617988,15570.187038082429,0.0
420012.02908761695,3932225.878295721,-32500.0,-765.10133088066766,6419.2553051418736,5481.922795802886,-1740.4622022860271,-3539.0487521904402,1265.7221349146598,7940.8467250551048,8551.561555610122,-3466.8472608732231,3466.8472608732231,-8551.561555610122,14168.475269499204,0.0
425012.02908761695,3932225.878295721,-32500.0,432.18169245452668,6041.6061201180837,4615.8377244560688,-1998.0948020051865,-3183.6472936833657,1246.8205355263126,7164.8195719242276,7612.8491403527023,-2244.625076243326,2244.625076243326,-7612.8491403527023,12909.122272490176,0.0
430012.02908761695,3932225.878295721,-32500.0,1308.601192596698,5600.4566037752966,3881.0255405452035,-2111.721160531647,-2827.2521615805335,1180.2543717378512,6470.9273722002163,6729.2547295116965,-1287.7787525152485,1287.7787525152485,-6729.2547295116965,11765.09702750512,0.0
435012.02908761695,3932225.878295721,-32500.0,1931.8276663873864,5137.2336049632768,3264.4345675654363,-2127.7600886049972,-2489.7705944542845,1089.2669418801295,5848.8056414230541,5921.3776534002791,-550.21429439610802,550.21429439610802,-5921.3776534002791,10721.987741206869,0.0
440012.02908761695,3932225.878295721,-32500.0,2358.4976512516882,4678.2050548563984,2750.4414801139801,-2079.8500840558531,-2180.9158168431832,988.49677307995933,5290.6435475756352,5196.6060508651954,9.736373203349558,-9.736373203349558,-5196.6060508651954,9770.9162253942868,0.0
445012.02908761695,3932225.878295721,-32500.0,2634.6745276380784,4239.1535700242202,2323.4881146767952,-1991.9528809980725,-1904.3034629668482,886.85173197750009,4789.9575524620932,4554.5557637683523,427.91832149743232,-427.91832149743232,-4554.5557637683523,8905.1578116655801,0.0
250012.02908761695,3937225.878295721,-32500.0,8810.456162157865,-3226.04348893209,1036.8414180828629,4325.5583551853506,-1520.6742406026565,1559.1502265991089,6224.9847000827667,-3436.1268073545643,6694.7002961629923,-6694.7002961629923,3436.1268073545643,12285.456877698685,0.0
255012.02908761695,3937225.878295721,-32500.0,9505.3577331825363,-3771.9046130126776,1299.3503651111118,4907.3042900992241,-1849.7795123808796,1846.1609591256492,6956.2825316611916,-3860.5137088691536,7210.3462493843381,-7210.3462493843381,3860.5137088691536,13723.781517362335,0.0
260012.02908761695,3937225.878295721,-32500.0,10215.883743221761,-4412.8558659289565,1640.0668832326044,5567.64318998004,-2256.6973221463509,2190.0681907756198,7788.2771162626395,-4326.6338113905085,7726.8612074631556,-7726.8612074631556,4326.6338113905085,15356.572434389822,0.0
265012.02908761695,3937225.878295721,-32500.0,10920.144151903169,-5162.5520157307301,2083.839130401951,6312.5367234501691,-2760.3914545838952,2601.4562521964754,8734.7003615791291,-4829.7664784047038,8221.899840441889,-8221.899840441889,4829.7664784047038,17208.540428896664,0.0
270012.02908761695,3937225.878295721,-32500.0,11584.661540764302,-6034.015385330832,2663.4825810566394,7145.1671478122053,-3383.9721635157771,3091.9637847271465,9810.2833977864229,-5358.7388662540488,8661.7438185058309,-8661.7438185058309,5358.7388662540488,19305.194668956719,0.0
275012.02908761695,3937225.878295721,-32500.0,12159.820459851455,-7037.3737702802955,3422.0869753828979,8063.5551296626954,-4155.0524416234539,3673.6891631940048,11030.204756953119,-5892.1117134659253,8996.7858156621605,-8996.7858156621605,5892.1117134659253,21671.245750035916,0.0
280012.02908761695,3937225.878295721,-32500.0,12573.86302542583,-8175.8452477490455,4415.6565859370276,9056.8645150038792,-5105.5900930119424,4357.9946398396432,12409.057390508648,-6392.484889675361,9155.5422765494932,-9155.5422765494932,6392.484889675361,24327.863591727997,0.0
285012.02908761695,3937225.878295721,-32500.0,12725.187714016007,-9438.8624424351383,5715.740591352539,10099.760921140252,-6270.6132868844406,5153.3451620765309,13959.065305932523,-6798.1288647137108,9036.9538850132813,-9036.9538850132813,6798.1288647137108,27288.172826391128,0.0
290012.02908761695,3937225.878295721,-32500.0,12472.960871247184,-10790.583306161516,7411.109652296379,11143.8866042643,-7684.6878448977996,6061.6123119208078,15687.143935627264,-7010.9558260292888,8501.0188674063447,-8501.0188674063447,7010.9558260292888,30550.0639544359,0.0
295012.02908761695,3937225.878295721,-32500.0,11626.770740458616,-12151.096260735976,9606.2900449960198,12105.080736896623,-9374.010866784025,7071.9164370542703,17590.227588634814,-6879.8116268994791,7358.6056436718782,-7358.6056436718782,6879.8116268994791,34085.020814434487,0.0
300012.02908761695,3937225.878295721,-32500.0,9938.0482346717545,-13366.408324891672,12412.141246360648,12844.427099981358,-11340.161021684504,8150.3482331907207,19648.159319138784,-6178.7152938764148,5363.453150581995,-5363.453150581995,6178.7152938764148,37821.399190181291,0.0
305012.02908761695,3937225.878295721,-32500.0,7100.9684549261356,-14162.338023861805,15918.303897505266,13140.930299438636,-13528.06688271528,9222.2913268547054,21813.749209008241,-4582.417042896217,2214.7032908356423,-2214.7032908356423,4582.417042896217,41621.321251856672,0.0
310012.02908761695,3937225.878295721,-32500.0,2782.5357455567,-14079.208492488891,20126.874953246159,12655.423669044099,-15764.487642164317,10140.621005041294,24001.820332258878,-1650.4568106998695,-2409.0085270552709,2409.0085270552709,1650.4568106998695,45255.443722180098,0.0
315012.02908761695,3937225.878295721,-32500.0,-3272.7256327355349,-12397.593844283831,24808.589938351804,10895.609306961749,-17643.857802777678,10626.995073301232,26087.805295190112,3144.3393913897003,-8735.5617553217544,8735.5617553217544,-3144.3393913897003,48400.42496507513,0.0
320012.02908761695,3937225.878295721,-32500.0,-10975.042092845883,-8116.2540708783026,29222.717544032934,7229.0551562777318,-18333.152706492878,10168.741673647479,27953.920746765976,10246.49798560321,-16610.085499663717,16610.085499663717,-10246.49798560321,50751.341404876148,0.0
325012.02908761695,3937225.878295721,-32500.0,-19351.488144555424,-186.36876319303911,31671.541301533936,1089.0642562287967,-16309.455966585809,7876.9913219433492,29684.754415552397,19501.689120357725,-24907.393813501811,24907.393813501811,-19501.689120357725,52508.261853835109,0.0
330012.02908761695,3937225.878295721,-32500.0,-25861.769491409075,11546.648622907065,29140.900910359571,-7330.5846635952194,-9274.5243614578703,2450.4840899150513,32042.61074990335,29058.26395187154,-30747.392635836932,30747.392635836932,-29058.26395187154,55577.567473764269,0.0
335012.02908761695,3937225.878295721,-32500.0,-26659.89129145442,24393.487314302383,18139.732030629697,-15767.47904611611,4917.1764986917888,-7253.7194020609577,36781.816536005426,34179.72133449564,-29647.405942378864,29647.405942378864,-34179.72133449564,64169.457665301787,0.0
340012.02908761695,3937225.878295721,-32500.0,-19879.967522151692,31743.947345436958,-1633.5436655662506,-19399.684170560417,25355.084757799199,-20485.037076425902,44959.542906716699,28753.762420344083,-19015.599812713113,19015.599812713113,-28753.762420344083,80156.45472734762,0.0
345012.02908761695,3937225.878295721,-32500.0,-10025.780153777649,27572.934144598992,-23361.69768178097,-14304.976777150943,45571.438776447401,-33187.099784687947,54035.597263456366,11907.757313092581,-3492.4758008368908,3492.4758008368908,-11907.757313092581,97623.671541278774,0.0
350012.02908761695,3937225.878295721,-32500.0,-4760.4146389510115,13844.435330713419,-37202.103879131188,-2515.4755449819882,57439.000321842592,-40487.374384050301,59512.087146165737,-8261.5582433959607,7556.5948421580179,-7556.5948421580179,8261.5582433959607,107988.61153976597,0.0
355012.02908761695,3937225.878295721,-32500.0,-6545.5467246583103,-1422.5531582940819,-39343.356552830104,9824.2932424466217,58269.86863694316,-40954.52612280086,59301.226290390696,-22413.238488540355,9631.6654045261566,-9631.6654045261566,22413.238488540355,107763.11515806351,0.0
360012.02908761695,3937225.878295721,-32500.0,-12310.984557313232,-12254.133443247005,-32871.538376904129,18383.92211375797,51089.949330614167,-36566.839911958428,54415.423213247799,-27478.03197971292,5027.2208793710251,-5027.2208793710251,27478.03197971292,99031.888686914448,0.0
365012.02908761695,3937225.878295721,-32500.0,-18343.634790021792,-17213.68742785346,-22672.151796668237,22271.185131594499,40305.892430222957,-29991.309822285915,47011.705419606471,-25378.982068648678,-2087.6216489587914,2087.6216489587914,25378.982068648678,85759.152826668622,0.0
370012.02908761695,3937225.878295721,-32500.0,-22556.010843446631,-17428.376927702091,-12364.099404318189,22432.618716279881,29160.116392229007,-23111.178820850204,38960.342846683663,-19347.736872697566,-8733.4232471305404,8733.4232471305404,19347.736872697566,71285.978786595049,0.0
375012.02908761695,3937225.878295721,-32500.0,-24331.430991486428,-14715.813369814052,-3857.1829860648381,20244.016939667606,19407.2948350593,-16928.881180445696,31463.806094010517,-12083.162335531615,-13482.547429060935,13482.547429060935,12083.162335531615,57719.029511935776,0.0
380012.02908761695,3937225.878295721,-32500.0,-23909.36080887766,-10707.716868780621,2221.9737668721773,16909.379600658165,11711.73790458678,-11845.270269351076,25140.023923576788,-5308.8321398255102,-16010.913452042787,16010.913452042787,5308.8321398255102,46112.68277074911,0.0
385012.02908761695,3937225.878295721,-32500.0,-21904.67817334913,-6551.5442120430889,6010.0094442069476,13287.16875551699,6086.6012173239387,-7911.6673391442164,20179.89568678318,136.5271776137597,-16616.37517009881,16616.37517009881,-136.5271776137597,36796.446963830895,0.0
390012.02908761695,3937225.878295721,-32500.0,-18991.599521135293,-2895.4842923035676,7984.2753657794656,9893.9504511323757,2230.1980666151517,-5004.1769880071715,16472.404614443338,4039.529219809865,-15843.684222050095,15843.684222050095,-4039.529219809865,29660.857362675466,0.0
395012.02908761695,3937225.878295721,-32500.0,-15731.995039961959,-3.4190044304097995,8686.879747980478,6979.850013952112,-255.84676799023765,-2933.7822936119364,13748.119075752304,6539.8394113942013,-14244.029241529177,14244.029241529177,-6539.8394113942013,24370.249635039178,0.0
400012.02908761695,3937225.878295721,-32500.0,-12517.217338689617,2100.55512910376,8585.7654304995158,4619.4933884472657,-1749.3679967668327,-1507.7150959750402,11727.457946784813,7922.0626741984725,-12259.932708229482,12259.932708229482,-7922.0626741984725,20509.722169667453,0.0
405012.02908761695,3937225.878295721,-32500.0,-9578.4867916577205,3512.8775850426609,8030.5310586361693,2788.7163401770654,-2560.147543348206,-557.64709644239019,10190.021332031607,8490.0022194802968,-10197.195099522183,10197.195099522183,-8490.0022194802968,17681.055987485237,0.0
410012.02908761695,3937225.878295721,-32500.0,-7025.2305667320597,4372.3526243480574,7258.0817358179402,1417.7234165794287,-2921.6669005027707,51.624701391344729,8980.4308976575467,8507.1279609493267,-8241.3951962337833,8241.3951962337833,-8507.1279609493267,15556.496739586102,0.0
415012.02908761695,3937225.878295721,-32500.0,-4886.3751553864668,4817.469853734804,6416.7470184489694,423.02150529946516,-3000.4083792430024,423.18490982946531,7995.1775238124856,8178.1148317357174,-6488.9495010377586,6488.9495010377586,-8178.1148317357174,13896.245289278533,0.0
420012.02908761695,3937225.878295721,-32500.0,-3143.8144879262013,4967.5363110349581,5592.337525713273,-275.81419334073877,-2910.3807758897547,632.87517087628316,7167.695990687821,7650.9906782776443,-4977.2017542283729,4977.2017542283729,-7650.9906782776443,12540.272007049402,0.0
425012.02908761695,3937225.878295721,-32500.0,-1755.8222566414324,4917.306862351872,4829.6505109344125,-748.78121825090852,-2727.1264777853162,735.03114359049982,6455.9305577022078,7027.1795759283286,-3707.9326989260808,3707.9326989260808,-7027.1795759283286,11388.711593073494,0.0
430012.02908761695,3937225.878295721,-32500.0,-671.84178092033756,4738.1626396247202,4148.1215356198654,-1053.3250902600332,-2499.180280000975,767.75401208740118,5833.2567961945406,6372.9182916542004,-2663.7036825405512,2663.7036825405512,-6372.9182916542004,10381.831560897794,0.0
435012.02908761695,3937225.878295721,-32500.0,158.99998243785004,4481.8305659606358,3552.3794825496243,-1234.8283435593437,-2256.6926395987375,757.26218868489957,5282.4138311116485,5729.2988745658704,-1818.3196881296301,1818.3196881296301,-5729.2988745658704,9484.4934067033355,0.0
440012.02908761695,3937225.878295721,-32500.0,783.49707464255948,4184.6066224459437,3039.0012455493602,-1328.1951958571992,-2017.6057421752869,721.27277805681081,4791.7037828012299,5120.1574175113201,-1143.0784117096796,1143.0784117096796,-5120.1574175113201,8675.7606046888104,0.0
250012.02908761695,3942225.878295721,-32500.0,7949.4694764708711,-3607.7529783008599,1459.614361783764,3978.1898148194018,-1704.6822847151864,1453.3293081324127,5933.9881474505546,-3407.8596291278213,5969.939603537081,-5969.939603537081,3407.8596291278213,11721.881262838966,0.0
255012.02908761695,3942225.878295721,-32500.0,8464.9972364228815,-4164.9458790996896,1800.6705221041643,4470.1056460478612,-2051.0706258085165,1707.8337423361188,6595.0233314571315,-3773.5965312791213,6327.1698282035632,-6327.1698282035632,3773.5965312791213,13024.864374667315,0.0
260012.02908761695,3942225.878295721,-32500.0,8958.4040594156068,-4805.0424486608745,2233.4202322564383,5015.9268960156469,-2472.7280807157681,2008.5696928601187,7338.6836175129292,-4157.959429064188,6650.6548497225112,-6650.6548497225112,4157.959429064188,14487.066668027961,0.0
265012.02908761695,3942225.878295721,-32500.0,9400.9011138049118,-5534.6564118607475,2783.5705565889493,5614.7024417946477,-2985.5134248676072,2362.4799227843496,8173.8466547472754,-4548.7642214407979,6911.4965579296577,-6911.4965579296577,4548.7642214407979,16123.419720881398,0.0
270012.02908761695,3942225.878295721,-32500.0,9751.8489286396707,-6356.7738840791108,3483.6025334807309,6260.9223813846938,-3607.5805921122173,2776.3235046991726,9109.0607303446923,-4925.4227532683517,7069.1504813675028,-7069.1504813675028,4925.4227532683517,17946.911676953368,0.0
275012.02908761695,3942225.878295721,-32500.0,9955.0937443469884,-7267.4474111305717,4373.9294846810753,6941.8661361849709,-4358.7918817344698,3255.6965672318138,10151.639379015816,-5254.9821738741075,7067.7890544532866,-7067.7890544532866,5254.9821738741075,19966.320966254447,0.0
280012.02908761695,3942225.878295721,-32500.0,9934.701100099086,-8250.5459691094529,5503.597663481627,7633.796570722885,-5259.193205210534,3803.3701596235769,11306.247162816486,-5486.6673364287917,6832.0616057124907,-6832.0616057124907,5486.6673364287917,22182.780513050202,0.0
285012.02908761695,3942225.878295721,-32500.0,9590.4548683142748,-9269.6276922416437,6929.7189042141135,8296.6177596786401,-6325.8086473452395,4416.5978274222598,12572.810538178306,-5544.6184110728527,6262.6486608202458,-6262.6486608202458,5544.6184110728527,24584.735133531078,0.0
290012.02908761695,3942225.878295721,-32500.0,8794.1356981303379,-10255.692661115994,8714.0149377651942,8866.5898275536147,-7566.5031481423957,5082.8967327037208,13943.595188602148,-5318.7783133702787,5232.7104174558472,-5232.7104174558472,5318.7783133702787,27140.840402749487,0.0
295012.02908761695,3942225.878295721,-32500.0,7388.8504506163563,-11089.374604908773,10913.42310672404,9246.7861753886536,-8968.8582050328605,5773.5833284265073,15399.38918431799,-4654.6598125610826,3587.7106083292829,-3587.7106083292829,4654.6598125610826,29790.567806361283,0.0
300012.02908761695,3942225.878295721,-32500.0,5196.2579574858728,-11576.511610411291,13559.178577713241,9295.5001116833337,-10480.754391006629,6433.9972247369469,16905.211790580121,-3344.7690839204261,1153.9170604972503,-1153.9170604972503,3344.7690839204261,32433.374670916546,0.0
305012.02908761695,3942225.878295721,-32500.0,2041.311255857529,-11418.248990987515,16614.736238099722,8814.4224376503917,-11977.626357833125,6968.77265002078,18407.418857290973,-1129.1953534343497,-2233.8655997761675,2233.8655997761675,1129.1953534343497,34920.718217348847,0.0
310012.02908761695,3942225.878295721,-32500.0,-2187.6928582180935,-10184.203650083189,19897.507758567855,7543.0419998445259,-13209.745783311429,7219.8520199070354,19838.148640161664,2276.7833834685894,-6665.7208093148656,6665.7208093148656,-2276.7833834685894,37065.200414206738,0.0
315012.02908761695,3942225.878295721,-32500.0,-7415.9412603274732,-7316.9027567755929,22946.651596852902,5177.2500434213589,-13724.583922754986,6935.4001677041097,21142.817817838695,7090.5115509279767,-12020.044919264312,12020.044919264312,-7090.5115509279767,38706.842709164666,0.0
320012.02908761695,3942225.878295721,-32500.0,-13169.768957219556,-2238.7413857896313,24835.7920840642,1454.0270450425639,-12775.261452569661,5734.5410110331395,22364.17700466701,13239.928090463472,-17725.676578060265,17725.676578060265,-13239.928090463472,39929.02562625055,0.0
325012.02908761695,3942225.878295721,-32500.0,-18312.274218674804,5303.9226608824338,24012.690139298244,-3624.5593773751684,-9283.3871054326501,3099.5651681886234,23820.834834745063,19945.552223645889,-22455.713315765377,22455.713315765377,-19945.552223645889,41544.735433157497,0.0
330012.02908761695,3942225.878295721,-32500.0,-20984.477490412526,14536.849435048189,18468.480061876257,-9377.0275525990619,-2054.4909158701021,-1509.70670196324,26287.976041664246,25199.747869600345,-24025.313630079618,24025.313630079618,-25199.747869600345,45583.70281204307,0.0
335012.02908761695,3942225.878295721,-32500.0,-19347.458845385594,22872.741829292987,6795.0889193037547,-14039.985120771287,9444.3229574057295,-8270.6021614122074,30694.077142778726,25765.498556368573,-20168.255697042605,20168.255697042605,-25765.498556368573,54267.748377809134,0.0
340012.02908761695,3942225.878295721,-32500.0,-13415.731318690991,26287.078824027478,-9799.440279523853,-15119.468489413144,23822.102515953855,-16385.989070714917,37000.412927523546,18839.48478817592,-10636.58919298185,10636.58919298185,-18839.48478817592,67036.896816879074,0.0
345012.02908761695,3942225.878295721,-32500.0,-6296.948329112347,22041.169574527521,-26488.005707467542,-11103.865686355501,37345.701782988901,-23906.570708887019,43483.284494424748,5105.5320973637063,1089.2679882045663,-1089.2679882045663,-5105.5320973637063,79835.15513673173,0.0
350012.02908761695,3942225.878295721,-32500.0,-2189.8073465831817,11566.02490074989,-37451.879595959574,-3130.5409884561132,45880.539838277815,-28721.710981988774,47756.868227448074,-10476.942819618736,9685.8596003591374,-9685.8596003591374,10476.942819618736,88077.10946179161,0.0
355012.02908761695,3942225.878295721,-32500.0,-2847.4086983765483,-546.4137854017614,-40040.089383898652,5751.1717149874667,47652.390601568099,-29932.68810657506,48495.280159480739,-22272.355705443017,12177.326034328576,-12177.326034328576,22272.355705443017,89565.106662035614,0.0
360012.02908761695,3942225.878295721,-32500.0,-6956.8044313900882,-10192.048395807555,-35628.579556310433,12860.573338029662,43745.795117417758,-28081.961137137881,45926.018178473307,-27662.637296422705,9301.5804644307191,-9301.5804644307191,27662.637296422705,84920.831100100157,0.0
365012.02908761695,3942225.878295721,-32500.0,-12134.038957880781,-15664.373669074899,-27385.854228019471,17062.347834142915,36544.73839123486,-24366.061353046847,41149.738163398782,-27214.840812053808,3604.6501662886858,-3604.6501662886858,27214.840812053808,76234.653244987363,0.0
370012.02908761695,3942225.878295721,-32500.0,-16543.964748372928,-17201.800579480405,-18195.279252620749,18477.834577662601,28267.860912880482,-19911.574363998683,35375.40665860306,-22946.776840704395,-2536.4148929746552,2536.4148929746552,22946.776840704395,65709.356067832254,0.0
375012.02908761695,3942225.878295721,-32500.0,-19299.173716084933,-15914.704887547365,-9898.9904085137641,17807.489809271199,20404.837791856316,-15501.622359563422,29542.984589851199,-16937.494995829253,-7647.8382966031813,7647.8382966031813,16937.494995829253,55021.022841102342,0.0
380012.02908761695,3942225.878295721,-32500.0,-20255.578801449206,-13037.629237777457,-3347.411238279979,15856.968854125776,13725.154003917352,-11576.463177420581,24248.421537503917,-10736.003791642543,-11119.560236913399,11119.560236913399,10736.003791642543,45209.230324452648,0.0
385012.02908761695,3942225.878295721,-32500.0,-19697.149758078187,-9573.84076220307,1298.3104936576055,13308.319986552558,8476.6977994610425,-8320.1138902375187,19789.800041168408,-5260.5873753600654,-12930.991830239189,12930.991830239189,5260.5873753600654,36786.584948023905,0.0
390012.02908761695,3942225.878295721,-32500.0,-18076.566314050509,-6191.8146668112631,4258.0324487265289,10645.855809026478,4596.6716523474443,-5753.4118615078396,16230.258993697767,-911.13437987679663,-13373.013956395105,13373.013956395105,911.13437987679663,29897.631052122568,0.0
395012.02908761695,3942225.878295721,-32500.0,-15846.612980493515,-3254.8832514611477,5901.261301785742,8163.7965158353209,1875.4363758367533,-3809.1315818482985,13472.128751391008,2257.4822788010697,-12840.2470724343,12840.2470724343,-2257.4822788010697,24461.370821865199,0.0
400012.02908761695,3942225.878295721,-32500.0,-13375.475529397036,-903.17434098019748,6606.6291306465882,6008.5238997306687,62.231445380414208,-2383.8092649570299,11353.957480826915,4377.2935479756861,-11706.990578152676,11706.990578152676,-4377.2935479756861,20278.818420197851,0.0
405012.02908761695,3942225.878295721,-32500.0,-10922.262821226721,860.84259083311338,6695.0513666126108,4227.0920002672992,-1077.8919064311153,-1368.7680784960594,9719.8821792864819,5653.8905389967713,-10271.8287165534,10271.8287165534,-5653.8905389967713,17106.891173982116,0.0
410012.02908761695,3942225.878295721,-32500.0,-8646.2789543537929,2105.2682650243069,6410.2017271228169,2808.1108623660721,-1740.3750518145353,-665.83997070655016,8442.5429483888329,6299.0825601464639,-8746.2369479003737,8746.2369479003737,-6299.0825601464639,14706.030419814628,0.0
415012.02908761695,3942225.878295721,-32500.0,-6629.658608172118,2924.5786309228706,5923.4001360308011,1710.9580921612198,-2076.4791216139542,-193.41181441904871,7424.6762441525789,6498.2914609779691,-7265.1990868796147,7265.1990868796147,-6498.2914609779691,12868.056669271396,0.0
420012.02908761695,3942225.878295721,-32500.0,-4901.3861041600276,3414.4811300605484,5347.8165599138356,884.29318829403735,-2197.6649058170133,112.87499639394545,6595.140704536414,6399.6232564678048,-5905.269687481019,5905.269687481019,-6399.6232564678048,11428.383613163111,0.0
425012.02908761695,3942225.878295721,-32500.0,-3457.3408723045991,3659.8402020623962,4753.8938420444974,276.56244027842058,-2183.1236112515626,301.94728706288765,5903.6039509983275,6114.3728628292656,-4702.3869467810318,4702.3869467810318,-6114.3728628292656,10266.404576767825,0.0
430012.02908761695,3942225.878295721,-32500.0,-2275.0277703778452,3730.4375438728798,4182.5636901388816,-158.78895479308019,-2087.4745177981408,410.00307758587957,5315.2511944678663,5722.4150477475923,-3666.3960277664046,3666.3960277664046,-5722.4150477475923,9298.8079903013586,0.0
435012.02908761695,3942225.878295721,-32500.0,-1323.4647650644195,3680.8876673187306,3655.3395192930548,-461.30557842461474,-1947.3931785007983,463.2587757982331,4806.2271613178864,5278.8705811644359,-2791.6877536445791,2791.6877536445791,-5278.8705811644359,8470.3811860227725,0.0
255012.02908761695,3947225.878295721,-32500.0,7361.2141534904831,-4374.1680304103338,2275.9143023742263,3997.9862352760165,-2176.853160536451,1556.19006597012,6185.9045748139115,-3536.8261949631597,5378.2250397266162,-5378.2250397266162,3536.8261949631597,12231.356418616646,0.0
260012.02908761695,3947225.878295721,-32500.0,7649.1635331809794,-4974.1378401866968,2780.5830548634008,4430.0517251528299,-2593.2516269417961,1812.6399662870658,6838.1644459778126,-3818.7824144612896,5518.2133601208388,-5518.2133601208388,3818.7824144612896,13514.051100457324,0.0
265012.02908761695,3947225.878295721,-32500.0,7851.7672845987536,-5637.1560937830318,3407.8709856204878,4887.1098033416247,-3089.9854275676494,2108.7652052678723,7560.9088549079552,-4076.8704706049211,5563.9687326367766,-5563.9687326367766,4076.8704706049211,14927.730052101999,0.0
270012.02908761695,3947225.878295721,-32500.0,7926.16749992309,-6355.9787960471349,4186.3493866533072,5357.419207468216,-3679.2707233732126,2447.264339319353,8357.8792486057646,-4283.5621661522318,5472.9812608031016,-5472.9812608031016,4283.5621661522318,16475.036822763144,0.0
275012.02908761695,3947225.878295721,-32500.0,7816.5686485143451,-7113.4312160242707,5149.0373303421966,5821.3279607060795,-4372.3992795562754,2828.6161000494976,9230.5217647136778,-4398.6483457371378,5190.0672879939793,-5190.0672879939793,4398.6483457371378,18152.404506725641,0.0
280012.02908761695,3947225.878295721,-32500.0,7452.2291900959544,-7876.8853391425109,6332.0515325067372,6248.0108491521087,-5177.2601790522167,3249.3009066925583,10176.574214563849,-4364.9713705891909,4645.4529460324111,-4645.4529460324111,4364.9713705891909,19946.737410329468,0.0
285012.02908761695,3947225.878295721,-32500.0,6746.5418672704209,-8590.4832845731962,7771.0473799417205,6591.3352197775148,-6094.0222680311217,3699.1332551250539,11188.313518446299,-4103.5766519883819,3754.0498441581949,-3754.0498441581949,4103.5766519883819,21831.079429409518,0.0
290012.02908761695,3947225.878295721,-32500.0,5598.7600666860699,-9164.6825816197215,9493.6352130487321,6784.9700766192454,-7107.9357411522769,4157.389195966276,12250.558690745673,-3509.1171720692005,2417.62190804784,-2417.62190804784,3509.1171720692005,23759.450556824919,0.0
295012.02908761695,3947225.878295721,-32500.0,3901.1534582338609,-9463.2274532647698,11504.843821300725,6737.2988886085968,-8177.7886180972737,4587.3736646438365,13338.855335661683,-2447.5650095893507,532.90954773572423,-532.90954773572423,2447.5650095893507,25661.829432554416,0.0
300012.02908761695,3947225.878295721,-32500.0,1556.3015357628237,-9289.1964376753749,13761.18615393216,6327.6768888279039,-9218.1521348556817,4929.0785958042152,14419.125399160595,-760.6873812307407,-1989.0385431417612,1989.0385431417612,760.6873812307407,27442.293288360055,0.0
305012.02908761695,3947225.878295721,-32500.0,-1488.1738938740068,-8375.5109118830114,16127.472386151234,5407.6044389467979,-10073.578789206362,5089.76967565416,15451.950051310698,1713.9481866879687,-5184.0822212736866,5184.0822212736866,-1713.9481866879687,28988.112797708982,0.0
310012.02908761695,3947225.878295721,-32500.0,-5178.1013118127248,-6393.2289375093778,18311.105052933224,3814.2998175080388,-10484.597070724889,4933.0521829146073,16408.365311387272,5091.9246481694718,-8965.9233623447853,8965.9233623447853,-5091.9246481694718,30207.985283007394,0.0
315012.02908761695,3947225.878295721,-32500.0,-9258.3020516612833,-3005.2507310884853,19776.833997602727,1410.6495718924693,-10051.714686020277,4269.3113655933512,17309.529023064148,9337.0047166804979,-13018.717930448216,13018.717930448216,-9337.0047166804979,31135.745551949669,0.0
320012.02908761695,3947225.878295721,-32500.0,-13160.127804023035,1988.8875491489239,19673.290198075767,-1827.5166577939897,-8220.6440699058021,2856.733730691521,18302.676444411707,14082.066301462923,-16665.543229994739,16665.543229994739,-14082.066301462923,32145.113477743387,0.0
325012.02908761695,3947225.878295721,-32500.0,-15946.343181876782,8372.7874674957111,16867.446496771048,-5661.1850464516001,-4345.4735225301811,435.04345042589335,19748.983097950288,18400.097622107678,-18793.576914008103,18793.576914008103,-18400.097622107678,34215.002910969029,0.0
330012.02908761695,3947225.878295721,-32500.0,-16488.445766085842,15141.887385265345,10269.608741031861,-9410.6112875420567,2077.5678288629347,-3171.6698817166675,22182.058419233515,20685.627399727389,-18034.16580166616,18034.16580166616,-20685.627399727389,38774.436493877911,0.0
335012.02908761695,3947225.878295721,-32500.0,-14067.698632770349,20338.78235356267,-403.08811423306338,-11915.039160520571,10955.131531602949,-7864.2093946298955,25946.635974005811,19007.721969707829,-13437.837012034284,13437.837012034284,-19007.721969707829,46555.171497343581,0.0
340012.02908761695,3947225.878295721,-32500.0,-9227.482384222516,21638.730962539397,-13715.176077456523,-11899.667741268719,21124.276885371193,-13076.239674027907,30711.681484560271,12220.740267272278,-5508.5123379242659,5508.5123379242659,-12220.740267272278,56443.74026762064,0.0
345012.02908761695,3947225.878295721,-32500.0,-4007.653769933519,17796.142767230038,-26448.261782542733,-8767.1251097646218,30418.012099489566,-17813.006909792381,35396.045282243278,1273.2290930684862,3362.055669099585,-3362.055669099585,-1273.2290930684862,65884.976022643867,0.0
350012.02908761695,3947225.878295721,-32500.0,-825.56304540488975,9798.2496553149012,-35098.433626271057,-3185.4632164901559,36606.773118156052,-21059.959565443085,38673.872465095679,-10761.188622860389,10034.59056166309,-10034.59056166309,10761.188622860389,72313.178177816677,0.0
355012.02908761695,3947225.878295721,-32500.0,-872.35378507494784,345.59494535665868,-37854.926069580681,3230.1268417339552,38561.343438770578,-22284.290086341247,39705.074129282286,-20416.110275872168,12561.147992589729,-12561.147992589729,20416.110275872168,74343.152180840727,0.0
360012.02908761695,3947225.878295721,-32500.0,-3643.6731245974029,-7846.4894997021538,-35213.152593157502,8858.642121680894,36604.34388361124,-21593.40082530554,38447.53602515463,-25687.972502713721,11022.930719507818,-11022.930719507818,25687.972502713721,72055.006660935935,0.0
365012.02908761695,3947225.878295721,-32500.0,-7721.2484721842866,-13251.343409102341,-29064.062761976664,12748.675104705031,31967.586233049096,-19512.04700510051,35434.520706440984,-26474.681785952162,6848.320129002941,-6848.320129002941,26474.681785952162,66506.014723122236,0.0
370012.02908761695,3947225.878295721,-32500.0,-11719.976434447093,-15624.604978427136,-21487.801095421037,14691.485404004454,26053.541225708163,-16669.111330176605,31398.389925401596,-23877.210038648045,1722.6200905637907,-1722.6200905637907,23877.210038648045,59057.828917609113,0.0
375012.02908761695,3947225.878295721,-32500.0,-14751.936668256038,-15515.360123436238,-14063.17295221092,14963.077548764411,19985.086290617397,-13597.993942749894,27007.808743256919,-19343.075497379956,-3070.0779066237419,3070.0779066237419,19343.075497379956,50922.318053988805,0.0
380012.02908761695,3947225.878295721,-32500.0,-16464.69414293145,-13758.263770771096,-7704.0891263701651,14040.247612851334,14472.771449676222,-10666.43621456566,22758.451332670829,-14135.090308250454,-6816.5487527463392,6816.5487527463392,14135.090308250454,42979.183485939539,0.0
385012.02908761695,3947225.878295721,-32500.0,-16894.427955610758,-11149.149938763749,-2769.3344248304402,12408.504501142066,9860.0487229047703,-8082.2702820624481,18958.995182481583,-9130.5991920289944,-9284.282128360448,9284.282128360448,9130.5991920289944,35765.69733920729,0.0
390012.02908761695,3947225.878295721,-32500.0,-16289.543325846349,-8297.9562122793541,747.93081385644655,10465.578016516105,6230.1611262043352,-5929.9700440936658,15750.714894497967,-4820.5316250839169,-10552.600911112459,10552.600911112459,4820.5316250839169,29541.381929292049,0.0
395012.02908761695,3947225.878295721,-32500.0,-14970.000328841892,-5599.1442822815288,3046.4154278231608,8491.997324900196,3512.9575657462219,-4212.8266552858577,13140.002161062381,-1396.4648591268378,-10855.453202941815,10855.453202941815,1396.4648591268378,24370.43756781099,0.0
400012.02908761695,3947225.878295721,-32500.0,-13238.914630393354,-3262.9756608819407,4392.4040935654011,6659.4837121772598,1566.965905852833,-2888.8749657946305,11054.535752522585,1143.5112755648761,-10469.035086491062,10469.035086491062,-1143.5112755648761,20195.425713550387,0.0
405012.02908761695,3947225.878295721,-32500.0,-11340.213537177433,-1367.5969311649794,5046.4206308080302,5055.2371617913886,232.4745132739379,-1896.6939546232677,9399.5296545068486,2904.6104355953858,-9646.9533793614391,9646.9533793614391,-2904.6104355953858,16893.599568658603,0.0
410012.02908761695,3947225.878295721,-32500.0,-9447.8929531074991,90.846474465322601,5228.9123998632058,3708.617366642075,-639.4349623152375,-1171.4954388770225,8085.3908811449837,4032.1176634586373,-8592.1306715655082,8592.1306715655082,-4032.1176634586373,14316.047450945334,0.0
415012.02908761695,3947225.878295721,-32500.0,-7672.6122531099018,1159.4688092211213,5110.4896077765534,2613.7387157231728,-1174.3221087487047,-653.76605801496464,7035.4892690945235,4673.5156665518698,-7451.6815419175455,7451.6815419175455,-4673.5156665518698,12313.178325053683,0.0
420012.02908761695,3947225.878295721,-32500.0,-6075.2199847866368,1902.6838300716913,4815.0262606870483,1746.0380398919892,-1471.553011088108,-292.95479790072619,6187.455788788986,4959.4989937287201,-6323.407706693718,6323.407706693718,-4959.4989937287201,10750.103758193916,0.0
425012.02908761695,3947225.878295721,-32500.0,-4681.0782679076156,2386.818754568189,4427.9368352709935,1073.2073573529401,-1606.3694869033509,-48.244057129754253,5492.4709245655276,4997.0171163308187,-5266.4401694730332,5266.4401694730332,-4997.0171163308187,9514.4129803398246,0.0
430012.02908761695,3947225.878295721,-32500.0,-3492.3498565658283,2672.181264130716,4005.3837725471276,561.76112127132762,-1633.8853561794517,112.17449017515879,4913.5621794944018,4868.9901967065307,-4311.9818695333834,4311.9818695333834,-4868.9901967065307,8518.2140614395412,0.0
435012.02908761695,3947225.878295721,-32500.0,-2497.3718738580196,2809.8271067917472,3582.461617197976,180.56235648592059,-1593.4007235192021,212.44660838464063,4423.4221362030257,4637.1530218555263,-3472.3784989517103,3472.3784989517103,-4637.1530218555263,7696.2469635340767,0.0
255012.02908761695,3952225.878295721,-32500.0,6251.076840119641,-4415.997654042726,2695.8539120480987,3514.0852602724485,-2232.0087453994279,1398.3609322592354,5748.1243602545428,-3187.777572154595,4418.101537473206,-4418.101537473206,3187.777572154595,11376.777026082018,0.0
260012.02908761695,3952225.878295721,-32500.0,6357.3451346504444,-4946.366615757157,3247.3306493233376,3839.4521679856471,-2626.8218695411942,1611.7366487429765,6311.628101901294,-3359.3473426448591,4396.2772367582211,-4396.2772367582211,3359.3473426448591,12480.323121364976,0.0
265012.02908761695,3952225.878295721,-32500.0,6355.7072421343319,-5510.4460770538199,3917.6459526286999,4166.9881184133874,-3088.0110378519767,1852.8154673778636,6927.6951241406623,-3480.862287085798,4260.0667917618039,-4260.0667917618039,3480.862287085798,13676.099787977686,0.0
270012.02908761695,3952225.878295721,-32500.0,6205.4685968693229,-6092.2540031456583,4728.811949865596,4481.2993335481415,-3621.8255471621746,2121.2144119789514,7596.3796359151065,-3521.1770445939387,3969.3832062633815,-3969.3832062633815,3521.1770445939387,14959.153537520204,0.0
275012.02908761695,3952225.878295721,-32500.0,5856.7186663456896,-6664.3974629580707,5703.4492446772665,4759.4828379353212,-4231.5189603790932,2413.8054324657237,8314.9327658937891,-3437.793793635873,3475.284839308134,-3475.284839308134,3437.793793635873,16317.699566857602,0.0
280012.02908761695,3952225.878295721,-32500.0,5250.4925226859968,-7183.1829251315694,6861.7779512800334,4968.7668734249191,-4914.4389238495733,2723.0766447066885,9076.8437694018176,-3174.3318944992998,2720.3278838112583,-2720.3278838112583,3174.3318944992998,17730.535058836485,0.0
285012.02908761695,3952225.878295721,-32500.0,4320.8540796861453,-7582.4580108662922,8216.0076273995892,5063.9392929948581,-5657.4674450397479,3034.8423347043336,9870.8485715224342,-2658.5842742088989,1641.0172390692751,-1641.0172390692751,2658.5842742088989,19164.225165747746,0.0
290012.02908761695,3952225.878295721,-32500.0,3000.4726145016234,-7766.5409936864198,9760.5954704778942,4985.0261774413484,-6430.1498882271835,3325.1779654286202,10680.207927545465,-1802.5080206334728,174.09324337748228,-174.09324337748228,1802.5080206334728,20570.830422540537,0.0
295012.02908761695,3952225.878295721,-32500.0,1232.0360662586158,-7603.5169029807175,11456.310487606266,4656.2086021306504,-7174.8053705155362,3556.5367253521417,11483.058545454574,-506.67729005658748,-1730.7100095355331,1730.7100095355331,506.67729005658748,21888.067478919122,0.0
300012.02908761695,3952225.878295721,-32500.0,-1011.3462835572199,-6922.0442532084835,13205.77499710982,3987.8820074579316,-7793.1614633496665,3673.2108566394854,12255.538716687746,1326.425875660902,-4087.811581892171,4087.811581892171,-1326.425875660902,23046.138321385559,0.0
305012.02908761695,3952225.878295721,-32500.0,-3693.3769728903603,-5518.1909388095282,14819.018052181858,2885.2224437499849,-8130.068317875809,3596.7564385858404,12980.885413535589,3763.4597080337658,-6838.7971100853247,6838.7971100853247,-3763.4597080337658,23989.911153314701,0.0
310012.02908761695,3952225.878295721,-32500.0,-6668.2051040989872,-3184.0272753706054,15971.579590398163,1268.5866326742632,-7957.5452455057493,3222.9416992829943,13669.542205657037,6786.7859994387554,-9799.3519492693013,9799.3519492693013,-6786.7859994387554,24731.979425362064,0.0
315012.02908761695,3952225.878295721,-32500.0,-9627.3423912284161,224.5787303782395,16168.486891285182,-887.31529852125732,-6968.2566702623462,2423.6321153860627,14394.849303069484,10209.755173705109,-12596.870521659339,12596.870521659339,-10209.755173705109,25455.235396170654,0.0
320012.02908761695,3952225.878295721,-32500.0,-12066.304306996926,4664.0484834637809,14749.20273306739,-3490.5912629344257,-4797.6398217328087,1060.1398668988718,15336.637625973815,13568.773110208806,-14627.367570863929,14627.367570863929,-13568.773110208806,26650.468452734225,0.0
325012.02908761695,3952225.878295721,-32500.0,-13329.113219761701,9730.080708795902,10998.353067296823,-6254.0384833668213,-1105.2532694529264,-982.00632164661465,16786.677228483022,16041.009179748897,-15097.608838394412,15097.608838394412,-16041.009179748897,29136.40328038282,0.0
330012.02908761695,3952225.878295721,-32500.0,-12808.911403652022,14513.292490870021,4434.2155765215075,-8643.3947186027945,4257.5971200484837,-3728.6428684717166,19033.208492266058,16503.756149929144,-13247.155885098138,13247.155885098138,-16503.756149929144,33669.239293908387,0.0
335012.02908761695,3952225.878295721,-32500.0,-10321.334763144116,17664.683407664281,-4741.9790411223612,-9937.0000587783179,11018.28698704783,-7033.1455757997182,22129.398802809192,13883.74974249574,-8786.4947439292773,8786.4947439292773,-13883.74974249574,40251.191234763224,0.0
340012.02908761695,3952225.878295721,-32500.0,-6463.0587526597983,17855.112639617753,-15284.432674408425,-9472.8836022509822,18327.901451198981,-10523.440383582159,25735.982470649265,7794.9130494597057,-2359.2499292639814,2359.2499292639814,-7794.9130494597057,47873.195218044057,0.0
345012.02908761695,3952225.878295721,-32500.0,-2571.6100533384201,14520.385950372467,-25062.522150852226,-7016.1510108932798,24890.92402980688,-13656.136570727731,29180.136328356402,-914.10090980903874,4418.6489322573016,-4418.6489322573016,914.10090980903874,54938.920540785904,0.0
350012.02908761695,3952225.878295721,-32500.0,-106.01331286927872,8342.9565644942595,-31899.31811064163,-2981.4493925340021,29435.223892477377,-15897.820738625676,31692.004731689289,-10282.599054607661,9619.2973067754938,-9619.2973067754938,10282.599054607661,59940.810604245933,0.0
355012.02908761695,3952225.878295721,-32500.0,133.57831069422346,973.35830247145157,-34563.333140326933,1717.8360310814664,31243.114317894469,-16931.128599698361,32732.747750874201,-18117.387580022605,11959.230351913549,-11959.230351913549,18117.387580022605,61992.572131322006,0.0
360012.02908761695,3952225.878295721,-32500.0,-1692.8375757711772,-5802.3496435304041,-33160.645847545435,6090.4670324837234,30363.267143486559,-16744.102244569556,32187.374065546384,-22960.167146705884,11292.349677384538,-11292.349677384538,22960.167146705884,61001.642107182044,0.0
365012.02908761695,3952225.878295721,-32500.0,-4766.7230315691213,-10774.001137576586,-28776.862018124077,9434.891664183564,27424.747943993752,-15569.065942586456,30303.760946640192,-24465.375696764182,8385.5225257628608,-8385.5225257628608,24465.375696764182,57493.050666179261,0.0
370012.02908761695,3952225.878295721,-32500.0,-8123.2092898788169,-13518.715988461383,-22824.479366906347,11464.330342348961,23281.237295440871,-13750.729990055694,27512.076088638307,-23161.233472608976,4356.3708472568596,-4356.3708472568596,23161.233472608976,52284.532282279186,0.0
375012.02908761695,3952225.878295721,-32500.0,-11011.051650192325,-14225.316479969857,-16541.880898249052,12233.510676645339,18720.796870777802,-11630.343597409523,24263.444216537115,-19980.22573855958,209.63020997249623,-209.63020997249623,19980.22573855958,46206.150460688223,0.0
380012.02908761695,3952225.878295721,-32500.0,-13016.067853225628,-13399.72289223105,-10775.127377531717,11993.508536173847,14322.613648344553,-9480.1056885369926,20936.747056307722,-15871.3002732282,-3376.9662568887152,3376.9662568887152,15871.3002732282,39939.995103369052,0.0
385012.02908761695,3952225.878295721,-32500.0,-14026.282280368192,-11620.410486821573,-5969.6341994805034,11061.320797188468,10432.648210925327,-7482.5326639663854,17804.342806144829,-11589.423057493937,-6071.129697815546,6071.129697815546,11589.423057493937,33966.016378330984,0.0
390012.02908761695,3952225.878295721,-32500.0,-14133.972482650313,-9392.8141703373949,-2261.6621659784628,9734.6276859755671,7202.9167949894045,-5737.5272898371377,15028.274901276882,-7632.5296668945175,-7807.7188035222771,7807.7188035222771,7632.5296668945175,28572.306084407053,0.0
395012.02908761695,3952225.878295721,-32500.0,-13535.065026972457,-7089.9054463202883,407.84044373336843,8250.3527005042852,4651.3472964764715,-4281.767874139352,12669.018318849072,-4265.0854711736238,-8686.4160378175911,8686.4160378175911,4265.0854711736238,23893.944953651386,0.0
400012.02908761695,3952225.878295721,-32500.0,-12452.789261473086,-4948.5522974589776,2196.2397186418793,6774.334614668277,2717.8529868482274,-3110.2123341573269,10712.90240645413,-1577.3946478567809,-8883.4885665429465,8883.4885665429465,1577.3946478567809,19957.896333450473,0.0
405012.02908761695,3952225.878295721,-32500.0,-11091.224226083417,-3093.5443194559916,3291.7711123379404,5408.5386279022268,1306.7824272032603,-2194.4109200133616,9111.8674863385604,451.14945905779905,-8590.8001469458013,8590.8001469458013,-451.14945905779905,16722.768256903317,0.0
410012.02908761695,3952225.878295721,-32500.0,-9613.8389756036631,-1569.7866376316524,3874.1367579928406,4205.4170930218179,314.46052901526832,-1495.7957154607102,7809.9606543278906,1900.2003265579374,-7981.2564456898563,7981.2564456898563,-1900.2003265579374,14109.503555454115,0.0
415012.02908761695,3952225.878295721,-32500.0,-8138.784862513513,-371.96853589219597,4096.0084208645821,3183.0443350458249,-355.47010672892435,-974.14702859626925,6753.4767951149806,2872.2560894837034,-7194.0326840118041,7194.0326840118041,-2872.2560894837034,12023.053339811897,0.0
420012.02908761695,3952225.878295721,-32500.0,-6743.3797545258103,532.52547262907729,4077.7347832172431,2337.9632574535949,-785.16897880048066,-592.29516337095504,5894.3491882514872,3470.6161678836552,-6332.1525939884095,6332.1525939884095,-3470.6161678836552,10366.735662043327,0.0
425012.02908761695,3952225.878295721,-32500.0,-5472.3262287877569,1187.950205014329,3909.1463082273194,1654.7876360606915,-1040.8722798642905,-318.23837436448338,5191.4740779664407,3787.9064720089045,-5466.4369028574165,5466.4369028574165,-3787.9064720089045,9051.1106309322604,0.0
430012.02908761695,3952225.878295721,-32500.0,-4346.4441805195256,1640.5555206328577,3654.4055248613722,1112.7494795258074,-1173.8928642743797,-125.68603947643754,4611.0387795936367,3901.5094634219986,-4641.8846610119454,4641.8846610119454,-3901.5094634219986,7998.8573306317312,0.0
255012.02908761695,3957225.878295721,-32500.0,5180.8319819006074,-4315.4755476080763,3040.2299626674539,3037.849534572626,-2225.0152826428812,1240.5041170437989,5300.1628985322732,-2764.9507770660739,3491.6467958286003,-3491.6467958286003,2764.9507770660739,10491.965636498295,0.0
260012.02908761695,3957225.878295721,-32500.0,5136.3486951290515,-4757.4867790083699,3612.079906807272,3267.8928485507686,-2586.2571500141662,1413.7510956704896,5781.5553689630615,-2828.9250445842576,3337.0667159912578,-3337.0667159912578,2828.9250445842576,11424.162087363537,0.0
265012.02908761695,3957225.878295721,-32500.0,4972.9524816621197,-5204.7824541930777,4291.4433913637922,3482.9632914985086,-2998.6348041994488,1604.646886463117,6300.3616013254732,-2823.1487369488459,3059.2298430166948,-3059.2298430166948,2823.1487369488459,12415.805228169969,0.0
270012.02908761695,3957225.878295721,-32500.0,4655.2838783696716,-5635.1448836643085,5092.3862190872924,3666.2917134450104,-3463.1103931766775,1810.6968856208093,6853.9117585342383,-2716.1855990601307,2623.690271292031,-2623.690271292031,2716.1855990601307,13457.160487946858,0.0
275012.02908761695,3957225.878295721,-32500.0,4142.7654493829405,-6014.9803040826955,6026.1086740383444,3794.7188564849812,-3976.3173449822116,2026.5592768134713,7437.0404848130556,-2467.7069129311699,1991.2873200896699,-1991.2873200896699,2467.7069129311699,14532.163964206249,0.0
280012.02908761695,3957225.878295721,-32500.0,3391.4122899002596,-6295.6543406014707,7096.9513959798842,3837.3092279721209,-4527.6831419841092,2242.6880664914343,8041.6094811386683,-2027.7662968684142,1120.2466760792306,-1120.2466760792306,2027.7662968684142,15616.900809857816,0.0
285012.02908761695,3957225.878295721,-32500.0,2357.8263784211094,-6409.5668730150892,8295.9498292182907,3754.2479333950878,-5095.2954646478302,2443.5735329137374,8656.2390782821167,-1337.4761185174102,-29.316280015270877,29.316280015270877,1337.4761185174102,16678.620094414971,0.0
290012.02908761695,3957225.878295721,-32500.0,1006.5812958943446,-6266.8258206781975,9590.9517553205769,3496.6106182275371,-5640.2372751192088,2605.5954499830809,9266.7656459398495,-332.51739694488708,-1487.127763894056,1487.127763894056,332.51739694488708,17676.445830162684,0.0
295012.02908761695,3957225.878295721,-32500.0,-677.56630126238031,-5754.3132709706033,10912.357049543927,3008.0168574299569,-6099.3111826222403,2694.6361965265828,9858.3499945685944,1048.280013730777,-3259.0535637749936,3259.0535637749936,-1048.280013730777,18566.102313178813,0.0
300012.02908761695,3957225.878295721,-32500.0,-2671.3311760292527,-4740.4547493414575,12134.144988253354,2229.7783428987836,-6376.6270625911829,2663.845713549335,10420.801686182993,2846.0990953441351,-5306.3521940472483,5306.3521940472483,-2846.0990953441351,19313.000511999693,0.0
305012.02908761695,3957225.878295721,-32500.0,-4888.3242124351227,-3091.0722512321681,13051.835673191079,1111.8184932836321,-6335.7323031421665,2452.3749565059579,10959.351966580094,5053.3172158779107,-7517.5022843009301,7517.5022843009301,-5053.3172158779107,19920.818250561639,0.0
310012.02908761695,3957225.878295721,-32500.0,-7151.6249428295687,-703.69976744286623,13363.516317168815,-367.98486760866899,-5796.2291450236335,1986.5579610446007,11512.75429012164,7570.1693592285337,-9675.9785616866793,9675.9785616866793,-7570.1693592285337,20483.821180409526,0.0
315012.02908761695,3957225.878295721,-32500.0,-9174.1344331144664,2432.5707872019943,12668.270824387842,-2174.31133258827,-4542.360721985332,1185.9446684177467,12175.986503102287,10150.030985588266,-11435.523002002694,11435.523002002694,-10150.030985588266,21259.517261469926,0.0
320012.02908761695,3957225.878295721,-32500.0,-10568.632200947903,6152.3457298727353,10507.416395442078,-4177.2961016564695,-2354.9584098100463,-22.535907834829796,13110.922833473851,12350.537214275791,-12327.763099808501,12327.763099808501,-12350.537214275791,22708.828743978491,0.0
325012.02908761695,3957225.878295721,-32500.0,-10919.118674242784,10027.102360354853,6480.1524278805118,-6120.3260776755133,921.45882027425125,-1679.3126832539451,14510.245124937122,13531.37442834698,-11839.834850985162,11839.834850985162,-13531.37442834698,25375.057408147237,0.0
330012.02908761695,3957225.878295721,-32500.0,-9935.485650791039,13336.573675190011,446.84417189825848,-7620.2107270869537,5276.158195658264,-3756.798485996665,16495.374897322417,12960.448074818712,-9592.5213491877912,9592.5213491877912,-12960.448074818712,29548.751958165136,0.0
335012.02908761695,3957225.878295721,-32500.0,-7660.1580484128772,15185.78182120209,-7233.1966728483649,-8235.3986849239827,10425.499555187389,-6124.9093602673538,19004.019627231333,10070.389353691029,-5592.1052505172756,5592.1052505172756,-10070.389353691029,34974.936721129139,0.0
340012.02908761695,3957225.878295721,-32500.0,-4605.0487488523595,14810.780252766368,-15580.761101347385,-7614.6659035828943,15774.316838861145,-8541.2375175168672,21760.381468465992,4804.2967855426305,-422.26869611185111,422.26869611185111,-4804.2967855426305,40881.189179528439,0.0
345012.02908761695,3957225.878295721,-32500.0,-1659.6476898394194,11964.616834422373,-23169.301708724863,-5672.7083874823438,20521.334845105637,-10690.431695090103,24338.983803647148,-2158.8712507262926,4818.5519952030445,-4818.5519952030445,2158.8712507262926,46253.019545713214,0.0
350012.02908761695,3957225.878295721,-32500.0,258.90369877607503,7126.7812939411806,-28601.903759099474,-2679.2914508186814,23904.321085950225,-12271.235480840021,26275.715476682053,-9529.0278445868626,8901.5682302476362,-8901.5682302476362,9529.0278445868626,50164.521360307503,0.0
355012.02908761695,3957225.878295721,-32500.0,610.31312783666931,1346.0473696702361,-31035.380919664967,818.67131910856483,25460.93292972683,-13090.306476958724,27219.436787224062,-15876.786276231005,10968.466942465313,-10968.466942465313,15876.786276231005,52036.668117159032,0.0
360012.02908761695,3957225.878295721,-32500.0,-583.65332808907783,-4190.8090157735496,-30422.990718010024,4200.3637487329015,25152.137962890793,-13111.048067547352,27050.754758887819,-20159.377712797297,10821.109916286819,-10821.109916286819,20159.377712797297,51739.93096611432,0.0
365012.02908761695,3957225.878295721,-32500.0,-2853.7227627652865,-8574.6884311790564,-27378.575675237149,6971.6695515145484,23300.52089425017,-12438.65230511751,25877.784404556209,-21989.02630062927,8860.3590991725687,-8860.3590991725687,21989.02630062927,49531.823037515423,0.0
370012.02908761695,3957225.878295721,-32500.0,-5553.3903956503664,-11365.525732288954,-22832.149103389387,8866.8450435503564,20419.643541268179,-11263.640993229064,23950.028553585034,-21575.545083688343,5802.8138163978501,-5802.8138163978501,21575.545083688343,45899.567511921763,0.0
375012.02908761695,3957225.878295721,-32500.0,-8100.8332311153736,-12555.859121751024,-17702.481458634167,9843.2207534429635,17042.01014965897,-9799.2182310603966,21563.799153513046,-19486.237755167611,2386.2871521515681,-2386.2871521515681,19486.237755167611,41396.557514493026,0.0
380012.02908761695,3957225.878295721,-32500.0,-10105.826869848706,-12418.483390604679,-12702.927010865258,10015.098368901543,13607.193962483479,-8235.333632689717,18995.042276817268,-16393.311860092261,-814.54733818104069,814.54733818104069,16393.311860092261,36525.764743878513,0.0
385012.02908761695,3957225.878295721,-32500.0,-11389.741129279751,-11343.811106383699,-8282.2361380313505,9575.2434742379337,10417.761843572098,-6715.4280491499649,16464.651158465011,-12899.39429572683,-3450.1204845355751,3450.1204845355751,12899.39429572683,31680.777110535899,0.0
390012.02908761695,3957225.878295721,-32500.0,-11943.505818238991,-9720.4208418988055,-4651.8452157887014,8731.8641456300993,7643.1913279833079,-5331.6943251406983,14125.577831854907,-9455.0163022130419,-5375.9613395361675,5375.9613395361675,9455.0163022130419,27131.614393896663,0.0
395012.02908761695,3957225.878295721,-32500.0,-11865.088990551032,-7869.3407639852248,-1849.8745732841976,7669.6002859237833,5347.8483505185422,-4131.6134847288304,12059.921707313506,-6344.8218998042266,-6596.2456193013513,6596.2456193013513,6344.8218998042266,23037.036953536543,0.0
400012.02908761695,3957225.878295721,-32500.0,-11302.019674171413,-6021.4145656368555,191.45117631158075,6531.9883669590045,3525.1259202130673,-3129.2259645336953,10288.438291865135,-3712.0283188191634,-7202.6516348686937,7202.6516348686937,3712.0283188191634,19468.25922866739,0.0
405012.02908761695,3957225.878295721,-32500.0,-10409.707378623712,-4321.4697883940871,1591.1698184651555,5418.7800489795654,2127.7651278994581,-2316.749917415962,8795.1646099013906,-1596.9797240608468,-7324.6128341693411,7324.6128341693411,1596.9797240608468,16434.458119679151,0.0
410012.02908761695,3957225.878295721,-32500.0,-9326.790104593365,-2845.1166631959072,2482.2576879147014,4391.4388618345292,1090.4663148342891,-1674.2552989737051,7549.7930973574967,25.000202834099582,-7095.7773736536319,7095.7773736536319,-25.000202834099582,13905.084398456835,0.0
415012.02908761695,3957225.878295721,-32500.0,-8164.1253418863062,-1618.6416858072166,2989.8330826710599,3481.81357271769,344.61379938646581,-1176.672841405534,6518.2767971117728,1213.2576533549864,-6635.1940975793686,6635.1940975793686,-1213.2576533549864,11827.209404507126,0.0
420012.02908761695,3957225.878295721,-32500.0,-7002.8281816989065,-636.8765514418202,3220.8135949493735,2700.9542204495565,-173.38613748040356,-798.3093221767607,5666.9169646181281,2040.566876250585,-6039.3420843786444,6039.3420843786444,-2040.566876250585,10137.978685389626,0.0
425012.02908761695,3957225.878295721,-32500.0,-5897.2844548666299,122.95903595168191,3260.8940037315765,2046.5821612226889,-518.25884428168115,-515.40011686073615,4964.377900163453,2579.9577110258579,-5380.9610641923146,5380.9610641923146,-2579.9577110258579,8772.9860131378664,0.0
430012.02908761695,3957225.878295721,-32500.0,-4880.2508253254982,691.59060610746178,3175.5762883866646,1508.7688953513621,-734.81259426410043,-307.30167483589156,4382.8575734747956,2897.600562056266,-4711.4877724480348,4711.4877724480348,-2897.600562056266,7671.5851521714476,0.0
260012.02908761695,3962225.878295721,-32500.0,4022.8925607299097,-4447.0661885326554,3865.4303723056014,2732.8526858259534,-2486.5189721933557,1224.7629465039072,5264.5136285250837,-2271.1102175528522,2376.9139951878215,-2376.9139951878215,2271.1102175528522,10377.701977139401,0.0
265012.02908761695,3962225.878295721,-32500.0,3741.1883986601988,-4772.5296818611123,4523.761934475785,2854.7094444388922,-2842.7265006718408,1371.57926654273,5696.1343490898453,-2156.1725855457571,1999.1324557914395,-1999.1324557914395,2156.1725855457571,11185.00606960511,0.0
270012.02908761695,3962225.878295721,-32500.0,3311.1714372200049,-5052.8471101673831,5278.9028819145533,2933.5296484863129,-3231.8576878320814,1524.2631418789817,6148.4180290968743,-1930.158504213621,1471.9267758535386,-1471.9267758535386,1930.158504213621,12013.594659008178,0.0
275012.02908761695,3962225.878295721,-32500.0,2702.9559147131631,-5252.2200212866537,6131.3136794412312,2947.9771413322787,-3645.7371860761477,1676.3965702518321,6615.550829469189,-1558.1342554085741,767.32576836512669,-767.32576836512669,1558.1342554085741,12846.409061426137,0.0
280012.02908761695,3962225.878295721,-32500.0,1887.8015471204903,-5322.4602276973828,7071.6842653914782,2871.2348321998456,-4068.7269559813271,1817.8719387424405,7089.78700154547,-1000.0100497979433,-140.48078310606076,140.48078310606076,1000.0100497979433,13660.943276854799,0.0
285012.02908761695,3962225.878295721,-32500.0,842.87615784127877,-5201.285210420011,8074.7201004982935,2671.0265179754206,-4474.3932068001168,1933.666090842934,7561.8455929110278,-213.0910918691344,-1269.7952929680541,1269.7952929680541,213.0910918691344,14429.996608660602,0.0
290012.02908761695,3962225.878295721,-32500.0,-441.29317413100966,-4812.1666230987676,9090.5851774690764,2310.7489541846749,-4821.3787559257407,2002.5091562465411,8022.3038511769682,842.41133813600641,-2623.037041398482,2623.037041398482,-842.41133813600641,15124.862067093878,0.0
295012.02908761695,3962225.878295721,-32500.0,-1950.1362585251579,-4067.4727368545855,10033.993876452063,1752.5227134004383,-5048.7869798657648,1995.6687613493013,8464.7830363633966,2193.3428797968118,-4174.6536350748402,4174.6536350748402,-2193.3428797968118,15723.214441831518,0.0
300012.02908761695,3962225.878295721,-32500.0,-3631.2424593046376,-2877.533663802792,10771.931693536057,963.22473656075329,-5071.9502220057639,1876.2680053640429,8891.9853379712404,3837.3423353800117,-5855.3152747340791,5855.3152747340791,-3837.3423353800117,16225.181281764244,0.0
305012.02908761695,3962225.878295721,-32500.0,-5379.1494748025352,-1169.0380683778512,11113.005986422157,-75.341962092524511,-4780.4213085214651,1599.8401335165984,9325.4352776757514,5719.2891529232647,-7534.1109726853929,7534.1109726853929,-5719.2891529232647,16681.521784242683,0.0
310012.02908761695,3962225.878295721,-32500.0,-7023.4360783686552,1084.0124616936296,10804.824152465397,-1351.4273735167767,-4041.4198824594305,1117.1560810414524,9817.8771174249614,7701.7970835378137,-9003.868036189444,9003.868036189444,-7701.7970835378137,17233.312188930653,0.0
315012.02908761695,3962225.878295721,-32500.0,-8329.3125886687794,3816.3799205738874,9550.2987394963475,-2804.3358857101935,-2713.4811862968363,380.63631246432828,10461.786963198669,9536.5272651697251,-9979.9895011038516,9979.9895011038516,-9536.5272651697251,18143.57508556257,0.0
320012.02908761695,3962225.878295721,-32500.0,-9024.2507691011233,6822.119012904519,7057.0928028125109,-4305.8031521676103,-675.55345168334259,-644.4536361498325,11379.126605901751,10852.162267481592,-10128.791470126842,10128.791470126842,-10852.162267481592,19765.755172570898,0.0
325012.02908761695,3962225.878295721,-32500.0,-8863.4260828007809,9720.9347920478504,3130.7227697041712,-5651.5128534295809,2126.1040153805734,-1963.9303428312103,12677.920414569153,11184.715063554282,-9141.7649765375536,9141.7649765375536,-11184.715063554282,22395.949106776334,0.0
330012.02908761695,3962225.878295721,-32500.0,-7732.6037680291438,11976.706890385582,-2197.4010206356629,-6577.402277725424,5620.1314958532348,-3536.4765877459386,14386.957620872523,10076.367627033736,-6857.7041553751096,6857.7041553751096,-10076.367627033736,26074.668898126074,0.0
335012.02908761695,3962225.878295721,-32500.0,-5755.1961237608893,13003.839387248208,-8553.056103102841,-6813.2452435980813,9563.8102482700378,-5260.4320765125749,16411.857865775339,7244.040621407089,-3398.445311412489,3398.445311412489,-7244.040621407089,30502.736607138893,0.0
340012.02908761695,3962225.878295721,-32500.0,-3335.8529199136274,12359.182004943361,-15194.821622205691,-6169.2506288992872,13543.336783031789,-6976.1109327756703,18544.18201655645,2762.7976857869494,759.4187068448914,-759.4187068448914,-2762.7976857869494,35119.936280632479,0.0
345012.02908761695,3962225.878295721,-32500.0,-1076.8726796198694,9945.8089231939557,-21150.989543297852,-4622.9895232781164,17047.05517482277,-8491.3575471023978,20508.264507263091,-2844.6245441023248,4858.9615786083623,-4858.9615786083623,2844.6245441023248,39265.573091454295,0.0
350012.02908761695,3962225.878295721,-32500.0,425.32406530400243,6106.8800337612647,-25498.157107148825,-2356.5188023873734,19599.244911578029,-9626.4233230038117,22015.156303224998,-8704.8950800846433,8091.4286955182479,-8091.4286955182479,8704.8950800846433,42348.800628071469,0.0
355012.02908761695,3962225.878295721,-32500.0,801.49159141275538,1532.619291521381,-27651.872838084277,286.9197006686224,20896.467713724312,-10260.441658388459,22832.586077993965,-13860.190984680807,9872.541164541688,-9872.541164541688,13860.190984680807,43982.859385034884,0.0
360012.02908761695,3962225.878295721,-32500.0,22.907810432225286,-2975.0879121622593,-27516.560205826507,2907.9912998968798,20879.680045329911,-10358.429237020226,22857.474382070017,-17566.097499687203,10015.328776441596,-10015.328776441596,17566.097499687203,44046.60893609382,0.0
365012.02908761695,3962225.878295721,-32500.0,-1640.2786019609127,-6748.1648376002786,-25437.59144204155,5163.3080894997947,19715.758559056721,-9969.1347901775807,22130.441759697544,-19470.856342255858,8723.9051500415917,-8723.9051500415917,19470.856342255858,42663.841733794194,0.0
370012.02908761695,3962225.878295721,-32500.0,-3761.7259912962377,-9395.8520167419392,-22019.787257280113,6835.9687853815685,17714.452894608781,-9200.0059420801699,20795.455336778348,-19621.723090589225,6451.0928149972251,-6451.0928149972251,19621.723090589225,40125.830566159617,0.0
375012.02908761695,3962225.878295721,-32500.0,-5911.8487355069856,-10820.205849598318,-17923.429750942021,7850.1923261614957,15229.496991123497,-8183.785116661069,19044.946049760976,-18347.987978903511,3719.7342754675938,-3719.7342754675938,18347.987978903511,36797.691284513523,0.0
380012.02908761695,3962225.878295721,-32500.0,-7760.2564759218931,-11145.260628077251,-13716.151552143918,8244.7582983075899,12581.276343341166,-7049.3941729786684,17074.613126863671,-16106.682440842887,985.63517629022772,-985.63517629022772,16106.682440842887,33040.217879745811,0.0
385012.02908761695,3962225.878295721,-32500.0,-9114.1926665754636,-10617.591943251769,-9803.0064934812781,8129.2400174313989,10014.824538409497,-5903.3102368802665,15055.141590401001,-13354.325268589173,-1430.8751099507826,1430.8751099507826,13354.325268589173,29160.580722753639,0.0
390012.02908761695,3962225.878295721,-32500.0,-9909.0752501251172,-9518.8603079429631,-6419.5717830522617,7641.8877457300614,7689.1274578132079,-4821.8270068433358,13117.922735976441,-10469.259213625752,-3354.9601664629545,3354.9601664629545,10469.259213625752,25390.830068778771,0.0
395012.02908761695,3962225.878295721,-32500.0,-10174.863643672663,-8107.2343844991319,-3661.1442901716014,6918.6355423933246,5686.5495115433978,-3851.4773704166623,11347.855563732908,-7721.451598242139,-4732.5521911245387,4732.5521911245387,7721.451598242139,21886.521598278916,0.0
400012.02908761695,3962225.878295721,-32500.0,-9997.3101189243262,-6588.0236695252879,-1524.6664134371724,6075.1566698217266,4031.3016178317462,-3014.078182527694,9783.1516291349872,-5274.9427569866102,-5592.6932838890816,5592.6932838890816,5274.9427569866102,18736.801088469892,0.0
405012.02908761695,3962225.878295721,-32500.0,-9485.0469411806371,-5106.1760715321943,51.305944098268299,5199.7384618681754,2709.1762685514163,-2313.4382321637618,8428.1145353193951,-3207.2745477802691,-6011.1549834229427,6011.1549834229427,3207.2745477802691,15979.138181444381,0.0
410012.02908761695,3962225.878295721,-32500.0,-8746.607189293456,-3751.8149156572849,1155.3431497441809,4353.3651270569972,1684.3447269664189,-1741.8035294625674,7270.31773970627,-1534.1350983219322,-6082.0942071105655,6082.0942071105655,1534.1350983219322,13614.310030458597,0.0
415012.02908761695,3962225.878295721,-32500.0,-7877.1633726247255,-2571.5824954126529,1882.0049835681227,3573.6437953518039,911.73232420623867,-1285.0878765649243,6290.6518862795647,-232.26542190577766,-5899.276220119219,5899.276220119219,232.26542190577766,11619.351048178285,0.0
420012.02908761695,3962225.878295721,-32500.0,-6952.8298185098865,-1581.0565048611829,2319.4497913606187,2880.1330682492749,345.10868495878208,-926.64595320384728,5467.4802787423068,742.41832118514913,-5545.6143324416898,5545.6143324416898,-742.41832118514913,9957.6913922329277,0.0
425012.02908761695,3962225.878295721,-32500.0,-6029.9328571521,-775.70549775511358,2543.4813329549215,2279.5831006787848,-58.274233522538587,-649.71126449741325,4778.7312343698522,1442.0822450105259,-5088.7702262397424,5088.7702262397424,-1442.0822450105259,8586.5120490296704,0.0
260012.02908761695,3967225.878295721,-32500.0,3038.2591119391068,-4053.8671996611415,4008.2614201203228,2245.7395390710208,-2342.9148370374642,1049.0377713181197,4770.3660482517535,-1721.1274008369421,1537.1335692444434,-1537.1335692444434,1721.1274008369421,9366.256518058939,0.0
265012.02908761695,3967225.878295721,-32500.0,2678.4388766606958,-4262.4099321966705,4621.6399551003178,2293.7161916020118,-2640.6063044292719,1158.3690567461188,5125.1985730339857,-1519.7996226661612,1098.1067135823014,-1098.1067135823014,1519.7996226661612,10012.325711847301,0.0
270012.02908761695,3967225.878295721,-32500.0,2184.253763972335,-4405.3607658981882,5304.9062857566259,2293.3020304454762,-2954.6299038910638,1266.8915406002268,5490.5867258892949,-1206.3998089256643,525.80985557790689,-525.80985557790689,1206.3998089256643,10659.813365858148,0.0
275012.02908761695,3967225.878295721,-32500.0,1536.2132470909448,-4448.0127290446299,6049.6010148955083,2226.1716932799022,-3273.8130351167861,1367.9481347119665,5861.2210780123532,-753.17298094291755,-196.85248359077332,196.85248359077332,753.17298094291755,11293.093300525954,0.0
280012.02908761695,3967225.878295721,-32500.0,719.08680066689271,-4346.5273749456201,6836.1698332054866,2070.6191030932059,-3580.0124914816442,1451.8506043421403,6230.9378490340623,-131.1311614245696,-1081.5452914921141,1081.5452914921141,131.1311614245696,11893.781147299631,0.0
285012.02908761695,3967225.878295721,-32500.0,-273.46114735222432,-4048.0277938315071,7628.6914798948819,1802.2923769161293,-3845.6908362716599,1505.1077578600959,6593.6402528558292,686.38844511921491,-2129.2827612984206,2129.2827612984206,-686.38844511921491,12442.87647881114,0.0
290012.02908761695,3967225.878295721,-32500.0,-1432.450031521812,-3492.6291467734259,8368.3698268789994,1396.0048103620347,-4031.2613954745334,1509.7188690543062,6945.2512962523415,1717.5989507183972,-3323.159457938686,3323.159457938686,-1717.5989507183972,12925.626833042601,0.0
295012.02908761695,3967225.878295721,-32500.0,-2725.4877828264489,-2618.7617866601026,8966.3627269920908,829.15413317321861,-4082.6629252733214,1442.7480844007307,7287.2296694250381,2962.7394877068327,-4619.0909989703378,4619.0909989703378,-2962.7394877068327,13340.907286957347,0.0
300012.02908761695,3967225.878295721,-32500.0,-4087.8823528218859,-1373.4726672957404,9297.4839268800242,87.304265941195538,-3930.0654355655552,1276.5271506058327,7632.0663979716537,4390.659428660807,-5935.461832003275,5935.461832003275,-4390.659428660807,13717.096058423376,0.0
305012.02908761695,3967225.878295721,-32500.0,-5415.1950745935246,270.69695705477983,9197.8396581684356,-827.72096178880793,-3489.2163987441068,979.97998815840469,8010.3417195147922,5922.1004535131942,-7144.1052134063448,7144.1052134063448,-5922.1004535131942,14134.540056234189,0.0
310012.02908761695,3967225.878295721,-32500.0,-6561.4241277320007,2291.7957825521526,8471.4447791175899,-1887.5384412528235,-2667.5877819975594,521.67361813893388,8476.5846241444724,7412.5699291102173,-8067.3327555449287,8067.3327555449287,-7412.5699291102173,14746.918421568229,0.0
315012.02908761695,3967225.878295721,-32500.0,-7349.0270847574639,4590.0973730775868,6912.5286619128819,-3026.3736362762561,-1377.7992912612497,-124.83928477491553,9107.3197942551087,8641.4758165488747,-8488.2735902772401,8488.2735902772401,-8641.4758165488747,15777.562902868764,0.0
320012.02908761695,3967225.878295721,-32500.0,-7597.4945015652102,6963.4168305550611,4349.706178217365,-4133.5028802949364,439.99022915706962,-973.19275242483968,9982.9913255465362,9318.7082349148277,-8182.8670022898268,8182.8670022898268,-9318.7082349148277,17457.976676691389,0.0
325012.02908761695,3967225.878295721,-32500.0,-7173.3388797114476,9101.2313894091058,712.35339934029616,-5055.1027873107423,2787.9772125611385,-2014.6420402669246,11153.473831937357,9122.1641707821109,-6978.1787475820065,6978.1787475820065,-9122.1641707821109,19914.675035240285,0.0
330012.02908761695,3967225.878295721,-32500.0,-6053.5010672739936,10616.584988051565,-3893.9411173922276,-5612.3438710543596,5579.7855367467373,-3209.0758687549651,12603.53087188133,7774.2916448488158,-4829.7946678203152,4829.7946678203152,-7774.2916448488158,23079.094623980829,0.0
335012.02908761695,3967225.878295721,-32500.0,-4377.9455423356858,11127.394281275643,-9134.1609482768981,-5638.8400108396563,8622.3340717523133,-4480.6408281100448,14240.441341937243,5147.4604085441752,-1891.7750231926466,1891.7750231926466,-5147.4604085441752,26683.775696483692,0.0
340012.02908761695,3967225.878295721,-32500.0,-2456.2543024597821,10374.607860462222,-14454.203205281303,-5030.8846796163734,11626.795881177652,-5722.5302410959275,15910.464445520884,1360.440052152908,1462.7058944845683,-1462.7058944845683,-1360.440052152908,30328.282818342323,0.0
345012.02908761695,3967225.878295721,-32500.0,-703.67691028979618,8332.271391729244,-19179.986278352284,-3791.949433495342,14257.178919795057,-6813.164490583521,17430.280548826879,-3189.3424301628534,4703.9059854895895,-4703.9059854895895,3189.3424301628534,33571.377647517911,0.0
350012.02908761695,3967225.878295721,-32500.0,480.80795167294661,5250.2229167411324,-22684.911101392248,-2048.3587452767588,16206.422242250565,-7640.7362352773325,18614.764109741176,-7895.823026871306,7284.7867147398547,-7284.7867147398547,7895.823026871306,36023.531429761402,0.0
355012.02908761695,3967225.878295721,-32500.0,841.17500137835248,1596.7082355388973,-24558.003749892639,-23.806611041454737,17271.46848021742,-8127.8193806051695,19308.245715858673,-12101.042345032778,8800.3785114080583,-8800.3785114080583,12101.042345032778,37420.810415567656,0.0
360012.02908761695,3967225.878295721,-32500.0,334.44294943782643,-2076.254761444724,-24697.526293961288,2018.2297108185094,17396.095952964435,-8246.6621262626213,19427.712738223894,-15270.373769954216,9093.0627863130121,-9093.0627863130121,15270.373769954216,37662.4163909829,0.0
365012.02908761695,3967225.878295721,-32500.0,-882.66502316160756,-5280.7180881253817,-23297.231633043455,3838.9128946337264,16667.178491515384,-8020.1973464625999,18981.80339095158,-17110.128850476147,8262.4946983380178,-8262.4946983380178,17110.128850476147,36805.253620981872,0.0
370012.02908761695,3967225.878295721,-32500.0,-2529.9501505169337,-7693.380951312457,-20749.761170170503,5270.5078652437442,15273.348250964071,-7510.4720888546226,18053.15158180067,-17591.648136799398,6593.5951365928177,-6593.5951365928177,17591.648136799398,35024.95589032086,0.0
375012.02908761695,3967225.878295721,-32500.0,-4298.0904712879246,-9185.1669492038309,-17521.931395325286,6233.6459832592682,13448.469624333453,-6800.6646271540449,16766.367210039636,-16896.952302252881,4450.0414076056677,-4450.0414076056677,16896.952302252881,32562.249795583597,0.0
380012.02908761695,3967225.878295721,-32500.0,-5923.3404725886276,-9792.8131507919461,-14049.791891572182,6728.8848568120848,11421.013688236042,-5977.3116898469989,15258.390576438062,-15327.896833776316,2179.2742014285632,-2179.2742014285632,15327.896833776316,29672.435601928952,0.0
385012.02908761695,3967225.878295721,-32500.0,-7226.607856888555,-9661.7044026199401,-10675.917413707322,6813.6593884785825,9380.7502973185037,-5117.0925536409804,13657.42292089046,-13218.111128040302,53.137765945833962,-53.137765945833962,13218.111128040302,26588.400659469746,0.0
390012.02908761695,3967225.878295721,-32500.0,-8119.7501390901334,-8986.3985185613747,-7628.319721629834,6575.8534961340565,7464.2838223146136,-4279.59599293257,12070.445530076584,-10869.706054033993,-1753.7674982300596,1753.7674982300596,10869.706054033993,23499.77320566227,0.0
395012.02908761695,3967225.878295721,-32500.0,-8590.7590407217285,-7964.1835259541394,-5028.6079046228069,6111.3901177628131,5755.1288898578659,-3505.3872086523493,10575.565064556446,-8519.7162050785919,-3158.2090033812574,3158.2090033812574,8519.7162050785919,20545.839364067342,0.0
400012.02908761695,3967225.878295721,-32500.0,-8680.1095169954424,-6766.4208645427734,-2915.0141602306658,5508.9376167442324,4292.2611535263977,-2817.6828704247141,9217.6024264616153,-6330.9949404848321,-4147.9874908714537,4147.9874908714537,6330.9949404848321,17817.855493678464,0.0
405012.02908761695,3967225.878295721,-32500.0,-8457.1185475168641,-5525.7655268834033,-1269.1516262873076,4841.7191660415683,3081.9018604712364,-2225.8710934250525,8012.5847379996558,-4398.7618441759523,-4757.7022669014923,4757.7022669014923,4398.7618441759523,15366.478365984132,0.0
410012.02908761695,3967225.878295721,-32500.0,-8000.9922313263896,-4334.6221959307659,-39.902105436200131,4164.8492387421293,2109.0585766863178,-1729.5076721354596,6959.706701915361,-2764.644283739307,-5047.0458261309113,5047.0458261309113,2764.644283739307,13211.046941793484,0.0
415012.02908761695,3967225.878295721,-32500.0,-7387.9904420075218,-3250.0307819362688,838.36072631841512,3516.2148823886214,1347.0339481358913,-1321.9454068251828,6050.3490692313235,-1432.3896194854497,-5084.4198766459476,5084.4198766459476,1432.3896194854497,11348.622919608928,0.0
420012.02908761695,3967225.878295721,-32500.0,-6684.1944170210063,-2301.2423802296012,1433.5130082165792,2919.1883809777228,764.37451024643497,-993.22056106975629,5272.0614759880882,-381.94066818142346,-4936.2208696232246,4936.2208696232246,381.94066818142346,9761.7433692928826,0.0
425012.02908761695,3967225.878295721,-32500.0,-5942.528475398567,-1497.5620752349544,1808.4643643386423,2385.9369573571253,329.42045343149096,-732.11692026413937,4610.4676956161311,419.53478515297184,-4660.90043824247,4660.90043824247,-419.53478515297184,8424.4959152471401,0.0
265012.02908761695,3972225.878295721,-32500.0,1787.3126722176348,-3715.9849333161183,4600.6316370831009,1804.6993273402411,-2410.44756666378,967.55907611943064,4594.0015404209926,-941.10957307325634,359.11362195487101,-359.11362195487101,941.10957307325634,8917.4105753810327,0.0
270012.02908761695,3972225.878295721,-32500.0,1267.9143224784741,-3740.997538534566,5195.7181295807368,1747.4752975020167,-2654.0248623982066,1040.6398881333694,4886.8407849472796,-571.13258671166886,-220.81431697789054,220.81431697789054,571.13258671166886,9415.3984095660799,0.0
275012.02908761695,3972225.878295721,-32500.0,622.19064293443284,-3656.3847330977001,5819.3410192303136,1626.130369150949,-2887.897294716834,1102.0949058511401,5179.4933552801795,-74.90570320679376,-921.12935908423742,921.12935908423742,74.90570320679376,9889.7293062554381,0.0
280012.02908761695,3972225.878295721,-32500.0,-154.32604088328665,-3424.9304462762871,6445.3728022136165,1424.1330897105217,-3093.4172789303993,1143.220070205005,5467.9422367702255,565.88305282145984,-1742.2655350447385,1742.2655350447385,-565.88305282145984,10327.576647192325,0.0
285012.02908761695,3972225.878295721,-32500.0,-1056.1567165599758,-3004.8283322580028,7032.5769205700044,1124.3576568460664,-3244.3113398570263,1152.5232478928535,5749.534720847786,1363.9605480193538,-2672.9453296386628,2672.9453296386628,-1363.9605480193538,10718.985197583297,0.0
290012.02908761695,3972225.878295721,-32500.0,-2062.9594807515359,-2352.8829489650166,7520.255265440971,711.06663939098576,-3305.2241147476193,1115.4434151973458,6025.0997064571984,2320.7151632897867,-3684.5649234004695,3684.5649234004695,-2320.7151632897867,11062.525638230281,0.0
295012.02908761695,3972225.878295721,-32500.0,-3134.129638800759,-1430.4837972378934,7824.3669954025345,173.07647826242629,-3230.8516752457508,1014.3918878533326,6302.1740951887323,3418.2623009756207,-4724.9349316635989,4724.9349316635989,-3418.2623009756207,11374.587723472738,0.0
300012.02908761695,3972225.878295721,-32500.0,-4204.0272247629091,-213.19538687156793,7835.6671773639464,-491.70389224644066,-2966.4094737827095,829.36402373789906,6599.1655783267324,4609.5941177681079,-5712.5831139534012,5712.5831139534012,-4609.5941177681079,11702.529931136427,0.0
305012.02908761695,3972225.878295721,-32500.0,-5179.860879863857,1295.6829322663716,7422.3449484261018,-1270.4576085798258,-2450.4852021375368,539.42371504952064,6949.2210605976925,5808.1229200554726,-6533.8949906144871,6533.8949906144871,-5808.1229200554726,12138.509378284954,0.0
310012.02908761695,3972225.878295721,-32500.0,-5945.2456762286683,3048.5179278960327,6440.4984486480225,-2129.0480796550246,-1621.5131074523281,125.35757996546428,7400.7394164712214,6879.6204082376598,-7046.5929486850373,7046.5929486850373,-6879.6204082376598,12823.290487454706,0.0
315012.02908761695,3972225.878295721,-32500.0,-6372.9521339324319,4936.987661870483,4755.8727183713008,-3006.6033873750998,-428.89307694037831,-426.34063500608147,8010.0553472139691,7641.6799503040702,-7093.831300309118,7093.831300309118,-7641.6799503040702,13922.159106899415,0.0
320012.02908761695,3972225.878295721,-32500.0,-6349.3430824285706,6782.4749732776409,2278.4618838854976,-3813.7829510304914,1151.2219890586657,-1118.3449776918517,8824.0270985840034,7877.4597185525408,-6532.3366893200791,6532.3366893200791,-7877.4597185525408,15565.570531403215,0.0
325012.02908761695,3972225.878295721,-32500.0,-5809.2431265600808,8342.4924686904014,-993.35285133329126,-4438.1384059208303,3097.563484632487,-1937.0299443408489,9857.7069942827911,7369.6784004821311,-5274.0465196718342,5274.0465196718342,-7369.6784004821311,17782.185978908892,0.0
330012.02908761695,3972225.878295721,-32500.0,-4773.200766998455,9341.9412436907278,-4930.4590211976383,-4759.3590413468455,5327.9144336060845,-2848.2319138628554,11078.746005470577,5955.2032489428357,-3332.9287632232181,3332.9287632232181,-5955.2032489428357,20468.587229602123,0.0
335012.02908761695,3972225.878295721,-32500.0,-3371.6924254442024,9531.0284036405337,-9251.6899989151389,-4674.234804401106,7693.4961488802646,-3796.389628080155,12407.265954492756,3589.3595328873803,-859.42281054192836,859.42281054192836,-3589.3595328873803,23407.137585542783,0.0
340012.02908761695,3972225.878295721,-32500.0,-1838.5682758461367,8757.8253788457714,-13543.81629879811,-4126.0105391109691,9990.9852915260235,-4709.0059989915417,13730.483085735519,396.38179902761351,1859.3133836958918,-1859.3133836958918,-396.38179902761351,26311.268019795618,0.0
345012.02908761695,3972225.878295721,-32500.0,-464.96542599447292,7029.0480413179994,-17330.98171038627,-3127.8325188300369,11994.384727103185,-5506.9023190221924,14923.417697489753,-3322.1435287159752,4446.8352656041434,-4446.8352656041434,3322.1435287159752,28879.310865051481,0.0
350012.02908761695,3972225.878295721,-32500.0,475.79106418333487,4529.3534970376404,-20178.176932470225,-1769.2346653171903,13499.899567529568,-6118.2809443912856,15864.303448542143,-7136.5559098317153,6524.4233147712475,-6524.4233147712475,7136.5559098317153,30847.236434318474,0.0
355012.02908761695,3972225.878295721,-32500.0,803.51586660685655,1584.7017216845052,-21792.128912875552,-200.46611285569256,14369.091655424379,-6492.4486444764752,16447.564754745883,-10584.926985161286,7806.5242812700517,-7806.5242812700517,10584.926985161286,32031.297544193982,0.0
360012.02908761695,3972225.878295721,-32500.0,475.20641116768331,-1417.848851416474,-22080.697897198443,1400.6196126408192,14554.85640053192,-6608.7089880227632,16608.445806614778,-13279.661795502469,8166.3315635207709,-8166.3315635207709,13279.661795502469,32351.417050772317,0.0
365012.02908761695,3972225.878295721,-32500.0,-417.55754880370182,-4121.226027601123,-21151.843349904993,2866.7125974827263,14102.34075513638,-6477.8253292289601,16341.064572638972,-14984.670337288311,7648.4979903129151,-7648.4979903129151,14984.670337288311,31831.082429679271,0.0
370012.02908761695,3972225.878295721,-32500.0,-1690.0256729657979,-6267.0751011878938,-19261.451264362335,4071.1924016466169,13127.86084382855,-6136.4526444864669,15692.300371683208,-15640.689527363222,6432.426874668342,-6432.426874668342,15640.689527363222,30577.284937345896,0.0
375012.02908761695,3972225.878295721,-32500.0,-3122.1103051525624,-7724.989455311339,-16737.350467363613,4942.8283927915954,11786.372543335297,-5637.2687634196827,14742.943228965611,-15341.745731871833,4768.9797654943322,-4768.9797654943322,15341.745731871833,28749.48829624963,0.0
380012.02908761695,3972225.878295721,-32500.0,-4510.2536110093752,-8484.5370490327732,-13907.65141233483,5464.9496718511491,10239.10118825859,-5038.2413435516573,13588.297661473694,-14282.834751080563,2916.8926029578488,-2916.8926029578488,14282.834751080563,26527.435924193167,0.0
385012.02908761695,3972225.878295721,-32500.0,-5700.4646399514213,-8624.0987720850335,-11050.649463055744,5663.9536676252546,8629.2073379924313,-4393.7367568531117,12323.104611506191,-12701.816740271403,1096.4571665919311,-1096.4571665919311,12701.816740271403,24084.834674025944,0.0
390012.02908761695,3972225.878295721,-32500.0,-6600.4394112063428,-8272.415948828062,-8370.5746228846219,5593.407734618213,7068.2464126545819,-3748.7924242138974,11031.664451487761,-10831.738338125058,-533.93812306100335,533.93812306100335,10831.738338125058,21571.986907731658,0.0
395012.02908761695,3972225.878295721,-32500.0,-7175.5872091009651,-7574.3549022701191,-5994.6986751149243,5318.7657190404016,5632.3304159219151,-3136.632522150262,9781.3155057573076,-8870.4001423206373,-1881.5589282790297,1881.5589282790297,8870.4001423206373,19107.273432777834,0.0
400012.02908761695,3972225.878295721,-32500.0,-7436.0687484366126,-6666.4372734811523,-3983.8580971705242,4905.5351968552814,4365.0050144011193,-2578.7202380443755,8617.0791816165274,-6966.7180413408587,-2910.3380524113363,2910.3380524113363,6966.7180413408587,16775.571330402203,0.0
405012.02908761695,3972225.878295721,-32500.0,-7421.0906440916215,-5662.9242484179522,-2348.8691603127822,4411.7446943789237,3283.6500836407704,-2086.3825652066248,7561.0144127543226,-5219.6816862640862,-3626.135539322921,3626.135539322921,5219.6816862640862,14631.179058110909,0.0
410012.02908761695,3972225.878295721,-32500.0,-7184.5614868325974,-4650.5597602812668,-1067.464248136368,3884.2766289751853,2386.8879017540571,-1663.1294243020736,6619.3917582072563,-3684.8511449680568,-4061.3809121357722,4061.3809121357722,3684.8511449680568,12703.054295527554,0.0
415012.02908761695,3972225.878295721,-32500.0,-6784.0786917134874,-3689.1597111083124,-98.737278767847641,3358.0535903950486,1661.4092829725428,-1307.0292645316956,5790.4745160202656,-2384.0954185581877,-4262.0240749737623,4262.0240749737623,2384.0954185581877,11000.728483417874,0.0
420012.02908761695,3972225.878295721,-32500.0,-6273.657815062189,-2815.4234467081542,606.01444983900808,2856.9996493800968,1087.4746295840503,-1012.7835804488412,5068.3311729996858,-1315.6663757889362,-4277.9080050882585,4277.9080050882585,1315.6663757889362,9519.9038533133007,0.0
270012.02908761695,3977225.878295721,-32500.0,544.20403639605047,-3095.5433569601469,4980.330927462559,1292.0022431710424,-2347.9382287533485,845.37669466913303,4340.2598106526921,-36.437505648325953,-785.62923553644987,785.62923553644987,36.437505648325953,8290.193232197731,0.0
275012.02908761695,3977225.878295721,-32500.0,-70.059359672581465,-2914.1317630469584,5480.2337953908027,1138.2636543639169,-2508.3351418651914,877.10665529260086,4571.5604876408006,471.34273295073172,-1436.301299095159,1436.301299095159,-471.34273295073172,8642.0187634002177,0.0
280012.02908761695,3977225.878295721,-32500.0,-779.94170710120216,-2592.1548707328598,5951.3140512189721,914.17841022372932,-2630.8356669453583,887.65383567264939,4798.6019132397669,1096.6552272341642,-2170.2550161296685,2170.2550161296685,-1096.6552272341642,8960.7211158766386,0.0
285012.02908761695,3977225.878295721,-32500.0,-1572.4810936366841,-2098.7635715830488,6351.2688872124872,608.62776925527965,-2691.8302034021135,867.60647047734346,5021.8804418235377,1841.2781867442186,-2968.5791211063529,2968.5791211063529,-1841.2781867442186,9244.9313515414451,0.0
290012.02908761695,3977225.878295721,-32500.0,-2421.6855533580438,-1405.5509893847263,6622.4103190558008,213.07577472536371,-2661.2791681170215,805.5870664655256,5246.1034701120425,2694.8333700067692,-3797.1569287076513,3797.1569287076513,-2694.8333700067692,9504.385344278815,0.0
295012.02908761695,3977225.878295721,-32500.0,-3285.4165896569616,-492.1878772679903,6690.2697087640427,-275.80632710061525,-2502.8204749663769,688.52798104418389,5482.7218708673245,3628.7942054444866,-4602.9879816049033,4602.9879816049033,-3628.7942054444866,9767.8561245756191,0.0
300012.02908761695,3977225.878295721,-32500.0,-4103.5671851105099,645.62867159504106,6464.5591499853035,-852.75570296820013,-2175.1123651631688,502.40177631148305,5752.4617875748072,4589.962934657241,-5311.8867509161546,5311.8867509161546,-4589.962934657241,10092.036952129092,0.0
305012.02908761695,3977225.878295721,-32500.0,-4799.070336512681,1986.2412824193971,5844.2247050537972,-1500.0578440003769,-1635.0555176126397,233.57039508868786,6086.3823942544259,5494.8397016013232,-5829.3286356017006,5829.3286356017006,-5494.8397016013232,10566.433905040878,0.0
310012.02908761695,3977225.878295721,-32500.0,-5283.6164230346758,3471.497948170987,4728.4909042305453,-2183.9104433271491,-843.49429241512405,-129.13311694080852,6523.0880263093213,6227.3437930723321,-6046.6911362057162,6046.6911362057162,-6227.3437930723321,11304.887772913404,0.0
315012.02908761695,3977225.878295721,-32500.0,-5469.7359059992814,4998.5229019915778,3035.230801963648,-2852.2361237403638,226.36118402136316,-591.61391790442269,7100.1502674620715,6643.3117383825065,-5855.0288699709199,5855.0288699709199,-6643.3117383825065,12416.015150078123,0.0
320012.02908761695,3977225.878295721,-32500.0,-5289.5838157595372,6418.2867157656055,726.13445682929773,-3435.6317352003721,1578.3750328577105,-1151.2924320855082,7840.8685782711818,6585.3735576875215,-5167.17748007721,5167.17748007721,-6585.3735576875215,13960.201983044464,0.0
325012.02908761695,3977225.878295721,-32500.0,-4717.9963598009826,7546.1457839404302,-2165.2594816829283,-3853.1832846367142,3182.6837378218593,-1794.0755274068686,8741.6900164974213,5910.1788453678328,-3945.9053979424007,3945.9053979424007,-5910.1788453678328,15917.418705396507,0.0
330012.02908761695,3977225.878295721,-32500.0,-3793.6002379152224,8187.853365306848,-5510.8923929582788,-4024.0515552578695,4968.018440695002,-2492.4948214622236,9766.4836537057472,4525.7018939391892,-2231.3293018258628,2231.3293018258628,-4525.7018939391892,18183.007683266565,0.0
335012.02908761695,3977225.878295721,-32500.0,-2628.7232953404855,8179.5003675810094,-9082.0891426312937,-3883.785577077781,6821.3372060787551,-3206.1285940650387,10850.164321128059,2430.0281816839506,-156.75590054305167,156.75590054305167,-2430.0281816839506,20586.624149096642,0.0
340012.02908761695,3977225.878295721,-32500.0,-1399.4042578468425,7432.2971930133926,-12569.740464978522,-3401.6716078465374,8598.0558536812277,-3885.1170539952614,11909.776064002559,-262.53847279954266,2058.1943671960298,-2058.1943671960298,262.53847279954266,22921.602446289027,0.0
345012.02908761695,3977225.878295721,-32500.0,-312.91411229013863,5966.8073217035353,-15632.475347442833,-2593.3821581434158,10143.007988792609,-4476.7175303459044,12858.192137613178,-3322.4749329296005,4142.1567721327447,-4142.1567721327447,3322.4749329296005,24977.303076742079,0.0
350012.02908761695,3977225.878295721,-32500.0,439.65541696800369,3921.3148363826508,-17962.229667555479,-1523.4458082200556,11317.739499806616,-4933.6562244660827,13613.354886515172,-6439.5331207757145,5827.6470490807687,-5827.6470490807687,6439.5331207757145,26570.458464190615,0.0
355012.02908761695,3977225.878295721,-32500.0,729.64578843904656,1527.7581771738862,-19346.722506239406,-295.27767855218337,12026.227001334319,-5222.0970657315775,14102.838059341939,-9283.1741052449179,6910.0789908780471,-6910.0789908780471,9283.1741052449179,27570.791336107464,0.0
360012.02908761695,3977225.878295721,-32500.0,519.00328795792586,-937.74758581154629,-19707.809386113884,968.62487246911792,12230.96724415982,-5326.9415650281444,14276.895068430355,-11569.359855288691,7289.5093655203937,-7289.5093655203937,11569.359855288691,27915.885870768256,0.0
365012.02908761695,3977225.878295721,-32500.0,-138.53951198176753,-3212.3317570500308,-19104.65900610427,2149.9024677251709,11955.041016190271,-5253.0749536817029,14123.707003343348,-13111.618599267822,6981.9943652668298,-6981.9943652668298,13111.618599267822,27612.71004476304,0.0
370012.02908761695,3977225.878295721,-32500.0,-1120.360645479599,-5093.0294200257576,-17705.126071286344,3153.9025659847998,11271.108542569133,-5022.5877127252006,13669.196873501121,-13842.574102156515,6100.7782126404081,-6100.7782126404081,13842.574102156515,26727.067053960891,0.0
375012.02908761695,3977225.878295721,-32500.0,-2270.5081055636356,-6461.2250974454946,-15739.23665893165,3920.9261995567085,10282.452435543073,-4669.2408895924855,12965.878975112721,-13805.130288402328,4818.510034111895,-4818.510034111895,13805.130288402328,25365.378913149376,0.0
380012.02908761695,3977225.878295721,-32500.0,-3434.8693317448178,-7283.683245062517,-13451.095408828003,4428.1825115587535,9102.4409193602096,-4231.9723236690588,12080.037799246727,-13122.792801260051,3325.3683417729753,-3325.3683417729753,13122.792801260051,23654.21764114617,0.0
385012.02908761695,3977225.878295721,-32500.0,-4486.8415113936144,-7596.533297712469,-11061.160402442443,4684.4582011234788,7837.4606692767566,-3749.056541424261,11081.088044733187,-11962.217112988605,1794.8474724532362,-1794.8474724532362,11962.217112988605,21722.067092707315,0.0
390012.02908761695,3977225.878295721,-32500.0,-5340.2351818006182,-7481.3194272764858,-8743.9109481410123,4720.8540148990242,6575.8324299562291,-3253.8941198184857,10034.108665310658,-10498.92696779934,362.7935268127685,-362.7935268127685,10498.92696779934,19685.872642879367,0.0
395012.02908761695,3977225.878295721,-32500.0,-5950.8135643178084,-7040.9569350200327,-6620.1559607758581,4580.7531814859594,5382.8875709459589,-2772.7170309829075,8994.8054651347611,-8892.3356836103267,-880.30170527918972,880.30170527918972,8892.3356836103267,17643.047077659892,0.0
400012.02908761695,3977225.878295721,-32500.0,-6310.2016326404146,-6380.4127803274932,-4760.0650946462865,4311.1926163516655,4300.9293206047614,-2323.978899194381,8004.8899303176295,-7271.6001769004361,-1887.013465128683,1887.013465128683,7271.6001769004361,15668.306596114235,0.0
405012.02908761695,3977225.878295721,-32500.0,-6436.1978485509126,-5593.8881105876299,-3192.2448847835858,3956.6477631747034,3352.2645176585033,-1918.9367417166436,7088.8811135309516,-5730.7831134294402,-2644.9439404151262,2644.9439404151262,5730.7831134294402,13814.053189368795,0.0
410012.02908761695,3977225.878295721,-32500.0,-6362.6211440249281,-4758.1627670503749,-1914.9542828094011,3555.3424159322808,2543.6501564988957,-1562.8999042898488,6257.1094317386014,-4330.5167014555918,-3166.5987068067525,3166.5987068067525,4330.5167014555918,12112.955443625737,0.0
415012.02908761695,3977225.878295721,-32500.0,-6130.5972088553253,-3930.6904847643827,-906.82466540035978,3137.6652422177995,1870.9232874282879,-1256.7077415422814,5512.0513507531159,-3103.2880771148257,-3479.6974326542231,3479.6974326542231,3103.2880771148257,10581.558607605784,0.0
275012.02908761695,3982225.878295721,-32500.0,-575.54188454618816,-2243.3390264899404,5069.004910900806,749.55252749641681,-2149.0579741484921,689.63264895569034,4035.323059683562,891.64241397664682,-1777.3974315172691,1777.3974315172691,-891.64241397664682,7547.104460251916,0.0
280012.02908761695,3982225.878295721,-32500.0,-1205.6798200449493,-1864.9903925024985,5398.7460593287497,520.69154688954961,-2205.7348095271727,679.26366551201511,4217.1732368173907,1477.9026359202796,-2413.6645622583565,2413.6645622583565,-1477.9026359202796,7782.429460392279,0.0
285012.02908761695,3982225.878295721,-32500.0,-1884.3209371207254,-1337.0481212946938,5636.4496485235231,226.10603498789504,-2199.3151901623378,640.89049045499542,4399.6984454143512,2148.9022728526797,-3078.5390167191763,3078.5390167191763,-2148.9022728526797,7998.4107108218632,0.0
290012.02908761695,3982225.878295721,-32500.0,-2583.9053248372288,-643.12609962104875,5730.3474119577077,-137.62027699133242,-2105.2260827982827,565.86636033330581,4590.2314002970297,2886.9867202887926,-3736.8312648864876,3736.8312648864876,-2886.9867202887926,8213.0045980345913,0.0
295012.02908761695,3982225.878295721,-32500.0,-3264.8252074438055,223.67318284337401,5617.5368855384677,-568.84050505874018,-1895.2563604142192,444.73478547643987,4802.0703820654626,3658.7555296488754,-4339.1779502173131,4339.1779502173131,-3658.7555296488754,8461.9356108985103,0.0
300012.02908761695,3982225.878295721,-32500.0,-3875.4608969190867,1254.6840056786864,5226.4549155317391,-1058.4848908895708,-1539.1975500178805,267.92603546410635,5055.488369367311,4411.2085723236132,-4821.9235492569014,4821.9235492569014,-4411.2085723236132,8802.8984795015531,0.0
305012.02908761695,3982225.878295721,-32500.0,-4354.7010318880875,2418.9227932493723,4482.638344177768,-1587.6768327264654,-1007.8428095866336,26.863609724231196,5376.8238568864999,5069.4177566060744,-5109.8318359056311,5109.8318359056311,-5069.4177566060744,9313.3377057547004,0.0
310012.02908761695,3982225.878295721,-32500.0,-4637.9666986242682,3656.9950312558531,3318.6790229736098,-2125.9023565767907,-277.56358491282111,-284.49914562266434,5794.3346772711393,5537.4963517260276,-5122.9000874410303,5122.9000874410303,-5537.4963517260276,10076.320607759037,0.0
315012.02908761695,3982225.878295721,-32500.0,-4667.3001049269778,4877.8659874738096,1688.5652561390943,-2630.5749672405741,663.64864963738705,-667.8008795547712,6330.6883815598558,5704.9262244221072,-4788.1085470237585,4788.1085470237585,-5704.9262244221072,11155.022738397929,0.0
320012.02908761695,3982225.878295721,-32500.0,-4404.944201643546,5961.326265103291,-414.86308712658541,-3048.9748141109799,1809.3651562052758,-1118.3025720085973,6994.245952158135,5459.8991439728779,-4055.7102937228306,4055.7102937228306,-5459.8991439728779,12567.06709535809,0.0
325012.02908761695,3982225.878295721,-32500.0,-3848.053596768304,6768.7906198830324,-2942.7280942353791,-3323.354437918355,3128.5627718865412,-1623.2621312854092,7772.7835798153492,4709.7882506268143,-2917.6103237616471,2917.6103237616471,-4709.7882506268143,14272.438455265821,0.0
330012.02908761695,3982225.878295721,-32500.0,-3040.2172209997971,7163.4154639095477,-5778.7013342737764,-3399.3224179440049,4562.2211543082576,-2161.230022226508,8632.2938921024979,3406.0482430695511,-1422.9590268378151,1422.9590268378151,-3406.0482430695511,16178.081895746231,0.0
335012.02908761695,3982225.878295721,-32500.0,-2074.4431354289864,7037.2450598878495,-8739.708671570319,-3236.4312031087807,6024.9030881041899,-2702.835790040519,9521.102358797436,1567.4555230756196,315.48325696846302,-315.48325696846302,-1567.4555230756196,18152.755290890571,0.0
340012.02908761695,3982225.878295721,-32500.0,-1083.4214506038084,6339.0817463119865,-11593.245950111923,-2818.5582315620049,7412.7218150402341,-3213.3857244808505,10377.819191428771,-706.67936064302,2129.8219634362708,-2129.8219634362708,706.67936064302,20045.888004892637,0.0
345012.02908761695,3982225.878295721,-32500.0,-216.78860520549742,5094.0908022845297,-14090.808698172992,-2160.8572678262826,8617.2327416077405,-3657.0979524905283,11140.520181619107,-3240.7816168236263,3821.8363492361691,-3821.8363492361691,3240.7816168236263,21707.614723996001,0.0
350012.02908761695,3982225.878295721,-32500.0,389.47300145399379,3407.0290084317194,-16010.399093678639,-1310.4775245633573,9542.483162381086,-4002.2061831290744,11752.683501065532,-5807.2275559823538,5199.2904763049155,-5199.2904763049155,5807.2275559823538,23008.090373171224,0.0
355012.02908761695,3982225.878295721,-32500.0,642.22787281197452,1446.0591963275015,-17196.279803561822,-340.05328999142472,10120.806459434878,-4225.7349683111015,12164.044919525526,-8165.5009953813587,6113.44095787275,-6113.44095787275,8165.5009953813587,23853.397374774398,0.0
360012.02908761695,3982225.878295721,-32500.0,509.53246446601753,-588.70276669448117,-17584.187762480382,664.53478467050661,10323.000128478288,-4316.7352082587258,12336.631942745706,-10105.144644110782,6486.1613293058199,-6486.1613293058199,10105.144644110782,24195.205341751109,0.0
365012.02908761695,3982225.878295721,-32500.0,22.874524543523702,-2502.1873631573058,-17205.423752572158,1618.6495902309284,10160.364961693918,-4277.212708083799,12256.855262614295,-11479.947289360178,6319.0209963537463,-6319.0209963537463,11479.947289360178,24032.556647712317,0.0
370012.02908761695,3982225.878295721,-32500.0,-735.70046528718001,-4136.1320665770054,-16170.917595574983,2451.6976565115378,9678.8478025857203,-4120.7035303403572,11938.306958482292,-12224.860814768304,5683.6606620304929,-5683.6606620304929,12224.860814768304,23406.226314464955,0.0
375012.02908761695,3982225.878295721,-32500.0,-1655.6285505863561,-5388.1587698569519,-14642.491490680164,3115.3518940056324,8947.8262778675999,-3869.1016240681975,11415.198706808436,-12353.949356550816,4699.0480286069323,-4699.0480286069323,12353.949356550816,22387.849450083875,0.0
380012.02908761695,3982225.878295721,-32500.0,-2621.434837722496,-6216.1986583350208,-12800.789130138441,3586.2078203781944,8047.0695002603579,-3548.6994680181483,10733.73220302787,-11943.784819886558,3504.0573287542638,-3504.0573287542638,11943.784819886558,21066.849261554606,0.0
385012.02908761695,3982225.878295721,-32500.0,-3531.8170625672856,-6630.9450562103893,-10817.764043892412,3863.6132839591683,7055.0114147365675,-3186.3883366968589,9944.5864451749148,-11109.637474761812,2232.9409326213245,-2232.9409326213245,11109.637474761812,19537.950195131671,0.0
390012.02908761695,3982225.878295721,-32500.0,-4311.1751593284871,-6681.3899799758901,-8838.0438144959444,3964.4224107719924,6040.2497797441374,-2806.6759926021987,9097.3709123910048,-9981.5155023678199,998.1988796715932,-998.1988796715932,9981.5155023678199,17891.15511181864,0.0
395012.02908761695,3982225.878295721,-32500.0,-4913.4839702076479,-6438.5033092228705,-6969.9311902238514,3916.5863548160078,5056.8407137196318,-2429.8141442673837,8236.8815309882502,-8684.8109949853861,-117.99156769372621,117.99156769372621,8684.8109949853861,16204.998040931787,0.0
400012.02908761695,3982225.878295721,-32500.0,-5320.271030885292,-5980.7334125411808,-5284.3856734504707,3753.0989165054957,4142.9604278009383,-2071.0054518343236,7399.7733153566151,-7327.5814251060929,-1065.0319829336295,1065.0319829336295,7327.5814251060929,14543.024022232659,0.0
405012.02908761695,3982225.878295721,-32500.0,-5535.115775946384,-5383.2207360077164,-3819.2886933914592,3507.1871176755626,3321.980797973602,-1740.4575656859356,6610.8201445954555,-5994.3179707923073,-1820.2139627032966,1820.2139627032966,5994.3179707923073,12952.894130770788,0.0
410012.02908761695,3982225.878295721,-32500.0,-5576.8714772186031,-4711.1268808579207,-2586.3609383909934,3209.0588735837518,2604.9336754831961,-1443.9886865131457,5882.6017597547698,-4744.8396651635539,-2382.5198562655723,2382.5198562655723,4744.8396651635539,11467.336582188975,0.0
275012.02908761695,3987225.878295721,-32500.0,-928.92466088047684,-1654.620554565327,4617.0536858157002,445.74265670200776,-1818.639542785919,535.48219271812138,3566.3863537693933,1198.8397721611709,-1979.1385786282899,1979.1385786282899,-1198.8397721611709,6596.4013674588741,0.0
280012.02908761695,3987225.878295721,-32500.0,-1475.4848084729247,-1247.5673493475497,4823.4400390991932,223.67072295885563,-1825.0397731979879,511.58809669018393,3715.7705494839615,1731.6428574211352,-2516.5857486586438,2516.5857486586438,-1731.6428574211352,6776.4414880666018,0.0
285012.02908761695,3987225.878295721,-32500.0,-2044.590781537617,-714.15212777621468,4926.3457352112655,-49.992085090702012,-1770.3278227340347,462.91377488745906,3870.4887945994687,2319.6486985337456,-3055.913128270789,3055.913128270789,-2319.6486985337456,6952.812319710175,0.0
290012.02908761695,3987225.878295721,-32500.0,-2609.7272385373367,-47.108026166492145,4881.2552012469987,-375.26037894160379,-1634.998765623742,383.03795229859776,4039.2757979062771,2941.4770001164279,-3563.6997008952849,3563.6997008952849,-2941.4770001164279,7148.5307130107785,0.0
295012.02908761695,3987225.878295721,-32500.0,-3135.9034265041846,751.30459730144673,4636.9733417078141,-747.64099592748244,-1397.7716447015168,265.27473584531202,4235.598460303916,3562.8588525804785,-3996.4871463469494,3996.4871463469494,-3562.8588525804785,7401.3688670086231,0.0
300012.02908761695,3987225.878295721,-32500.0,-3580.7043605456893,1664.9456177582372,4138.6926530910241,-1156.5819608070738,-1037.2002348503474,103.26982165812177,4477.4978198783292,4134.7115541123039,-4301.8874791029393,4301.8874791029393,-4134.7115541123039,7763.969792371664,0.0
305012.02908761695,3987225.878295721,-32500.0,-3897.3011900299302,2659.5169041288864,3333.4962646727927,-1584.1137688838112,-534.20451001873903,-108.14556014701775,4785.6343148751475,4592.8530326153059,-4421.9671330828924,4421.9671330828924,-4592.8530326153059,8297.4079385248806,0.0
310012.02908761695,3987225.878295721,-32500.0,-4039.8817708146757,3679.4567342584983,2178.5998454154956,-2004.1085693575324,124.45635433696594,-371.86438112222095,5179.1347676666237,4860.5191613287925,-4299.5258515396226,4299.5258515396226,-4860.5191613287925,9056.7871610315506,0.0
315012.02908761695,3987225.878295721,-32500.0,-3971.4987794068643,4647.5291183298541,651.99786910794728,-2382.6956884094329,942.00460116985221,-687.27455243246743,5669.9820875967935,4854.8038347316524,-3887.400903512937,3887.400903512937,-4854.8038347316524,10073.264876852378,0.0
320012.02908761695,3987225.878295721,-32500.0,-3673.5081457714723,5468.7702964399377,-1235.831174599635,-2680.3622335127902,1907.3596362080459,-1049.0832248065051,6257.862499073869,4497.6063170758198,-3160.0022361156316,3160.0022361156316,-4497.6063170758198,11341.155501484893,0.0
325012.02908761695,3987225.878295721,-32500.0,-3154.6993048854983,6039.9974615915007,-3431.7298460376815,-2856.0491590005099,2991.7487887645093,-1446.4807157637445,6927.4597995858703,3730.4776115823724,-2125.010171295793,2125.010171295793,-3730.4776115823724,12815.437028767392,0.0
330012.02908761695,3987225.878295721,-32500.0,-2457.2837432111651,6264.791541541359,-5834.6936889975796,-2873.0670749677611,4147.473655025924,-1862.9763259508486,7649.0600079435681,2531.0179761465151,-831.95206036177387,831.95206036177387,-2531.0179761465151,14417.985803021003,0.0
335012.02908761695,3987225.878295721,-32500.0,-1656.7137676698314,6071.8495187692015,-8299.2475483310045,-2705.9654271247091,5309.9991221223027,-2277.1933045625328,8382.1162831001948,926.72881313116739,626.09416156909117,-626.09416156909117,-926.72881313116739,16048.17067593199,0.0
340012.02908761695,3987225.878295721,-32500.0,-853.38796442959142,5432.4971162124884,-10649.333097341505,-2346.8202088352482,6403.9164401309881,-2664.7339064619564,9080.8549894685584,-998.59651583637162,2120.4415246108892,-2120.4415246108892,998.59651583637162,17595.081047019063,0.0
345012.02908761695,3987225.878295721,-32500.0,-156.72171152385695,4372.0648366592468,-12701.630544988,-1809.1056522499409,7352.2456989921338,-3000.9461493161948,9700.5338667147644,-3109.8269998512405,3504.5232363709774,-3504.5232363709774,3109.8269998512405,18950.298337080494,0.0
350012.02908761695,3987225.878295721,-32500.0,334.99539923074201,2970.7296501410178,-14293.677974765846,-1127.6785337779602,8087.3303469267448,-3264.1140974565001,10201.468226204726,-5237.6016279238984,4638.0451483473908,-4638.0451483473908,5237.6016279238984,20020.162177120659,0.0
355012.02908761695,3987225.878295721,-32500.0,553.46972343513175,1352.4121936107072,-15309.778430289798,-354.43625384875151,8560.7923224004589,-3438.3956779775003,10548.371088725895,-7204.2937445276657,5411.3985453745445,-5411.3985453745445,7204.2937445276657,20735.937569133341,0.0
360012.02908761695,3987225.878295721,-32500.0,472.55719970030742,-335.74242808689939,-15697.858277763184,449.45562305258312,8750.0938444765616,-3515.8383947838765,10712.267132986379,-8852.2677773436335,5763.6212641299499,-5763.6212641299499,8852.2677773436335,21060.205344378071,0.0
365012.02908761695,3987225.878295721,-32500.0,110.54062069071006,-1947.6969890015482,-15473.293268332136,1222.8107250277287,8660.2357870484211,-3497.0423203982264,10679.743859083084,-10067.072689584253,5689.3343512523998,-5689.3343512523998,10067.072689584253,20988.472565080534,0.0
370012.02908761695,3987225.878295721,-32500.0,-477.21631106675022,-3360.2926666328058,-14709.926281990738,1912.8833595351728,8320.5871797172404,-3390.4123841959158,10457.139741588409,-10790.272565822826,5233.8784720209669,-5233.8784720209669,10790.272565822826,20546.110371146046,0.0
375012.02908761695,3987225.878295721,-32500.0,-1212.0701729332691,-4487.6658746027715,-13522.119142129573,2481.2625689933971,7778.148804250066,-3210.3052257776399,10066.76211861284,-11020.301161701813,4479.4891086339148,-4479.4891086339148,11020.301161701813,19781.76182437257,0.0
380012.02908761695,3987225.878295721,-32500.0,-2007.9085029624264,-5286.4741800166248,-12043.363757584311,2906.407740133121,7089.2285702846357,-2974.590105572252,9540.9406204247916,-10803.3292588392,3527.3346564689446,-3527.3346564689446,10803.3292588392,18758.925243967718,0.0
385012.02908761695,3987225.878295721,-32500.0,-2785.00017034761,-5752.9044154461371,-10406.559145768613,3183.0294038354027,6311.457928465702,-2702.1793916019042,8916.6722988993533,-10218.250248484106,2480.2092216657907,-2480.2092216657907,10218.250248484106,17547.435815298253,0.0
390012.02908761695,3987225.878295721,-32500.0,-3479.4840360234821,-5914.1993554304818,-8729.2633661479376,3319.2108381372414,5497.4999014790756,-2410.9583446554639,8231.5132321941674,-9360.2245283321736,1429.2039256098087,-1429.2039256098087,9360.2245283321736,16216.15594300942,0.0
395012.02908761695,3987225.878295721,-32500.0,-4047.8597839899744,-5817.856678291043,-7105.1059863131704,3332.3958194477432,4691.0439514693144,-2116.3465124854179,7520.7856922509409,-8326.2052896178484,445.73887877962852,-445.73887877962852,8326.2052896178484,14827.583896823437,0.0
400012.02908761695,3987225.878295721,-32500.0,-4467.1665443697257,-5521.118392311254,-5600.8816236217981,3245.2522053117464,3925.0478025578691,-1830.5363914304862,6815.4196956794149,-7204.3399705351185,-421.27930884551779,421.27930884551779,7204.3399705351185,13434.565385534361,0.0
405012.02908761695,3987225.878295721,-32500.0,-4732.2130284686891,-5082.3909145947318,-4257.8819915881904,3082.1012477821109,3221.7641772896723,-1562.311961938794,6138.9775017662032,-6067.696383717046,-1144.3915468836221,1144.3915468836221,6067.696383717046,12078.870394935368,0.0
410012.02908761695,3987225.878295721,-32500.0,-4851.3055719700942,-4555.262650593053,-3095.7994778014286,2866.2552622682829,2593.9530898305593,-1317.288406286403,5505.2923545744734,-4971.7973960035888,-1714.1243837979748,1714.1243837979748,4971.7973960035888,10791.217694615676,0.0
285012.02908761695,3992225.878295721,-32500.0,-2096.2891201072521,-217.32181085103014,4247.204177242379,-242.98740096306551,-1403.4797634082133,324.90556723405268,3421.5398179233548,2384.5838694707654,-2943.4814732813802,2943.4814732813802,-2384.5838694707654,6080.4062310988393,0.0
290012.02908761695,3992225.878295721,-32500.0,-2545.0996397941817,405.70042383694624,4097.593501075954,-528.06646366769689,-1243.9787202573548,245.49139172256855,3576.1817967670149,2896.6299252748336,-3323.0935102410199,3323.0935102410199,-2896.6299252748336,6272.8399314927665,0.0
295012.02908761695,3992225.878295721,-32500.0,-2944.0484789786515,1125.3226230405696,3762.9390476941908,-844.70550544698608,-996.78361617051769,135.38067209184197,3761.8845350949946,3384.7101601821005,-3618.9050548252699,3618.9050548252699,-3384.7101601821005,6537.0666660881798,0.0
300012.02908761695,3992225.878295721,-32500.0,-3259.3987329565402,1921.824398203142,3202.5207981658186,-1182.2796684516354,-647.09370516059528,-9.5223430012343524,3993.5820342794241,3805.4676842459994,-3789.1237640214249,3789.1237640214249,-3805.4676842459994,6917.1839894835975,0.0
305012.02908761695,3992225.878295721,-32500.0,-3456.2270278774531,2761.272690719386,2380.1117594565035,-1524.7181514306599,-182.9841444706928,-192.15191859307632,4286.4265501815571,4105.6581957073922,-3790.3062229911984,3790.3062229911984,-4105.6581957073922,7457.5743460811955,0.0
310012.02908761695,3992225.878295721,-32500.0,-3502.930616306528,3594.290101969294,1270.4459503988451,-1850.3744604577873,402.05587518102737,-413.5285752238442,4652.3233575873955,4225.1869731294264,-3582.658923332473,3582.658923332473,-4225.1869731294264,8191.2158581233471,0.0
315012.02908761695,3992225.878295721,-32500.0,-3377.0671522209782,4357.0725247643904,-133.14713451838804,-2132.7814754020878,1106.3069180117893,-671.97144926547958,5096.1726389315954,4102.8745765089643,-3137.0759006834915,3137.0759006834915,-4102.8745765089643,9128.8391461854899,0.0
320012.02908761695,3992225.878295721,-32500.0,-3071.7346104517546,4975.5693847255243,-1811.1026679830336,-2342.5573757910756,1917.190360425225,-962.4129964368492,5613.1042698962347,3685.0001046510415,-2443.085816147166,2443.085816147166,-3685.0001046510415,10253.672819031804,0.0
325012.02908761695,3992225.878295721,-32500.0,-2601.0950392682935,5373.2730429563289,-3711.7970881851784,-2450.5405625178842,2809.490160236126,-1275.9967046570309,6187.604329274076,2935.8358655593602,-1516.1395414211336,1516.1395414211336,-2935.8358655593602,11522.702620593733,0.0
330012.02908761695,3992225.878295721,-32500.0,-2003.2449949182007,5482.1527969364097,-5749.7291071331829,-2431.9106760740992,3745.1691623740048,-1600.146995784942,6794.6719036736113,1848.3585975251585,-402.10454424283887,402.10454424283887,-1848.3585975251585,12872.151105773946,0.0
335012.02908761695,3992225.878295721,-32500.0,-1338.7434567870052,5255.0584003798313,-7809.617154058923,-2270.6588835244693,4675.3796264872826,-1919.2518394114863,7402.6298152104491,452.45143443971722,823.19031915609423,-823.19031915609423,-452.45143443971722,14224.799316323688,0.0
340012.02908761695,3992225.878295721,-32500.0,-683.95235231091408,4676.8322069709757,-9757.1847135479602,-1963.4395132484228,5544.8457832965159,-2215.9849166277054,7977.0744396883174,-1182.2903800986276,2060.6864263817706,-2060.6864263817706,1182.2903800986276,15498.054353458707,0.0
345012.02908761695,3992225.878295721,-32500.0,-119.82370080964544,3770.974033400244,-11455.549685446726,-1521.7452085278396,6298.1595232154896,-2473.1316719393171,8485.2229395585746,-2951.1791584957568,3200.7824488694837,-3200.7824488694837,2951.1791584957568,16612.302331343162,0.0
350012.02908761695,3992225.878295721,-32500.0,281.5975814244407,2599.4208994554451,-12784.171611031017,-971.61360014944853,6886.8839556952989,-2675.6226283034594,8898.763261159329,-4726.6222041660722,4139.6780580598161,-4139.6780580598161,4726.6222041660722,17498.905597407378,0.0
355012.02908761695,3992225.878295721,-32500.0,469.62688299348611,1254.802419006734,-13656.09046469179,-350.6815578545353,7275.9690103722724,-2812.3808488490258,9192.6509763696704,-6375.6852166611443,4795.5958707908685,-4795.5958707908685,6375.6852166611443,18106.861873406775,0.0
360012.02908761695,3992225.878295721,-32500.0,423.12732774744023,-153.25202225268367,-14029.382598681383,296.8677800424681,7448.058956801251,-2877.6015798784483,9344.68134472161,-7779.0640484157384,5120.8878097661864,-5120.8878097661864,7779.0640484157384,18407.10824243354,0.0
365012.02908761695,3992225.878295721,-32500.0,152.48676332822382,-1514.4169959479634,-13910.37556213479,926.32586047232496,7404.8148718074171,-2871.2175901190949,9342.4410058941685,-8847.0304475834237,5107.2285208223093,-5107.2285208223093,8847.0304475834237,18393.84168508467,0.0
370012.02908761695,3992225.878295721,-32500.0,-304.62373882461787,-2732.7351584951894,-13348.542079053665,1498.1197201962304,7165.1801043099704,-2798.5018799308814,9188.0357215516888,-9529.0148288794826,4783.2377145165865,-4783.2377145165865,9529.0148288794826,18082.846049096559,0.0
375012.02908761695,3992225.878295721,-32500.0,-891.99207720151264,-3737.3466467971102,-12425.155621140213,1982.0052409183179,6761.2718396395239,-2668.9656249076661,8895.9932683862189,-9815.5264159959515,4205.9903343470842,-4205.9903343470842,9815.5264159959515,17507.429127376272,0.0
380012.02908761695,3992225.878295721,-32500.0,-1545.4770939782964,-4487.4189853242933,-11238.970874878922,2359.2131688117361,6233.0241388511376,-2494.8386163245973,8489.0489822476957,-9733.261299159396,3449.2057968242834,-3449.2057968242834,9733.261299159396,16712.949963771021,0.0
385012.02908761695,3992225.878295721,-32500.0,-2202.9344337136777,-4971.4955475770184,-9892.204262530644,2622.5434676983509,5622.7679738420702,-2289.4603417548878,7994.275965372045,-9335.6849299347959,2591.1302659981116,-2591.1302659981116,9335.6849299347959,15751.003202991027,0.0
390012.02908761695,3992225.878295721,-32500.0,-2811.6852268871921,-5202.707321370608,-8479.2103967823914,2774.8520480185603,4970.6640422058545,-2065.8561698545109,7440.0315743751198,-8691.8483740821466,1704.4537915835581,-1704.4537915835581,8691.8483740821466,14674.144357645682,0.0
395012.02908761695,3992225.878295721,-32500.0,-3332.789625928704,-5211.7698274141367,-7079.0140999066334,2826.5831525690419,4311.4918471217979,-1835.6685193529925,6853.8266592741993,-7875.8047030340722,849.50805212121031,-849.50805212121031,7875.8047030340722,13531.716747979039,0.0
400012.02908761695,3992225.878295721,-32500.0,-3742.2795933202342,-5039.5520717422742,-5751.7677586914842,2792.9964383667743,3672.904892313265,-1608.5075234725773,6260.9237576837349,-6958.1725233540747,70.947121364986288,-70.947121364986288,6958.1725233540747,12367.022651564834,0.0
290012.02908761695,3997225.878295721,-32500.0,-2423.9411834360308,739.23823181684588,3390.8054035292075,-618.53324050491472,-923.32761080845205,143.43307047336111,3185.7624981774688,2783.7512073330827,-3047.7955661271926,3047.7955661271926,-2783.7512073330827,5551.4708843233575,0.0
295012.02908761695,3997225.878295721,-32500.0,-2720.5643901618332,1377.4503522994792,2998.6583906141941,-884.71465398031762,-677.9527350285731,43.125688793065606,3362.99420452493,3157.4501920432294,-3235.7315499829474,3235.7315499829474,-3157.4501920432294,5827.5604689225047,0.0
300012.02908761695,3997225.878295721,-32500.0,-2936.749683696085,2063.4239752441008,2409.666574614093,-1160.9910312013819,-348.38950589110095,-84.340491330027547,3584.1135404335628,3455.0085713446651,-3305.5430015680822,3305.5430015680822,-3455.0085713446651,6217.0105274376319,0.0
305012.02908761695,3997225.878295721,-32500.0,-3047.0522631166336,2765.6287904073915,1600.0981148942867,-1433.5355034483875,72.364907344761889,-240.47278434881844,3859.5369166336577,3633.2624482379292,-3225.3903511847034,3225.3903511847034,-3633.2624482379292,6749.6065143229689,0.0
310012.02908761695,3997225.878295721,-32500.0,-3030.3009949244065,3441.5909868464028,556.76222824468414,-1684.7962081752253,586.60725973188448,-425.23243309856247,4195.8883097061853,3645.9459149571449,-2968.3698870272146,2968.3698870272146,-3645.9459149571449,7442.4756452304709,0.0
315012.02908761695,3997225.878295721,-32500.0,-2873.8138081876573,4039.5138005882586,-717.65656145477499,-1894.3237899519256,1190.0698906626762,-636.5391335369801,4593.6907835066322,3448.5132386542491,-2517.6755796599873,2517.6755796599873,-3448.5132386542491,8294.4377852112484,0.0
320012.02908761695,3997225.878295721,-32500.0,-2577.6171399360305,4502.1158759535747,-2199.7336586831516,-2040.3641841590504,1870.3468621180118,-869.88251911401539,5046.0400457241794,3004.603555304464,-1871.963195517088,1871.963195517088,-3004.603555304464,9284.6551365371888,0.0
325012.02908761695,3997225.878295721,-32500.0,-2157.6943180785147,4772.7648658224407,-3842.1508079206387,-2102.1949233136675,2606.032897420328,-1118.1525128652227,5538.5821023195285,2293.4155636639071,-1049.7938200214919,1049.7938200214919,-2293.4155636639071,10374.914459340212,0.0
330012.02908761695,3997225.878295721,-32500.0,-1647.1443234392721,4803.3696886860198,-5573.58912534296,-2062.9791383393836,3367.0069768168705,-1371.7942242232925,6050.7025595065725,1316.6658463398508,-91.798126135810321,91.798126135810321,-1316.6658463398508,11513.855620309772,0.0
335012.02908761695,3997225.878295721,-32500.0,-1094.3260576638909,4562.7857521637079,-7302.6861573709148,-1912.6886314103831,4116.1611628602586,-1619.3544504806985,6557.6594434834433,103.39581375880391,940.66201888824537,-940.66201888824537,-103.39581375880391,12642.007262862269,0.0
340012.02908761695,3997225.878295721,-32500.0,-557.66630922188085,4043.9321297133824,-8926.2778978415845,-1650.4880200327834,4812.5954439963334,-1848.4138319106212,7033.3871673853846,-1289.0731064251331,1970.9361057332035,-1970.9361057332035,1289.0731064251331,13697.212944861261,0.0
345012.02908761695,3997225.878295721,-32500.0,-97.714666695150228,3267.717115847845,-10341.016057549507,-1285.9598242574248,5415.9258049621094,-2046.8046176981659,7453.579632202036,-2779.0953315884781,2916.2041478258434,-2916.2041478258434,2779.0953315884781,14620.219548486984,0.0
350012.02908761695,3997225.878295721,-32500.0,232.04657376633742,2282.3980645163242,-11456.346384984072,-838.73878268600822,5890.9985621379483,-2203.9285253662865,7797.7814111026164,-4269.4578750086821,3698.7083066073214,-3698.7083066073214,4269.4578750086821,15360.010860483462,0.0
355012.02908761695,3997225.878295721,-32500.0,393.57687055924112,1158.0972923395375,-12206.194313321896,-336.48164787784827,6212.1070353121759,-2311.9402681339279,8048.0465056751218,-5659.474243817971,4256.7348436651391,-4256.7348436651391,5659.474243817971,15878.26215807305,0.0
360012.02908761695,3997225.878295721,-32500.0,369.87719170319087,-22.517430408225543,-12556.870632344111,188.48385816393258,6365.8670837476957,-2366.5747702890467,8187.2161356091765,-6857.9552579269839,4552.9069130708904,-4552.9069130708904,6857.9552579269839,16152.289156144969,0.0
365012.02908761695,3997225.878295721,-32500.0,166.59984866559913,-1175.3465830567623,-12509.646148927024,703.15108754456355,6352.2162149666319,-2367.4721047065104,8204.1392924343963,-7794.3163095333475,4578.0429896045789,-4578.0429896045789,7794.3163095333475,16176.085727131747,0.0
370012.02908761695,3997225.878295721,-32500.0,-190.42216194132351,-2225.39102395583,-12097.837645742778,1177.668687727004,6183.4599871795035,-2317.9654034090681,8098.5005809649228,-8425.6930224379212,4350.076068044873,-4350.076068044873,8425.6930224379212,15959.410418123132,0.0
375012.02908761695,3997225.878295721,-32500.0,-660.77745270779826,-3114.6894246222791,-11379.552710271239,1588.3210290703703,5881.730281535647,-2224.4153122523594,7879.7257731258524,-8739.0868453392632,3908.7896983630221,-3908.7896983630221,8739.0868453392632,15525.245202611226,0.0
380012.02908761695,3997225.878295721,-32500.0,-1196.6341056420176,-3806.563871852311,-10428.044463477292,1919.2465325224703,5475.506877048233,-2095.252435913887,7563.8953879479277,-8748.8602554150384,3308.0060880126371,-3308.0060880126371,8748.8602554150384,14906.199096601269,0.0
385012.02908761695,3997225.878295721,-32500.0,-1749.8126236961282,-4286.0890347755976,-9321.7769265615279,2162.8201934704471,4995.9321082901943,-1939.923885946977,7170.9016874172567,-8490.8561186187962,2607.1235694907318,-2607.1235694907318,8490.8561186187962,14140.520998408168,0.0
390012.02908761695,3997225.878295721,-32500.0,-2277.5129429191325,-4557.5220237573303,-8135.8831077331251,2318.9120513569615,4473.5313908050766,-1767.9173110293941,6722.1704445685918,-8014.8432189788,1863.6149509759562,-1863.6149509759562,8014.8432189788,13268.312558590349,0.0
395012.02908761695,3997225.878295721,-32500.0,-2746.0332066162182,-4639.8456847944735,-6935.9948488401824,2393.3956289539615,3935.7245202919535,-1587.9821925414337,6239.0040634056841,-7376.8883268027239,1127.4900469276545,-1127.4900469276545,7376.8883268027239,12328.356110540735,0.0
295012.02908761695,4002225.878295721,-32500.0,-2486.2838647130538,1535.0929094398252,2340.3364142976966,-886.00118078468915,-427.58602570674293,-20.907329287633626,3024.3219320852731,2905.2815968195828,-2865.4410673924685,2865.4410673924685,-2905.2815968195828,5239.076524057883,0.0
300012.02908761695,4002225.878295721,-32500.0,-2627.7177943893107,2120.4787134630137,1746.8718719716073,-1110.6712205372321,-123.08535179643496,-131.73471278751921,3233.8991237822615,3104.4583412829024,-2862.6038962876719,2862.6038962876719,-3104.4583412829024,5628.8165817608569,0.0
305012.02908761695,4002225.878295721,-32500.0,-2676.7047909146718,2703.9349724717781,969.5562017887612,-1326.5517480779395,253.68840225255946,-264.27467657275633,3490.3729696117352,3190.4664510113644,-2729.2369841290219,2729.2369841290219,-3190.4664510113644,6142.0496174577202,0.0
310012.02908761695,4002225.878295721,-32500.0,-2619.5519584552658,3249.7110975322475,3.2660457424462441,-1519.6140542125979,702.50291407730299,-417.93251121129452,3796.7402230258299,3128.1488575630124,-2447.7609311491701,2447.7609311491701,-3128.1488575630124,6785.4206690093033,0.0
315012.02908761695,4002225.878295721,-32500.0,-2449.9853979245377,3716.2398341261219,-1143.9620974823342,-1674.1702247978187,1217.9871834439891,-590.5897116178279,4151.0199621535166,2885.4573300854954,-2009.5545060095692,2009.5545060095692,-2885.4573300854954,7551.487718630884,0.0
320012.02908761695,4002225.878295721,-32500.0,-2171.888477485837,4059.4221335254347,-2447.9150074284307,-1774.1454750754517,1788.7179598073417,-778.39212941820892,4545.727035070342,2438.2494627861379,-1418.515396909042,1418.515396909042,-2438.2494627861379,8419.0677139827876,0.0
325012.02908761695,4002225.878295721,-32500.0,-1801.1398287629529,4237.3449354503236,-3866.6427500764498,-1804.7927763322937,2396.8665482294018,-975.70021981123409,4968.1910306991122,1775.4053956026119,-693.69915591782171,693.69915591782171,-1775.4053956026119,9355.4591411734164,0.0
330012.02908761695,4002225.878295721,-32500.0,-1365.8679874818718,4215.9490646236891,-5341.1586236267376,-1754.6657059715885,3018.6549605800146,-1175.2602400614489,5401.5965094167886,903.32869492480654,129.81398068100901,-129.81398068100901,-903.32869492480654,10319.547287911424,0.0
335012.02908761695,4002225.878295721,-32500.0,-904.62531522980794,3974.7484410083566,-6798.9233427101726,-1617.5410802585502,3625.7644184821443,-1368.6261836398016,5826.5770246532629,-151.28461982919174,1002.5112610019357,-1002.5112610019357,151.28461982919174,11265.291049994505,0.0
340012.02908761695,4002225.878295721,-32500.0,-462.40028508472147,3511.4281130148088,-8160.0964025918202,-1393.9080151837129,4187.6591606294432,-1546.8162618265387,6223.2300131124457,-1341.4120050093177,1864.7413129870617,-1864.7413129870617,1341.4120050093177,12145.442250242368,0.0
345012.02908761695,4002225.878295721,-32500.0,-84.944961745618457,2844.158303584943,-9345.8448049774161,-1091.6560529138937,4674.5662815577871,-1701.1332788788284,6573.3536125530954,-2602.9532827496337,2653.3080193379878,-2653.3080193379878,2602.9532827496337,12915.360250229634,0.0
350012.02908761695,4002225.878295721,-32500.0,187.5749969702936,2010.8375771021022,-10287.367404175806,-725.721541127308,5060.6545848622154,-1824.0317091798931,6862.0336458312304,-3861.0790557016389,3309.2997127724648,-3309.2997127724648,3861.0790557016389,13536.639483230747,0.0
355012.02908761695,4002225.878295721,-32500.0,326.30725951926183,1065.1578519643576,-10933.949835061889,-316.67034250015985,5326.8553671016425,-1909.8887864792268,7076.3145695904041,-5038.6911580937813,3785.6485538662328,-3785.6485538662328,5038.6911580937813,13980.146943887807,0.0
360012.02908761695,4002225.878295721,-32500.0,317.59855605177222,70.149204027392102,-11258.496801192356,111.5646633021138,5462.8112995627234,-1955.5476237789728,7202.772597249168,-6065.4357890970423,4052.8963566840102,-4052.8963566840102,6065.4357890970423,14228.072426540173,0.0
365012.02908761695,4002225.878295721,-32500.0,164.26574171562049,-909.51689315382578,-11259.548522033476,534.37450846875458,5467.6220328299169,-1960.5446689496603,7231.5150538680464,-6885.5398032926532,4102.0577562014751,-4102.0577562014751,6885.5398032926532,14274.729962459889,0.0
370012.02908761695,4002225.878295721,-32500.0,-115.85064148757493,-1814.9697154660385,-10959.621230961668,929.10263275726982,5349.3208589814749,-1926.9972735850786,7160.9000059454083,-7463.091566606131,3944.2090309668411,-3944.2090309668411,7463.091566606131,14126.064399028728,0.0
375012.02908761695,4002225.878295721,-32500.0,-493.5177427313082,-2599.0067408704876,-10400.5133319939,1277.1693840339997,5123.2813023821882,-1859.1959319813836,6997.0028633871789,-7784.0535481508286,3607.1955463525815,-3607.1955463525815,7784.0535481508286,13798.039631006932,0.0
380012.02908761695,4002225.878295721,-32500.0,-932.969415795641,-3229.586249094099,-9636.7625555565792,1565.408343116017,4809.9365257122708,-1762.9943797431392,6751.2696757177955,-7855.0866685167002,3130.4295195852824,-3130.4295195852824,7855.0866685167002,13314.249918066622,0.0
385012.02908761695,4002225.878295721,-32500.0,-1396.9393197440359,-3690.7654505665901,-8728.6018189523566,1786.530546890498,4432.2645226815048,-1645.1152096368235,6438.3938581738466,-7699.8969954531058,2558.9757281357347,-2558.9757281357347,7699.8969954531058,12703.171014544254,0.0
390012.02908761695,4002225.878295721,-32500.0,-1850.9858673257604,-3981.4355457126226,-7735.5814289699147,1938.8081449197475,4013.4440032109114,-1512.4809523434437,6074.6103361121941,-7354.1498150124735,1938.0225479290348,-1938.0225479290348,7354.1498150124735,11995.442109611098,0.0
305012.02908761695,4007225.878295721,-32500.0,-2346.9011655595027,2599.3886715028034,465.44036660450206,-1214.1208486950518,378.53852607561259,-271.59167751995147,3168.0614185780246,2784.8540604736772,-2298.9973874237467,2298.9973874237467,-2784.8540604736772,5612.6911770436554,0.0
310012.02908761695,4007225.878295721,-32500.0,-2265.4833917950559,3038.2649994545936,-420.00938280657817,-1361.9069331216324,768.41213876564666,-399.14833743492665,3445.155223898535,2671.6408114473611,-2009.9609847202739,2009.9609847202739,-2671.6408114473611,6202.710195333465,0.0
315012.02908761695,4007225.878295721,-32500.0,-2093.9996018774482,3400.6120043365645,-1446.7173223350499,-1475.1338977043833,1208.0520296593845,-540.29508035537822,3759.3109915741261,2404.8160553031812,-1594.5461735608308,1594.5461735608308,-2404.8160553031812,6886.6538946615728,0.0
320012.02908761695,4007225.878295721,-32500.0,-1838.2725305251361,3652.5660078789069,-2591.3911697469262,-1541.9284420379581,1687.3421028988589,-691.81851474094049,4103.2443406324392,1968.7538391108619,-1059.4236299172098,1059.4236299172098,-1968.7538391108619,7644.7809508728433,0.0
325012.02908761695,4007225.878295721,-32500.0,-1513.1068517457982,3763.0849421338562,-3817.5927550279794,-1551.7754564517579,2191.6023093933854,-849.27655279274211,4466.0657314112132,1358.5157684119422,-422.75670527572481,422.75670527572481,-1358.5157684119422,8449.6699109989204,0.0
330012.02908761695,4007225.878295721,-32500.0,-1142.0942088060858,3708.0112048966289,-5076.7574908928545,-1496.8827250847503,2702.0737116421551,-1007.1566478514004,4834.1301792973672,582.74770841114548,285.6297888928932,-285.6297888928932,-582.74770841114548,9268.4593730323923,0.0
335012.02908761695,4007225.878295721,-32500.0,-755.98414313677631,3473.9835000100957,-6311.1208739376125,-1373.4536263928455,3197.0334782414288,-1159.1948233333901,5192.2255699508614,-334.76959025280678,1025.8013002525945,-1025.8013002525945,334.76959025280678,10065.292362384585,0.0
340012.02908761695,4007225.878295721,-32500.0,-389.64366762896202,3061.4299069775543,-7458.4495784290157,-1182.6243698741534,3653.4873951293393,-1298.8392475345861,5525.0421953659406,-1355.5134794488242,1751.058220264036,-1751.058220264036,1355.5134794488242,10803.911207685353,0.0
345012.02908761695,4007225.878295721,-32500.0,-77.975088135104841,2485.9254334718071,-8458.0369644642233,-930.84600894586401,4049.2518674316543,-1419.808306113348,5818.8362594842301,-2428.8284631912379,2412.7356792576688,-2412.7356792576688,2428.8284631912379,11450.306928583021,0.0
350012.02908761695,4007225.878295721,-32500.0,148.53280374077474,1777.455567520042,-9257.0640807126983,-629.57468498006824,4365.1292974376356,-1516.6685351695151,6062.6770554768746,-3496.5697534631126,2965.7339600213872,-2965.7339600213872,3496.5697534631126,11975.230052578514,0.0
355012.02908761695,4007225.878295721,-32500.0,267.7804144275803,977.55918174625651,-9816.2374794373973,-294.27003378162914,4586.8249614252718,-1585.3450990486415,6247.167578838089,-4499.1070553253985,3373.800676170451,-3373.800676170451,4499.1070553253985,12356.297192730131,0.0
360012.02908761695,4007225.878295721,-32500.0,268.79036827834062,134.78625552438422,-10113.71184178582,57.156870929435073,4706.2870304836233,-1623.4835922357763,6361.6308864835764,-5381.6809732782704,3613.5954829801822,-3613.5954829801822,5381.6809732782704,12579.436786842072,0.0
365012.02908761695,4007225.878295721,-32500.0,152.69615898952597,-700.71023303716527,-10146.652333857568,406.18464245237595,4722.2602600807304,-1630.6100815148452,6397.314734766509,-6099.9985454662183,3676.8194840868941,-3676.8194840868941,6099.9985454662183,12639.503010770037,0.0
370012.02908761695,4007225.878295721,-32500.0,-68.105127542329029,-1482.4896930613036,-9930.2987875096769,735.50540075756953,4640.0021065160972,-1608.0725767853498,6351.9162991340718,-6624.162522701351,3570.1407006422642,-3570.1407006422642,6624.162522701351,12540.015814029064,0.0
375012.02908761695,4007225.878295721,-32500.0,-372.33167959020932,-2172.1698616909639,-9494.8970530918832,1030.5459817246863,4470.2718015414612,-1558.7880707355423,6229.3149121448296,-6940.4219197969633,3313.1200761770101,-3313.1200761770101,6940.4219197969633,12292.126849951635,0.0
380012.02908761695,4007225.878295721,-32500.0,-733.14106617584014,-2742.2314934074338,-8881.2251220582093,1280.4922980953409,4227.8207719932025,-1486.8501682207409,6037.7149629986143,-7050.7239416069906,2934.7205684109749,-2934.7205684109749,7050.7239416069906,11913.016149662815,0.0
320012.02908761695,4012225.878295721,-32500.0,-1563.3056467397205,3282.9599061002941,-2657.6072049265904,-1340.6454997444946,1576.404160713992,-612.12153725669953,3711.1276874602704,1580.6705255775405,-775.67401197578511,775.67401197578511,-1580.6705255775405,6951.5284578575802,0.0
325012.02908761695,4012225.878295721,-32500.0,-1279.2697223640291,3344.7409098155385,-3718.710378169762,-1336.8806426674716,1995.929061842847,-738.32963194144463,4023.3096407189919,1023.5284445133605,-217.52787598386345,217.52787598386345,-1023.5284445133605,7644.4686815292152,0.0
330012.02908761695,4012225.878295721,-32500.0,-962.7825403007472,3268.7367589596706,-4797.193859321852,-1281.0556713231724,2417.0032630158862,-863.92854036396398,4337.0211196530572,334.86357245736843,392.67538873228187,-392.67538873228187,-334.86357245736843,8342.3302734024765,0.0
335012.02908761695,4012225.878295721,-32500.0,-638.41680240136077,3046.3601231157745,-5846.8911353187514,-1170.9213599776308,2822.8723091565457,-984.24485097921615,4640.2618856123063,-464.53766266459405,1022.6895587153469,-1022.6895587153469,464.53766266459405,9017.0111520123864,0.0
340012.02908761695,4012225.878295721,-32500.0,-333.37255070118022,2679.5462037780485,-6818.9538891564589,-1007.8784092564908,3196.0777806631258,-1094.459169490719,4921.1728498221837,-1343.1027381526033,1635.7324963693568,-1635.7324963693568,1343.1027381526033,9640.4371656827007,0.0
345012.02908761695,4012225.878295721,-32500.0,-74.514557715255748,2181.5382454979849,-7666.2179479537199,-797.18419676932626,3519.9273875253998,-1189.9895779638073,5169.3080713500303,-2260.5446019663718,2194.0063096893423,-2194.0063096893423,2260.5446019663718,10186.431716455523,0.0
350012.02908761695,4012225.878295721,-32500.0,114.78303034372766,1576.2280178008159,-8347.7440589866201,-547.69425370820875,3780.0030820108545,-1266.8818958250142,5376.6524257204237,-3171.2872693761301,2662.6510802428757,-2662.6510802428757,3171.2872693761301,10632.480755625411,0.0
355012.02908761695,4012225.878295721,-32500.0,217.43623465336026,896.05809535141316,-8832.8181640124931,-271.14653555548989,3965.4829789582468,-1322.152123310746,5536.3795690804991,-4028.7821380742912,3013.4875051366221,-3013.4875051366221,4028.7821380742912,10961.216087411933,0.0
360012.02908761695,4012225.878295721,-32500.0,224.59728359909843,178.78026336360679,-9103.7677035420566,18.918757117403995,4070.0748276819359,-1354.0310176421908,5639.8130164999893,-4790.0516279371259,3227.9190572026919,-3227.9190572026919,4790.0516279371259,11161.448288121026,0.0
365012.02908761695,4012225.878295721,-32500.0,136.41879056448164,-536.39621846450734,-9157.1663525843578,308.43648687753046,4092.4272044731933,-1362.0772870774319,5679.1890856100936,-5419.7307787020218,3298.5225811764958,-3298.5225811764958,5419.7307787020218,11228.635607411212,0.0
335012.02908761695,3797225.878295721,-37500.0,154.23337848264509,-725.60012543964854,-8522.5968896720296,-469.7018840231064,-4544.2451023049107,-1790.5650318635223,5702.6617847359084,-5096.1010161373961,2981.4111519966427,-2981.4111519966427,5096.1010161373961,11242.187309507193,0.0
340012.02908761695,3797225.878295721,-37500.0,271.66069625119343,-27.868358203026872,-8538.7389523584698,-143.30256657850103,-4548.0558138587112,-1789.2706425005772,5687.9298722091717,-4538.2076765051579,2974.1485388517058,-2974.1485388517058,4538.2076765051579,11217.456176842237,0.0
345012.02908761695,3797225.878295721,-37500.0,293.11681844443319,684.27822909416864,-8345.4791264085907,188.89761441061012,-4459.1742770139517,-1756.311600255475,5607.2245778278966,-3845.3182766202917,2826.174406126971,-2826.174406126971,3845.3182766202917,11058.289895989084,0.0
350012.02908761695,3797225.878295721,-37500.0,215.5752524669237,1371.8080197493439,-7941.6374000695259,510.7515410562774,-4277.3354492078352,-1691.7179309749311,5465.3629261574179,-3049.0196772833874,2540.4538241241576,-2540.4538241241576,3049.0196772833874,10767.295771576359,0.0
355012.02908761695,3797225.878295721,-37500.0,45.2869349333467,1995.9011574735664,-7340.1733400754774,806.23971881107229,-4007.9829125026613,-1597.3249991609305,5270.2801179168664,-2189.4043497626012,2131.3427273594102,-2131.3427273594102,2189.4043497626012,10353.958908445218,0.0
360012.02908761695,3797225.878295721,-37500.0,-202.60773707479609,2521.9409677253502,-6567.5224000841945,1060.9956319196663,-3661.9953917042762,-1476.6800835732624,5030.7510617365597,-1311.3309246141928,1623.5137582683658,-1623.5137582683658,1311.3309246141928,9834.3460344378545,0.0
365012.02908761695,3797225.878295721,-37500.0,-505.75237773356315,2923.0644608339735,-5661.2404376431632,1263.6636167963948,-3254.775056430884,-1334.7597402395493,4756.0558412121691,-459.99083308610568,1049.4497829026818,-1049.4497829026818,459.99083308610568,9230.1955300900081,0.0
370012.02908761695,3797225.878295721,-37500.0,-837.26344392470662,3182.6874873985012,-4666.2980533929212,1406.8806908650336,-2804.8257604111277,-1177.5366918310513,4456.7984959733858,323.51377332458173,445.89912275718405,-445.89912275718405,-323.51377332458173,8567.4941074943072,0.0
375012.02908761695,3797225.878295721,-37500.0,-1168.9481403981242,3295.6108603752609,-3630.63491053297,1487.7381824934687,-2332.0408318530808,-1011.4594942395132,4144.8056153912485,1005.8649523648046,-150.09463785197886,150.09463785197886,-1005.8649523648046,7874.698914684167,0.0
380012.02908761695,3797225.878295721,-37500.0,-1474.48274100257,3267.6241078378171,-2600.6864241775352,1507.6898228725686,-1855.9620012891569,-842.92022131351359,3832.2316189033177,1563.9758567998967,-704.92639631213501,704.92639631213501,-1563.9758567998967,7180.7901079991825,0.0
385012.02908761695,3797225.878295721,-37500.0,-1732.0309052077396,3113.806348657854,-1617.5533977041273,1471.9689794022338,-1394.2552960951125,-677.78151466383599,3530.4916126315447,1985.9339973389974,-1191.3548996820909,1191.3548996820909,-1985.9339973389974,6513.3056497089656,0.0
320012.02908761695,3802225.878295721,-37500.0,-799.54420366453348,-2804.7742897412768,-7945.484301843424,-1544.9623697225657,-4565.0208752065309,-1910.8421162104646,5958.3197784734093,-6393.3849499223452,2381.3569379170126,-2381.3569379170126,6393.3849499223452,11731.897715922896,0.0
325012.02908761695,3802225.878295721,-37500.0,-422.57001370938201,-2291.0891339599257,-8580.7797313278516,-1281.7460682420483,-4859.8437607685009,-2013.8823358288946,6172.5976173571662,-6349.6672316406393,2792.656163274406,-2792.656163274406,6349.6672316406393,12150.577451296027,0.0
330012.02908761695,3802225.878295721,-37500.0,-93.867070518634719,-1652.2092000150546,-9060.1793356981925,-963.76166393219796,-5079.0647683717461,-2088.8878511345756,6321.5209823494424,-6113.0611342600341,3100.0209131456859,-3100.0209131456859,6113.0611342600341,12444.013676368997,0.0
335012.02908761695,3802225.878295721,-37500.0,158.04800275523394,-911.54966273297066,-9341.4038150952838,-601.81942712557009,-5204.7833154240889,-2129.9964534377414,6395.7593028991041,-5677.0531461017763,3272.0610529455407,-3272.0610529455407,5677.0531461017763,12593.180714875325,0.0
340012.02908761695,3802225.878295721,-37500.0,309.16118498669192,-104.02615070903903,-9390.8372417040046,-211.34383968692725,-5223.0075547479601,-2132.7229275745322,6389.6986943755464,-5049.8990258326139,3285.1568571462726,-3285.1568571462726,5049.8990258326139,12584.608940036785,0.0
345012.02908761695,3802225.878295721,-37500.0,343.56543170608631,726.20380185853605,-9188.2684698715711,188.60054584085842,-5125.527624966031,-2094.5361726770134,6302.8161382279231,-4255.714955259913,3127.3292728967122,-3127.3292728967122,4255.714955259913,12412.193364528952,0.0
350012.02908761695,3802225.878295721,-37500.0,256.30693403144909,1529.6902660026801,-8730.4971676125751,576.91756623000106,-4911.3083559486449,-2015.2752072915939,6140.3451183215611,-3333.4555723303674,2800.9408034507951,-2800.9408034507951,3333.4555723303674,12078.479935292262,0.0
355012.02908761695,3802225.878295721,-37500.0,54.805019717295949,2256.8516760866382,-8033.0034491477463,932.52947252524382,-4587.1072624402777,-1897.3193634828963,5911.9813339994771,-2333.668667465412,2323.5436967178512,-2323.5436967178512,2333.668667465412,11595.199806133238,0.0
360012.02908761695,3802225.878295721,-37500.0,-241.58064810609176,2863.5325162063482,-7129.1774816096267,1236.5613061155457,-4167.1384540158642,-1745.4652801308741,5629.2431925704668,-1313.3854122226953,1726.5150499150909,-1726.5150499150909,1313.3854122226953,10982.9114440622,0.0
365012.02908761695,3802225.878295721,-37500.0,-603.86689941116651,3315.9597921460868,-6067.0879874895745,1474.2886530399392,-3671.7813608570896,-1566.5132297717698,5304.5750381290645,-329.96584019486704,1051.5924373912737,-1051.5924373912737,329.96584019486704,10269.742309076806,0.0
370012.02908761695,3802225.878295721,-37500.0,-997.24368263354745,3594.2020381418261,-4904.29896385951,1636.5206890697498,-3125.5296106822057,-1368.6242960507998,4951.9522207499722,565.02827031683375,345.90194442283814,-345.90194442283814,-565.02827031683375,9489.3767316691192,0.0
375012.02908761695,3802225.878295721,-37500.0,-1385.6028986397253,3693.545482281424,-3701.6645544674343,1720.1987591912357,-2554.526497532418,-1160.5503992371966,4586.6628670311839,1330.8537612174332,-343.58503714358619,343.58503714358619,-1330.8537612174332,8678.5326275642092,0.0
380012.02908761695,3802225.878295721,-37500.0,-1735.9277586746095,3623.690877220462,-2517.1877015532104,1728.1692449328339,-1984.0958110204394,-950.85760030348513,4224.1271125470421,1940.7309473121113,-975.15845871964711,975.15845871964711,-1940.7309473121113,7874.2027037199341,0.0
385012.02908761695,3802225.878295721,-37500.0,-2021.7709944432545,3406.1257482479514,-1400.9336412194932,1668.2480781148715,-1436.6434336333323,-747.25449223316662,3878.4640904383377,2382.7851395610014,-1516.2013232972461,1516.2013232972461,-2382.7851395610014,7110.8810802130429,0.0
390012.02908761695,3802225.878295721,-37500.0,-2225.3488373629293,3070.3576340504292,-391.63440604486937,1551.8193802295477,-930.18389676167362,-556.10311787841192,3561.1981068123173,2658.9607105469127,-1945.2907263407155,1945.2907263407155,-2658.9607105469127,6417.8979687491374,0.0
395012.02908761695,3802225.878295721,-37500.0,-2338.132437415295,2649.7939936913763,484.79561207574545,1392.2534980296068,-477.59510179664034,-382.14779155400311,3280.2793882155597,2782.4337718663619,-2252.5229812346624,2252.5229812346624,-2782.4337718663619,5816.9425014683593,0.0
310012.02908761695,3807225.878295721,-37500.0,-1932.6312837208891,-3872.6767858805547,-6639.6294148403322,-2234.2003576141678,-4226.1766133725823,-1906.755298890155,5916.2060699863523,-6438.0739629878935,1267.5001280122246,-1267.5001280122246,6438.0739629878935,11654.519967164168,0.0
315012.02908761695,3807225.878295721,-37500.0,-1486.4514711210313,-3649.251165879954,-7592.8744005301887,-2090.9558893459607,-4701.7792138899331,-2084.7531928764115,6292.3038527547114,-6812.814454528987,1874.0933201967073,-1874.0933201967073,6812.814454528987,12384.686420242546,0.0
320012.02908761695,3807225.878295721,-37500.0,-1020.0596507988253,-3260.9009126131505,-8486.1523328704297,-1870.0862974666109,-5140.3448929963615,-2246.3642036333217,6624.1109380072976,-7021.2718398763736,2452.7871591855069,-2452.7871591855069,7021.2718398763736,13028.898217735055,0.0
325012.02908761695,3807225.878295721,-37500.0,-566.67000263297416,-2704.0132041701381,-9263.3874388738222,-1571.4904497028033,-5516.1452290070438,-2382.4931703677635,6894.9226121227221,-7026.4829006734135,2960.4081097349381,-2960.4081097349381,7026.4829006734135,13556.024137862874,0.0
330012.02908761695,3807225.878295721,-37500.0,-163.62109135971093,-1988.9635592729112,-9865.8350217301304,-1201.1842757835418,-5802.8277278191299,-2484.0231142645716,7089.1690620846794,-6801.2035592314623,3351.8695244441169,-3351.8695244441169,6801.2035592314623,13936.250281106564,0.0
335012.02908761695,3807225.878295721,-37500.0,151.68452924051471,-1142.0198751520306,-10237.939739506439,-771.93463271402402,-5975.9533839665773,-2542.6741376702098,7193.9841200611436,-6333.1269076997569,3585.3350985360566,-3585.3350985360566,6333.1269076997569,14143.790893411498,0.0
340012.02908761695,3807225.878295721,-37500.0,346.80396756159564,-205.22192728985252,-10334.187338393567,-303.05513413495868,-6015.8725013187222,-2551.944788670417,7201.0454779888369,-5629.0618695170178,3628.1248604179623,-3628.1248604179623,5629.0618695170178,14159.761671152906,0.0
345012.02908761695,3807225.878295721,-37500.0,399.42860868599143,766.27440803008471,-10125.890267459314,180.80812777329132,-5910.5010921149224,-2507.994080361656,7108.4274755505066,-4716.978760308355,3462.34835492723,-3462.34835492723,4716.978760308355,13974.819027431115,0.0
350012.02908761695,3807225.878295721,-37500.0,301.6377261828377,1709.3998254453811,-9606.568940968371,651.87536823443156,-5657.4708758036804,-2410.3014920718679,6921.6899009422505,-3645.0636493072202,3089.0394360715522,-3089.0394360715522,3645.0636493072202,13591.122740517012,0.0
355012.02908761695,3807225.878295721,-37500.0,62.165966849050662,2560.2911414173641,-8794.6506581494505,1082.1522127752232,-5265.1643893519076,-2261.9607867100758,6652.7707898069921,-2477.4926778177946,2529.6838619386867,-2529.6838619386867,2477.4926778177946,13023.237001142805,0.0
360012.02908761695,3807225.878295721,-37500.0,-294.03558290673084,3262.1250655617382,-7732.6190130988771,1446.5993173947199,-4752.3155060616391,-2069.5195723606644,6316.9047132772148,-1287.3789739579722,1824.5003632729106,-1824.5003632729106,1287.3789739579722,12297.70782109551,0.0
365012.02908761695,3807225.878295721,-37500.0,-729.04158902822462,3772.1302483689255,-6482.5374836113833,1725.9659909511815,-4146.1596315253755,-1842.3667362789738,5930.9024890188011,-148.12351826233976,1027.5995653000823,-1027.5995653000823,148.12351826233976,11451.305206676412,0.0
370012.02908761695,3807225.878295721,-37500.0,-1197.3856647866571,4066.3821562545222,-5118.7040609288315,1908.7626234746492,-3479.4326267126849,-1591.7645116103827,5513.3443031038278,875.18254508352788,199.91744290843923,-199.91744290843923,-875.18254508352788,10528.136473449658,0.0
375012.02908761695,3807225.878295721,-37500.0,-1652.5144249662007,4141.4922063729464,-3718.8814454387239,1992.0311943006022,-2786.7745893994061,-1329.6932588156969,5084.1444040532206,1732.6441471838052,-598.61912301587938,598.61912301587938,-1732.6441471838052,9576.0079855733984,0.0
380012.02908761695,3807225.878295721,-37500.0,-2052.9035783958439,4013.095099452597,-2355.7911775300304,1980.8665269098494,-2101.191226460011,-1067.7066179811904,4662.956894164301,2393.5866038816689,-1316.1331432821485,1316.1331432821485,-2393.5866038816689,8642.4571173387067,0.0
385012.02908761695,3807225.878295721,-37500.0,-2366.6822964205321,3711.7668359966547,-1090.3394653208434,1886.9077917594448,-1451.1494596339151,-815.97170102141547,4267.2231262706309,2847.320808707098,-1913.8105813054297,1913.8105813054297,-2847.320808707098,7770.7736077203708,0.0
390012.02908761695,3807225.878295721,-37500.0,-2574.1194270442384,3277.4867374221476,32.540066729956578,1726.20602100114,-858.67484570241379,-582.61067425048168,3910.4322553612783,3101.0288952243513,-2368.2831179655727,2368.2831179655727,-3101.0288952243513,6996.1905867561372,0.0
395012.02908761695,3807225.878295721,-37500.0,-2667.9121068370387,2753.8590393902814,985.24324059125399,1516.9226937378367,-338.55661719852418,-373.3840150180722,3600.8976033653717,3175.6832044702933,-2671.4523112115457,2671.4523112115457,-3175.6832044702933,6342.4269440104254,0.0
400012.02908761695,3807225.878295721,-37500.0,-2651.6946848671309,2183.089096345273,1756.4589733714838,1277.2491467544703,101.46157268924493,-191.68814332106291,3341.2784993454197,3101.1011973881905,-2828.3377207063122,2828.3377207063122,-3101.1011973881905,5819.1045301044651,0.0
405012.02908761695,3807225.878295721,-37500.0,-2537.4404583225169,1602.3117890200801,2348.4915105796172,1023.7990991221997,459.77086363082287,-38.794350943748412,3129.0080667398888,2911.1214726146636,-2853.7732742325015,2853.7732742325015,-2911.1214726146636,5421.0902422450154,0.0
305012.02908761695,3812225.878295721,-37500.0,-2806.3263900157176,-4384.3007583178905,-5718.4341374325786,-2694.5571625888733,-4056.6847104180606,-1970.4946659641248,6018.5381522805774,-6254.819453837621,389.80412471393129,-389.80412471393129,6254.819453837621,11850.370672995856,0.0
310012.02908761695,3812225.878295721,-37500.0,-2364.5931066605267,-4368.0602694444851,-6827.9834982936763,-2643.6734557194136,-4648.9320485867884,-2205.3125999139675,6502.9255565850544,-6883.4699668620533,1072.8364763266554,-1072.8364763266554,6883.4699668620533,12794.637247784567,0.0
315012.02908761695,3812225.878295721,-37500.0,-1854.7838085193223,-4177.0003838001912,-7946.4836057892944,-2504.3660803023672,-5234.2080719515079,-2433.4281435706525,6961.4849897504064,-7380.3744778152122,1784.2967163551002,-1784.2967163551002,7380.3744778152122,13684.555365110613,0.0
320012.02908761695,3812225.878295721,-37500.0,-1307.2082145709487,-3788.321920068598,-9015.5983300206699,-2267.9337477848612,-5783.5412286848159,-2643.8551049044795,7373.1323395602703,-7691.7847130947466,2479.7137019537568,-2479.7137019537568,7691.7847130947466,14482.239957929156,0.0
325012.02908761695,3812225.878295721,-37500.0,-762.21481790102905,-3191.9907627071952,-9966.1241797561706,-1931.8085725601636,-6263.6510238557294,-2824.3255685334075,7716.1149899903512,-7767.5367378350456,3105.5069398234277,-3105.5069398234277,7767.5367378350456,15147.501723479441,0.0
330012.02908761695,3812225.878295721,-37500.0,-267.15431150122146,-2395.6022624345269,-10723.075183003348,-1501.4860618632699,-6639.406404778365,-2962.2107447496837,7969.6068229726643,-7568.1938449561694,3603.5642881493382,-3603.5642881493382,7568.1938449561694,15640.830465289193,0.0
335012.02908761695,3812225.878295721,-37500.0,128.82535282771241,-1427.7682286285358,-11213.27904954242,-991.7485358230881,-6877.279038657427,-3045.7424079051407,8115.7915861084502,-7072.5687436550443,3918.0213000762824,-3918.0213000762824,7072.5687436550443,15927.086880931902,0.0
340012.02908761695,3812225.878295721,-37500.0,381.67459905590761,-338.81045383275358,-11374.829666664562,-426.72024238754091,-6949.4874966474245,-3065.4237275813553,8142.3852803396385,-6284.1999711908202,4003.5040292219246,-4003.5040292219246,6284.1999711908202,15979.638002995734,0.0
345012.02908761695,3812225.878295721,-37500.0,459.90925214330321,802.20198881131341,-11166.844821682107,161.59354238844671,-6838.1404788216723,-3015.3868196228659,8045.194734538225,-5235.0118984736728,3833.370326444825,-3833.370326444825,5235.0118984736728,15784.235726039264,0.0
350012.02908761695,3812225.878295721,-37500.0,351.02880511694229,1914.2817499888822,-10577.583560355333,736.31272701411308,-6538.6006689664591,-2894.4564806852045,7829.8799444508059,-3984.7410091566676,3406.0948805488038,-3406.0948805488038,3984.7410091566676,15342.062495775208,0.0
355012.02908761695,3812225.878295721,-37500.0,65.169345451392758,2914.4273127344272,-9628.8268617631293,1259.8805618061315,-6061.2293597822063,-2706.6613014041995,7511.2126069994856,-2615.4563660483727,2747.9670732155619,-2747.9670732155619,2615.4563660483727,14671.249185124751,0.0
360012.02908761695,3812225.878295721,-37500.0,-365.24381408666375,3728.8071238800535,-8375.0441179227637,1698.7283349740724,-5430.9457670692309,-2461.0295744909577,7109.4962079689039,-1221.7317321133833,1910.9699761508423,-1910.9699761508423,1221.7317321133833,13806.409771709425,0.0
365012.02908761695,3812225.878295721,-37500.0,-890.08480948915906,4302.8298228451122,-6897.1248167352996,2027.4633973111427,-4684.5445247394155,-2170.6704045622287,6647.6536518162347,101.67786619333549,965.93423256223889,-965.93423256223889,-101.67786619333549,12796.15681995422,0.0
370012.02908761695,3812225.878295721,-37500.0,-1449.4170369259414,4607.8753843640061,-5291.8176118595929,2231.7206303459207,-3866.2343789779688,-1851.2923948853563,6150.6478216549203,1272.0676854832709,-7.6517177449824203,7.6517177449824203,-1272.0676854832709,11698.887224172306,0.0
375012.02908761695,3812225.878295721,-37500.0,-1982.8158355849755,4643.3193772689428,-3659.1750795863618,2309.1392420938764,-3022.3138846366196,-1519.4456345435451,5644.6397274716001,2228.3201591044153,-932.8586454931152,932.8586454931152,-2228.3201591044153,10577.449005595441,0.0
380012.02908761695,3812225.878295721,-37500.0,-2437.969431262326,4433.7882749918881,-2090.6542909120144,2268.4222175988871,-2196.0406499667192,-1190.8129500276971,5154.7831174914445,2936.0131466025728,-1745.1070386267197,1745.1070386267197,-2936.0131466025728,9493.3296503522542,0.0
385012.02908761695,3812225.878295721,-37500.0,-2776.8123382197068,4022.7777792137349,-660.09734504672451,2126.8874865778525,-1423.5981873746423,-878.83293745100059,4702.5305222508368,3387.6433354825649,-2398.688006960816,2398.688006960816,-3387.6433354825649,8500.8468069661085,0.0
390012.02908761695,3812225.878295721,-37500.0,-2978.3311942722557,3464.4708074919336,581.21550688565253,1907.2012618494291,-731.68192157937335,-593.82372329078908,4303.2971387692542,3598.7592667528465,-2869.2590979729835,2869.2590979729835,-3598.7592667528465,7641.6282352167545,0.0
395012.02908761695,3812225.878295721,-37500.0,-3038.1539557699853,2815.6380587690128,1605.3979157998851,1634.0244716444067,-136.7788299609679,-342.64662850141315,3965.0051720040819,3601.571859022954,-3152.6533799199492,3152.6533799199492,-3601.571859022954,6939.8337113860871,0.0
400012.02908761695,3812225.878295721,-37500.0,-2965.7412351812591,2129.0338290503219,2405.5223898723511,1331.1494632082279,354.13974246706408,-128.83732094548552,3687.8884074626399,3437.7792857530003,-3261.081643708053,3261.081643708053,-3437.7792857530003,6399.3136064446844,0.0
405012.02908761695,3812225.878295721,-37500.0,-2780.3009524732106,1448.9988661521802,2991.1916402344409,1019.4520880084149,741.9885891289457,46.93141183781308,3465.7081127188085,3152.02056626177,-3218.066947184695,3218.066947184695,-3152.02056626177,6004.523375069859,0.0
410012.02908761695,3812225.878295721,-37500.0,-2506.4728828424822,809.32629638849551,3383.3856496080239,715.73456459214481,1033.5059712180073,186.20969944144704,3288.0783214448074,2786.8112251092161,-3053.3001187945274,3053.3001187945274,-2786.8112251092161,5726.055569004955,0.0
415012.02908761695,3812225.878295721,-37500.0,-2170.5366591769252,233.0052723994703,3609.5595706967183,432.35284180194839,1239.1717502528184,292.08709918592632,3143.1509316705497,2379.2511803777361,-2798.2304736536207,2798.2304736536207,-2379.2511803777361,5529.0258717749466,0.0
300012.02908761695,3817225.878295721,-37500.0,-3741.4478858028356,-4617.2242076788425,-4476.6712669989347,-3073.6009695072912,-3690.2274574614212,-1960.8914565029643,5983.3672544218134,-5661.7736243533527,-677.33612758282425,677.33612758282425,5661.7736243533527,11754.604387691683,0.0
305012.02908761695,3817225.878295721,-37500.0,-3376.9703415952595,-4839.4727796549332,-5657.8218159339804,-3143.8025110364065,-4372.9645659667822,-2249.6299569198113,6562.3075258678564,-6515.6710433120243,5.039380684495427,-5.039380684495427,6515.6710433120243,12896.70136489345,0.0
310012.02908761695,3817225.878295721,-37500.0,-2897.0676855653869,-4903.0083562138534,-6926.4020332108057,-3125.6495220161423,-5087.9748765090717,-2546.0829670254743,7143.0595887533118,-7298.9724504415344,778.54759930127238,-778.54759930127238,7298.9724504415344,14030.785900953142,0.0
315012.02908761695,3817225.878295721,-37500.0,-2320.5816844671454,-4765.9162135486713,-8232.8571820721627,-3000.6074021604468,-5807.7482900659106,-2838.8054487685154,7702.5081373269841,-7948.1870847362043,1607.3430270484428,-1607.3430270484428,7948.1870847362043,15116.292626738896,0.0
320012.02908761695,3817225.878295721,-37500.0,-1681.2505588923946,-4393.6716982172366,-9509.0022047157254,-2754.4554367892683,-6496.3912838814413,-3113.4811462720309,8214.0812608141732,-8394.1858672416656,2439.6100457272009,-2439.6100457272009,8394.1858672416656,16105.814519028456,0.0
325012.02908761695,3817225.878295721,-37500.0,-1027.4083065350858,-3766.3389801098278,-10670.128823568726,-2380.4506272816252,-7111.0120746724697,-3353.5728582897686,8649.4763255717535,-8569.3538127843149,3209.4868753185615,-3209.4868753185615,8569.3538127843149,16947.495022177576,0.0
330012.02908761695,3817225.878295721,-37500.0,-418.78445934714097,-2885.891230534774,-11620.778247253507,-1882.3839922384848,-7604.7316791353715,-3541.5293505301256,8980.7553010188585,-8417.1620962114139,3842.3316765909412,-3842.3316765909412,8417.1620962114139,17588.811114129607,0.0
335012.02908761695,3817225.878295721,-37500.0,80.011157718627231,-1781.9907095116121,-12264.464920160353,-1276.8186139595757,-7931.3622067522183,-3660.5270294156885,9183.162517451321,-7902.9787141891265,4263.4930457922947,-4263.4930457922947,7902.9787141891265,17981.643994545502,0.0
340012.02908761695,3817225.878295721,-37500.0,408.89888838471853,-514.25161231857453,-12516.59732955282,-593.71102220712135,-8051.3310260796434,-3696.5667950044567,9238.5767092406095,-7024.0139423624614,4409.7498413187268,-4409.7498413187268,7024.0139423624614,18088.138548905765,0.0
345012.02908761695,3817225.878295721,-37500.0,523.14670664888968,830.71977093496776,-12318.646586593904,125.22326735012905,-7937.9644110713962,-3640.6111510561664,9139.1838977481148,-5815.7507113102856,4241.4489580253685,-4241.4489580253685,5815.7507113102856,17886.575478275459,0.0
350012.02908761695,3817225.878295721,-37500.0,403.14910028489714,2148.2210294007318,-11650.470674317417,830.6098615858765,-7582.7901949641728,-3490.3111120682438,8890.271238104553,-4352.3090720171003,3752.4355848485416,-3752.4355848485416,4352.3090720171003,17376.101792724337,0.0
355012.02908761695,3817225.878295721,-37500.0,60.375538838877752,3329.3356792881264,-10537.496390321188,1471.5126951866366,-6998.5157985442984,-3250.9073064225904,8510.1611190333824,-2739.4285167166481,2974.785982747283,-2974.785982747283,2739.4285167166481,16579.326861267549,0.0
360012.02908761695,3817225.878295721,-37500.0,-462.66834298355207,4277.1201816996372,-9050.1116929608506,2002.4034736059943,-6218.6083536402339,-2934.9816090960985,8026.1123448851395,-1100.6268933133131,1976.2793348438092,-1976.2793348438092,1100.6268933133131,15541.848853532627,0.0
365012.02908761695,3817225.878295721,-37500.0,-1099.0091637815578,4921.3076188739278,-7294.8211771189563,2389.4627065987875,-5293.3719419985309,-2561.0656710539251,7469.7284827132407,440.60679821490646,850.60540231854941,-850.60540231854941,-440.60679821490646,14328.741400750727,0.0
370012.02908761695,3817225.878295721,-37500.0,-1768.8491153311427,5227.8924587716065,-5398.8095483015868,2614.7656339276305,-4283.1897408336508,-2151.3287432533643,6874.9642744452767,1778.48674015448,-297.56797697403977,297.56797697403977,-1778.48674015448,13018.265522158847,0.0
375012.02908761695,3817225.878295721,-37500.0,-2393.2306716136527,5201.447802183553,-3491.7060633800111,2677.4847833648137,-3250.5133122082871,-1728.8574018030881,6276.5089915870667,2838.2728201583113,-1368.8836892827483,1368.8836892827483,-2838.2728201583113,11693.90012383763,0.0
380012.02908761695,3817225.878295721,-37500.0,-2906.2451332793335,4880.2366789952148,-1688.7794562079253,2592.1032361165308,-2252.3335141108028,-1315.0744332266474,5706.656321415021,3582.643820900737,-2283.0196397175509,2283.0196397175509,-3582.643820900737,10435.659903586624,0.0
385012.02908761695,3817225.878295721,-37500.0,-3263.1082905591766,4326.1607518927958,-78.962298517816038,2384.4053895019501,-1334.5717296891094,-927.75536245735691,5191.5488461464047,4010.665420500718,-2987.070764944302,2987.070764944302,-4010.665420500718,9311.4428084253577,0.0
390012.02908761695,3817225.878295721,-37500.0,-3443.021224266934,3612.6173631191423,1280.7310226823856,2086.4404443236272,-529.11448843525875,-579.88987024683479,4748.0751692827589,4150.9544914868693,-3457.7262930194042,3457.7262930194042,-4150.9544914868693,8368.9445881629745,0.0
395012.02908761695,3817225.878295721,-37500.0,-3447.3335112973264,2813.1877143480801,2364.7499550101966,1731.6370781191024,146.55255335901265,-279.39828904538246,4382.3246322333889,4051.7410815258768,-3698.1575763104534,3698.1575763104534,-4051.7410815258768,7629.2878485636911,0.0
400012.02908761695,3817225.878295721,-37500.0,-3294.563793969322,1993.11504888835,3174.1760888176195,1350.9114044974719,687.71058214161042,-29.539430614676085,4090.1716147572756,3770.5456536483689,-3731.5781002645335,3731.5781002645335,-3770.5456536483689,7084.8875533802857,0.0
405012.02908761695,3817225.878295721,-37500.0,-3014.1146609608591,1204.3136472516819,3729.6424118027139,970.15088895368751,1099.6110240535354,170.24223952891631,3859.9498795847376,3365.4542041096961,-3593.6215482102657,3593.6215482102657,-3365.4542041096961,6704.176645480572,0.0
410012.02908761695,3817225.878295721,-37500.0,-2640.2144262183615,483.65105982476888,4063.8901140167882,609.05767415666048,1394.3097238453547,323.28255593187544,3676.317129165046,2888.9707519681047,-3325.2381013953459,3325.2381013953459,-2888.9707519681047,6442.5651792584795,0.0
415012.02908761695,3817225.878295721,-37500.0,-2207.0328666448363,-146.32107563099643,4215.2416017463183,281.08151019936918,1587.7147132345438,434.67678686643399,3523.928071797508,2384.5547645242659,-2967.1003790463064,2967.1003790463064,-2384.5547645242659,6254.7756818026082,0.0
420012.02908761695,3817225.878295721,-37500.0,-1745.3416951109789,-675.1650790285064,4222.6190385598284,-5.92286788794312,1697.1798469792184,510.39930685213028,3389.8867153745609,1885.405423678493,-2555.8547211825635,2555.8547211825635,-1885.405423678493,6103.4134919252347,0.0
290012.02908761695,3822225.878295721,-37500.0,-4697.2965225476046,-3973.2941777626538,-2034.7041358723716,-3057.0099202132969,-2491.1180224793829,-1566.2364893571282,5209.740830961051,-3706.9919185959761,-2271.1057778280729,2271.1057778280729,3706.9919185959761,10127.701337133109,0.0
295012.02908761695,3822225.878295721,-37500.0,-4626.281838478948,-4495.6175205672725,-3008.7473336950375,-3314.0404729872948,-3135.0748547604389,-1866.829277101524,5812.215151047254,-4661.258405779412,-1830.9153468547024,1830.9153468547024,4661.258405779412,11350.501885760739,0.0
300012.02908761695,3822225.878295721,-37500.0,-4417.4460095804634,-4952.1469001991245,-4154.366745387325,-3522.0396477059098,-3864.6925828798539,-2198.9693707729657,6459.4685867542821,-5669.5651500145541,-1242.723819887035,1242.723819887035,5669.5651500145541,12649.123565623353,0.0
305012.02908761695,3822225.878295721,-37500.0,-4058.9082343407549,-5294.0685192215333,-5460.6378064173614,-3655.9330405352571,-4669.6280095489101,-2556.8489888283693,7140.4156345716219,-6687.1605745637089,-508.15018894127297,508.15018894127297,6687.1605745637089,13997.20720449868,0.0
310012.02908761695,3822225.878295721,-37500.0,-3550.4998201728849,-5466.2408622439061,-6898.0546662384741,-3688.6063445171794,-5529.7450156393415,-2930.7597424149758,7835.7916144085775,-7652.6800070153813,355.646421737727,-355.646421737727,7652.6800070153813,15357.599835670695,0.0
315012.02908761695,3822225.878295721,-37500.0,-2908.3002596523497,-5412.0472234739191,-8414.1585535531995,-3593.4862631449942,-6413.3894446952509,-3306.6133637432704,8518.3857255879793,-8489.2793564526091,1311.8911843429919,-1311.8911843429919,8489.2793564526091,16681.875251278994,0.0
320012.02908761695,3822225.878295721,-37500.0,-2168.1507747733226,-5080.8915907994333,-9931.0215908330629,-3348.2320416197058,-7276.7204626569019,-3665.9150871203642,9155.0668212107921,-9109.0858435227674,2301.8461072865202,-2301.8461072865202,9109.0858435227674,17911.137427126792,0.0
325012.02908761695,3822225.878295721,-37500.0,-1386.7318869134306,-4437.9961128807172,-11346.228428933051,-2939.2918789422542,-8064.8194160381863,-3986.4311235436421,9709.1200740109962,-9421.7350285087141,3245.7163100530011,-3245.7163100530011,9421.7350285087141,18978.619215225506,0.0
330012.02908761695,3822225.878295721,-37500.0,-638.70207744514141,-3475.2255747050995,-12538.925435982863,-2366.6753545513552,-8715.1936340790544,-4243.7216581211942,10143.020799444128,-9346.9591236438682,4048.2458847194057,-4048.2458847194057,9346.9591236438682,19814.383141128812,0.0
335012.02908761695,3822225.878295721,-37500.0,-8.8617593163404891,-2220.6354597371537,-13381.897668901076,-1647.8921690095615,-9163.9735979490142,-4413.5843260516158,10422.229258237909,-8829.949186641652,4609.7512207300933,-4609.7512207300933,8829.949186641652,20352.167081692696,0.0
340012.02908761695,3822225.878295721,-37500.0,420.54473852522347,-743.64042689441567,-13759.148110523958,-819.7348000849862,-9354.406660721741,-4475.2016148936582,10520.022945132205,-7856.6101744022753,4841.8981946352733,-4841.8981946352733,7856.6101744022753,20537.806910560575,0.0
345012.02908761695,3822225.878295721,-37500.0,585.52275013597091,847.23712435520895,-13586.434594382776,63.302979811696453,-9246.3847585140375,-4414.5044187271642,10422.808117044171,-6464.5821765436067,4685.5920059253349,-4685.5920059253349,6464.5821765436067,20338.063384932306,0.0
350012.02908761695,3822225.878295721,-37500.0,455.3694269641295,2415.7452859199207,-12830.2292901733,934.5517212389766,-8824.9659170495579,-4227.0482857021334,10134.596605339679,-4745.7277883926899,4126.581015879824,-4126.581015879824,4745.7277883926899,19748.193666302705,0.0
355012.02908761695,3822225.878295721,-37500.0,42.474240590904245,3817.4789110365514,-11519.510706830844,1724.1045274871408,-8105.4572448819881,-3919.5968851916782,9678.0565042161488,-2837.3057507571889,3203.715126040765,-3203.715126040765,2837.3057507571889,18796.288283403595,0.0
360012.02908761695,3822225.878295721,-37500.0,-596.93399394009407,4923.6764655991719,-9746.037325405161,2369.4127612495249,-7133.3052496376695,-3509.9037070068621,9090.0964519735826,-902.35293762716469,2006.2081955616425,-2006.2081955616425,902.35293762716469,17543.166050616983,0.0
365012.02908761695,3822225.878295721,-37500.0,-1372.3098178722689,5643.0611649970606,-7651.57644055325,2824.9491800208648,-5978.1800562176195,-3024.5258681219598,8414.8141524909024,896.53124083639455,659.39503952708628,-659.39503952708628,-896.53124083639455,16077.11553718818,0.0
370012.02908761695,3822225.878295721,-37500.0,-2176.274514094966,5935.7180191587795,-5405.0346151923013,3068.4640629242617,-4723.5918050451346,-2495.1639952472142,7699.0538139664613,2423.1205450188027,-697.50610108019941,697.50610108019941,-2423.1205450188027,14504.433239722415,0.0
375012.02908761695,3822225.878295721,-37500.0,-2904.9749278336863,5815.5124472833077,-3175.5355149045185,3102.3860482262289,-3454.6071443797268,-1954.3680208284673,6989.2875221795002,3586.4393319078117,-1935.4261792913585,1935.4261792913585,-3586.4393319078117,12937.230673600941,0.0
380012.02908761695,3822225.878295721,-37500.0,-3475.5638041506063,5341.437862690761,-1108.4544809549698,2950.4724068581322,-2246.6564053669231,-1431.5807162228784,6327.0317723263788,4348.4521590744807,-2954.8246322948289,2954.8246322948289,-4348.4521590744807,11480.151331449773,0.0
385012.02908761695,3822225.878295721,-37500.0,-3836.6745620657798,4601.6547361935654,690.34209063015669,2651.1802831606233,-1157.7516475081964,-950.28126430429631,5743.5818102989178,4720.4015205841661,-3696.2179189067119,3696.2179189067119,-4720.4015205841661,10217.216439164496,0.0
390012.02908761695,3822225.878295721,-37500.0,-3970.6624998920834,3695.4095104969506,2160.1567077750065,2249.8541820904511,-225.06643406257305,-526.56809797521191,5256.0182130476223,4750.9711084351175,-4141.0824560337796,4141.0824560337796,-4750.9711084351175,9199.9598295956039,0.0
395012.02908761695,3822225.878295721,-37500.0,-3889.04377580855,2717.3639289195298,3282.3058573440071,1791.6354812530196,534.49649000808233,-169.10260692789259,4866.0361845143852,4510.9290595264019,-4305.2491985252809,4305.2491985252809,-4510.9290595264019,8439.6890865229961,0.0
400012.02908761695,3822225.878295721,-37500.0,-3624.0118499102628,1746.9360881092832,4071.3038127067348,1316.2838297877163,1120.9690588335261,119.94266430757139,4562.3047724887365,4078.4665758454507,-4228.3000983778957,4228.3000983778957,-4078.4665758454507,7908.6691725313967,0.0
405012.02908761695,3822225.878295721,-37500.0,-3218.9883858807284,843.17133242592979,4563.8642245930932,855.27721955928234,1546.6653930284017,343.38757277451265,4325.627751354541,3527.8858772828626,-3962.3398289937732,3962.3398289937732,-3527.8858772828626,7552.5957634574834,0.0
410012.02908761695,3822225.878295721,-37500.0,-2720.3539686306945,44.201922294988705,4808.4285741295816,430.93458182686066,1831.4278244332743,507.40677116103933,4134.8267520098225,2922.5581433450925,-3562.4608196147356,3562.4608196147356,-2922.5581433450925,7309.2582495854876,0.0
415012.02908761695,3822225.878295721,-37500.0,-2171.4334221127183,-630.27592936023279,4856.7756428907915,56.989381862706061,1998.5497182517424,620.03669381585053,3971.2228546083611,2311.7957158559016,-3079.9686135212173,3079.9686135212173,-2311.7957158559016,7124.1197375791298,0.0
420012.02908761695,3822225.878295721,-37500.0,-1608.9146823246135,-1175.051773152994,4758.2226162286097,-260.0078359367368,2071.7186874861286,689.97887927468173,3820.8180441464619,1730.6386560803228,-2558.4426912793201,2558.4426912793201,-1730.6386560803228,6957.663777302032,0.0
425012.02908761695,3822225.878295721,-37500.0,-1061.3340461725359,-1595.1526050695691,4556.2376700319674,-518.97307335235416,2073.0064378572006,725.74428260771754,3674.5443727732186,1201.429279653966,-2032.1363164736301,2032.1363164736301,-1201.429279653966,6785.6703421744605,0.0
290012.02908761695,3827225.878295721,-37500.0,-5327.9298738084799,-3990.1450847379447,-1453.8688391566197,-3367.5152964042773,-2426.8839735193706,-1686.0895381612656,5519.6406101344792,-3320.9875121971022,-2930.9977864542484,2930.9977864542484,3320.9875121971022,10659.089401112165,0.0
295012.02908761695,3827225.878295721,-37500.0,-5340.2106889047618,-4635.035065512172,-2453.7912626628208,-3711.2645334138401,-3147.4307939695173,-2043.5265741429789,6202.8303171934194,-4378.3328268635178,-2527.7983303440751,2527.7983303440751,4378.3328268635178,12048.817181809562,0.0
300012.02908761695,3827225.878295721,-37500.0,-5193.4956726270666,-5231.2782691198236,-3666.0444787951706,-4009.4887023557085,-3982.3025405455155,-2445.8928278602621,6948.3451099635295,-5528.2407486865714,-1945.4014509073104,1945.4014509073104,5528.2407486865714,13549.487658943059,0.0
305012.02908761695,3827225.878295721,-37500.0,-4865.5664857206975,-5721.5259904110853,-5088.4983880939062,-4230.6548634157034,-4924.1204077264256,-2887.7168720337686,7746.3602755927104,-6724.918353565723,-1176.1107003726197,1176.1107003726197,6724.918353565723,15134.275653981114,0.0
310012.02908761695,3827225.878295721,-37500.0,-4346.7498897496571,-6037.2173915103021,-6697.5220569966996,-4338.8369054869927,-5953.2355927931876,-3358.3058932937297,8577.0601241483637,-7900.2573629003673,-230.00388572248858,230.00388572248858,7900.2573629003673,16762.16867223314,0.0
315012.02908761695,3827225.878295721,-37500.0,-3646.705771617339,-6103.5725650113918,-8440.9322422145651,-4296.6752014596659,-7034.6191807762189,-3840.7559614883562,9409.3372841304827,-8963.3705571426945,858.48152961608002,-858.48152961608002,8963.3705571426945,18376.468402712435,0.0
320012.02908761695,3827225.878295721,-37500.0,-2800.6281190634359,-5848.5208909332805,-10232.556605017397,-4070.1198272719434,-8115.8542512487593,-4311.5020386010183,10202.512459087231,-9804.334389533793,2025.4720642024649,-2025.4720642024649,9804.334389533793,19904.825566741863,0.0
325012.02908761695,3827225.878295721,-37500.0,-1872.8389462147331,-5215.6332879685315,-11950.835579955481,-3634.8378532158654,-9127.384708543641,-4740.824518903496,10909.248608086638,-10303.741649137784,3176.3744260542308,-3176.3744260542308,10303.741649137784,21261.700161138193,0.0
330012.02908761695,3827225.878295721,-37500.0,-955.28472663435127,-4179.7808007451504,-13444.181123953804,-2983.5347452007682,-9986.1990329824112,-5094.6803281898083,11479.166430288089,-10348.764023947479,4190.9198786194847,-4190.9198786194847,10348.764023947479,22353.954931669719,0.0
335012.02908761695,3827225.878295721,-37500.0,-158.74972263233633,-2762.4907364540577,-14545.300725935229,-2132.6992092096507,-10603.78486533176,-5338.0629697465174,11863.934722459522,-9854.6544848885187,4936.4347817313428,-4936.4347817313428,9854.6544848885187,23089.948563374226,0.0
340012.02908761695,3827225.878295721,-37500.0,403.92366945722154,-1042.2679770967391,-15094.720526229774,-1126.6297679703773,-10898.186449673523,-5439.7047420646031,12024.064402031669,-8787.9613606867533,5289.2670205416853,-5289.2670205416853,8787.9613606867533,23391.577598368185,0.0
345012.02908761695,3827225.878295721,-37500.0,640.55595292720318,845.40912819151163,-14970.558374252178,-36.513718679934222,-10808.541500935193,-5377.4337965747118,11936.748387295986,-7185.2146617967173,5161.1531839866784,-5161.1531839866784,7185.2146617967173,23207.701799865208,0.0
350012.02908761695,3827225.878295721,-37500.0,502.96361599338047,2722.1570884460893,-14117.860465024954,1046.8543905451045,-10308.898125696895,-5143.0178267216388,11602.999377835273,-5159.7341128523003,4523.9059427922875,-4523.9059427922875,5159.7341128523003,22526.317353408474,0.0
355012.02908761695,3827225.878295721,-37500.0,3.3323149425555538,4394.4156753295156,-12568.3576229686,2026.2774297797732,-9417.1539700032827,-4745.0710225014764,11050.74315123517,-2891.073453428879,3423.9418054998155,-3423.9418054998155,2891.073453428879,21382.181891140885,0.0
360012.02908761695,3827225.878295721,-37500.0,-783.25796707764755,5688.9555491882556,-10442.636248715904,2814.5571202322139,-8195.6766945401941,-4208.9496599334943,10330.299255828579,-596.87820909434004,1979.820200382555,-1979.820200382555,596.87820909434004,19857.343501588588,0.0
365012.02908761695,3827225.878295721,-37500.0,-1732.7932266508019,6486.0130588824941,-7931.6939247703385,3349.6625518646033,-6742.3916056015969,-3573.3250799323623,9504.03996185711,1506.3129887296013,361.31395294173399,-361.31395294173399,-1506.3129887296013,18073.461226389598,0.0
370012.02908761695,3827225.878295721,-37500.0,-2699.10690982706,6739.7469869440129,-5262.3152793911104,3604.2749821959455,-5174.4124242864636,-2884.2192819012139,8637.6433316735965,3241.8967493637447,-1244.3902665196854,1244.3902665196854,-3241.8967493637447,16177.095436153904,0.0
375012.02908761695,3827225.878295721,-37500.0,-3544.7553540808631,6480.1991211613686,-2656.639146146279,3587.2158461952422,-3608.8106352994264,-2188.0687687007753,7794.0509832485095,4500.1867250945506,-2668.7541183664475,2668.7541183664475,-4500.1867250945506,14320.554831423871,0.0
380012.02908761695,3827225.878295721,-37500.0,-4166.2462576959942,5797.9874839367976,-297.69275786713388,3337.1883739260916,-2145.7710998190496,-1525.5724039462327,7026.5374883368186,5247.0872311764124,-3789.4099758366406,3789.4099758366406,-5247.0872311764124,12641.073240172578,0.0
385012.02908761695,3827225.878295721,-37500.0,-4507.222377689267,4818.7304505818302,1690.9781473155545,2911.6894565184775,-857.88373958278828,-927.59303223241113,6371.3305188384675,5515.1817437101963,-4542.8051535058385,4542.8051535058385,-5515.1817437101963,11240.38989458598,0.0
390012.02908761695,3827225.878295721,-37500.0,-4558.5737722935874,3676.0930650971009,3249.6225252011996,2374.8307579060834,213.28747752710603,-413.54849122598011,5842.8511825477017,5383.4998281570997,-4921.8476016530922,4921.8476016530922,-5383.4998281570997,10167.640416945891,0.0
395012.02908761695,3827225.878295721,-37500.0,-4348.880936386051,2490.4185984364835,4373.8923080757022,1787.1444082016408,1054.5480968505985,8.033344722381031,5434.1254873399521,4953.9957863088921,-4963.1332686827909,4963.1332686827909,-4953.9957863088921,9412.2008407644189,0.0
400012.02908761695,3827225.878295721,-37500.0,-3930.4086039870226,1356.0981354574706,5099.5808114423526,1198.9468407402135,1674.7473133273115,337.54518420451029,5122.7470998785457,4331.1329874587636,-4729.9296392977967,4729.9296392977967,-4331.1329874587636,8914.0520291403591,0.0
405012.02908761695,3827225.878295721,-37500.0,-3365.2771102594284,337.37405481923219,5486.0303339108623,647.39193984361202,2097.2441116834416,581.72992329755846,4879.8564179811146,3607.8425725073903,-4296.0631702398941,4296.0631702398941,-3607.8425725073903,8589.6709237169689,0.0
410012.02908761695,3827225.878295721,-37500.0,-2714.6190455448568,-529.71323327947823,5601.8949704324796,156.42777777797423,2352.9560596124879,751.14410204375395,4678.1778519067166,2858.2487720266481,-3733.637298659718,3733.637298659718,-2858.2487720266481,8359.2616727238346,0.0
415012.02908761695,3827225.878295721,-37500.0,-2031.6703661994964,-1232.0007308995191,5514.8767125202585,-261.44313585582222,2474.9277799530996,858.03430201582876,4496.5963557939122,2135.8233188898448,-3105.4053404574715,3105.4053404574715,-2135.8233188898448,8162.5860515633103,0.0
420012.02908761695,3827225.878295721,-37500.0,-1358.4676589158125,-1772.7905885752855,5285.5068600815957,-602.59722598011126,2494.6552039027129,914.77409092723417,4321.2636256766091,1475.0479546453325,-2461.2525262154295,2461.2525262154295,-1475.0479546453325,7962.0542966633147,0.0
425012.02908761695,3827225.878295721,-37500.0,-725.22948860204542,-2165.8320622377259,4964.2251350936713,-869.6312597060238,2439.9772574904364,932.85230344389606,4144.6058465836832,894.83135321703321,-1837.6564883424926,1837.6564883424926,-894.83135321703321,7738.6869833468209,0.0
430012.02908761695,3827225.878295721,-37500.0,-151.40310590714867,-2430.4267070578035,4590.7553982237405,-1069.0227831601317,2334.1641227235054,922.32036661408495,3963.5932270157878,402.410905752036,-1258.95070593015,1258.95070593015,-402.410905752036,7486.2206753980399,0.0
285012.02908761695,3832225.878295721,-37500.0,-5718.4986369653725,-3132.5420443978792,27.694538071099437,-3206.2212425607277,-1625.7438950049857,-1427.246491981366,5134.9992100974059,-1770.0204656813039,-3825.828599980824,3825.828599980824,1770.0204656813039,9745.8898913203411,0.0
290012.02908761695,3832225.878295721,-37500.0,-5985.3711813418295,-3883.2829869940747,-736.63274656567137,-3661.7981578173226,-2278.3141258275059,-1786.2236707143682,5818.3052890366362,-2755.7267002203453,-3673.2399313545156,3673.2399313545156,2755.7267002203453,11143.606746706009,0.0
295012.02908761695,3832225.878295721,-37500.0,-6115.1817713941919,-4659.4195148019371,-1731.3831636386908,-4110.7776590108351,-3072.0067456044071,-2207.1273786396187,6586.5076206989615,-3901.9796499684594,-3341.5465789617488,3341.5465789617488,3901.9796499684594,12708.114802339236,0.0
300012.02908761695,3832225.878295721,-37500.0,-6067.4192301377952,-5414.2005236108662,-2981.8491116173932,-4523.4792721228223,-4015.0130844068476,-2690.7557534535949,7439.2862172418854,-5188.7166689610322,-2799.1728471491424,2799.1728471491424,5188.7166689610322,14428.823707308125,0.0
305012.02908761695,3832225.878295721,-37500.0,-5805.9815788626502,-6082.6876613521381,-4499.1600611260983,-4861.3367294610534,-5105.6703619210284,-3233.0338926449294,8369.4500932262217,-6572.7274384595839,-2024.9031514969174,2024.9031514969174,6572.7274384595839,16280.789918090179,0.0
310012.02908761695,3832225.878295721,-37500.0,-5306.9048456259834,-6582.1306500292758,-6270.8739991678258,-5077.8432242752888,-6327.5211476775712,-3823.0951167794888,9358.0778192213602,-7981.9808728238131,-1016.5707175481748,1016.5707175481748,7981.9808728238131,18220.885087853807,0.0
315012.02908761695,3832225.878295721,-37500.0,-4567.9802527073907,-6816.2994578178004,-8250.3766056457534,-5121.5967940398923,-7644.1447213412512,-4441.4513383122048,10371.003534272621,-9312.3636548865761,199.02938991513201,-199.02938991513201,9312.3636548865761,20184.62047450363,0.0
320012.02908761695,3832225.878295721,-37500.0,-3618.8205248621798,-6685.3597835173878,-10347.050201142471,-4942.067243734059,-8994.8739949501505,-5058.7240200440665,11359.356140220389,-10429.376975012638,1556.9214950949108,-1556.9214950949108,10429.376975012638,22084.652182228878,0.0
325012.02908761695,3832225.878295721,-37500.0,-2528.6808030867019,-6102.2158562071236,-12420.544935622485,-4498.303903851951,-10293.132389018328,-5635.6100087105697,12262.732062481224,-11177.675526575191,2948.6188969173982,-2948.6188969173982,11177.675526575191,23812.385763902548,0.0
330012.02908761695,3832225.878295721,-37500.0,-1408.165745396851,-5014.508433987623,-14283.53903562312,-3769.9069773590636,-11429.478444018985,-6124.8067980378109,13013.700582972908,-11400.599202165835,4224.8385947434035,-4224.8385947434035,11400.599202165835,25244.105031030034,0.0
335012.02908761695,3832225.878295721,-37500.0,-400.67720907673521,-3428.6567237625636,-15717.361625732623,-2768.2983942774354,-12281.237460262873,-6475.4524222408727,13544.497477047356,-10969.545165489502,5210.2234559891604,-5210.2234559891604,10969.545165489502,26252.660246560175,0.0
340012.02908761695,3832225.878295721,-37500.0,338.9594527126672,-1429.0446120316619,-16502.636022051011,-1544.9459816450292,-12729.332112515829,-6640.0886781191357,13796.593437500509,-9818.9088105667706,5731.6861280556004,-5731.6861280556004,9818.9088105667706,26724.575083431831,0.0
345012.02908761695,3832225.878295721,-37500.0,677.12828469882686,816.65751562624678,-16462.195499440346,-192.48967287985957,-12680.48865563811,-6583.2572933906977,13732.431697506974,-7977.4298530404203,5657.0646477506898,-5657.0646477506898,7977.4298530404203,26580.591457919079,0.0
350012.02908761695,3832225.878295721,-37500.0,537.8540776198513,3073.7468592376713,-15506.730282999561,1164.4034013556563,-12089.899706521666,-6289.8040481453745,13346.891057645327,-5583.4977859510627,4934.4184678450174,-4934.4184678450174,5583.4977859510627,25795.483245165164,0.0
355012.02908761695,3832225.878295721,-37500.0,-69.449176503050325,5079.7511899858391,-13668.24070114479,2388.6403787023919,-10977.188711834902,-5770.3307792915384,12673.944064204064,-2873.704708957338,3617.7419231721206,-3617.7419231721206,2873.704708957338,24411.606310015548,0.0
360012.02908761695,3832225.878295721,-37500.0,-1043.573259564313,6598.2856288440689,-11106.562983827955,3356.6057479726305,-9428.963653009374,-5061.5703026156762,11782.755756079956,-142.22718839555046,1866.1970166951655,-1866.1970166951655,142.22718839555046,22541.153305520384,0.0
365012.02908761695,3832225.878295721,-37500.0,-2212.2063946405424,7470.4604478659739,-8082.3881147834536,3982.6031266706859,-7585.1506022502826,-4220.8895705724608,10762.819334181399,2318.9688538824421,-87.083492968409246,87.083492968409246,-2318.9688538824421,20354.674061438636,0.0
370012.02908761695,3832225.878295721,-37500.0,-3373.8777461233317,7645.6743439310485,-4903.7801349086831,4233.7786419268541,-5612.5602609075959,-3316.3010556681807,9707.8618228737541,4279.4776338278589,-1987.481739757822,1987.481739757822,-4279.4776338278589,18057.634242739627,0.0
375012.02908761695,3832225.878295721,-37500.0,-4345.7093755840006,7181.7721154569745,-1864.3013557864176,4131.0614726395233,-3674.072756378016,-2414.9457137620302,8704.1128493217602,5609.4168560805838,-3614.0250756471023,3614.0250756471023,-5609.4168560805838,15859.420302409311,0.0
380012.02908761695,3832225.878295721,-37500.0,-5000.0569724039888,6217.8022603572663,806.9189178288475,3737.4031598411202,-1902.953563776442,-1573.3640170725012,7819.4061040613524,6287.767906307603,-4818.5985356420606,4818.5985356420606,-6287.767906307603,13939.724136688454,0.0
385012.02908761695,3832225.878295721,-37500.0,-5280.1093521215671,4932.6585535866452,2970.5593027933987,3138.9833237173011,-388.41822708480248,-831.69264526933921,7092.9968915704867,6383.2395648265174,-5539.747223060258,5539.747223060258,-6383.2395648265174,12416.325884081331,0.0
390012.02908761695,3832225.878295721,-37500.0,-5194.7036810429336,3505.0224254367413,4576.8812410824776,2426.1829331740732,826.54134308913603,-212.23341766841557,6530.9856659515099,6020.019272003492,-5793.1144634028551,5793.1144634028551,-6020.019272003492,11321.943286150863,0.0
395012.02908761695,3832225.878295721,-37500.0,-4799.8810997186101,2085.0465219022417,5647.6725375211781,1679.2042297802429,1738.1827173888989,278.56344440008411,6111.0714125057311,5342.2138441225907,-5648.0453916177303,5648.0453916177303,-5342.2138441225907,10604.241096409369,0.0
400012.02908761695,3832225.878295721,-37500.0,-4176.445469359569,780.86253392718447,6250.8882827572897,960.14026874030151,2370.5700267939278,646.24952211652464,5795.1120575942477,4486.3131332536186,-5201.0053253223514,5201.0053253223514,-4486.3131332536186,10156.450145178944,0.0
405012.02908761695,3832225.878295721,-37500.0,-3410.449261464124,-342.52482597527148,6476.4703920526654,310.83835110704592,2763.7192420846304,904.07519196828309,5543.1272266820342,3565.0088736389193,-4553.2925126839982,4553.2925126839982,-3565.0088736389193,9862.3125197964946,0.0
410012.02908761695,3832225.878295721,-37500.0,-2579.8112025474907,-1256.7150369543094,6417.8870640356845,-245.30041076030631,2963.7875812811085,1069.1707857887766,5322.6856179636416,2661.1997454170705,-3796.1867719946886,3796.1867719946886,-2661.1997454170705,9628.6982580293261,0.0
415012.02908761695,3832225.878295721,-37500.0,-1747.2900026542104,-1960.278662698551,6160.499333778137,-699.54431810602455,3016.2106750780085,1159.6445266084968,5112.1212111561754,1829.0157718598957,-3003.4108030116167,3003.4108030116167,-1829.0157718598957,9395.9948514908665,0.0
420012.02908761695,3832225.878295721,-37500.0,-958.43177745561968,-2469.1364212897192,5775.8011869852289,-1053.5636668311095,2961.6541015597736,1192.660377335671,4899.5444271643428,1098.5682863327718,-2229.1350084061296,2229.1350084061296,-1098.5682863327718,9133.7403965897956,0.0
425012.02908761695,3832225.878295721,-37500.0,-242.68685613519489,-2808.5729536391018,5319.8284224856679,-1315.5637499068164,2834.1638735257061,1183.3569368916976,4680.2061925370353,481.93648844111647,-1509.419338611784,1509.419338611784,-481.93648844111647,8831.5690209479271,0.0
430012.02908761695,3832225.878295721,-37500.0,383.88056994764611,-3007.3980388050277,4834.0684337208231,-1497.2105411154273,2660.8015499440262,1144.3938382490285,4453.8242481362722,-21.120693162842088,-865.32375884172757,865.32375884172757,21.120693162842088,8490.9344189295898,0.0
435012.02908761695,3832225.878295721,-37500.0,915.39474103502289,-3094.1256243651264,4347.5884535010491,-1611.4192731833193,2462.1475701060353,1085.913722829333,4222.5052481470339,-418.43686066842923,-306.48171857081701,306.48171857081701,418.43686066842923,8119.1837371024367,0.0
280012.02908761695,3837225.878295721,-37500.0,-5705.0975173499291,-2015.0582019411131,1286.7000625762369,-2831.1327114293554,-806.609933983156,-1109.26842309116,4704.8712313714514,-177.14002205141333,-4384.6517502314528,4384.6517502314528,177.14002205141333,8720.8340450275409,0.0
285012.02908761695,3837225.878295721,-37500.0,-6215.4976871467688,-2769.0853836457918,808.09824505861604,-3355.1079607556721,-1340.6148274450231,-1443.9981730945869,5351.6755597751271,-981.04160396069847,-4505.1159893039858,4505.1159893039858,981.04160396069847,10037.45570707598,0.0
290012.02908761695,3837225.878295721,-37500.0,-6639.0867537495806,-3613.4125188302382,117.56415345862732,-3914.2684307230538,-2024.5729798603725,-1852.0895143773516,6098.0913932628991,-1982.6810507630373,-4480.7037993227477,4480.7037993227477,1982.6810507630373,11560.927047635587,0.0
295012.02908761695,3837225.878295721,-37500.0,-6927.0132266805185,-4521.7417040990949,-829.92604349960084,-4487.2080818449131,-2881.1630333947764,-2341.3877916177162,6952.0592005568178,-3190.4970045746354,-4264.4506882146798,4264.4506882146798,3190.4970045746354,13300.01237529896,0.0
300012.02908761695,3837225.878295721,-37500.0,-7025.1827091393834,-5448.1060641055738,-2075.8653020026286,-5041.3086844322352,-3928.3007569159063,-2916.5395295529229,7918.0985437567024,-4595.4578881872576,-3809.3834009188822,3809.3834009188822,4595.4578881872576,15252.092042998354,0.0
305012.02908761695,3837225.878295721,-37500.0,-6879.898805098439,-6322.5486360696177,-3649.8032754649576,-5531.1141667956717,-5173.9004524935863,-3576.6170082703566,8993.7832353280319,-6162.2932274152945,-3075.9968991359192,3075.9968991359192,6162.2932274152945,17397.889102315843,0.0
310012.02908761695,3837225.878295721,-37500.0,-6447.0777186646537,-7048.970204986209,-5557.449978226552,-5898.1939650633449,-6608.9979627904058,-4312.216596344233,10163.493932218278,-7820.2154061331812,-2043.1910351410543,2043.1910351410543,7820.2154061331812,19695.593899883679,0.0
315012.02908761695,3837225.878295721,-37500.0,-5705.0565891266315,-7507.4384663908422,-7765.7468629575487,-6073.6237227627225,-8199.6991686512993,-5102.315034526996,11391.94033844801,-9455.2736115049629,-722.21565795689821,722.21565795689821,9455.2736115049629,22075.067772754301,0.0
320012.02908761695,3837225.878295721,-37500.0,-4669.8274964667171,-7563.801078612124,-10186.892629124977,-5984.3955128206489,-9879.2926169156926,-5911.5390342243118,12622.243890389584,-10907.905823949754,828.27569364452665,-828.27569364452665,10907.905823949754,24433.639697253289,0.0
325012.02908761695,3837225.878295721,-37500.0,-3409.4487517570938,-7089.0414417824159,-12665.480437225209,-5564.6613975515293,-11542.904620451736,-6688.8479648445309,13778.563527809394,-11980.340347018191,2490.1430268674894,-2490.1430268674894,11980.340347018191,26635.50628511154,0.0
330012.02908761695,3837225.878295721,-37500.0,-2052.0685581581506,-5988.9563692282254,-14975.323247023214,-4771.6505126275752,-13048.164779781997,-7368.9633068186458,14771.247435776446,-12458.533031893296,4082.9565612671413,-4082.9565612671413,12458.533031893296,28517.378033636669,0.0
335012.02908761695,3837225.878295721,-37500.0,-780.32358841845019,-4240.6342119584579,-16833.825448835447,-3604.0076652718712,-14225.643333170452,-7877.8100132429972,15505.304021567448,-12150.810755963748,5377.8539485748315,-5377.8539485748315,12150.810755963748,29902.709878009686,0.0
340012.02908761695,3837225.878295721,-37500.0,194.12687868451229,-1926.3676802870998,-17940.03004624608,-2117.624885643168,-14901.571704727656,-8142.6024043930147,15893.733274994993,-10939.479777564222,6133.3232169993571,-6133.3232169993571,10939.479777564222,30625.566869179853,0.0
345012.02908761695,3837225.878295721,-37500.0,676.63424549879051,749.79406988718574,-18035.532671011901,-431.81229246196125,-14931.534628115804,-8105.6477040271357,15875.198958230105,-8832.7447686568648,6151.0913514571293,-6151.0913514571293,8832.7447686568648,30562.007121036368,0.0
350012.02908761695,3837225.878295721,-37500.0,546.61538921925046,3478.1336691907413,-16975.761718638412,1281.0196882058594,-14238.079100074203,-7738.8841880632308,15432.715095065902,-5996.3603662113464,5338.898948236937,-5338.898948236937,5996.3603662113464,29662.864322278136,0.0
355012.02908761695,3837225.878295721,-37500.0,-194.73613977167219,5898.4410987998308,-14787.244224928183,2824.4251395671963,-12839.74610154561,-7054.3994537281651,14606.658264384643,-2744.1076455356542,3756.3769841164913,-3756.3769841164913,2744.1076455356542,27978.21964988828,0.0
360012.02908761695,3837225.878295721,-37500.0,-1409.7122431304365,7683.0150410277738,-11683.541367927543,4019.712501923078,-10858.265654762552,-6106.2308286032739,13492.910279657826,521.02633798719353,1619.3870050994296,-1619.3870050994296,-521.02633798719353,25663.667850195416,0.0
365012.02908761695,3837225.878295721,-37500.0,-2855.0299900925706,8618.4664015198668,-8025.5127005633012,4746.5531259818308,-8497.3596000639773,-4981.4044881862574,12221.884865039094,3399.9948303648725,-747.06668822998313,747.06668822998313,-3399.9948303648725,22963.003439905744,0.0
370012.02908761695,3837225.878295721,-37500.0,-4249.1693943413948,8653.1613790711181,-4236.7792844468249,4966.9888953614827,-5998.8033707508757,-3782.5992400364162,10929.890651313468,5590.5567994166886,-2992.3282310533045,2992.3282310533045,-5590.5567994166886,20169.61892618944,0.0
375012.02908761695,3837225.878295721,-37500.0,-5347.8782513653796,7892.5290899040046,-707.15371419810026,4724.5637709634857,-3591.7814098860326,-2608.4132829975306,9736.4010006519347,6944.061333465801,-4826.1144735530052,4826.1144735530052,-6944.061333465801,17574.729759436421,0.0
380012.02908761695,3837225.878295721,-37500.0,-5997.5072220319989,6550.0171854402088,2280.0447006974732,4121.8912363850677,-1453.1895604590904,-1537.6533532344652,8726.1318207407239,7469.7464499374137,-6074.2568207644135,6074.2568207644135,-7469.7464499374137,15411.194229393293,0.0
385012.02908761695,3837225.878295721,-37500.0,-6150.9997419678712,4879.6927602697933,4577.2028989653272,3288.3773035068539,310.91305959416553,-621.40642277663778,7935.7356847654,7295.9494633320219,-6690.3584142743484,6690.3584142743484,-7295.9494633320219,13802.630817954976,0.0
390012.02908761695,3837225.878295721,-37500.0,-5851.0058376342849,3117.306202870072,6160.9743398465807,2350.5706993013305,1663.1081732003654,117.11638155217418,7352.6179879588153,6612.6912829568919,-6731.3668271199058,6731.3668271199058,-6612.6912829568919,12737.476709520823,0.0
395012.02908761695,3837225.878295721,-37500.0,-5196.1069546290701,1444.7192568637283,7097.1097515762167,1412.6313851381028,2619.1353008778597,677.47848076052685,6929.7407008710061,5619.0816053456474,-6316.3929655833872,6316.3929655833872,-5619.0816053456474,12093.169845416618,0.0
400012.02908761695,3837225.878295721,-37500.0,-4306.075903226686,-21.352542646882647,7499.9446234496891,548.15121900431632,3227.9618673906466,1074.7877821282648,6608.777501799701,4488.0980130872185,-5586.5481058273572,5586.5481058273572,-4488.0980130872185,11703.470343365347,0.0
405012.02908761695,3837225.878295721,-37500.0,-3295.7846751009206,-1223.4294147187456,7498.7536028887216,-199.32862745813821,3553.782029635096,1332.7022474399614,6339.0323233897361,3350.4481102050545,-4675.7849569947066,4675.7849569947066,-3350.4481102050545,11422.793135595846,0.0
410012.02908761695,3837225.878295721,-37500.0,-2260.2911710415933,-2149.121200609176,7215.4690974234009,-810.98418883167369,3662.8652960828672,1477.9091800349142,6085.692226158134,2292.7450033965511,-3694.7807309682298,3694.7807309682298,-2292.7450033965511,11154.410901880414,0.0
415012.02908761695,3837225.878295721,-37500.0,-1269.3960399623011,-2815.5050650286703,6753.1253037414126,-1285.7667249421886,3615.5873726058521,1536.3974085844277,5829.5277212646151,1363.7863903500888,-2725.4380822180533,2725.4380822180533,-1363.7863903500888,10848.133407755069,0.0
420012.02908761695,3837225.878295721,-37500.0,-368.41747631788854,-3255.7612857928716,6192.1261467865525,-1633.851178245121,3462.6443449348385,1531.3222379567394,5562.8565406837406,583.8655335550186,-1822.1483757120516,1822.1483757120516,-583.8655335550186,10486.395452742339,0.0
425012.02908761695,3837225.878295721,-37500.0,417.84610399937014,-3509.3775386950178,5591.2155310628796,-1871.3852219078628,3244.1007271615626,1482.0643188883473,5285.1316852008376,-46.017087349157691,-1016.4002240229574,1016.4002240229574,46.017087349157691,10070.587188375539,0.0
430012.02908761695,3837225.878295721,-37500.0,1080.1184156931135,-3615.8211117175551,4990.7125362831148,-2016.7410081613441,2990.0753364630305,1404.0757397455186,4999.509965551666,-536.51806948227011,-322.38272447523389,322.38272447523389,536.51806948227011,9611.279856920115,0.0
435012.02908761695,3837225.878295721,-37500.0,1619.862982946689,-3610.9732066422362,4416.4280049277959,-2088.1014643363251,2722.1970530968861,1309.1792095526982,4710.5954794449999,-904.29532262885982,257.74308991272602,-257.74308991272602,904.29532262885982,9122.231293045159,0.0
275012.02908761695,3842225.878295721,-37500.0,-5253.5834808918844,-773.08239048558858,2215.3321210672539,-2273.6392904507393,-45.437052221009495,-758.6361669223993,4287.5785201732142,1283.0391504010001,-4527.7300062258137,4527.7300062258137,-1283.0391504010001,7728.1523726621454,0.0
280012.02908761695,3842225.878295721,-37500.0,-5951.4382298922819,-1430.8349097298501,2024.0846321627002,-2810.8435174650999,-428.26403246969534,-1045.7146258516329,4867.358802855968,736.71017294701596,-4894.0676888079734,4894.0676888079734,-736.71017294701596,8885.0434970070728,0.0
285012.02908761695,3842225.878295721,-37500.0,-6629.2182688216926,-2220.1518446472965,1668.6932539330528,-3419.091884204131,-950.64803688482004,-1409.7047495546526,5550.7195009486295,-7.1809777720013699,-5174.7776509131545,5174.7776509131545,7.1809777720013699,10264.335404225651,0.0
290012.02908761695,3842225.878295721,-37500.0,-7242.3071064581554,-3138.4397628093275,1096.8887510636223,-4089.5601768670963,-1644.9753455677276,-1864.6176497879449,6352.7287271493278,-979.96257037704936,-5320.4187935571863,5320.4187935571863,979.96257037704936,11893.564529608615,0.0
295012.02908761695,3842225.878295721,-37500.0,-7733.4378762052429,-4167.6780450652286,250.01127036846071,-4802.95822850679,-2544.9663631856733,-2423.8645145901114,7287.7228801657739,-2205.2427593483753,-5272.2697617579997,5272.2697617579997,2205.2427593483753,13794.300493369848,0.0
300012.02908761695,3842225.878295721,-37500.0,-8034.2566956265173,-5267.4590181672929,-932.25630771989393,-5525.9137865093207,-3681.8567217579966,-3098.1673386867342,8367.5101194334711,-3690.4399617271029,-4965.9679756938367,4965.9679756938367,3690.4399617271029,15976.890465058357,0.0
305012.02908761695,3842225.878295721,-37500.0,-8070.3394090062566,-6367.6037559545466,-2503.1118214979274,-6207.537611442086,-5078.1902619845123,-3892.4596998217435,9597.5673525032053,-5415.3719197053188,-4339.0593811098997,4339.0593811098997,5415.3719197053188,18433.481659278401,0.0
310012.02908761695,3842225.878295721,-37500.0,-7771.1279770034625,-7362.1259612432623,-4494.6653228728674,-6777.2635969759294,-6738.7983220329625,-4801.7155039733652,10969.379270634614,-7318.57463692087,-3343.6657004938625,3343.6657004938625,7318.57463692087,21129.464237356577,0.0
315012.02908761695,3842225.878295721,-37500.0,-7085.8026929058751,-8107.5666488363568,-6898.3598666934595,-7145.6470242300429,-8639.07100965873,-5805.9196552230724,12450.275910072443,-9283.5061209520991,-1964.7344127443284,1964.7344127443284,9283.5061209520991,23994.013822615299,0.0
320012.02908761695,3842225.878295721,-37500.0,-6004.7167441140018,-8430.0222765393191,-9641.1330473023791,-7210.3271279263336,-10711.724369248072,-6864.8791966068839,13977.221066048814,-11128.987925034537,-242.5594876557725,242.5594876557725,11128.987925034537,26911.352432037751,0.0
325012.02908761695,3842225.878295721,-37500.0,-4583.2790846824737,-8145.8032952628191,-12561.867071924837,-6869.4278622711372,-12835.074166868379,-7914.3080672101223,15457.362722513131,-12610.795885895186,1704.8769503578469,-1704.8769503578469,12610.795885895186,29715.712183534757,0.0
330012.02908761695,3842225.878295721,-37500.0,-2961.0148154670796,-7099.1606934210758,-15397.004279993816,-6043.547021939703,-14828.007261660961,-8865.3678431433545,16772.947470655556,-13442.897977631739,3668.4454275122325,-3668.4454275122325,13442.897977631739,32194.188514669309,0.0
335012.02908761695,3842225.878295721,-37500.0,-1364.2903306361541,-5215.4379119511268,-17788.304740315711,-4704.6219064374445,-16458.622207526423,-9610.3291737629643,17791.296747382567,-13345.333313799823,5355.7367884668602,-5355.7367884668602,13345.333313799823,34102.402550956947,0.0
340012.02908761695,3842225.878295721,-37500.0,-79.753940534449228,-2558.4013513099862,-19326.125338399619,-2905.06804625325,-17473.005213799839,-10036.492432559631,18382.844124977637,-12118.137872608144,6432.5479899588299,-6432.5479899588299,12118.137872608144,35196.599459917554,0.0
345012.02908761695,3842225.878295721,-37500.0,608.35574109711581,631.1973966020455,-19633.461861344018,-795.16503811619054,-17645.509360596909,-10048.213073981546,18447.741508811378,-9725.8903014096668,6601.5177580070986,-6601.5177580070986,9725.8903014096668,35281.289816232871,0.0
350012.02908761695,3842225.878295721,-37500.0,507.25523073750719,3944.9170618524781,-18476.787797418856,1385.4787537371474,-16841.513838561856,-9592.7782447439331,17946.661863285495,-6360.019690941017,5702.1339830092729,-5702.1339830092729,6360.019690941017,34263.984399740293,0.0
355012.02908761695,3842225.878295721,-37500.0,-401.26247387044691,6882.4900380861072,-15864.980054475072,3350.4689292941771,-15071.203701496081,-8681.3494539969597,16925.419408575952,-2438.6560048625747,3793.2314810660059,-3793.2314810660059,2438.6560048625747,32200.185585725616,0.0
360012.02908761695,3842225.878295721,-37500.0,-1928.2196490945119,8981.641979938795,-12085.349838803517,4835.5332298541853,-12507.751125553263,-7394.767202869788,15518.21553736615,1478.1933354303014,1170.4690052112969,-1170.4690052112969,-1478.1933354303014,29308.946383847702,0.0
365012.02908761695,3842225.878295721,-37500.0,-3723.9129445993594,9951.9061790531068,-7644.9274432548809,5668.4037503899244,-9454.1173155594952,-5868.6900568372121,13918.329732951315,4837.0454349786423,-1705.4958366777748,1705.4958366777748,-4837.0454349786423,25946.472536315847,0.0
370012.02908761695,3842225.878295721,-37500.0,-5389.095584460144,9749.7530564254939,-3133.5550836013408,5808.8341869928954,-6267.681748302286,-4262.2540021627201,12328.009652141984,7240.086045213262,-4345.4273506180452,4345.4273506180452,-7240.086045213262,22540.359788376434,0.0
375012.02908761695,3842225.878295721,-37500.0,-6597.2741054362641,8562.0512397012353,930.10986335886162,5342.5157668821048,-3274.4592710800239,-2722.8419399770792,10914.243932548783,8528.3559072646531,-6368.7352921863767,6368.7352921863767,-8528.3559072646531,19499.441901085338,0.0
380012.02908761695,3842225.878295721,-37500.0,-7171.9697563259861,6716.6462111319788,4204.122157059619,4437.5221727475191,-707.2256730745919,-1360.256329696781,9778.3481434074747,8772.7736715374504,-7581.7020962628721,7581.7020962628721,-8772.7736715374504,17117.015411421879,0.0
385012.02908761695,3842225.878295721,-37500.0,-7096.6164755250256,4571.9096029876628,6550.9169460239527,3288.1128742248266,1315.8287015075866,-236.76052666657529,8941.071397356236,8197.8567878389586,-7978.1313959544968,7978.1313959544968,-8197.8567878389586,15492.870147008349,0.0
390012.02908761695,3842225.878295721,-37500.0,-6473.4557187460641,2432.039045015902,8001.3819296632028,2069.1238883278093,2777.3933540013122,628.89483954980437,8353.7138285589954,7086.8202111553237,-7685.6511796867781,7685.6511796867781,-7086.8202111553237,14522.015749235867,0.0
395012.02908761695,3842225.878295721,-37500.0,-5464.2019342003468,506.84759919473936,8690.5882515149078,911.34412141846678,3729.403455456184,1249.8249404179928,7933.131236242154,5706.5266339401924,-6895.7758267575728,6895.7758267575728,-5706.5266339401924,13978.135732396797,0.0
400012.02908761695,3842225.878295721,-37500.0,-4238.85983644921,-1090.2765354678261,8796.1235014985086,-103.77961202418068,4259.6721903853559,1657.8926960425904,7598.8574331748878,4266.7347305192743,-5806.1916735812702,5806.1916735812702,-4266.7347305192743,13632.727201283295,0.0
405012.02908761695,3842225.878295721,-37500.0,-2943.7129947201124,-2323.0286082993539,8494.3209797784657,-937.45957252395306,4465.8937595833349,1892.7968614554852,7293.2945718375922,2909.1055675324724,-4585.9105992130426,4585.9105992130426,-2909.1055675324724,13325.11850036133,0.0
410012.02908761695,3842225.878295721,-37500.0,-1687.8205923447579,-3206.5147136213923,7936.4270692340133,-1582.1190832088919,4439.3990766225506,1994.5845725473325,6984.2764153325825,1714.3813000648506,-3361.3268013086672,3361.3268013086672,-1714.3813000648506,12970.164850284453,0.0
415012.02908761695,3842225.878295721,-37500.0,-542.22202006527914,-3784.2183890537422,7240.0499376140915,-2049.9301575666714,4257.2290786522044,1999.3489492879557,6658.9368483504913,717.03707153807488,-2216.1437027654342,2216.1437027654342,-717.03707153807488,12537.292730789992,0.0
420012.02908761695,3842225.878295721,-37500.0,454.24622951838859,-4111.0320336490568,6489.8256651517786,-2363.5478904204178,3979.8585332624598,1937.3007780035559,6316.1819383129277,-79.436920907788931,-1198.2567498801704,1198.2567498801704,79.436920907788931,12027.270149672702,0.0
425012.02908761695,3842225.878295721,-37500.0,1286.9104724078195,-4242.4639261283228,5742.4557589617143,-2549.5740797491621,3652.1285143218906,1832.3724034231541,5960.8199754134939,-689.83212518900029,-328.79566730692193,328.79566730692193,689.83212518900029,11455.553007002554,0.0
430012.02908761695,3842225.878295721,-37500.0,1957.4988962877176,-4228.7414678902114,5033.0170009552967,-2634.4471341963899,3305.6356157011273,1702.6801653861628,5599.8078735126819,-1137.9799256344722,389.32463381446507,-389.32463381446507,1137.9799256344722,10842.36240884879,0.0
435012.02908761695,3842225.878295721,-37500.0,2477.7504134048427,-4112.2639780178788,4380.9188312645983,-2642.1706546503924,2961.5110234682306,1561.3813158610151,5240.1614991848955,-1450.6726092363037,964.44656590721888,-964.44656590721888,1450.6726092363037,10207.486080381839,0.0
440012.02908761695,3842225.878295721,-37500.0,2864.661112188483,-3927.0996247072176,3794.834098294818,-2593.2993352444291,2633.0282571178418,1417.6381331755097,4887.9569606623681,-1654.0437666224184,1411.0328230434416,-1411.0328230434416,1654.0437666224184,9567.9428872267945,0.0
275012.02908761695,3847225.878295721,-37500.0,-5194.1036654808486,-42.652389729409023,2819.937098472531,-2084.109651138363,372.83505412027074,-627.03921420068605,4436.5866286804567,2204.3038246728902,-4786.3290466971139,4786.3290466971139,-2204.3038246728902,7869.8984180221541,0.0
280012.02908761695,3847225.878295721,-37500.0,-6037.2997694435671,-671.71166004127508,2772.3935222172158,-2672.336087409969,37.324038238350425,-921.42152908624075,5028.8235569255339,1778.7365869274597,-5312.0132334413211,5312.0132334413211,-1778.7365869274597,9027.4856551912308,0.0
285012.02908761695,3847225.878295721,-37500.0,-6897.141719181288,-1460.3767016475483,2576.2802507817032,-3358.8702266038017,-447.02311398221326,-1305.7045099361223,5736.1520778774529,1145.8918774591416,-5780.6995169889342,5780.6995169889342,-1145.8918774591416,10434.724083899933,0.0
290012.02908761695,3847225.878295721,-37500.0,-7728.4169499893342,-2418.0045663830565,2172.2118605592086,-4141.1567938240933,-1121.9344629530076,-1799.873723252847,6580.2168913567193,260.75760084080594,-6138.6081034861645,6138.6081034861645,-260.75760084080594,12134.156649725455,0.0
295012.02908761695,3847225.878295721,-37500.0,-8468.2117199691074,-3539.4875106188183,1488.8327160607173,-5005.3762967411967,-2034.1714351184435,-2424.8944097582821,7583.7689297820725,-918.38204704076588,-6317.0073221874645,6317.0073221874645,918.38204704076588,14165.087025004112,0.0
300012.02908761695,3847225.878295721,-37500.0,-9035.2775228343507,-4796.2299890353761,446.02899716660954,-5921.1556863428368,-3232.036665646835,-3200.4721363409517,8768.9494967957871,-2420.8716581402259,-6234.0146664449785,6234.0146664449785,2420.8716581402259,16557.428912839168,0.0
305012.02908761695,3847225.878295721,-37500.0,-9333.0926606385619,-6125.2247849034311,-1037.1430945068753,-6835.6683824320708,-4758.71615012045,-4141.3212236449463,10153.422091442004,-4250.0601096838436,-5800.9043196938255,5800.9043196938255,4250.0601096838436,19322.964491774634,0.0
310012.02908761695,3847225.878295721,-37500.0,-9259.0151137381199,-7417.7905414063443,-3027.6105184297189,-7668.2602689583891,-6641.3366806820395,-5251.572969692048,11741.503326991409,-6364.9440945369161,-4935.1831164397599,4935.1831164397599,6364.9440945369161,22443.652940218406,0.0
315012.02908761695,3847225.878295721,-37500.0,-8722.0270899543666,-8511.4109363611096,-5554.6440655835941,-8307.7591424328457,-8875.0272481280626,-6517.2324765659287,13509.624230848764,-8658.6153775841303,-3582.4081638551479,3582.4081638551479,8658.6153775841303,25857.247837570183,0.0
320012.02908761695,3847225.878295721,-37500.0,-7670.5302221313868,-9190.5866395317007,-8577.1914152832032,-8615.8626567510364,-11402.507741089845,-7897.2269164080626,15393.484457312616,-10938.099763100417,-1747.0818576481133,1747.0818576481133,10938.099763100417,29441.796029931582,0.0
325012.02908761695,3847225.878295721,-37500.0,-6128.4088490059748,-9204.8910655703003,-11945.874149571593,-8440.9163755795544,-14092.221939919025,-9314.6982827244537,17283.819270150118,-12914.567242867199,471.01150206745115,-471.01150206745115,12914.567242867199,33002.555031965763,0.0
330012.02908761695,3847225.878295721,-37500.0,-4231.4911488207799,-8312.7711123267072,-15370.141495343012,-7646.0938859159369,-16722.032769697558,-10651.838909690392,19029.135536769652,-14217.56991256792,2845.3901569105519,-2845.3901569105519,14217.56991256792,36267.758047447889,0.0
335012.02908761695,3847225.878295721,-37500.0,-2247.9226048570322,-6354.6864059040863,-18409.794472310015,-6152.6989497755794,-18980.100237290488,-11753.246013349215,20445.799703301287,-14448.584868236994,5015.2165223835,-5015.2165223835,14448.584868236994,38902.176063529958,0.0
340012.02908761695,3847225.878295721,-37500.0,-558.74626935028482,-3345.4331763788969,-20516.100024583353,-3991.5070709853317,-20496.927168551145,-12443.277238880297,21341.068513471168,-13281.830693936165,6525.578833483396,-6525.578833483396,13281.830693936165,40547.484287782892,0.0
345012.02908761695,3847225.878295721,-37500.0,421.93779586789731,446.76436954254257,-21141.80893572584,-1343.4703570371737,-20917.699828254645,-12560.341153516461,21552.583511494468,-10598.301279446499,6932.629604645721,-6932.629604645721,10598.301279446499,40893.180310191172,0.0
350012.02908761695,3847225.878295721,-37500.0,383.90865067169022,4487.0246368308717,-19910.905122540855,1458.3578264899113,-20006.732027461843,-12003.451234279124,20999.50341965082,-6603.9973973372407,5960.8634215538177,-5960.8634215538177,6603.9973973372407,39768.273298983724,0.0
355012.02908761695,3847225.878295721,-37500.0,-732.97845635570889,8073.0022053006405,-16790.247303293305,3988.7585232662427,-17748.700476680082,-10775.261100543292,19728.838692485751,-1856.9010177831847,3652.2044789896149,-3652.2044789896149,1856.9010177831847,37225.414364353215,0.0
360012.02908761695,3847225.878295721,-37500.0,-2667.6827350684584,10540.231129992842,-12168.050607170408,5846.3376034976118,-14392.660096314943,-8998.8461745779659,17930.442973127945,2853.1972477875997,415.06932600393452,-415.06932600393452,-2853.1972477875997,33577.770017627692,0.0
365012.02908761695,3847225.878295721,-37500.0,-4907.3390536307325,11487.558515605313,-6767.7093073676851,6778.6554100618414,-10400.017308844985,-6892.8182941560581,15896.234035484615,6746.604359581861,-3085.7356516542641,3085.7356516542641,-6746.604359581861,29358.694935288542,0.0
370012.02908761695,3847225.878295721,-37500.0,-6876.6811126413595,10899.832401905442,-1420.2746357397718,6751.802614615076,-6310.5595579825804,-4711.8149359808021,13932.413620448016,9300.1589306638052,-6158.5971197622712,6158.5971197622712,-9300.1589306638052,25205.072267098421,0.0
375012.02908761695,3847225.878295721,-37500.0,-8141.4263447233507,9103.7223573990923,3186.3998546692119,5930.5879478660972,-2592.3798433710972,-2680.564370315803,12273.04225679324,10368.80633720882,-8309.1383087025988,8309.1383087025988,-10368.80633720882,21693.113350165146,0.0
380012.02908761695,3847225.878295721,-37500.0,-8517.8710339599747,6602.1727837610197,6658.567646724181,4591.9244517938941,454.7470732810188,-950.70975002979435,11027.545038548182,10141.270673419938,-9346.1602837220598,9346.1602837220598,-10141.270673419938,19167.352799173645,0.0
385012.02908761695,3847225.878295721,-37500.0,-8059.507598232638,3893.5956417071206,8906.8633696772777,3026.0364698885724,2716.678973902815,408.77051798950043,10172.927856832133,8993.0336849981322,-9349.8033797760545,9349.8033797760545,-8993.0336849981322,17634.781406401118,0.0
390012.02908761695,3847225.878295721,-37500.0,-6967.9200772774429,1355.8237840547336,10060.644210474977,1468.4587583500854,4224.0704108914642,1396.0938246345568,9598.4204940215423,7333.0122546504472,-8562.2931868846699,8562.2931868846699,-7333.0122546504472,16823.013466819422,0.0
395012.02908761695,3847225.878295721,-37500.0,-5493.4511270910689,-788.63027320465403,10357.276889989367,74.088910554872228,5091.4133142378751,2051.7188074881251,9175.2377094308449,5503.5463143575762,-7274.5406932452897,7274.5406932452897,-5503.5463143575762,16377.68239923192,0.0
400012.02908761695,3847225.878295721,-37500.0,-3865.1302390552992,-2452.01267054552,10054.178238624661,-1077.9573726282088,5463.9144236593729,2435.5226928296242,8804.9988613668302,3742.2868058653075,-5749.3335120485426,5749.3335120485426,-3742.2868058653075,16025.941510050359,0.0
405012.02908761695,3847225.878295721,-37500.0,-2257.4128027902466,-3639.2341116900916,9377.8997131779088,-1965.4053131444016,5482.811186723713,2610.8399992180803,8431.793991228109,2186.2964170759483,-4186.4995089485219,4186.4995089485219,-2186.2964170759483,15618.6082719321,0.0
410012.02908761695,3847225.878295721,-37500.0,-784.21911545773673,-4406.8296863053465,8504.294438731411,-2601.8929941501383,5268.0811422017332,2635.4097521291633,8033.2411380824715,895.13720376924243,-2717.9509520910715,2717.9509520910715,-895.13720376924243,15100.831050816549,0.0
415012.02908761695,3847225.878295721,-37500.0,492.56544275751202,-4832.3810986951939,7557.7229572960086,-3019.8710664267578,4913.1037958163924,2557.4066709498811,7607.1251343910772,-122.90884951882344,-1417.9791271577024,1417.9791271577024,122.90884951882344,14471.418148584844,0.0
420012.02908761695,3847225.878295721,-37500.0,1549.6694326469019,-4995.4355065089812,6619.1102988831153,-3258.7735740392141,4485.9330033285842,2414.6049046639641,7160.9234603607511,-888.94047379857204,-318.37504811951464,318.37504811951464,888.94047379857204,13753.375327141232,0.0
425012.02908761695,3847225.878295721,-37500.0,2389.3776668487667,-4967.4843399946849,5736.4692965715785,-3357.8391955732609,4033.4221533155774,2235.194858722075,6705.3480981972298,-1437.8613099566762,577.2076643108328,-577.2076643108328,1437.8613099566762,12976.952481127542,0.0
430012.02908761695,3847225.878295721,-37500.0,3029.000564161327,-4807.927624488716,4934.6823623866085,-3352.3350473840692,3586.0124967151505,2039.2992748738836,6250.9360476826214,-1808.5222144075228,1281.8290554902806,-1281.8290554902806,1808.5222144075228,12171.220124017775,0.0
435012.02908761695,3847225.878295721,-37500.0,3493.2797139466306,-4563.5120368681737,4223.3815442514742,-3272.0005242268335,3162.1326003135091,1840.6468567331847,5806.5490821838694,-2038.143522051216,1817.0937757463614,-1817.0937757463614,2038.143522051216,11360.588483290381,0.0
440012.02908761695,3847225.878295721,-37500.0,3809.3692539436261,-4269.5069936250529,3602.7597980427477,-3140.8033848581058,2771.806259111921,1648.1218412890464,5378.9202334533775,-2159.6070160701788,2207.7793135532042,-2207.7793135532042,2159.6070160701788,10563.895168023115,0.0
445012.02908761695,3847225.878295721,-37500.0,4003.7841844904815,-3951.5656858652387,3067.6160628946536,-2977.3851681213887,2419.4193057662396,1467.0747516462839,4972.7182496582964,-2200.4996528564361,2478.5683611839122,-2478.5683611839122,2200.4996528564361,9794.711315414379,0.0
270012.02908761695,3852225.878295721,-37500.0,-4024.0633025724737,1225.178031519594,3181.8260324830162,-1253.6550819973679,1000.684462968063,-223.8008429522165,4116.3818999114828,3283.9197506771716,-4213.1642861603832,4213.1642861603832,-3283.9197506771716,7155.7536393283781,0.0
275012.02908761695,3852225.878295721,-37500.0,-4916.7130356760217,821.24922658087178,3370.5770776427235,-1759.0725569866563,848.40757753120363,-433.05489293827242,4612.1855869465962,3176.48569890097,-4883.419950332147,4883.419950332147,-3176.48569890097,8067.8831100223788,0.0
280012.02908761695,3852225.878295721,-37500.0,-5896.9181309474025,263.56888392803728,3485.8223817203752,-2379.6739374476174,585.57241699638598,-721.1138586000335,5205.6783111091117,2916.0080044384349,-5574.3885273597616,5574.3885273597616,-2916.0080044384349,9191.6905922676851,0.0
285012.02908761695,3852225.878295721,-37500.0,-6941.2294514121559,-475.90385400958951,3480.7417979981428,-3128.0638199403852,171.30277198476907,-1110.8326026241289,5921.1548022751713,2451.6268015292053,-6249.931974641845,6249.931974641845,-2451.6268015292053,10581.522619447713,0.0
290012.02908761695,3852225.878295721,-37500.0,-8008.6499478473288,-1420.874364091283,3292.4811081673647,-4011.0782832113969,-445.35268309902796,-1629.3010457916021,6787.4164005755683,1725.278039319207,-6856.3824223054153,6856.3824223054153,-1725.278039319207,12297.793032084277,0.0
295012.02908761695,3852225.878295721,-37500.0,-9035.7485928255737,-2583.6493944880958,2840.3068131740119,-5024.7363237307873,-1325.2945583112239,-2307.1361294080984,7837.3853039390397,675.90663152780189,-7319.2992326675194,7319.2992326675194,-675.90663152780189,14402.930889823318,0.0
300012.02908761695,3852225.878295721,-37500.0,-9932.8308071471456,-3954.5638642339036,2026.2073089012551,-6147.2433191019973,-2537.0512270617273,-3176.5001878294406,9106.8666794567143,-751.98895812728279,-7542.270278232364,7542.270278232364,751.98895812728279,16954.609839964924,0.0
305012.02908761695,3852225.878295721,-37500.0,-10583.330755548472,-5487.5781387994593,740.32345683979474,-7330.1204057522527,-4150.6765253799886,-4267.1219946606061,10631.072225385566,-2593.6746260239952,-7410.1647946990952,7410.1647946990952,2593.6746260239952,19995.348402143198,0.0
310012.02908761695,3852225.878295721,-37500.0,-10849.790835976819,-7082.8919602381593,-1125.4483512027932,-8488.3347394305893,-6225.8303117529713,-5599.4724811438491,12435.139602973442,-4841.8565139892089,-6800.2791536988861,6800.2791536988861,4841.8565139892089,23537.485644628738,0.0
315012.02908761695,3852225.878295721,-37500.0,-10590.812302966109,-8569.7416617542222,-3651.8184194953778,-9491.7336298787286,-8791.934612060244,-7174.3438267036345,14514.990671368385,-7416.7263929215969,-5605.4158591163687,5605.4158591163687,7416.7263929215969,27542.872401437038,0.0
320012.02908761695,3852225.878295721,-37500.0,-9693.3723775103554,-9696.2951619183605,-6851.3867544401473,-10162.242497923913,-11819.219751637136,-8958.6577195060254,16814.953735559811,-10131.924616777995,-3772.1665068670136,3772.1665068670136,10131.924616777995,31897.937917500913,0.0
325012.02908761695,3852225.878295721,-37500.0,-8122.2625346246386,-10138.462252296929,-10613.685930354413,-10283.903365952103,-15182.427666205514,-10868.827164034134,19214.56853583004,-12666.426667875377,-1353.8007316092917,1353.8007316092917,12666.426667875377,36387.738838623613,0.0
330012.02908761695,3852225.878295721,-37500.0,-5980.820176965407,-9543.4449339767598,-14645.691892808483,-9634.5805160523923,-18624.908909745121,-12755.753660135308,21525.448281923407,-14561.349529765914,1431.8264430715353,-1431.8264430715353,14561.349529765914,40677.327106284843,0.0
335012.02908761695,3852225.878295721,-37500.0,-3563.0069516603935,-7622.2120886406074,-18432.470415066939,-8046.3083791489826,-21740.190303958021,-14399.654673506629,23497.893691125188,-15269.041210388308,4163.9195149421776,-4163.9195149421776,15269.041210388308,44315.121014139804,0.0
340012.02908761695,3852225.878295721,-37500.0,-1358.6622340169911,-4289.2957058467391,-21259.651528230384,-5491.068772101029,-23997.600580713864,-15526.811285053112,24847.151088997456,-14280.070203078723,6241.2313205370101,-6241.2313205370101,14280.070203078723,46777.449935499149,0.0
345012.02908761695,3852225.878295721,-37500.0,35.213356362361907,188.67873921468964,-22344.080695846416,-2167.0036656915336,-24838.928113602578,-15859.788293743444,25309.877835858828,-11326.662022504819,7009.6943622040908,-7009.6943622040908,11326.662022504819,47569.701775430971,0.0
350012.02908761695,3852225.878295721,-37500.0,117.85972977577131,5123.7631368169732,-21085.191566580535,1467.1768771387262,-23849.15762616686,-15200.96415587833,24728.772741863257,-6598.8196912193789,6002.3444473349182,-6002.3444473349182,6598.8196912193789,46378.805173425229,0.0
355012.02908761695,3852225.878295721,-37500.0,-1257.6690628372935,9522.1974855016433,-17361.209259707372,4768.7378312593801,-20948.824729489632,-13523.347195086581,23140.164959920807,-837.72894534599754,3208.0575935395259,-3208.0575935395259,837.72894534599754,43232.500680399738,0.0
360012.02908761695,3852225.878295721,-37500.0,-3729.9369022315213,12410.280438264128,-11696.460983195149,7109.1303521084774,-16498.817861831867,-11017.394216639688,20815.659815172923,4826.7782710932879,-805.93810697057643,805.93810697057643,-4826.7782710932879,38585.155087549771,0.0
365012.02908761695,3852225.878295721,-37500.0,-6529.9075845302468,13225.755350359404,-5138.161362351213,8108.0307041820242,-11220.397276155814,-8049.7240156061389,18205.718721031302,9279.254933436283,-5061.7596625052993,5061.7596625052993,-9279.254933436283,33257.123189992337,0.0
370012.02908761695,3852225.878295721,-37500.0,-8815.0498360077854,12025.057986802203,1131.6825489558012,7760.4494587876179,-5947.6928963311411,-5043.5821272458625,15783.042635810441,11838.240802723116,-8569.7296356952775,8569.7296356952775,-11838.240802723116,28217.94840790152,0.0
375012.02908761695,3852225.878295721,-37500.0,-10017.028072936466,9375.3001069873299,6212.9294291778988,6381.4717510497985,-1356.0234039911666,-2348.642943715302,13871.974967731127,12430.43776604404,-10702.670275367131,10702.670275367131,-12430.43776604404,24272.057722543406,0.0
380012.02908761695,3852225.878295721,-37500.0,-9988.5099432253282,6043.3671746731943,9694.1024712563267,4429.412802644827,2186.6875895785975,-168.4868186050019,12559.963563194771,11459.65131275354,-11326.969186306276,11326.969186306276,-11459.65131275354,21756.036821060527,0.0
385012.02908761695,3852225.878295721,-37500.0,-8924.3932094126449,2703.8531470058283,11605.417433901417,2331.8583312516462,4610.8971417476878,1438.3170447436307,11728.045432734072,9528.7566671315944,-10689.024695271248,10689.024695271248,-9528.7566671315944,20448.488508951072,0.0
390012.02908761695,3852225.878295721,-37500.0,-7182.3047812582236,-204.29809481475408,12238.89283724692,391.60835765097676,6044.9591280152026,2513.7557167168479,11172.57709724101,7202.6029918473378,-9205.7491651963483,9205.7491651963483,-7202.6029918473378,19826.680914751494,0.0
395012.02908761695,3852225.878295721,-37500.0,-5126.7185952089203,-2481.3613558345241,11970.310438923014,-1227.149010879104,6704.242062932879,3149.5976415092318,10719.854067798155,4891.4239732613341,-7292.5306186994321,7292.5306186994321,-4891.4239732613341,19419.967167425235,0.0
400012.02908761695,3852225.878295721,-37500.0,-3045.0337413802672,-4101.0909271519586,11146.187660219688,-2468.9767467347028,6812.7932625888807,3450.1058639689604,10268.262022688505,2835.4898562955941,-5274.5917099945891,5274.5917099945891,-2835.4898562955941,18957.59674143263,0.0
405012.02908761695,3852225.878295721,-37500.0,-1125.4613711149877,-5135.1629975833666,10036.17060759356,-3346.9693007282226,6563.2109399573892,3511.3224396252263,9777.1837303568591,1140.3026246457741,-3366.090612580887,3366.090612580887,-1140.3026246457741,18337.699941317187,0.0
410012.02908761695,3852225.878295721,-37500.0,531.0919786183008,-5695.3619239607051,8827.1611377716381,-3909.1634514332009,6103.7423314071775,3412.5553979511001,9242.1553510892827,-176.7045008424675,-1685.0705723494934,1685.0705723494934,176.7045008424675,17554.08515056983,0.0
415012.02908761695,3852225.878295721,-37500.0,1887.5377807583461,-5898.2626272556809,7636.5257136765276,-4215.968055727888,5540.0057717640448,3214.8657589888858,8675.1765899888997,-1146.7290644245536,-279.8793431017462,279.8793431017462,1146.7290644245536,16641.77055301793,0.0
420012.02908761695,3852225.878295721,-37500.0,2947.5984135492163,-5847.5918211883754,6530.3222717563694,-4327.1801988543575,4942.5789632938713,2962.8567852372303,8093.1233740829157,-1822.3518624364729,845.64491042827922,-845.64491042827922,1822.3518624364729,15646.890831623185,0.0
425012.02908761695,3852225.878295721,-37500.0,3737.8101742838194,-5627.7849472972994,5539.9325225770299,-4295.6617486377227,4355.6847936338527,2687.6388695574328,7512.0784822726919,-2261.1234898085268,1712.7523137781175,-1712.7523137781175,2261.1234898085268,14612.769476897871,0.0
430012.02908761695,3852225.878295721,-37500.0,4295.1047495133362,-5303.5934425567002,4674.9405660508637,-4165.0568432231585,3804.8805720060859,2409.8996917966861,6945.0825763178163,-2516.8931028694587,2354.5067437086955,-2354.5067437086955,2516.8931028694587,13574.722685746603,0.0
435012.02908761695,3852225.878295721,-37500.0,4659.0147946161869,-4922.4551619967242,3932.2343143500289,-3969.7238595354738,3303.1315971464619,2142.6280673676256,6401.6435807741327,-2636.0212990504406,2807.5000632669489,-2807.5000632669489,2636.0212990504406,12559.11634415837,0.0
440012.02908761695,3852225.878295721,-37500.0,4867.2354849528965,-4517.7574758025876,3302.0265762204672,-3735.7206184291354,2855.2848807767705,1893.3352728014281,5888.0231094850669,-2656.3846401194419,3107.1370525895877,-3107.1370525895877,2656.3846401194419,11584.22914969428,0.0
445012.02908761695,3852225.878295721,-37500.0,4953.4073755812142,-4112.0635635743101,2771.6305199580161,-3482.1743875552493,2461.2149427515305,1665.7725409913344,5407.8004466182047,-2607.8110296505915,3285.2603525655436,-3285.2603525655436,2607.8110296505915,10661.724067589957,0.0
270012.02908761695,3857225.878295721,-37500.0,-3406.6782049852814,2078.3774266934006,3497.1015723532537,-782.74574533477585,1429.0011904384276,13.984735709954673,4346.2067610163285,4073.4347800722053,-3978.0792684578255,3978.0792684578255,-4073.4347800722053,7527.9991118808966,0.0
275012.02908761695,3857225.878295721,-37500.0,-4366.1854881617237,1795.5512110432401,3820.7709544425061,-1272.1045150911182,1365.4221603616727,-166.68153930655615,4838.2513709795512,4147.5173741407198,-4759.0801061017592,4759.0801061017592,-4147.5173741407198,8390.5201551590326,0.0
280012.02908761695,3857225.878295721,-37500.0,-5458.2908133647152,1358.0033322800973,4107.3779976903179,-1895.5764056086821,1201.7619653431491,-429.63227811325385,5424.4243846919981,4093.4666126714246,-5606.1131938093959,5606.1131938093959,-4093.4666126714246,9451.5495395642156,0.0
285012.02908761695,3857225.878295721,-37500.0,-6670.6939423166559,727.28576221596484,4314.7000608717381,-2675.6216987381504,893.35041552508653,-802.7693789531761,6132.096155179328,3855.855905283106,-6491.4539017869411,6491.4539017869411,-3855.855905283106,10775.336182035107,0.0
290012.02908761695,3857225.878295721,-37500.0,-7972.8137271227533,-135.52622720447602,4381.8395559264218,-3631.5829826635672,381.51537152445599,-1320.9609668607402,6996.3235843300081,3366.6042327582936,-7367.8198823571647,7367.8198823571647,-3366.6042327582936,12440.265963252417,0.0
295012.02908761695,3857225.878295721,-37500.0,-9308.3545080260847,-1263.3511899917833,4224.8284582334018,-4774.3064901342923,-408.1999331485888,-2026.2741293956562,8060.6824284811137,2547.0208707947859,-8162.3432635110985,8162.3432635110985,-2547.0208707947859,14536.026531666765,0.0
300012.02908761695,3857225.878295721,-37500.0,-10587.50996690693,-2672.062056465179,3733.6804975270079,-6097.8195247113017,-1565.9532871543925,-2966.9355796480118,9377.2962608234302,1314.3258104218821,-8771.3545881705013,8771.3545881705013,-1314.3258104218821,17156.938477575801,0.0
305012.02908761695,3857225.878295721,-37500.0,-11680.945988858537,-4343.5441637358963,2773.5248662106587,-7567.4734667222165,-3193.6147909766464,-4193.9643790267155,11004.692846986829,-404.57276452661972,-9058.5855261503038,9058.5855261503038,404.57276452661972,20390.264389391639,0.0
310012.02908761695,3857225.878295721,-37500.0,-12419.534509377358,-6202.3376366580524,1194.1014275273428,-9104.6348823226999,-5393.7904230502063,-5753.9702687280451,12998.976656786053,-2648.8452701202168,-8861.1607149560969,8861.1607149560969,2648.8452701202168,24297.886658400086,0.0
315012.02908761695,3857225.878295721,-37500.0,-12606.112324610143,-8087.6993171467393,-1146.3507018877599,-10569.642774339422,-8247.8262241293069,-7676.2516696728089,15390.810633139645,-5386.5731199414322,-8009.6868686575135,8009.6868686575135,5386.5731199414322,28889.431159567157,0.0
320012.02908761695,3857225.878295721,-37500.0,-12047.522728812613,-9727.6680750330797,-4335.948791151106,-11747.848728071669,-11778.637380776021,-9952.4239272107516,18150.642466693502,-8465.4025719917827,-6369.8269615752233,6369.8269615752233,8465.4025719917827,34085.607309533116,0.0
325012.02908761695,3857225.878295721,-37500.0,-10614.772465084239,-10729.508996597533,-8338.2081666643389,-12348.426883649488,-15896.520044598725,-12508.109388333947,21160.372719311847,-11559.494020043625,-3910.6329812895119,3910.6329812895119,11559.494020043625,39673.591354524906,0.0
330012.02908761695,3857225.878295721,-37500.0,-8332.4197747770759,-10610.783814367815,-12899.962711424856,-12031.580587028857,-20333.455250189367,-15170.032121665679,24198.313157025019,-14135.154014828629,-795.65706216841772,795.65706216841772,14135.154014828629,45263.401375421359,0.0
335012.02908761695,3857225.878295721,-37500.0,-5479.5223524001649,-8901.8434958304188,-17463.578970131028,-10483.119109820547,-24586.58435227416,-17639.55357317673,26935.343440838013,-15476.304336409739,2528.4970446214866,-2528.4970446214866,15476.304336409739,50266.029002730953,0.0
340012.02908761695,3857225.878295721,-37500.0,-2650.2841910230227,-5340.0349412940795,-21142.163333211571,-7547.246891251626,-27914.383206366874,-19495.355443946421,28957.661932074985,-14824.20018279109,5305.9122685291723,-5305.9122685291723,14824.20018279109,53928.453471110231,0.0
345012.02908761695,3857225.878295721,-37500.0,-684.85721808046321,-125.88651588481707,-22847.154025175594,-3394.7906204996084,-29447.404234129535,-20257.22551772002,29841.604168577644,-11665.426813749478,6597.8649412659342,-6597.8649412659342,11665.426813749478,55466.625693731876,0.0
350012.02908761695,3857225.878295721,-37500.0,-388.02424506765709,5888.1319155055216,-21637.101680724878,1359.6110509156015,-28455.08088427698,-19531.550367567208,29290.692466951707,-6107.8668600784549,5627.0494326222433,-5627.0494326222433,6107.8668600784549,54312.488607000807,0.0
355012.02908761695,3857225.878295721,-37500.0,-2081.222873097357,11294.1065197843,-17217.454486405382,5730.1763620760739,-24709.716402500355,-17205.714916146419,27301.601136633013,878.68633701097974,2253.8755691940578,-2253.8755691940578,-878.68633701097974,50416.40106307574,0.0
360012.02908761695,3857225.878295721,-37500.0,-5267.0017799124025,14639.514556692488,-10290.154747683413,8699.3025314392798,-18734.208276956761,-13577.558176727787,24266.860336817459,7658.9125270379463,-2734.5913403878403,2734.5913403878403,-7658.9125270379463,44445.963254207003,0.0
365012.02908761695,3857225.878295721,-37500.0,-8764.4377665470511,15125.929725308813,-2388.8352294536112,9675.4194187112407,-11686.87403798139,-9290.8039306741066,20898.693019701175,12615.538840402418,-7872.4170278408692,7872.4170278408692,-12615.538840402418,37699.506864002527,0.0
370012.02908761695,3857225.878295721,-37500.0,-11320.600546530788,12971.488101233517,4799.2453496096405,8738.5029526482958,-4885.5022607928076,-5079.803868054435,17939.079970181308,14885.202086798945,-11730.80276835083,11730.80276835083,-14885.202086798945,31680.648721790829,0.0
375012.02908761695,3857225.878295721,-37500.0,-12221.041734412827,9155.1531106676848,10134.595222262547,6492.6171383255432,701.00262860430905,-1497.4297813047733,15817.716056274199,14593.103567067863,-13555.933427763555,13555.933427763555,-14593.103567067863,27466.781988093077,0.0
380012.02908761695,3857225.878295721,-37500.0,-11457.273265382832,4827.3586265673221,13279.595097313568,3695.4702232391005,4668.5991380063369,1203.3126423635726,14519.529558818907,12518.247707781606,-13392.200484520368,13392.200484520368,-12518.247707781606,25204.899783602948,0.0
385012.02908761695,3857225.878295721,-37500.0,-9485.5201592010744,855.84623456829229,14503.949312010578,957.27459935582704,7080.2791002951562,3022.4749323400783,13746.464195231529,9582.6116735698452,-11780.186241992844,11780.186241992844,-9582.6116735698452,24232.664299396387,0.0
390012.02908761695,3857225.878295721,-37500.0,-6888.9864227113267,-2310.1300199474153,14341.551636229482,-1366.5030849956195,8243.1324470580566,4099.3353559977731,13183.214828647893,6514.6060333876694,-9380.1925864241675,9380.1925864241675,-6514.6060333876694,23741.330414450938,0.0
395012.02908761695,3857225.878295721,-37500.0,-4158.2252690869273,-4558.7776977682588,13331.7955964542,-3141.3888126845486,8521.6743875499596,4615.4399256192864,12635.130331100774,3752.5310066462298,-6739.5208859861395,6739.5208859861395,-3752.5310066462298,23221.446550889996,0.0
400012.02908761695,3857225.878295721,-37500.0,-1617.0486163440423,-5974.1412921303427,11899.77759802149,-4373.2192248585716,8236.8410877853003,4740.3317586600779,12024.740072745906,1490.1723632861945,-4219.4525133142924,4219.4525133142924,-1490.1723632861945,22476.03513637606,0.0
405012.02908761695,3857225.878295721,-37500.0,564.38861056915823,-6720.589552566149,10333.739803979437,-5136.6109262317304,7632.3452287267983,4611.0260358642881,11343.194430981375,-237.07156199283656,-2013.708335614243,2013.708335614243,237.07156199283656,21487.062231210661,0.0
410012.02908761695,3857225.878295721,-37500.0,2326.2551954121564,-6973.5253532097377,8806.9158251315748,-5528.471381555707,6876.6225089938162,4329.61920488953,10610.74838702269,-1477.3840275101204,-196.87977806785852,196.87977806785852,1477.3840275101204,20309.487282747123,0.0
415012.02908761695,3857225.878295721,-37500.0,3676.0610445835937,-6886.8386816689863,7410.4109305823849,-5643.2277839874787,6077.8398487848344,3968.1223249843711,9854.8766086869236,-2312.6189165239434,1228.9959293180336,-1228.9959293180336,2312.6189165239434,19015.365420725699,0.0
420012.02908761695,3857225.878295721,-37500.0,4656.407785794343,-6582.4657878011812,6182.4887706120253,-5562.120013024436,5300.60446908633,3575.0487709399968,9100.6037065899418,-2830.100247762151,2299.9765999389415,-2299.9765999389415,2830.100247762151,17670.196088194181,0.0
425012.02908761695,3857225.878295721,-37500.0,5324.0605416188564,-6150.9111739770306,5130.2050885777699,-5350.2285832557372,4580.037671281033,3181.5481602450823,8367.2915139395773,-3109.0421085772086,3068.0431847955333,-3068.0431847955333,3109.0421085772086,16325.403493741362,0.0
430012.02908761695,3857225.878295721,-37500.0,5737.7175425293135,-5656.0936747521182,4243.8255144418754,-5057.1996632875571,3932.2776848889125,2806.4155298371556,7668.3226484477154,-3215.479824836742,3588.2188064268498,-3588.2188064268498,3215.479824836742,15017.77652722015,0.0
435012.02908761695,3857225.878295721,-37500.0,5951.6634475907604,-5141.2278409202991,3505.8218208681633,-4719.5026316999374,3361.8545955883255,2459.9636103632811,7011.9728749283677,-3201.6616965690705,3911.8769957925147,-3911.8769957925147,3201.6616965690705,13771.635690093492,0.0
440012.02908761695,3857225.878295721,-37500.0,6012.9932825132382,-4634.1855044467184,2896.1060547657048,-4363.0127535395686,2866.5937227791428,2146.8665034878477,6402.5200693150109,-3107.4346911281568,4083.793973428867,-4083.793973428867,3107.4346911281568,12601.523182915038,0.0
445012.02908761695,3857225.878295721,-37500.0,5960.9038329036011,-4151.9011656828734,2394.8933646060477,-4005.4452981539935,2440.785589360652,1868.2027878370093,5841.3238202281509,-2962.3372382053685,4141.3367040818612,-4141.3367040818612,2962.3372382053685,11514.770800670636,0.0
265012.02908761695,3862225.878295721,-37500.0,-1694.5202385161704,2983.9036791782041,3253.4699070677316,156.90155489178721,1767.078957374621,389.36959855610542,4222.459244797933,4453.323782350466,-2752.0328331552755,2752.0328331552755,-4453.323782350466,7393.6958873044678,0.0
270012.02908761695,3862225.878295721,-37500.0,-2511.0167986648717,2962.5852703072237,3675.2243484756536,-163.29564819914037,1857.271479712012,312.93331285964763,4649.8202093653181,4775.3368460899919,-3494.362771622863,3494.362771622863,-4775.3368460899919,8095.291241907853,0.0
275012.02908761695,3862225.878295721,-37500.0,-3491.9719436702608,2837.5217071010857,4121.397533014665,-600.90174538974668,1898.3689069440447,179.86713920690141,5142.8936530395622,5048.1581574457714,-4353.1691113335264,4353.1691113335264,-5048.1581574457714,8918.5189353607766,0.0
280012.02908761695,3862225.878295721,-37500.0,-4650.2416765635744,2570.1374051961502,4572.8053574683327,-1185.621354839521,1858.3434577671671,-33.837000808700459,5720.8563818582443,5231.8685453984972,-5326.8090525497801,5326.8090525497801,-5231.8685453984972,9909.2232453750858,0.0
285012.02908761695,3862225.878295721,-37500.0,-5989.1308038494453,2114.0158077574574,4996.6232505965436,-1950.6058048492591,1691.650857371488,-360.407384639508,6410.8062140035026,5271.6661425159155,-6401.1868598903957,6401.1868598903957,-5271.6661425159155,11132.851105831589,0.0
290012.02908761695,3862225.878295721,-37500.0,-7495.3199534741425,1416.5853028765277,5340.6355861397678,-2930.0505677711117,1335.1537377464197,-842.24545201464605,7250.557020767159,5095.2882435851698,-7542.9140113066969,7542.9140113066969,-5095.2882435851698,12678.731154763162,0.0
295012.02908761695,3862225.878295721,-37500.0,-9129.2670949801613,423.90623766662884,5526.4195771289978,-4154.322161763178,703.90402403267956,-1533.6901574582701,8291.7051844506514,4612.0927747210462,-8690.6782597697475,8690.6782597697475,-4612.0927747210462,14661.659358542249,0.0
300012.02908761695,3862225.878295721,-37500.0,-10813.326517209556,-909.41466255057708,5442.4672708798798,-5641.2870759092884,-312.09670392248637,-2501.8892681346292,9602.4375370443595,3716.0303734366676,-9745.593789860699,9745.593789860699,-3716.0303734366676,17218.231285014059,0.0
305012.02908761695,3862225.878295721,-37500.0,-12419.099705225079,-2602.6748231306456,4939.6412366621498,-7382.2961579583452,-1847.9234854574106,-3825.48038516204,11268.605230690686,2296.0337682677864,-10562.751355767443,10562.751355767443,-2296.0337682677864,20495.43536000518,0.0
310012.02908761695,3862225.878295721,-37500.0,-13757.872012199849,-4621.4879789428742,3833.6487438154613,-9321.5084871876315,-4056.5893022952341,-5588.891532955914,13388.058438151358,258.77381933334709,-10948.628072329306,10948.628072329306,-258.77381933334709,24629.308152577974,0.0
315012.02908761695,3862225.878295721,-37500.0,-14581.592089367421,-6839.4683870212148,1922.2844097634686,-11328.533598148711,-7088.5627623954024,-7868.8868088800873,16046.380089116717,-2430.6065735817892,-10672.414495318728,10672.414495318728,2430.6065735817892,29710.904778727556,0.0
320012.02908761695,3862225.878295721,-37500.0,-14606.519100512591,-8993.4017605652953,-971.63581956117559,-13167.910163207705,-11049.687582930816,-10708.856850046544,19267.864979497313,-5685.9487153767132,-9503.1014217144711,9503.1014217144711,5685.9487153767132,35736.113809017777,0.0
325012.02908761695,3862225.878295721,-37500.0,-13575.43433613816,-10646.139014703789,-4919.849229607692,-14476.017262139359,-15929.16433703053,-14076.174042836587,22963.690298460446,-9219.2237406969598,-7285.868178070772,7285.868178070772,9219.2237406969598,42537.101140635365,0.0
330012.02908761695,3862225.878295721,-37500.0,-11372.426284504802,-11187.94554191514,-9765.3311034713879,-14767.874410369543,-21495.407489219335,-17801.16905542375,26896.035482194413,-12462.09220585509,-4065.6658299063711,4065.6658299063711,12462.09220585509,49700.919906913914,0.0
335012.02908761695,3862225.878295721,-37500.0,-8186.2675130541293,-9927.0078579090587,-14973.168408149546,-13510.805198034288,-27177.092849780009,-21507.414352103449,30652.77976723032,-14541.203984592947,-242.82299568304279,242.82299568304279,14541.203984592947,56499.122356803549,0.0
340012.02908761695,3862225.878295721,-37500.0,-4668.8922749273906,-6327.6933200061276,-19522.011470619214,-10307.321539039533,-31987.753913085915,-24567.827874099428,33651.335912458817,-14397.347642582563,3307.6554535163505,-3307.6554535163505,14397.347642582563,61883.054763768356,0.0
345012.02908761695,3862225.878295721,-37500.0,-1949.0884396275112,-409.06412219114242,-21976.130540103703,-5193.9980909043543,-34609.75508226957,-26157.274413338149,35223.062447789431,-11150.326662821146,5302.2395537484372,-5302.2395537484372,11150.326662821146,64631.575976433873,0.0
350012.02908761695,3862225.878295721,-37500.0,-1296.3923154019287,6844.7995566755399,-20915.22932800958,1056.8669594499681,-33774.162443935806,-25486.445522360231,34823.99894801894,-4706.4530836130216,4487.7880686847257,-4487.7880686847257,4706.4530836130216,63729.613377772323,0.0
355012.02908761695,3862225.878295721,-37500.0,-3371.8065388533691,13461.032705964271,-15735.199129032044,6925.0077302166928,-28930.162927153069,-22213.874778596437,32345.7476416438,3705.3962277186192,450.55705079354721,-450.55705079354721,-3705.3962277186192,58934.315188434994,0.0
360012.02908761695,3862225.878295721,-37500.0,-7505.6329182939317,17245.94050099872,-7355.1966363448118,10707.414496169324,-20823.786628552043,-16802.63403341236,28359.074271151534,11705.016165163035,-5731.0971745924853,5731.0971745924853,-11705.016165163035,51234.356662450278,0.0
365012.02908761695,3862225.878295721,-37500.0,-11840.720625684222,17057.857315617573,1969.264838881986,11451.928682500136,-11362.452069006007,-10440.039401185892,24020.330928523239,16930.595546244273,-11823.14473831435,11823.14473831435,-16930.595546244273,42743.44008595786,0.0
370012.02908761695,3862225.878295721,-37500.0,-14493.910556376171,13461.220664457867,9851.3382640454493,9460.3008641272354,-2664.3746886139747,-4457.8124214385289,20504.722691050538,18361.513568464758,-15761.385000386503,15761.385000386503,-18361.513568464758,35811.800285886144,0.0
375012.02908761695,3862225.878295721,-37500.0,-14650.634737440738,8126.9806982855889,14952.752571264749,5895.7177702175077,3918.6945814725523,268.72506468315731,18309.217105744756,16580.632609204011,-16749.925544790589,16749.925544790589,-16580.632609204011,31713.950589479282,0.0
380012.02908761695,3862225.878295721,-37500.0,-12657.655328573603,2719.4304751013187,17206.082288072666,1992.31942114962,8065.0667018287813,3490.5886721944144,17135.572014083482,12979.478881285277,-15248.778920604223,15248.778920604223,-12979.478881285277,29993.190994039905,0.0
385012.02908761695,3862225.878295721,-37500.0,-9411.7238006215248,-1748.2781072458297,17291.219123321622,-1436.096123782442,10138.480947490385,5384.33201564912,16413.494804253747,8870.45920254874,-12270.49226126137,12270.49226126137,-8870.45920254874,29335.901683349384,0.0
390012.02908761695,3862225.878295721,-37500.0,-5779.9458815414828,-4933.102120504318,16050.039795331144,-4048.1609670134267,10738.088530588593,6283.8873864014995,15747.238415159851,5089.9511593339839,-8765.6641338483332,8765.6641338483332,-5089.9511593339839,28754.477693615234,0.0
395012.02908761695,3862225.878295721,-37500.0,-2350.1694507137936,-6907.7794579054189,14171.008964404187,-5817.4515381777856,10421.713835175553,6514.1037895039026,14979.391045589657,2012.3672165515263,-5374.1170895280738,5374.1170895280738,-2012.3672165515263,27849.47526759878,0.0
400012.02908761695,3862225.878295721,-37500.0,575.56053879531055,-7917.5083984418443,12111.396201167585,-6866.4613656902584,9607.835049276151,6329.6136903687184,14092.749302679138,-289.07314394574087,-2428.7220187253811,2428.7220187253811,289.07314394574087,26575.251576068404,0.0
405012.02908761695,3862225.878295721,-37500.0,2897.6827588749038,-8234.008586823762,10131.746540592076,-7360.3895626476906,8574.385990054192,5910.2296230380607,13124.246747123592,-1892.126747522781,-47.602777968730038,47.602777968730038,1892.126747522781,25021.933225287303,0.0
410012.02908761695,3862225.878295721,-37500.0,4633.0792067735938,-8091.4327420969348,8357.4493528114454,-7455.6432191334488,7490.4879358933904,5375.5651088717623,12120.811434897741,-2928.8548263122739,1774.283174803415,-1774.283174803415,2928.8548263122739,23305.639948687181,0.0
415012.02908761695,3862225.878295721,-37500.0,5853.665053700227,-7668.9390440464012,6832.1580356673976,-7281.2410600585645,6450.7437562778132,4801.7798864310653,11122.457093536588,-3535.24178136298,3100.6755949417657,-3100.6755949417657,3535.24178136298,21527.116632524339,0.0
420012.02908761695,3862225.878295721,-37500.0,6649.6351850025012,-7094.0446267118223,5555.000377223645,-6936.0599501199931,5502.2997330503222,4235.1843714070328,10158.126511883365,-3829.7964655918959,4015.6793621877732,-4015.6793621877732,3829.7964655918959,19761.425901000424,0.0
425012.02908761695,3862225.878295721,-37500.0,7110.0880471156324,-6452.7728733656613,4503.7060611612787,-6492.3260461046648,4663.6778684883539,3702.142395391119,9246.4275843743126,-3907.431788249025,4603.613642202039,-4603.613642202039,3907.431788249025,18059.355248226653,0.0
430012.02908761695,3862225.878295721,-37500.0,7314.2516141358528,-5800.4085206137006,3647.9003486254178,-6000.8739726793665,3937.0752463549916,3216.018111369885,8397.8389957606287,-3840.3643051566864,4939.8544384199322,-4939.8544384199322,3840.3643051566864,16452.338820618475,0.0
435012.02908761695,3862225.878295721,-37500.0,7328.4880685129174,-5170.5474702547936,2956.1604066596569,-5496.2132413172731,3316.0213502148986,2781.9246125608411,7616.9154641769819,-3681.59789723943,5087.6624511078935,-5087.6624511078935,3681.59789723943,14957.479047974219,0.0
440012.02908761695,3862225.878295721,-37500.0,7206.2864248299047,-4582.0525252754396,2399.4280898533971,-5000.8410370428128,2790.0100863670641,2399.9522662709792,6904.1671389981566,-3468.9481986045921,5098.0665607826741,-5098.0665607826741,3468.9481986045921,13581.851339124036,0.0
445012.02908761695,3862225.878295721,-37500.0,6989.5860871320347,-4044.0984948721116,1952.3739654871235,-4528.6514461228689,2347.1891452331424,2067.3182636631645,6257.4965537557437,-3228.7130707530696,5011.1058905571817,-5011.1058905571817,3228.7130707530696,12325.820851311972,0.0
450012.02908761695,3862225.878295721,-37500.0,6710.5548072555293,-3559.696444800808,1593.6773723604902,-4087.5198756037971,1975.8386776463526,1779.7621466462872,5673.2351926904948,-2978.6972902932466,4857.5356083517363,-4857.5356083517363,2978.6972902932466,11185.458292910458,0.0
265012.02908761695,3867225.878295721,-37500.0,-563.73253742612837,3683.1380191600274,3199.8251663808533,838.74543208827561,2074.7596692531301,690.41782832187664,4592.5947358182621,4844.1676428815299,-1990.6892598715272,1990.6892598715272,-4844.1676428815299,8169.3374406140501,0.0
270012.02908761695,3867225.878295721,-37500.0,-1316.2355814078887,3821.0327780541556,3685.003367765969,610.62281565864964,2256.0273495484594,673.98883578658035,5043.6633699687009,5322.4855930098875,-2727.9371047110803,2727.9371047110803,-5322.4855930098875,8899.9005462024215,0.0
275012.02908761695,3867225.878295721,-37500.0,-2257.0007038188437,3882.6466402766619,4227.0191609140811,268.21322647825434,2411.5392241813215,610.34606972328936,5552.7105248513981,5794.8608380622245,-3613.6809286523949,3613.6809286523949,-5794.8608380622245,9724.1694648382381,0.0
280012.02908761695,3867225.878295721,-37500.0,-3413.2716657045753,3829.3804906702871,4817.9890350169517,-224.23205021189881,2513.2160826127601,474.81914776945393,6134.5006907096431,6229.3831596860273,-4660.6757235637851,4660.6757235637851,-6229.3831596860273,10675.162007248135,0.0
285012.02908761695,3867225.878295721,-37500.0,-4807.2067175173652,3611.3674048966441,5438.8086755043605,-909.82390729703502,2518.5544052363225,232.62529388456289,6811.393097045102,6578.3562535681731,-5872.8898169460508,5872.8898169460508,-6578.3562535681731,11805.979538896603,0.0
290012.02908761695,3867225.878295721,-37500.0,-6448.8718331528589,3167.0255360536976,6052.8434531672701,-1838.1462815034497,2365.0086781743285,-164.46626081856311,7617.5846475295184,6773.6873195183198,-7238.2620738513451,7238.2620738513451,-6773.6873195183198,13199.510783619708,0.0
295012.02908761695,3867225.878295721,-37500.0,-8325.5440306788569,2425.1424497983166,6597.4707000756662,-3062.0021699529202,1963.1756326793266,-781.9985373309911,8605.0236228512003,6722.7410672340011,-8718.3853701690769,8718.3853701690769,-6722.7410672340011,14978.741669821497,0.0
300012.02908761695,3867225.878295721,-37500.0,-10386.60676729246,1311.8879180545941,6973.7921764138227,-4629.9769236025677,1189.5009299660417,-1706.7158621401557,9850.8888294060671,6306.7034020873007,-10235.006416017477,10235.006416017477,-6306.7034020873007,17313.449533924533,0.0
305012.02908761695,3867225.878295721,-37500.0,-12524.277414564782,-233.69180552426158,7036.1676474842679,-6572.2007618397965,-119.49978379490982,-3049.2288410509045,11465.327993685627,5385.2761163821961,-11654.515467816411,11654.515467816411,-5385.2761163821961,20416.648455368311,0.0
310012.02908761695,3867225.878295721,-37500.0,-14552.832404349183,-2231.2246706352612,6585.8264049231857,-8876.0700434770097,-2167.2340230891573,-4942.8586347891032,13594.085908529529,3813.9637565171433,-12774.335715198569,12774.335715198569,-3813.9637565171433,24524.114544685675,0.0
315012.02908761695,3867225.878295721,-37500.0,-16193.525787768038,-4613.5029142012072,5377.0096090950183,-11448.888865041163,-5183.3274225862988,-7533.7802734817833,16399.625169417563,1482.6911149985226,-13319.733245145761,13319.733245145761,-1482.6911149985226,29852.451962865816,0.0
320012.02908761695,3867225.878295721,-37500.0,-17079.823049276121,-7163.6943795516554,3149.6867889769619,-14067.161901642819,-9383.5264550861211,-10954.335165394003,19999.585830859232,-1614.8343865053939,-12966.27513937651,12966.27513937651,1614.8343865053939,36532.197337312304,0.0
325012.02908761695,3867225.878295721,-37500.0,-16806.855575734662,-9445.6945329795653,-292.14785854729928,-16320.243029678912,-14886.082161402643,-15267.626339464035,24380.404925375995,-5276.5865240988587,-11410.12553060987,11410.12553060987,5276.5865240988587,44510.511525949456,0.0
330012.02908761695,3867225.878295721,-37500.0,-15056.186148829975,-10759.56171033405,-4938.4129727844966,-17573.647820336464,-21568.342214950695,-20370.331841054012,29327.562206272196,-8965.3116398071088,-8510.5256638362825,8510.5256638362825,8965.3116398071088,53420.602342703474,0.0
335012.02908761695,3867225.878295721,-37500.0,-11819.300094717892,-10188.633393979639,-10366.588375288962,-17008.065342282011,-28864.772413570037,-25850.412934168628,34365.591140752549,-11710.756710079677,-4513.0333010351233,4513.0333010351233,11710.756710079677,62435.074531436228,0.0
340012.02908761695,3867225.878295721,-37500.0,-7692.0241601089811,-6843.7453554103295,-15525.300708792623,-13827.192065225061,-35563.185961542957,-30835.250509203557,38717.064340182027,-12159.594143667131,-302.16636201047913,302.16636201047913,12159.594143667131,70171.124510108682,0.0
345012.02908761695,3867225.878295721,-37500.0,-4072.8691009829809,-403.86594297407277,-18678.674598190923,-7725.0437743589127,-39771.494595391916,-33953.61544010228,41365.804769705006,-8965.4021221553103,2506.1392088562043,-2506.1392088562043,8965.4021221553103,74796.990320234851,0.0
350012.02908761695,3867225.878295721,-37500.0,-2880.1529184917013,8133.2581712955662,-17833.651192000361,459.3042585354691,-39365.314756674074,-33644.558483994493,41347.892877275597,-1665.6685193013291,2005.7330833096944,-2005.7330833096944,1665.6685193013291,74551.907012697731,0.0
355012.02908761695,3867225.878295721,-37500.0,-5400.6134915569692,16090.214049563823,-11902.334832112911,8412.9302661957881,-33137.097625415379,-28987.437031336762,38312.873072441958,8266.0472882390131,-2739.2550541945211,2739.2550541945211,-8266.0472882390131,68763.904337270709,0.0
360012.02908761695,3867225.878295721,-37500.0,-10778.273182157063,20156.873285798072,-2043.0821750134842,13208.458938170757,-22105.82223396995,-20670.194842881858,33088.970717336713,17388.108794534597,-10298.597677739479,10298.597677739479,-17388.108794534597,58896.964401148558,0.0
365012.02908761695,3867225.878295721,-37500.0,-16032.656046075073,18716.824959431411,8465.3147235492743,13265.266949191482,-9467.9052418508199,-10988.468764384927,27604.131349100462,22277.790143039205,-17236.924111530967,17236.924111530967,-22277.790143039205,48474.800308724254,0.0
370012.02908761695,3867225.878295721,-37500.0,-18338.112086913014,13045.979684288688,16366.523532620995,9437.8202301435122,1358.3508701075179,-2451.0639230236611,23696.952190967939,21933.127291976372,-20624.1699785202,20624.1699785202,-21933.127291976372,41095.027392200456,0.0
375012.02908761695,3867225.878295721,-37500.0,-16995.369203270235,5917.4504988408962,20345.772470643784,3957.7236529659367,8628.7434732782349,3605.9303826219143,21704.888060569872,17875.84569245993,-19904.182754186797,19904.182754186797,-17875.84569245993,37747.892552787831,0.0
380012.02908761695,3867225.878295721,-37500.0,-13112.665226578063,-434.28849139266413,20946.928442546134,-1251.4907526713876,12408.380395842838,7147.4595919433814,20731.613053418889,12383.373735879371,-16362.471076210777,16362.471076210777,-12383.373735879371,36710.287093680956,0.0
385012.02908761695,3867225.878295721,-37500.0,-8236.3713541766137,-5040.7699977306966,19428.361837518467,-5253.2834960601158,13630.872268584249,8779.8957000562132,19930.607696869094,7113.2196085767064,-11661.717951714338,11661.717951714338,-7113.2196085767064,36063.297193157989,0.0
390012.02908761695,3867225.878295721,-37500.0,-3501.7445443097854,-7861.0391672928026,16923.179228986501,-7886.0922898948102,13300.777203688293,9182.5117132932101,18954.361110173839,2835.5342911379703,-6998.2328671425639,6998.2328671425639,-2835.5342911379703,34952.597737805096,0.0
395012.02908761695,3867225.878295721,-37500.0,513.42259786739032,-9256.3744776152998,14176.034424720812,-9356.3019811995146,12173.196245686608,8877.4793806974867,17768.760868159934,-287.77411191869487,-2981.9698000621174,2981.9698000621174,287.77411191869487,33265.180487768986,0.0
400012.02908761695,3867225.878295721,-37500.0,3631.2806873343279,-9658.9745357206357,11585.843592017767,-9965.4590484473065,10726.470261528772,8207.6084719547744,16447.942438994127,-2385.6026148145288,189.60588766581668,-189.60588766581668,2385.6026148145288,31157.746098842985,0.0
405012.02908761695,3867225.878295721,-37500.0,5889.4014757022906,-9434.5535320339095,9323.5973399812046,-9988.7548723302352,9231.6183592607158,7380.8958129736875,15077.454752918597,-3678.2500940015661,2540.1600217347213,-2540.1600217347213,3678.2500940015661,28825.727714070839,0.0
410012.02908761695,3867225.878295721,-37500.0,7414.9540560431751,-8851.0709321659469,7432.5072787051249,-9640.1392514750423,7826.9752605375652,6517.7488966497094,13723.719163755799,-4382.8859464769257,4186.158013480871,-4186.158013480871,4382.8859464769257,26427.767282632758,0.0
415012.02908761695,3867225.878295721,-37500.0,8356.4275920534237,-8089.4482077151515,5893.1874656211039,-9073.5022152086112,6572.9815155586039,5684.8026978596199,12430.297187771699,-4679.6013379445612,5267.5612659169747,-5267.5612659169747,4679.6013379445612,24073.624158595609,0.0
420012.02908761695,3867225.878295721,-37500.0,8852.3759854666223,-7264.8676836004133,4660.7910589066587,-8394.5229693465153,5487.1274143642531,4916.3006202548086,11222.224241373629,-4705.7071753585305,5916.0430031153746,-5916.0430031153746,4705.7071753585305,21831.819349754005,0.0
425012.02908761695,3867225.878295721,-37500.0,9020.034131177581,-6446.6977526318833,3684.2384373479949,-7673.2215957860717,4564.7346955243365,4227.1317920485071,10111.410344760796,-4560.8232371165168,6243.2881838532494,-6243.2881838532494,4560.8232371165168,19740.663972969596,0.0
430012.02908761695,3867225.878295721,-37500.0,8953.431339308594,-5673.9101731156497,2915.2104117195358,-6954.3218559207971,3790.8262499612638,3620.8106611091739,9101.1368303109066,-4314.7916748518237,6338.8922818135889,-6338.8922818135889,4314.7916748518237,17817.857667157732,0.0
435012.02908761695,3867225.878295721,-37500.0,8725.4427200866103,-4966.0101620612813,2311.6787456939478,-6265.0234549381485,3146.6492425639558,3094.4015099230005,8189.2921303490002,-4015.214438211885,6272.2630547652361,-6272.2630547652361,4015.214438211885,16067.618243123592,0.0
440012.02908761695,3867225.878295721,-37500.0,8391.1941105857804,-4330.4740811375013,1838.7306981515637,-5620.6547098688779,2613.1242552864646,2641.5983260240378,7370.6324777664859,-3693.6658972744331,6095.8880515000874,-6095.8880515000874,3693.6658972744331,14485.79176186569,0.0
445012.02908761695,3867225.878295721,-37500.0,7991.5515650452671,-3767.6329637839249,1468.1452622501108,-5028.656101653617,2172.5210470107149,2254.6137529698144,6638.2607032189244,-3370.4370808585818,5848.7043853177302,-5848.7043853177302,3370.4370808585818,13063.298706050984,0.0
450012.02908761695,3867225.878295721,-37500.0,7556.2547659454522,-3273.8179129033338,1177.4967026621839,-4491.3662239999439,1809.1581433023023,1925.3155657460932,5984.5900728843626,-3058.0299733781385,5559.1145895267719,-5559.1145895267719,3058.0299733781385,11788.450037911998,0.0
260012.02908761695,3872225.878295721,-37500.0,1268.6013965225386,3963.6321802056659,2555.4690214867046,1661.2391289478121,2066.059693577643,956.69802711916032,4590.6932517694859,4473.8307730907909,-455.49120342743618,455.49120342743618,-4473.8307730907909,8388.7296312990511,0.0
265012.02908761695,3872225.878295721,-37500.0,803.90367299175978,4281.2492629120507,2993.2156381569189,1632.513509730941,2321.4131394960223,1033.1782387555711,5039.028773256483,5034.5114773402456,-987.38964862160992,987.38964862160992,-5034.5114773402456,9137.4593778455728,0.0
270012.02908761695,3872225.878295721,-37500.0,177.32408785200758,4583.089418717851,3506.851460773868,1533.6744166721023,2590.1136077398755,1093.4711948667325,5535.0355693435658,5645.3810199500058,-1662.3587835437697,1662.3587835437697,-5645.3810199500058,9953.4619198674045,0.0
275012.02908761695,3872225.878295721,-37500.0,-648.27234475813862,4845.6148302569973,4104.2599240892514,1335.1218184317579,2860.0443969933481,1122.478583798995,6085.0355026501238,6296.5942290555058,-2507.5652191267882,2507.5652191267882,-6296.5942290555058,10845.908574548228,0.0
280012.02908761695,3872225.878295721,-37500.0,-1713.8093419406835,5034.9275457531148,4789.8719718478815,997.87996660793942,3109.9727017730634,1097.2282602839718,6698.0771491724117,6968.5787568512906,-3550.5898389771291,3550.5898389771291,-6968.5787568512906,11830.988140474223,0.0
285012.02908761695,3872225.878295721,-37500.0,-3061.1356654217261,5103.8903294163601,5560.9906207860349,471.77452906516635,3304.8132257593988,983.39820302239559,7388.3287366171662,7627.3770514626576,-4815.7813798350417,4815.7813798350417,-7627.3770514626576,12938.663323549021,0.0
290012.02908761695,3872225.878295721,-37500.0,-4727.3050380937411,4989.5006373155475,6401.9643997963585,-305.78893804073994,3388.9563854213579,730.56189170867265,8179.4059546379049,8218.6902085929178,-6317.8529081987508,6317.8529081987508,-8218.6902085929178,14224.198558327626,0.0
295012.02908761695,3872225.878295721,-37500.0,-6734.4573915987748,4611.7330307502616,7275.4609066062376,-1409.3355273392572,3277.274641220085,265.90455178866762,9111.8243767420136,8661.0255264366569,-8051.5054119934393,8051.5054119934393,-8661.0255264366569,15785.84463766949,0.0
300012.02908761695,3872225.878295721,-37500.0,-9073.4543599085318,3876.248903288742,8110.3350279652386,-2921.0531473609281,2843.8517794387999,-513.58620975841541,10255.040054761532,8839.4092807352536,-9975.8708737756169,9975.8708737756169,-8839.4092807352536,17787.609141611014,0.0
305012.02908761695,3872225.878295721,-37500.0,-11679.73423020763,2685.1294452486677,8786.585181541519,-4919.2536289355439,1909.6404908433551,-1749.762312697884,11724.91147124656,8603.1329120785922,-11993.344164266884,11993.344164266884,-8603.1329120785922,20479.543577829932,0.0
310012.02908761695,3872225.878295721,-37500.0,-14401.671647695033,961.92951897819592,9120.3997780751251,-7454.2214724605892,232.81250889042457,-3630.4718622776759,13703.143665971395,7774.3062756978816,-13924.784988631653,13924.784988631653,-7774.3062756978816,24198.769426468589,0.0
315012.02908761695,3872225.878295721,-37500.0,-16966.531867498328,-1301.181862942899,8857.1755656413279,-10504.447773017289,-2489.6247023271012,-6389.5866831320736,16439.446306281814,6178.3579266486258,-15488.327172621033,15488.327172621033,-6178.3579266486258,29330.937289709316,0.0
320012.02908761695,3872225.878295721,-37500.0,-18958.58927143754,-3968.2202295886923,7688.0626022467886,-13906.597252817921,-6592.649437604834,-10288.21944526253,20191.5757552822,3711.3485837056205,-16298.153247426875,16298.153247426875,-3711.3485837056205,36221.44087795294,0.0
325012.02908761695,3872225.878295721,-37500.0,-19838.982208892274,-6659.9176333090036,5314.4125418442227,-17258.99623882688,-12360.235504086428,-15555.962576668107,25092.333782866986,457.408987855747,-15912.042090868286,15912.042090868286,-457.408987855747,45036.80348819447,0.0
330012.02908761695,3872225.878295721,-37500.0,-19054.864432970659,-8657.7529870129129,1589.1107167220284,-19818.563618168209,-19854.401811648528,-22259.689735606898,31021.219523229389,-3145.4285576455995,-13967.935179947417,13967.935179947417,3145.4285576455995,55573.313874718588,0.0
335012.02908761695,3872225.878295721,-37500.0,-16295.840876413935,-8884.0332445056392,-3246.8109322412906,-20457.202488289455,-28629.129656843648,-30064.607756822636,37497.623672473594,-6133.601694995974,-10448.303799546546,10448.303799546546,6133.601694995974,67012.505630978412,0.0
340012.02908761695,3872225.878295721,-37500.0,-11925.68882154418,-6098.5277217797411,-8260.4126494715965,-17825.986215416378,-37355.445170154926,-37890.712635310207,43566.665772353932,-6966.5570017968412,-6066.1227672199029,6066.1227672199029,6966.5570017968412,77678.48492675976,0.0
345012.02908761695,3872225.878295721,-37500.0,-7463.395567245354,484.53862037396675,-11610.728381651797,-10963.312485795654,-43546.5036026499,-43615.982691122372,47780.390788955061,-3858.2607409227821,-2606.224072267978,2606.224072267978,3858.2607409227821,84996.788394460775,0.0
350012.02908761695,3872225.878295721,-37500.0,-5581.7824983419523,10059.244775099403,-10838.822075649241,-489.62147398843234,-43901.301106803468,-44298.292698613521,48524.417612488309,4141.5128609846861,-2689.0975606221291,2689.0975606221291,-4141.5128609846861,86077.450713280195,0.0
355012.02908761695,3872225.878295721,-37500.0,-8604.7524114686803,19212.070749713475,-4298.3196047939364,10239.812361915849,-36032.36767362406,-37654.733390513073,44953.455197463954,15380.916991964386,-8092.9192969597134,8092.9192969597134,-15380.916991964386,79400.348671287953,0.0
360012.02908761695,3872225.878295721,-37500.0,-15543.864077467766,23088.575316690949,6604.0079442831184,16148.287485995796,-21219.675594643308,-24573.594192755718,38257.860307589224,25020.622898101254,-17029.905546569498,17029.905546569498,-25020.622898101254,67115.020388222139,0.0
365012.02908761695,3872225.878295721,-37500.0,-21571.806517777251,19519.672452793686,17315.287274167971,14576.509740833064,-4811.1443577065374,-9654.3742143383333,31714.058201296662,28305.656376983916,-24262.05705868013,24262.05705868013,-28305.656376983916,55142.678800603666,0.0
370012.02908761695,3872225.878295721,-37500.0,-22577.707498593274,11151.711569119911,23806.834192754664,7709.8248945630048,7828.269712071603,2291.7289448109482,27987.061095449084,24806.159373794279,-25865.284622771545,25865.284622771545,-24806.159373794279,48494.42027606185,0.0
375012.02908761695,3872225.878295721,-37500.0,-18594.747852351491,2296.1424906133934,25362.55177525671,-290.27350656632575,14867.416341397135,9483.066493367467,26551.529560801511,17713.60176177949,-22207.125936074957,22207.125936074957,-17713.60176177949,46535.714715083428,0.0
380012.02908761695,3872225.878295721,-37500.0,-12115.925939527886,-4464.3878142992398,23541.683414571326,-6720.669742658969,17353.661095464377,12696.515503795446,25641.378636963811,10290.403102769973,-15944.640591195484,15944.640591195484,-10290.403102769973,45837.90082898843,0.0
385012.02908761695,3872225.878295721,-37500.0,-5437.6395071726029,-8600.2510145778742,20172.010778005872,-10851.021519176316,17085.97543737615,13415.436671451293,24411.972746988064,4218.213086464486,-9404.8233212047289,9404.8233212047289,-4218.213086464486,44490.342861139405,0.0
390012.02908761695,3872225.878295721,-37500.0,227.55319322573189,-10591.772699855299,16480.415052477849,-12993.286372160417,15486.763642524566,12828.169208608377,22784.667307161984,-107.72432314051525,-3797.8561337766178,3797.8561337766178,107.72432314051525,42198.198237897865,0.0
395012.02908761695,3872225.878295721,-37500.0,4517.8965092697072,-11132.704320706393,13083.520933182324,-13728.776428856763,13418.125324013559,11661.561110729983,20920.883882230628,-2895.7086367512779,510.18692530754879,-510.18692530754879,2895.7086367512779,39250.470093151795,0.0
400012.02908761695,3872225.878295721,-37500.0,7507.5772801297335,-10805.873941331989,10209.385515620595,-13574.557922831333,11327.899944564695,10305.533564196678,18988.196116598905,-4520.6268175706373,3580.5212141439674,-3580.5212141439674,4520.6268175706373,35994.990492415302,0.0
405012.02908761695,3872225.878295721,-37500.0,9428.340216874205,-10018.332864905908,7886.7300601846609,-12905.147216870608,9418.0011624955932,8953.7003189303632,17102.488477796891,-5335.7775248862072,5629.2230553860136,-5629.2230553860136,5335.7775248862072,32690.913525844797,0.0
410012.02908761695,3872225.878295721,-37500.0,10532.837810291494,-9028.1985713683753,6059.1241814862387,-11968.107472663556,7759.8627602042561,7695.683463320931,15330.148590890694,-5617.9059621015203,6894.514034001344,-6894.514034001344,5617.9059621015203,29499.987293005572,0.0
415012.02908761695,3872225.878295721,-37500.0,11041.991567622927,-7988.4758961125563,4643.657981586286,-10919.168451435422,6361.144326814172,6567.8962777671395,13702.891274797103,-5566.1186017205946,7585.4666877690925,-7585.4666877690925,5566.1186017205946,26511.391496131673,0.0
420012.02908761695,3872225.878295721,-37500.0,11131.935762739295,-6984.0181576029981,3557.6023546217316,-9852.7863195372429,5201.2413177723074,5579.6945299757617,12230.997610012992,-5316.9617590470043,7868.9739716341282,-7868.9739716341282,5316.9617590470043,23766.864337024948,0.0
425012.02908761695,3872225.878295721,-37500.0,10936.565918353772,-6057.6311727396878,2728.6931250535554,-8823.9064420456525,4249.2741850632983,4726.7722821903808,10912.465376703052,-4961.0773745356582,7871.9055646793513,-7871.9055646793513,4961.0773745356582,21279.078241896717,0.0
430012.02908761695,3872225.878295721,-37500.0,10554.812610706007,-5227.1259950674785,2097.7130915744647,-7862.3919162309894,3472.7692138114294,3998.2201913840709,9738.7306220490864,-4556.981488860255,7687.9525531903846,-7687.9525531903846,4556.981488860255,19043.692349656849,0.0
435012.02908761695,3872225.878295721,-37500.0,10058.320324753682,-4496.0375609505572,1617.8180666275841,-6982.3799157883886,2841.5593560107945,3380.3917119368261,8698.1053122810845,-4141.3309066130323,7384.9405194689834,-7384.9405194689834,4141.3309066130323,17046.966452306737,0.0
440012.02908761695,3872225.878295721,-37500.0,9498.0725548807641,-3860.1734772932518,1252.7050822474991,-6188.3022719676646,2329.2585959356084,2859.0460600449869,7777.7637474507874,-3736.1879940285553,7011.1659079258125,-7011.1659079258125,3736.1879940285553,15270.427437362576,0.0
445012.02908761695,3872225.878295721,-37500.0,8909.7137040875041,-3311.5520647518301,974.59030418422014,-5478.7886051569576,1913.5674282577659,2420.530016880828,6964.8932088130186,-3354.0416209293744,6600.4773329947984,-6600.4773329947984,3354.0416209293744,13693.755542418761,0.0
450012.02908761695,3872225.878295721,-37500.0,8317.6303628871428,-2840.6951851321819,762.36496543191549,-4849.1685264657917,1576.0254509225497,2052.3714426996235,6247.3059727052723,-3001.2040716123756,6176.1639266449511,-6176.1639266449511,3001.2040716123756,12296.476442532165,0.0
260012.02908761695,3877225.878295721,-37500.0,2664.3146544381761,4281.6786720492828,2222.5644791471505,2407.9539707358122,2169.805944881075,1259.3517394600231,5041.8219928830649,4359.4904754961444,650.04521366555286,-650.04521366555286,-4359.4904754961444,9384.3294187054507,0.0
265012.02908761695,3877225.878295721,-37500.0,2377.2774036213859,4716.3876869437236,2638.1257921380889,2519.4757462441794,2478.6923609997671,1409.4724504263968,5553.6412095444193,4979.4412861703595,242.15955522160948,-242.15955522160948,-4979.4412861703595,10269.620181949133,0.0
270012.02908761695,3877225.878295721,-37500.0,1940.9412339370444,5169.4843525866663,3139.1776350040927,2586.1444696407075,2821.4238798335041,1561.9993152577897,6118.788841870648,5680.9828827805304,-307.05879637251519,307.05879637251519,-5680.9828827805304,11231.645589537853,0.0
275012.02908761695,3877225.878295721,-37500.0,1312.275287637261,5625.7595740301649,3741.162910555377,2580.8728815213099,3192.9535402136326,1706.0995956440086,6741.3150052894398,6465.9594442831813,-1032.7211242348267,1032.7211242348267,-6465.9594442831813,12272.453766830859,0.0
280012.02908761695,3877225.878295721,-37500.0,439.85308567319862,6060.5956046565552,4459.8049396941578,2465.7986645473634,3581.1438015346662,1823.5137314056749,7425.687116785969,7329.8998871982185,-1975.1232432979505,1975.1232432979505,-7329.8998871982185,13394.737761772551,0.0
285012.02908761695,3877225.878295721,-37500.0,-735.34559543675653,6436.2860708836452,5308.8147204547895,2188.9963642974512,3962.2266943012683,1884.5913461160208,8177.8422017182202,8257.7274735207411,-3177.982091964494,3177.982091964494,-8257.7274735207411,14605.163338635253,0.0
290012.02908761695,3877225.878295721,-37500.0,-2276.7063726420402,6697.7375095196185,6295.6228198810486,1680.9088563712039,4293.9305439331229,1842.4396079630428,9007.7685010685054,9217.6130354229681,-4684.183630132844,4684.183630132844,-9217.6130354229681,15922.011857634041,0.0
295012.02908761695,3877225.878295721,-37500.0,-4244.3996544061665,6768.3053271662193,7414.051085494837,851.29667420942224,4505.3978326514543,1624.435284151155,9935.2263487472192,10152.767603537499,-6527.3776959658262,6527.3776959658262,-10152.767603537499,17390.830691434196,0.0
300012.02908761695,3877225.878295721,-37500.0,-6680.5985079394859,6547.7175141635353,8632.6656640356505,-411.4044741942231,4483.1099409712033,1120.3064311524424,11001.59923668316,10971.741414170849,-8717.1756228714639,8717.1756228714639,-10971.741414170849,19113.169764463011,0.0
305012.02908761695,3877225.878295721,-37500.0,-9583.9322875837988,5916.196770733025,9877.9618637131844,-2234.4639420984631,4052.8030177865753,166.33186326973225,12292.707805607328,11539.683166696728,-11215.588808710547,11215.588808710547,-11539.683166696728,21291.609686335603,0.0
310012.02908761695,3877225.878295721,-37500.0,-12870.168986066967,4752.1993483761589,11013.486634036448,-4741.9499032959584,2959.7422512359585,-1473.3476162796098,13977.523976817813,11676.811195990778,-13903.794973190363,13903.794973190363,-11676.811195990778,24281.834187972352,0.0
315012.02908761695,3877225.878295721,-37500.0,-16320.096431133081,2974.9259668230775,11821.025966540761,-8011.2762675188142,855.2229108488425,-4123.3738915088707,16354.261141935436,11176.52404183985,-16543.287537894117,16543.287537894117,-11176.52404183985,28613.62897608224,0.0
320012.02908761695,3877225.878295721,-37500.0,-19526.370697509064,623.879385469422,11999.499932617555,-11990.427343757416,-2692.4144483611603,-8198.117097211325,19841.489198217037,9862.7845797625014,-18746.470694373256,18746.470694373256,-9862.7845797625014,34918.516548641288,0.0
325012.02908761695,3877225.878295721,-37500.0,-21871.523806480662,-2020.5097204453316,11209.988052863489,-16363.350901835698,-8128.1119138707245,-14156.675367492384,24814.860506754707,7708.7736849710154,-19989.540555485939,19989.540555485939,-7708.7736849710154,43731.112607196963,0.0
330012.02908761695,3877225.878295721,-37500.0,-22597.975865366814,-4298.2119658055281,9203.5244479008979,-20369.899365993995,-15730.373416042105,-22355.651832628017,31364.144057030258,5024.3372484796864,-19720.306480709853,19720.306480709853,-5024.3372484796864,55192.790268150777,0.0
335012.02908761695,3877225.878295721,-37500.0,-21057.410337184523,-5088.4126916122004,6056.7709115542057,-22641.30844658372,-25264.520642793112,-32715.000493428117,39111.295993869411,2674.0171248254183,-17622.464869525538,17622.464869525538,-2674.0171248254183,68684.893761810308,0.0
340012.02908761695,3877225.878295721,-37500.0,-17225.645754898782,-2940.5799223151989,2494.0617685166012,-21232.397694399617,-35449.795228086092,-44120.076254498701,47014.435628710889,2199.0501401243127,-14072.918771027002,14072.918771027002,-2199.0501401243127,82407.38238595803,0.0
345012.02908761695,3877225.878295721,-37500.0,-12462.350943909887,3322.159807099833,169.60375197253848,-14238.122988021689,-43383.204572245675,-53644.32146706331,53199.926676933566,5565.3553378314064,-10707.185323078769,10707.185323078769,-5565.3553378314064,93076.956087068742,0.0
350012.02908761695,3877225.878295721,-37500.0,-10033.142231351647,13213.477316280054,1525.6695764593846,-1557.2582936699202,-44541.873287858936,-56251.193481411668,55201.944245078252,14026.815316026996,-10587.001116963727,10587.001116963727,-14026.815316026996,96368.76405144445,0.0
355012.02908761695,3877225.878295721,-37500.0,-13650.548192670036,22752.672116409416,8358.9576659234626,12384.683391153745,-34903.854303711116,-46867.383433112424,51335.611777168015,25719.426681847573,-16474.450418834153,16474.450418834153,-25719.426681847573,89369.419660925123,0.0
360012.02908761695,3877225.878295721,-37500.0,-22324.726279076454,25378.435413448929,18882.947641255705,19031.558795075551,-15955.045664275965,-26268.713556511917,43333.418346050596,34249.376270733163,-26284.926688848329,26284.926688848329,-34249.376270733163,75223.906148949376,0.0
365012.02908761695,3877225.878295721,-37500.0,-28375.828386672929,18644.984605517886,27504.457303389536,14081.691600972485,3760.7154817143141,-3723.9503051676375,36660.157456575995,33783.902681087668,-32390.883995174852,32390.883995174852,-33783.902681087668,63505.785897154303,0.0
370012.02908761695,3877225.878295721,-37500.0,-26379.11192252372,7473.2469426912639,30359.271054228717,2700.7535467396915,16628.488037892537,11831.26239257849,34195.77918513964,25687.833090886645,-30265.828672655076,30265.828672655076,-25687.833090886645,59415.757746413852,0.0
375012.02908761695,3877225.878295721,-37500.0,-18408.353122728025,-2303.6715541907497,28232.555950380556,-7965.9632392839367,21734.862731199668,18939.63710755936,33342.81160054561,15420.990326167042,-22415.521480051539,22415.521480051539,-15420.990326167042,58752.070173938126,0.0
380012.02908761695,3877225.878295721,-37500.0,-8930.5630525034758,-8493.1630118213234,23732.541352023043,-14897.940616601845,21827.921486309002,20453.212640266658,31924.102284979017,6703.5073050880237,-13199.572807561184,13199.572807561184,-6703.5073050880237,57289.974314645951,0.0
385012.02908761695,3877225.878295721,-37500.0,-707.18265931176302,-11468.215527580509,18815.762834680634,-18261.701015915565,19589.634810422776,19254.098535433084,29688.490163470578,593.55610979145376,-5200.1259248102851,5200.1259248102851,-593.55610979145376,54186.58130113197,0.0
390012.02908761695,3877225.878295721,-37500.0,5389.2248960118304,-12294.183488100112,14419.127069968463,-19177.516101191333,16626.683311477926,17061.916415643529,26997.476551613468,-3190.3093563086441,790.00953232392794,-790.00953232392794,3190.3093563086441,49984.993810410495,0.0
395012.02908761695,3877225.878295721,-37500.0,9460.6296192878199,-11897.871824852864,10833.019649452737,-18668.879037939383,13704.950328169203,14691.7256960144,24199.839568386982,-5276.2392358118332,4876.1335362401069,-4876.1335362401069,5276.2392358118332,45340.984797758647,0.0
400012.02908761695,3877225.878295721,-37500.0,11927.071112423188,-10901.2397633008,8045.7555107842454,-17431.187662575212,11122.341053904376,12471.74188491116,21510.867791293989,-6239.1095389596312,7451.9028543595405,-7451.9028543595405,6239.1095389596312,40701.900728217806,0.0
405012.02908761695,3877225.878295721,-37500.0,13227.641889411094,-9673.9549435113204,5936.8293459611396,-15881.572300647522,8954.021194418061,10508.648569922809,19035.846560745365,-6504.6643359536984,8926.3027498750871,-8926.3027498750871,6504.6643359536984,36313.605125840601,0.0
410012.02908761695,3877225.878295721,-37500.0,13723.018888438739,-8418.4320049230955,4365.4982581527383,-14253.75128591041,7181.3433833103736,8818.5588386876243,16812.465982850048,-6360.8055560899811,9635.2557597474679,-9635.2557597474679,6360.8055560899811,32288.646339282186,0.0
415012.02908761695,3877225.878295721,-37500.0,13682.541506039233,-7236.4606390802455,3204.9988509986788,-12671.991624026567,5752.6940627786271,7383.888877653254,14842.387593561276,-5993.0281962044764,9829.9858724840087,-9829.9858724840087,5993.0281962044764,28663.132998312103,0.0
420012.02908761695,3877225.878295721,-37500.0,13298.51072067012,-6172.5572234312658,2352.141600324705,-11197.975525443922,4610.0714866593744,6176.2597670001096,13110.175085636367,-5517.0819873378532,9690.1436503611658,-9690.1436503611658,5517.0819873378532,25432.858679876212,0.0
425012.02908761695,3877225.878295721,-37500.0,12705.001198276312,-5240.0443380294064,1727.0090879730114,-9858.2244512362595,3699.6682105722489,5165.36479983355,11593.525187126563,-5003.1519144824078,9341.1452400905655,-9341.1452400905655,5003.1519144824078,22573.944172193307,0.0
430012.02908761695,3877225.878295721,-37500.0,11994.056444125519,-4436.1067187766439,1269.3533345389412,-8659.7173423976237,2975.3171962993865,4322.3523949289556,10268.423028815354,-4492.3192100638298,8869.1988535593973,-8869.1988535593973,4492.3192100638298,20054.035269804557,0.0
435012.02908761695,3877225.878295721,-37500.0,11227.990878830316,-3750.2868093995248,934.44799481112727,-7598.8081060094582,2398.9302523349447,3621.1038817115946,9111.6140392733578,-4007.371813927803,8332.7810214540677,-8332.7810214540677,4007.371813927803,17838.277489549913,0.0
440012.02908761695,3877225.878295721,-37500.0,10448.269578200621,-3169.1462725935044,689.37445123835653,-6666.352472484572,1939.7525148900274,3038.6350454168805,8101.669237150677,-3559.7645151617012,7770.9522080299466,-7770.9522080299466,3559.7645151617012,15892.388784712777,0.0
445012.02908761695,3877225.878295721,-37500.0,9681.804916813051,-2678.7488364737296,510.01862610190943,-5850.6910962484881,1573.2599763821011,2555.1060100852624,7219.362315015278,-3154.0634922227555,7209.2585333355555,-7209.2585333355555,3154.0634922227555,14184.18934929414,0.0
450012.02908761695,3877225.878295721,-37500.0,8945.4273791884498,-2265.9141328871679,378.75683474016023,-5139.4007484380645,1280.0445518317049,2153.6422863217276,6447.7304709450309,-2790.772670737671,6663.9091036991849,-6663.9091036991849,2790.772670737671,12684.327595956072,0.0
255012.02908761695,3882225.878295721,-37500.0,4144.3454444156932,3937.3450623010694,1501.6976302099813,2926.0248073365401,1882.5899722853187,1369.3738022061823,4996.7438176666883,3478.4005963503269,2036.4188742754466,-2036.4188742754466,-3478.4005963503269,9496.1117985099263,0.0
260012.02908761695,3882225.878295721,-37500.0,4165.8814272106001,4407.8004646874033,1795.0462493822265,3196.1127821147388,2178.200485094218,1574.9845898175083,5527.7202622248933,4018.6226468851191,1893.7292011034053,-1893.7292011034053,-4018.6226468851191,10457.352156043487,0.0
265012.02908761695,3882225.878295721,-37500.0,4100.020125585339,4929.2897987341048,2156.7579941617396,3469.1764749313788,2520.2968882761711,1806.8150824590218,6119.4044460655505,4649.2974576300958,1657.1783672088325,-1657.1783672088325,-4649.2974576300958,11516.670429376532,0.0
270012.02908761695,3882225.878295721,-37500.0,3912.5373474593271,5500.9905484922256,2603.524805450907,3732.0168727601294,2913.1224881052872,2063.9140265918932,6776.8405407763576,5383.4445530339563,1295.9808653097123,-1295.9808653097123,-5383.4445530339563,12678.18755409231,0.0
275012.02908761695,3882225.878295721,-37500.0,3559.089954343031,6117.7164495836159,3155.5772387542916,3963.9776394804499,3358.8042569033541,2341.9120413759047,7504.422974700944,6233.8431817320488,771.2045254161153,-771.2045254161153,-6233.8431817320488,13943.335891329518,0.0
280012.02908761695,3882225.878295721,-37500.0,2983.2237004788922,6767.319670918574,3836.7913640408815,4133.7304001756311,3855.1398619689085,2630.5822012579006,8305.4275104642165,7211.2709571384994,34.558136393525274,-34.558136393525274,-7211.2709571384994,15309.907735811295,0.0
285012.02908761695,3882225.878295721,-37500.0,2114.8152598059401,7426.9943127392071,4674.1196196606297,4194.9375410456814,4391.8953478940566,2909.934447724761,9181.5818669108849,8321.4458108277177,-972.16013213625956,972.16013213625956,-8321.4458108277177,16771.606126125433,0.0
290012.02908761695,3882225.878295721,-37500.0,869.97230719220715,8058.3000345333958,5695.6521431482315,4080.6796547272038,4944.7634691141193,3144.0266968921583,10133.080602198905,9560.027943874491,-2315.9600979511606,2315.9600979511606,-9560.027943874491,18319.419908989385,0.0
295012.02908761695,3882225.878295721,-37500.0,-845.68351529447511,8601.0561477603023,6926.1532020582399,3696.8744707373339,5465.7653784328422,3271.2464812217208,11160.074751260518,10904.949935680401,-4068.1429057760306,4068.1429057760306,-10904.949935680401,19947.76597746928,0.0
300012.02908761695,3882225.878295721,-37500.0,-3126.9308635367961,8967.2101070059307,8378.3436110027305,2915.9007741608543,5868.5491085724634,3189.335310588986,12268.172162215105,12305.62537033757,-6293.4497632673192,6293.4497632673192,-12305.62537033757,21671.543376795595,0.0
305012.02908761695,3882225.878295721,-37500.0,-6046.7273760210692,9037.9577710437425,10037.843532492727,1573.8273600285283,6007.1789037783865,2733.1092709729005,13483.819243850543,13669.923241317072,-9028.710137987262,9028.710137987262,-13669.923241317072,23565.281296479294,0.0
310012.02908761695,3882225.878295721,-37500.0,-9615.0225819625521,8671.5410669157955,11840.530829286787,-521.03541246477675,5648.6692888346925,1643.5001243004378,14891.875401845949,14853.419269811982,-12246.506770004862,12246.506770004862,-14853.419269811982,25839.136436557688,0.0
315012.02908761695,3882225.878295721,-37500.0,-13713.514622318115,7735.4477375032184,13645.335737703321,-3553.3340153374229,4445.0054728859132,-469.73150035346652,16713.771629411909,15663.002928953201,-15802.769154543666,15802.769154543666,-15663.002928953201,28952.27154652675,0.0
320012.02908761695,3882225.878295721,-37500.0,-18012.106274067948,6182.2788978784829,15216.521110575739,-7615.7898455463855,1923.236319578622,-4158.4438821443482,19411.716432708334,15898.505615774633,-19379.256695025648,19379.256695025648,-15898.505615774633,33696.979832826124,0.0
325012.02908761695,3882225.878295721,-37500.0,-21899.949552983515,4183.2659480195243,16248.277018822597,-12546.442300827051,-2464.8992198427341,-10122.363640618914,23645.102380991346,15464.713312439404,-22456.775975047931,22456.775975047931,-15464.713312439404,41081.269142209552,0.0
330012.02908761695,3882225.878295721,-37500.0,-24506.958107264396,2298.941323926636,16479.662400887621,-17677.587927708289,-9164.799603490661,-19070.766077025979,29897.888887864843,14570.801371647944,-24386.290485164795,24386.290485164795,-14570.801371647944,51884.212420452568,0.0
335012.02908761695,3882225.878295721,-37500.0,-24928.011835873589,1592.0390390315292,15926.396333637795,-21549.71884693249,-18133.085250096137,-31321.303490276699,38085.202411148537,13966.089253053444,-24634.620086555722,24634.620086555722,-13966.089253053444,66017.817640146852,0.0
340012.02908761695,3882225.878295721,-37500.0,-22754.863378712209,3499.8336174942788,15166.151246064874,-21782.953585324321,-28208.430719457447,-45958.592478304738,47260.780231646138,15042.048786190244,-23236.980706789502,23236.980706789502,-15042.048786190244,81876.18544210367,0.0
345012.02908761695,3882225.878295721,-37500.0,-18954.070330639322,9219.7022486271107,15486.7343854544,-15562.773027486679,-36354.332301633185,-59470.134433831947,55285.762299311573,19509.182527974692,-21396.680759155708,21396.680759155708,-19509.182527974692,95758.274861323691,0.0
350012.02908761695,3882225.878295721,-37500.0,-16862.150455718194,18282.669439073918,18570.38531137005,-1705.0404329368421,-37368.071270550994,-64412.510951059056,58874.624857010305,28202.635567404046,-21939.243831975793,21939.243831975793,-28202.635567404046,101989.89640471296,0.0
355012.02908761695,3882225.878295721,-37500.0,-21340.206548302482,26357.547646218965,25120.576436681189,14634.926402848138,-26109.921357942952,-51367.177369872326,55419.417807638063,38534.054900686184,-28053.018867863895,28053.018867863895,-38534.054900686184,96058.253437728636,0.0
360012.02908761695,3882225.878295721,-37500.0,-31326.861960820977,26012.962578462328,32476.252821707803,20339.30174115776,-4634.0022545354277,-20482.029948760541,47711.039733074642,43023.441841950298,-37301.999317587404,37301.999317587404,-43023.441841950298,82656.034012186763,0.0
365012.02908761695,3882225.878295721,-37500.0,-35513.624580970019,15753.000016397622,35574.910087951786,9531.1770588396703,15264.993068414722,10735.737917659266,43285.25150942921,36531.218284479852,-39810.41245545783,39810.41245545783,-36531.218284479852,74972.294619891123,0.0
370012.02908761695,3882225.878295721,-37500.0,-28302.714439339234,3044.1792080989835,32889.357128637712,-7142.5214857474593,25209.478476697677,27814.101153048752,42842.746426444806,23669.092795926474,-31963.78081149354,31963.78081149354,-23669.092795926474,74478.612735412433,0.0
375012.02908761695,3882225.878295721,-37500.0,-15518.306924472075,-6058.9118732120623,27029.96633643339,-19406.527916736875,26635.097590775953,32058.178110264122,41764.172694615088,11439.782683984125,-19542.510852574916,19542.510852574916,-11439.782683984125,73605.95551526804,0.0
380012.02908761695,3882225.878295721,-37500.0,-3418.0934457783592,-10706.887023380217,20707.381365650519,-25340.993698921735,23887.249454367102,29915.677974626247,38939.178787998077,2723.7919935764394,-8051.1207140711203,8051.1207140711203,-2723.7919935764394,69793.96838436625,0.0
385012.02908761695,3882225.878295721,-37500.0,5571.7704622242454,-12220.102697821285,15230.832285148916,-26773.545722915438,19885.985027301878,25725.296438697249,35123.958818060259,-2572.6787419574762,495.5719777874142,-495.5719777874142,2572.6787419574762,63950.106444884324,0.0
390012.02908761695,3882225.878295721,-37500.0,11380.735452181765,-11980.233211922141,10935.264312376019,-25739.095651344218,15971.908992823761,21413.983045583809,31070.26386186156,-5398.58235652249,6113.9274464774526,-6113.9274464774526,5398.58235652249,57347.369189498953,0.0
395012.02908761695,3882225.878295721,-37500.0,14711.732158647868,-10916.827521115802,7733.0738776782973,-23592.423380732038,12610.136142357471,17621.801484269799,27208.662528335721,-6652.6504960658294,9462.9045971746891,-9462.9045971746891,6652.6504960658294,50812.04431206049,0.0
400012.02908761695,3882225.878295721,-37500.0,16323.171664550595,-9559.3770250312773,5411.6643757790671,-21082.438120399729,9880.8960059079345,14462.42150777293,23724.998651497797,-6978.9072322459342,11232.212427707776,-11232.212427707776,6978.9072322459342,44751.187356547787,0.0
405012.02908761695,3882225.878295721,-37500.0,16813.931698602897,-8179.7428073994761,3755.664472861527,-18579.560623557998,7722.8778554405362,11877.051271595023,20667.681566005715,-6791.2797823120109,11963.679641941251,-11963.679641941251,6791.2797823120109,39315.103339571921,0.0
410012.02908761695,3882225.878295721,-37500.0,16605.593326662249,-6903.2713587505805,2585.9099699869025,-16248.686556125353,6037.3802859344723,9770.2634051406749,18020.220645121961,-6341.597180184328,12039.408477462626,-12039.408477462626,6341.597180184328,34522.730024225806,0.0
415012.02908761695,3882225.878295721,-37500.0,15980.045947263816,-5777.627547051653,1765.048054444946,-14151.195358240469,4727.7381161640687,8052.7956229561205,15740.981482810763,-5777.81041330263,11715.989809068693,-11715.989809068693,5777.81041330263,30334.601854069268,0.0
420012.02908761695,3882225.878295721,-37500.0,15121.27140245089,-4811.5765346714852,1191.9459807859582,-12298.867800615291,3711.5673163646202,6650.6984572030697,13782.330929276155,-5184.1356854973728,11161.729714102206,-11161.729714102206,5184.1356854973728,26689.975557704351,0.0
425012.02908761695,3882225.878295721,-37500.0,14147.769258200608,-3995.7915238150758,793.73064211506357,-10680.863939623996,2922.5708807831415,5504.4894418975282,12098.769417747842,-4606.5442243745729,10485.58633343763,-10485.58633343763,4606.5442243745729,23524.026350978584,0.0
430012.02908761695,3882225.878295721,-37500.0,13134.970274619194,-3313.6452952393424,518.51011179957209,-9276.8889795593204,2308.8044623958508,4566.3618058740103,10649.779013920952,-4068.3854176254767,9757.308800910454,-9757.308800910454,4068.3854176254767,20775.107405639916,0.0
435012.02908761695,3882225.878295721,-37500.0,12130.062293206736,-2746.6315371681003,329.57462012201927,-8063.5757779124688,1830.1001575251532,3797.6704334247493,9400.3814741866408,-3579.8313153701688,9020.8614665001442,-9020.8614665001442,3579.8313153701688,18387.427583540535,0.0
440012.02908761695,3882225.878295721,-37500.0,11161.680405098803,-2276.9393899380161,201.04491427699642,-7017.5550947453512,1455.5886535784236,3167.0220619496713,8320.7959224667538,-3143.5453634630671,8303.2527057267307,-8303.2527057267307,3143.5453634630671,16311.694236909398,0.0
445012.02908761695,3882225.878295721,-37500.0,10246.242505675771,-1888.5491985662816,114.70728448504792,-6116.886669600548,1161.6051010195404,2648.8504764651866,7385.8051809417921,-2758.0697148222739,7620.3314093206263,-7620.3314093206263,2758.0697148222739,14504.891164540697,0.0
450012.02908761695,3882225.878295721,-37500.0,9392.1598794133024,-1567.5831463659299,57.753438449791709,-5341.6854766786,930.0170047423087,2222.332668195148,6574.1098321924346,-2419.8445773714566,6980.6377308716028,-6980.6377308716028,2419.8445773714566,12929.773446884279,0.0
455012.02908761695,3882225.878295721,-37500.0,8602.6297894624531,-1302.2829204752245,21.179648280212842,-4674.3063423262365,746.91745669418196,1870.5213110587279,5867.7194190716764,-2124.3890958381044,6387.9548255347063,-6387.9548255347063,2124.3890958381044,11554.229384087112,0.0
255012.02908761695,3887225.878295721,-37500.0,5469.3170755931078,3811.7638294604894,1083.2823209969276,3582.0604498465354,1781.7998835798451,1619.3330018077818,5421.2835328726051,2957.8602392976536,3181.2539178891484,-3181.2539178891484,-2957.8602392976536,10429.76741993088,0.0
260012.02908761695,3887225.878295721,-37500.0,5705.7249172237252,4307.7931507231206,1307.44319474647,3992.7523229184399,2077.3777748763414,1891.1314268647125,6028.6135722152449,3450.7090450949413,3218.7411864084529,-3218.7411864084529,-3450.7090450949413,11556.915802369311,0.0
265012.02908761695,3887225.878295721,-37500.0,5891.1113052684977,4871.7573805428392,1589.7205260794206,4440.0530078601896,2425.7344088029681,2208.7487827118221,6712.1796886628244,4037.0641841209608,3190.7992263555689,-3190.7992263555689,-4037.0641841209608,12814.80825105331,0.0
270012.02908761695,3887225.878295721,-37500.0,5995.8891489578855,5509.9351774771312,1946.7536042445984,4919.1137002801397,2835.0008133131291,2577.5067322373061,7480.1180460775495,4735.0381746646062,3069.2411050796186,-3069.2411050796186,-4735.0381746646062,14213.452355453557,0.0
275012.02908761695,3887225.878295721,-37500.0,5979.5606123936032,6226.8534294051351,2399.9832297000248,5419.4577720802063,3313.1648799239251,3001.3880533856841,8340.2009357846382,5565.4153455140768,2816.408272267774,-2816.408272267774,-5565.4153455140768,15760.271253521776,0.0
280012.02908761695,3887225.878295721,-37500.0,5787.454596110405,7023.4506754496633,2976.7804951399621,5921.8513572492484,3866.7817366748754,3481.2479210953866,9299.0020542768161,6551.2319685778893,2382.5862538494566,-2382.5862538494566,-6551.2319685778893,17458.065025011634,0.0
285012.02908761695,3887225.878295721,-37500.0,5346.9990117492216,7894.1574380032798,3711.5164603005278,6393.6963977366022,4498.5634796335262,4011.6814057408037,10360.599313248866,7716.5247287928005,1703.2106765446197,-1703.2106765446197,-7716.5247287928005,19302.239083273591,0.0
290012.02908761695,3887225.878295721,-37500.0,4564.1056194983403,8822.4397620302989,4646.1374614658225,6782.4290010314353,5203.0525779043128,4575.6293789046167,11524.710687232473,9083.5800252385889,696.47640457452962,-696.47640457452962,-9083.5800252385889,21277.489152065922,0.0
295012.02908761695,3887225.878295721,-37500.0,3321.1113242203182,9774.3755452780442,5829.3348796455102,7006.4421277244792,5959.0842068754828,5135.1705749604862,12784.313483909982,10667.674150380786,-737.25435724735598,737.25435724735598,-10667.674150380786,23354.869508247866,0.0
300012.02908761695,3887225.878295721,-37500.0,1479.4829991588126,10690.285492515397,7312.5744602411432,6943.6186569916636,6717.0513698813056,5616.007798102286,14123.453056234228,12467.999683160731,-2711.347943435946,2711.347943435946,-12467.999683160731,25492.185766129394,0.0
305012.02908761695,3887225.878295721,-37500.0,-1106.5123755228699,11476.04491016451,9140.1165152066296,6419.4402920830071,7378.3349549606983,5881.9733710514129,15517.983183098262,14453.790597510488,-5338.8375780440119,5338.8375780440119,-14453.790597510488,27645.431053884538,0.0
310012.02908761695,3887225.878295721,-37500.0,-4554.9087599835966,11999.835680581686,11329.331305830192,5201.4231522652672,7764.5931415061887,5695.1639596999903,16947.789636055273,16547.048074725848,-8700.3970370518164,8700.3970370518164,-16547.048074725848,29809.021368114834,0.0
315012.02908761695,3887225.878295721,-37500.0,-8887.0645742769811,12108.508934251302,13839.443351728571,3016.6574363106647,7578.7486414471896,4659.6725449281257,18444.164916222097,18610.699042560951,-12786.028045571431,12786.028045571431,-18610.699042560951,32118.517175982783,0.0
320012.02908761695,3887225.878295721,-37500.0,-13919.263419893763,11689.788635455947,16537.005893670568,-374.62352236759335,6373.5804459468691,2158.6940687334109,20222.708628435365,20467.015292411757,-17412.249027073492,17412.249027073492,-20467.015292411757,35052.140315522891,0.0
325012.02908761695,3887225.878295721,-37500.0,-19143.556871267425,10810.44108936368,19192.187733833485,-5002.1685627697625,3575.922231926183,-2672.3162032966238,22899.366464809369,21991.826642140732,-22149.82993053121,22149.82993053121,-21991.826642140732,39667.586869514795,0.0
330012.02908761695,3887225.878295721,-37500.0,-23697.205608183525,9920.9751728205083,21574.369759645346,-10375.351528124165,-1338.6514914745003,-10829.189595383625,27373.406838310955,23324.056825452557,-26354.053014451754,26354.053014451754,-23324.056825452557,47498.873483644595,0.0
335012.02908761695,3887225.878295721,-37500.0,-26580.888407560946,9992.3631409664104,23698.723490311768,-15106.060346861443,-8410.5911224177307,-22989.052438282186,34117.073079312613,25125.648962867344,-29411.525050208576,29411.525050208576,-25125.648962867344,59637.90581343478,0.0
340012.02908761695,3887225.878295721,-37500.0,-27208.39907645086,12296.404244989884,26098.154122769909,-16712.371054413517,-16501.508613142032,-38492.968587443967,42698.187027947104,28598.28174086726,-31184.491601092512,31184.491601092512,-28598.28174086726,75358.381739368997,0.0
345012.02908761695,3887225.878295721,-37500.0,-26169.950227499132,17586.924150880928,29701.982933393232,-12039.722477085614,-22603.643247242821,-53580.292208761661,51242.33315082304,34827.828782123324,-32404.823860669752,32404.823860669752,-34827.828782123324,91104.374632327046,0.0
350012.02908761695,3887225.878295721,-37500.0,-26172.492495114879,24697.196297632778,34907.667577050968,729.59728038145954,-21838.106808247594,-59095.952953116466,56284.366915274775,43279.358362937412,-34890.600827795315,34890.600827795315,-43279.358362937412,100438.39214287887,0.0
355012.02908761695,3887225.878295721,-37500.0,-31873.918752644644,29021.33951011598,40081.748004530215,16090.9103856652,-10122.861494507837,-41750.674090040862,55541.808963849922,49884.558884279257,-40885.98672086915,40885.98672086915,-49884.558884279257,97962.954205546266,0.0
360012.02908761695,3887225.878295721,-37500.0,-41396.436584041643,24582.125172966586,41500.420998297908,17483.030726040226,8784.446645986478,-1722.8023503688783,52020.082525699625,47832.867650723099,-47339.649498450031,47339.649498450031,-47832.867650723099,90102.041465668619,0.0
365012.02908761695,3887225.878295721,-37500.0,-40960.173398656596,12654.949056091582,37257.943748724312,-421.50181296516212,23223.098770803383,33994.719201213207,51452.942239068259,35667.410113934522,-44024.319510444991,44024.319510444991,-35667.410113934522,89288.254279724511,0.0
370012.02908761695,3887225.878295721,-37500.0,-27380.984242968287,1088.0393692593461,29659.795451660179,-20790.735463313104,27793.249127548293,47754.357822464932,52295.725726701443,20482.695157857546,-30225.510826029495,30225.510826029495,-20482.695157857546,90724.31484969912,0.0
375012.02908761695,3887225.878295721,-37500.0,-10456.255736180039,-5990.3971476275783,21831.449514244046,-32424.291930830484,25819.982220624166,46166.885152429044,49902.12379754788,8401.7897244077358,-14459.522150149594,14459.522150149594,-8401.7897244077358,87647.691654093229,0.0
380012.02908761695,3887225.878295721,-37500.0,3099.7625655503962,-9026.9209080408473,15319.604797053906,-35873.233534131337,21467.047309071731,39107.538444063677,45148.775017286054,715.17056268256067,-2045.4263233945549,2045.4263233945549,-715.17056268256067,80582.256383586893,0.0
385012.02908761695,3887225.878295721,-37500.0,11934.016101400215,-9607.4418782045595,10422.945723567835,-34657.634033403607,16941.598710474278,31540.549486862317,39624.999889354949,-3522.6294377348549,6111.3972577624409,-6111.3972577624409,3522.6294377348549,71817.42996099373,0.0
390012.02908761695,3887225.878295721,-37500.0,16902.859582791574,-8975.685588412116,6928.833289039716,-31427.14864127291,13047.481933645828,25079.937132962277,34260.705768097483,-5534.9737400728864,10843.918758798349,-10843.918758798349,5534.9737400728864,62954.74842453048,0.0
395012.02908761695,3887225.878295721,-37500.0,19226.537483209286,-7865.9969095319811,4508.207110251903,-27630.479236369905,9942.5807079694714,19953.690779306769,29451.504953285403,-6245.8138283533572,13233.655220533632,-13233.655220533632,6245.8138283533572,54775.697963307161,0.0
400012.02908761695,3887225.878295721,-37500.0,19895.644457859038,-6655.6949608074046,2862.163733989471,-23934.262667071678,7549.8698889367515,15966.891690972001,25300.195996207767,-6247.0137617382507,14145.632450532128,-14145.632450532128,6247.0137617382507,47550.998410683846,0.0
405012.02908761695,3887225.878295721,-37500.0,19589.122799454439,-5517.2713723123434,1758.1227868725609,-20594.41999850647,5733.3485561374819,12862.471258337671,21776.874546745501,-5890.0513896608854,14172.671892311952,-14172.671892311952,5890.0513896608854,41298.602774190462,0.0
410012.02908761695,3887225.878295721,-37500.0,18738.823522102688,-4516.7217960001262,1026.8128397508713,-17676.432558202403,4361.9514476012582,10424.678247482681,18804.273874798342,-5374.6990835967081,13694.079111078096,-13694.079111078096,5374.6990835967081,35933.704188903903,0.0
415012.02908761695,3887225.878295721,-37500.0,17609.756855304753,-3668.5061824757627,549.06615969243728,-15166.753480778247,3327.5105005207774,8492.4331113494354,16297.164653540651,-4810.6317987920829,12944.683505541985,-12944.683505541985,4810.6317987920829,31342.095392011925,0.0
420012.02908761695,3887225.878295721,-37500.0,16361.581871928252,-2964.1268519820906,242.4649818277959,-13023.878818019553,2546.0366822577807,6948.7235543461056,14177.728676645649,-4255.5998427444556,12067.434639182085,-12067.434639182085,4255.5998427444556,27411.132378616578,0.0
425012.02908761695,3887225.878295721,-37500.0,15089.158991603159,-2386.3397408557762,50.583987319104338,-11199.976787586686,1954.0360957681271,5707.8454438440367,12379.860707357097,-3737.9625632796283,11148.270085592154,-11148.270085592154,3737.9625632796283,24040.45045353067,0.0
430012.02908761695,3887225.878295721,-37500.0,13847.723285848573,-1915.8973407776284,-64.969446466979676,-9649.2719240659462,1504.0499381321476,4705.7051211644493,10849.013100352138,-3269.6975302235464,10237.964997914105,-10237.964997914105,3269.6975302235464,21144.106933441919,0.0
435012.02908761695,3887225.878295721,-37500.0,12668.195398820806,-1534.5557268716095,-130.20546680947433,-8330.8385988783684,1160.7527028869831,3893.3323075369963,9540.6179090240821,-2853.8597059175349,9365.5644574531489,-9365.5644574531489,2853.8597059175349,18649.619600274786,0.0
440012.02908761695,3887225.878295721,-37500.0,11566.473983257356,-1226.2260156606303,-162.68370473277082,-7209.1408185668788,897.85588661389158,3232.6573500571312,8418.2748366849428,-2488.8253279428332,8546.6186726759006,-8546.6186726759006,2488.8253279428332,16496.10410495623,0.0
445012.02908761695,3887225.878295721,-37500.0,10549.188167577773,-977.26359895525138,-174.21281778459027,-6253.770705704489,695.76905307484481,2693.7323218146894,7452.1745800868694,-2170.7111363694012,7788.3133910478964,-7788.3133910478964,2170.7111363694012,14632.452718202763,0.0
450012.02908761695,3887225.878295721,-37500.0,9617.2716318548428,-776.34948299824305,-172.6990804211155,-5438.8992245004192,539.85242754073852,2252.8134577444175,6617.7894095410975,-1894.7218533331697,7092.6743167687318,-7092.6743167687318,1894.7218533331697,13015.694092969228,0.0
455012.02908761695,3887225.878295721,-37500.0,8768.2317386392006,-614.22047873302643,-163.40254728397176,-4742.6803387435457,419.12956828441656,1890.9840037346924,5894.838028027988,-1655.8887920412276,6458.6028952819979,-6458.6028952819979,1655.8887920412276,11609.626407593672,0.0
250012.02908761695,3892225.878295721,-37500.0,6296.3592445755203,3072.820848421467,546.50726586205951,3724.5554404393642,1361.8046016127169,1575.6130603841123,5231.4075736427358,1939.2851508097647,4076.7445819171126,-4076.7445819171126,-1939.2851508097647,10183.801325124969,0.0
255012.02908761695,3892225.878295721,-37500.0,6746.762656395862,3486.0087508172996,659.74447893922229,4208.9877008621943,1589.6195645161624,1856.9676446948433,5835.2943616566354,2273.6196287386351,4321.5645697048367,-4321.5645697048367,-2273.6196287386351,11330.568782674269,0.0
260012.02908761695,3892225.878295721,-37500.0,7202.7055878402862,3963.5306676597211,805.24218316676775,4759.298179585634,1860.87862679458,2193.4773067713068,6521.9570525251656,2676.5111509141043,4552.1752359210332,-4552.1752359210332,-2676.5111509141043,12627.099536720432,0.0
265012.02908761695,3892225.878295721,-37500.0,7649.6380942937676,4515.4550315616407,993.51114505803207,5381.908306254667,2184.1040791292166,2595.8408235112797,7303.1015432058275,3163.7212956563135,4753.1628035144704,-4753.1628035144704,-3163.7212956563135,14091.838842778923,0.0
270012.02908761695,3892225.878295721,-37500.0,8065.679560426307,5152.8434271239876,1238.748348196202,6081.9767299385976,2569.1651651955963,3076.2765615009912,8191.5913151832892,3754.8022672453126,4902.3497863401453,-4902.3497863401453,-3754.8022672453126,15743.803826284193,0.0
275012.02908761695,3892225.878295721,-37500.0,8418.6703665015484,5887.3622972731628,1560.158880098553,6861.9157875314486,3027.1779322825191,3648.2620893100825,9201.159242442418,4473.9038305650174,4968.214413932641,-4968.214413932641,-4473.9038305650174,17601.427867106253,0.0
280012.02908761695,3892225.878295721,-37500.0,8662.187043376025,6730.440817979209,1983.7002224751452,7718.9688873328187,3570.0825772190674,4325.7975004384198,10345.773187929773,5350.587843729686,4906.4506084211307,-4906.4506084211307,-5350.587843729686,19680.608521093352,0.0
285012.02908761695,3892225.878295721,-37500.0,8730.2739874383224,7691.6396059815315,2544.3040047534646,8641.2868060513301,4209.5917633775543,5121.7562890902418,11638.385057578324,6420.4477366901783,4655.5016931511409,-4655.5016931511409,-6420.4477366901783,21991.518896227037,0.0
290012.02908761695,3892225.878295721,-37500.0,8530.8479107495496,8775.6901396909379,3288.4949752818043,9601.6995215896968,4954.9371463447333,6044.5365739081053,13088.659472270258,7725.0680692538663,4131.1161496225977,-4131.1161496225977,-7725.0680692538663,24533.654570681279,0.0
295012.02908761695,3892225.878295721,-37500.0,7938.2728201810141,9977.4047025321779,4276.992362184953,10548.037325982208,5808.3502878956779,7091.5259196466732,14699.037711996039,9310.4051009033719,3220.5058126271842,-3220.5058126271842,-9310.4051009033719,27288.489593816692,0.0
300012.02908761695,3892225.878295721,-37500.0,6787.112450929495,11273.477913108392,5586.1075155749222,11388.734193270828,6756.3373438464159,8236.6629754217993,16458.295099326901,11221.922746555805,1778.0608365206044,-1778.0608365206044,-11221.922746555805,30209.477356787909,0.0
305012.02908761695,3892225.878295721,-37500.0,4872.3810502686756,12610.651343823252,7305.1926672131985,11973.2621672312,7753.4320795519798,9407.3526416297736,18331.928188204594,13493.928013216626,-372.54531199732446,372.54531199732446,-13493.928013216626,33210.864756685507,0.0
310012.02908761695,3892225.878295721,-37500.0,1967.8459921676113,13892.365268541465,9524.9339519608693,12070.700686033706,8693.5895110016481,10443.384836859168,20250.592011560195,16130.581254889556,-3419.9738762291736,3419.9738762291736,-16130.581254889556,36162.526512406708,0.0
315012.02908761695,3892225.878295721,-37500.0,-2117.4063263980502,14974.198915691482,12309.016575932656,11360.695147235674,9365.0072800524576,11029.632167891026,22105.66903590631,19080.328836243261,-7514.5399870473639,7514.5399870473639,-19080.328836243261,38913.850078693598,0.0
320012.02908761695,3892225.878295721,-37500.0,-7421.1662507437632,15696.484338158116,15645.63616356187,9474.8150950197596,9394.8829602331807,10603.621108350166,23788.33474907752,22221.7748410192,-12670.504009193457,12670.504009193457,-22221.7748410192,41405.830831986517,0.0
325012.02908761695,3892225.878295721,-37500.0,-13656.86021022883,16005.224679146448,19400.706441710307,6159.409273206903,8229.0175543250334,8279.1719837964865,25386.365930152911,25414.445888204267,-18639.675793664697,18639.675793664697,-25414.445888204267,43980.759243495158,0.0
330012.02908761695,3892225.878295721,-37500.0,-20104.015863620487,16192.452522537038,23355.606136488514,1627.3727676571443,5272.284727539608,2923.9464154062757,27664.687895723837,28696.631303949358,-24869.459407551516,24869.459407551516,-28696.631303949358,47918.282484253221,0.0
335012.02908761695,3892225.878295721,-37500.0,-25816.03320934833,17110.718221213305,27449.033835737042,-2992.3784207224539,378.25158137305243,-6350.1579744551482,31836.911129828055,32604.547655460541,-30749.707488667686,30749.707488667686,-32604.547655460541,55541.50483424218,0.0
340012.02908761695,3892225.878295721,-37500.0,-30238.9541887499,19882.684175903236,32115.272618440114,-5536.6519493149181,-5325.3206221920209,-19074.212597959209,37787.571481973748,38173.750571266522,-36118.940887424331,36118.940887424331,-38173.750571266522,68407.136176300584,0.0
345012.02908761695,3892225.878295721,-37500.0,-33640.556985979056,24698.479615439748,37997.033406316754,-3448.1812312344373,-8930.293709209287,-31781.06658880028,44112.596380463256,45834.390392323032,-41307.709277188704,41307.709277188704,-45834.390392323032,84303.959781800702,0.0
350012.02908761695,3892225.878295721,-37500.0,-37139.36576941386,29387.977193497441,44306.09898212953,4743.5600558617307,-6696.5274429683177,-35775.512415899684,51923.647427787786,53385.525432560498,-46447.337245457638,46447.337245457638,-53385.525432560498,96525.324606060982,0.0
355012.02908761695,3892225.878295721,-37500.0,-43193.754028309639,29553.880401998187,47402.649937242102,14276.043088649778,2567.0250120732426,-17496.25994819024,56560.192210436064,55597.964604748777,-51558.158067456068,51558.158067456068,-55597.964604748777,98951.754256273605,0.0
360012.02908761695,3892225.878295721,-37500.0,-49156.28037955537,22723.072124154289,43608.635535944719,9737.3421828602059,13637.115675578671,22239.760347226438,55508.7075568,48540.661170085943,-53569.696121395238,53569.696121395238,-48540.661170085943,97319.324042220804,0.0
365012.02908761695,3892225.878295721,-37500.0,-43010.724943366149,12674.778142325755,34396.801211666316,-11807.002762320668,19831.007438479715,54243.934818612113,56937.910210642571,34774.630111487706,-44920.36094830541,44920.36094830541,-34774.630111487706,100010.61866257529,0.0
370012.02908761695,3892225.878295721,-37500.0,-24940.088683223312,4380.676067005611,24365.208093840938,-32235.724808192128,20344.403365689875,62286.445837670522,58181.25444008976,20527.829701611758,-27583.819884955636,27583.819884955636,-20527.829701611758,100774.16096634012,0.0
375012.02908761695,3892225.878295721,-37500.0,-5971.6462546461753,-602.72243236147631,16196.822364220137,-41862.848088986517,17711.501904036821,55575.610896016478,54632.267405095925,9725.3616775704577,-10486.563307798751,10486.563307798751,-9725.3616775704577,95471.321858450785,0.0
380012.02908761695,3892225.878295721,-37500.0,7872.9673099699585,-2912.2620975566829,10337.442930195935,-42878.734521838771,14157.203420670457,44871.893514937547,48562.923357642336,2888.9277418727634,1884.6668629782846,-1884.6668629782846,-2888.9277418727634,86175.935672535299,0.0
385012.02908761695,3892225.878295721,-37500.0,16150.479822798254,-3607.4700128669556,6373.3184887227926,-39564.371396115981,10813.781527997622,34980.46860633645,41963.558441469249,-946.49478537266168,9412.1178371694768,-9412.1178371694768,946.49478537266168,75631.599110375711,0.0
390012.02908761695,3892225.878295721,-37500.0,20299.155091202847,-3488.897110729325,3771.5348825291107,-34754.502540928923,8062.9399062396287,27113.523432993617,35814.331484422291,-2866.1912306532904,13382.81243861543,-13382.81243861543,2866.1912306532904,65478.238271351227,0.0
395012.02908761695,3892225.878295721,-37500.0,21821.555590863834,-3030.4900044911105,2097.3454654954021,-29845.821678546781,5935.4182015372535,21154.777678621813,30462.049547639072,-3667.0273927972285,15079.844776571304,-15079.844776571304,3667.0273927972285,56408.295328720458,0.0
400012.02908761695,3892225.878295721,-37500.0,21813.221420018446,-2478.2265706843455,1039.2414457466559,-25392.424613456351,4339.3360844563167,16677.174194969732,25945.1318604472,-3853.0520940418473,15431.867501965247,-15431.867501965247,3853.0520940418473,48584.782595870776,0.0
405012.02908761695,3892225.878295721,-37500.0,20972.579908675551,-1946.5787383005445,384.91054323233175,-21545.238932201399,3159.8350837755015,13281.920515422973,22179.098108219783,-3721.4449590579734,15033.345702641813,-15033.345702641813,3721.4449590579734,41935.41177302826,0.0
410012.02908761695,3892225.878295721,-37500.0,19716.879589902703,-1481.1042911871896,-7.2997176913482384,-18289.666649491901,2294.3392147318928,10670.317724800143,19046.488976004453,-3440.5065332424456,14243.035190187988,-14243.035190187988,3440.5065332424456,36309.175535974675,0.0
415012.02908761695,3892225.878295721,-37500.0,18286.894162461678,-1093.6759412216763,-230.95802497176663,-15555.95614296818,1661.0789565636242,8633.3620936745683,16434.316402470482,-3102.6977216913647,13270.921695289348,-13270.921695289348,3102.6977216913647,31546.284991440287,0.0
420012.02908761695,3892225.878295721,-37500.0,16818.463285299847,-780.96341182797255,-347.51732207435708,-13264.595208132338,1198.0498576872358,7026.2528619781397,14246.161974038012,-2757.1087473870457,12237.615930896718,-12237.615930896718,2757.1087473870457,27503.627415315023,0.0
425012.02908761695,3892225.878295721,-37500.0,15386.407903029565,-533.7111950618729,-397.1507945388384,-11342.463396139861,859.35539174602184,5746.9876548529182,12403.633998887301,-2428.4476321665707,11211.096252510346,-11211.096252510346,2428.4476321665707,24060.740600580226,0.0
430012.02908761695,3892225.878295721,-37500.0,14030.217567618751,-341.1799834282582,-405.98507932683032,-9727.0336126585917,611.41103347817784,4721.7672895509741,10844.094077869519,-2127.9002375910131,10228.457335967589,-10228.457335967589,2127.9002375910131,21118.4457123141,0.0
435012.02908761695,3892225.878295721,-37500.0,12768.862979109439,-193.13761010393867,-390.89914953248166,-8366.2698583140664,429.76685028141139,3895.7520515710444,9517.6320839374221,-1859.2949010739185,9308.6231972120986,-9308.6231972120986,1859.2949010739185,18595.505552146107,0.0
440012.02908761695,3892225.878295721,-37500.0,11609.35984196093,-80.627328308209059,-362.69573874285123,-7217.2498874251842,296.64855819557238,3227.2773004644532,8384.3154955659156,-1622.5787378542004,8459.7952436388405,-8459.7952436388405,1622.5787378542004,16425.232287646446,0.0
445012.02908761695,3892225.878295721,-37500.0,10551.781243765678,3.8452093025247969,-328.19607804298107,-6244.6201941181316,199.1269776604278,2684.1638739032473,7411.9712869229725,-1415.7702718719406,7683.8638416738286,-7683.8638416738286,1415.7702718719406,14552.616746270227,0.0
450012.02908761695,3892225.878295721,-37500.0,9592.2534624254677,66.38516650597937,-291.62296256735419,-5419.2279522165354,127.77984654909685,2241.2725299232657,6574.484355878275,-1236.0476068476128,6979.0680842923284,-6979.0680842923284,1236.0476068476128,12932.054962302534,0.0
455012.02908761695,3892225.878295721,-37500.0,8724.7787579438354,111.88284261323287,-255.51082632164574,-4716.9892480473518,75.723685440338372,1878.8117791941295,5850.5086695859873,-1080.342640160844,6341.6224368233525,-6341.6224368233525,1080.342640160844,11525.57231453231,0.0
250012.02908761695,3897225.878295721,-37500.0,7286.251984109851,2610.010641293658,221.3124087589263,4189.1181749772677,1122.9190677539361,1744.7598456623039,5554.9999047467008,1234.5230446419635,4989.7590431821482,-4989.7590431821482,-1234.5230446419635,10878.264604309388,0.0
255012.02908761695,3897225.878295721,-37500.0,7907.656882699539,2964.8590941925695,271.54955782537525,4775.7991878992261,1309.290930441839,2071.3458478375383,6220.7337554758224,1461.1999077589398,5391.8187687955242,-5391.8187687955242,-1461.1999077589398,12155.025065600355,0.0
260012.02908761695,3897225.878295721,-37500.0,8569.1838619655828,3377.7669965119439,340.1797514208647,5454.7797581129153,1531.5589094336253,2467.0168832720456,6983.9516989731264,1738.5757029289523,5811.1561861697746,-5811.1561861697746,-1738.5757029289523,13611.28236766279,0.0
265012.02908761695,3897225.878295721,-37500.0,9263.8803853544268,3859.2296556616593,434.51245918962229,6240.2549127505026,1797.1334174676851,2947.3265101935535,7860.5188434833808,2079.8753147195944,6239.1081450040001,-6239.1081450040001,-2079.8753147195944,15273.433894787133,0.0
270012.02908761695,3897225.878295721,-37500.0,9979.0305464809917,4421.5948719070639,564.90157551145501,7147.693043804833,2114.8802127061945,3531.2527778968984,8868.7999729603907,2502.2245717096666,6661.5448587328337,-6661.5448587328337,-2502.2245717096666,17170.837401448302,0.0
275012.02908761695,3897225.878295721,-37500.0,10693.318086145691,5079.2447967609942,746.06826387943352,8193.2339083694751,2495.2987676274429,4241.7862379474573,10029.838740678833,3027.8986000697378,7056.3099252215225,-7056.3099252215225,-3027.8986000697378,19335.408445434088,0.0
280012.02908761695,3897225.878295721,-37500.0,11372.70161269705,5848.6292335962416,998.99975163300985,9392.4338699700911,2950.6226685694805,5106.4735980205569,11367.3424915266,3685.9403096073556,7389.5298032260025,-7389.5298032260025,-3685.9403096073556,21800.611889458527,0.0
285012.02908761695,3897225.878295721,-37500.0,11964.42469771009,6747.9452895941895,1353.6520172316082,10757.827994517867,3494.7193704770589,6157.7233523898294,12907.220736355013,4514.1890353576973,7610.3098220235652,-7610.3098220235652,-4514.1890353576973,24599.365158475932,0.0
290012.02908761695,3897225.878295721,-37500.0,12388.466178058994,7796.0397548021174,1852.706127369519,12294.417841154085,4142.5142266178309,7432.4578353077868,14676.226145592773,5561.613166639926,7643.262546927007,-7643.262546927007,-5561.613166639926,27760.098233217839,0.0
295012.02908761695,3897225.878295721,-37500.0,12525.714840727002,9009.711595768289,2556.5469811865701,13991.519694338525,4908.316475079936,8970.1413262034093,16698.809394873424,6890.4850784232358,7378.3645204155409,-7378.3645204155409,-6890.4850784232358,31299.64205342023,0.0
300012.02908761695,3897225.878295721,-37500.0,12202.783283682131,10397.94578514915,3549.2354031135255,15808.462666731288,5801.6476960090367,10807.026410321185,18990.594790091742,8577.1299619576093,6658.2952465643748,-6658.2952465643748,-8577.1299619576093,35210.870942258727,0.0
305012.02908761695,3897225.878295721,-37500.0,11175.697115870087,11950.788714299391,4944.0247646212638,17650.639667548359,6817.4948019301273,12961.963650201866,21545.782418826555,10708.377405804691,5265.5951141165351,-5265.5951141165351,-10708.377405804691,39442.23519305612,0.0
310012.02908761695,3897225.878295721,-37500.0,9121.0415034545349,13620.562900630031,6884.0825263487468,19332.92097170269,7914.7521588155705,15404.450010255738,24314.684211945856,13368.484613635843,2917.5595823382109,-2917.5595823382109,-13368.484613635843,43867.021112511145,0.0
315012.02908761695,3897225.878295721,-37500.0,5656.703588114462,15297.348356565393,9528.5524492340082,20534.340750081003,8972.2197327247013,17988.895384124513,27168.494724006796,16610.023005427116,-711.97653285101023,711.97653285101023,-16610.023005427116,48247.611510633134,0.0
320012.02908761695,3897225.878295721,-37500.0,434.09588943782308,16798.262454066269,13008.116013257879,20772.890451469528,9711.796533912775,20337.002463771849,29859.091996758922,20410.665230960345,-5910.4068749182807,5910.4068749182807,-20410.665230960345,52230.382898217475,0.0
325012.02908761695,3897225.878295721,-37500.0,-6656.8463245653084,17932.696951708309,17343.270551027632,19485.374900013037,9607.8628579045417,21680.28472717548,32026.480256592382,24656.909683529582,-12758.226473225488,12758.226473225488,-24656.909683529582,55494.33845070489,0.0
330012.02908761695,3897225.878295721,-37500.0,-15235.674945035476,18746.177747335551,22384.189499814685,16349.215700497771,7914.8767045312325,20797.646651605017,33466.902715575983,29276.248258958611,-20953.08240357602,20953.08240357602,-29276.248258958611,58328.121128531231,0.0
335012.02908761695,3897225.878295721,-37500.0,-24462.175616069711,19900.686317997945,27955.606796706299,11820.647747774216,4139.5598489261438,16395.287884322064,35404.070851535376,34619.457180042024,-29918.041267037246,29918.041267037246,-34619.457180042024,62721.619554974473,0.0
340012.02908761695,3897225.878295721,-37500.0,-33575.378603060861,22575.233906544992,34251.624736032296,7281.1575279166163,-840.28534725919144,8164.3290041457167,41290.983051563315,41638.077016044968,-39292.398383119951,39292.398383119951,-41638.077016044968,72122.907920360492,0.0
345012.02908761695,3897225.878295721,-37500.0,-41828.89612239923,26995.04319291413,41611.468511691703,4327.5993180476989,-3972.5965022425717,-2067.4832526719488,50045.395345920115,50518.068199017318,-48590.397625060985,48590.397625060985,-50518.068199017318,86690.735392507559,0.0
350012.02908761695,3897225.878295721,-37500.0,-47490.389316438901,30500.074398366109,48505.288081818428,4748.0525769957494,-1836.1777721782059,-8514.7712998814332,57136.015043822175,57866.687851374292,-55528.792427833519,55528.792427833519,-57866.687851374292,99304.01953888977,0.0
355012.02908761695,3897225.878295721,-37500.0,-50685.91635885337,28849.024332323617,50329.02292667947,7622.4634792938441,4500.5238410329712,1442.093887229036,58836.351148922578,57698.038053171134,-58056.592926197052,58056.592926197052,-57698.038053171134,101919.12592238783,0.0
360012.02908761695,3897225.878295721,-37500.0,-51267.21553608001,22231.910691456156,44244.989405498112,1595.584726231853,8815.6771747710482,30822.565556948291,54500.484583575992,49024.963173315213,-55533.575067089208,55533.575067089208,-49024.963173315213,98713.206716834247,0.0
365012.02908761695,3897225.878295721,-37500.0,-41990.675716021244,15535.483809719102,33346.586146056579,-17123.415081319417,8857.0301356512227,56231.881370855124,54509.4075331083,36799.402259070848,-44561.191548033356,44561.191548033356,-36799.402259070848,98805.78927250272,0.0
370012.02908761695,3897225.878295721,-37500.0,-23561.422148120677,10830.503104472213,22486.04045777065,-34803.516653072009,7319.4183092699968,62361.288179128926,56709.753875135531,25060.20232934842,-27196.254867275329,27196.254867275329,-25060.20232934842,98453.204780437241,0.0
375012.02908761695,3897225.878295721,-37500.0,-4990.722453055273,7642.5443441574116,14131.113826112,-43047.194361390102,5709.337390004448,55412.715259323428,53622.391697267507,15679.778831990077,-10553.079497329303,10553.079497329303,-15679.778831990077,93227.641518722055,0.0
380012.02908761695,3897225.878295721,-37500.0,8464.1934873184309,5499.1465370710939,8469.5841972994494,-43386.144845265211,4262.8015283945833,44666.619450560138,47802.462599498125,9092.4933295865121,1489.8600824538739,-1489.8600824538739,-9092.4933295865121,84277.692659610475,0.0
385012.02908761695,3897225.878295721,-37500.0,16422.621564083085,4104.3104566234169,4853.8544194617898,-39678.984075984677,3027.7775092930865,34721.013495815285,41332.37224505905,4851.7325092424508,8816.1610094629486,-8816.1610094629486,-4851.7325092424508,74038.240732273611,0.0
390012.02908761695,3897225.878295721,-37500.0,20315.212024008139,3216.7160358313986,2609.597989118432,-34627.337375646508,2032.717104917918,26815.639607860947,35258.841698258489,2272.9088102706892,12666.744244990488,-12666.744244990488,-2272.9088102706892,64120.460641037142,0.0
395012.02908761695,3897225.878295721,-37500.0,21644.907034484389,2649.8806392446299,1242.1751726717075,-29578.63364322035,1273.0442102615939,20847.64152406896,29962.871569064842,769.701611115368,14301.568804575518,-14301.568804575518,-769.701611115368,55238.165581213441,0.0
400012.02908761695,3897225.878295721,-37500.0,21503.778957026439,2275.696959967669,425.74108836612436,-25055.632692220337,718.65589335242475,16384.218592055411,25495.984542301489,-71.095050802029618,14635.159745608729,-14635.159745608729,71.095050802029618,47571.244141202151,0.0
405012.02908761695,3897225.878295721,-37500.0,20581.071686967236,2013.4953029396115,-46.859953278493791,-21185.105902569696,329.37562100903938,13016.605144421788,21777.217373498737,-515.81740030931542,14250.078888031027,-14250.078888031027,515.81740030931542,41056.150700067978,0.0
410012.02908761695,3897225.878295721,-37500.0,19282.561455157334,1815.4992246782842,-306.10156570401676,-17934.525082630076,65.727694847163434,10438.067446919345,18689.247075819094,-728.55881291235801,13494.690132163822,-13494.690132163822,728.55881291235801,35546.189992764492,0.0
415012.02908761695,3897225.878295721,-37500.0,17838.109317663191,1654.7041191790165,-434.12334579737376,-15221.72232920416,-106.01023007687296,8434.534536092342,16118.469400689724,-808.07642332058731,12570.529987123646,-12570.529987123646,808.07642332058731,30884.101777095944,0.0
420012.02908761695,3897225.878295721,-37500.0,16374.478630713607,1516.4388513461477,-482.68966488725954,-12959.058903103178,-212.47286760089452,6858.4783782907534,13967.950417492993,-813.05811143343635,11591.827011725307,-11591.827011725307,813.05811143343635,26928.635009679943,0.0
425012.02908761695,3897225.878295721,-37500.0,14959.535510742755,1393.0112273074321,-484.40715821372095,-11068.378671658145,-273.68835928984487,5606.7049014900576,12159.094537316561,-778.11018388216689,10622.056547169208,-10622.056547169208,778.11018388216689,23560.972006594409,0.0
430012.02908761695,3897225.878295721,-37500.0,13627.715428654185,1280.5100844768922,-459.73769271367536,-9484.1977442378429,-304.23291573445107,4605.1126813251803,10629.321524826466,-723.48361838258279,9695.3287473996679,-9695.3287473996679,723.48361838258279,20683.447834752584,0.0
435012.02908761695,3897225.878295721,-37500.0,12394.466702398217,1176.9788990309428,-421.41871540863701,-8152.8703410800272,-314.47071428860284,3799.0284358657186,9328.9555680005724,-660.89625616888316,8828.72743554931,-8828.72743554931,660.89625616888316,18216.221451457131,0.0
440012.02908761695,3897225.878295721,-37500.0,11264.427335756349,1081.4125866436918,-377.26634019896335,-7030.6960350167428,-311.64194054738545,3147.165637139205,8218.3842914724883,-596.99377848644235,8029.4215295049953,-8029.4215295049953,596.99377848644235,16093.852143011882,0.0
445012.02908761695,3897225.878295721,-37500.0,10236.133683145454,993.23237232955796,-331.96522469660101,-6082.0498555254962,-300.73043760976594,2617.7953694002704,7265.7949500807808,-535.40831302557399,7298.8270510123066,-7298.8270510123066,535.40831302557399,14262.442979219477,0.0
450012.02908761695,3897225.878295721,-37500.0,9304.7650903982503,912.02319041644137,-288.21622109024156,-5277.7961232901544,-285.119901319723,2186.224814570764,6445.4334564736919,-477.98768129471,6635.071692708545,-6635.071692708545,477.98768129471,12677.36238344009,0.0
455012.02908761695,3897225.878295721,-37500.0,8463.7763830856438,837.41392820972283,-247.47268560474478,-4594.0207156233128,-267.07407860154399,1833.0684908860317,5736.2923062524433,-425.53131620585737,6034.4799971863222,-6034.4799971863222,425.53131620585737,11301.471165133566,0.0
250012.02908761695,3902225.878295721,-37500.0,8121.2744944794676,2007.0590869280909,-40.55310341477616,4580.8177840864219,823.28481754898451,1887.6420371553747,5839.4785722040824,468.25912382843535,5786.9262771171889,-5786.9262771171889,-468.25912382843535,11474.567392547948,0.0
255012.02908761695,3902225.878295721,-37500.0,8886.0005277038872,2270.4316018295553,-41.725604842029199,5253.1028912529382,951.37884225432049,2252.1787609961348,6559.4439083920461,569.76761198803297,6326.4887394574016,-6326.4887394574016,-569.76761198803297,12862.820655804719,0.0
260012.02908761695,3902225.878295721,-37500.0,9720.2397971935625,2576.4073926814503,-36.285725034262256,6039.9035717283887,1102.4032789579967,2697.4852944340514,7390.0128911641059,698.33720825554337,6911.5369271018735,-6911.5369271018735,-698.33720825554337,14456.555506907345,0.0
265012.02908761695,3902225.878295721,-37500.0,10623.849949888987,2933.0294550883987,-19.918309691183772,6962.0987513805849,1280.674107545881,3243.227365008328,8350.8842483722892,862.49196793522697,7539.8967545835922,-7539.8967545835922,-862.49196793522697,16289.462146847965,0.0
270012.02908761695,3902225.878295721,-37500.0,11592.570153846984,3350.0745077465381,13.953259898461141,8044.1428639725573,1491.2607985217735,3914.1541345079368,9465.5783916895434,1073.8720338007001,8205.4604131104988,-8205.4604131104988,-1073.8720338007001,18400.605465053948,0.0
275012.02908761695,3902225.878295721,-37500.0,12615.497878575858,3839.4730087302341,75.321411360916784,9314.3607263343802,1740.0814924601723,4741.4707546246827,10762.146205602075,1348.5302699137192,8895.8976696680202,-8895.8976696680202,-1348.5302699137192,20834.944115883245,0.0
280012.02908761695,3902225.878295721,-37500.0,13671.194627393437,4415.8079051913728,179.34316977570276,10804.964215695622,2033.9975282146636,5764.6121299345832,12273.921542634238,1708.8015093950389,9589.145360298462,-9589.145360298462,-1708.8015093950389,23643.623606774403,0.0
285012.02908761695,3902225.878295721,-37500.0,14721.617875981552,5096.8505612638655,348.99694880225485,12551.395191435355,2380.90292302026,7033.5225754161365,14040.170721137845,2185.9931660341504,10247.978601593215,-10247.978601593215,-2185.9931660341504,26883.69913409945,0.0
290012.02908761695,3902225.878295721,-37500.0,15702.652805912438,5903.9538346240033,619.09469227213606,14590.210396929233,2789.765385061186,8611.5374462467425,16106.311221937856,2824.1668993425269,10811.62292550331,-10811.62292550331,-2824.1668993425269,30616.653890142265,0.0
295012.02908761695,3902225.878295721,-37500.0,16509.37290044106,6861.8105480403301,1042.2730556792214,16953.850921160818,3270.4399198943247,10578.743308481598,18522.902783880807,3685.2212344117952,11182.858917435839,-11182.858917435839,-3685.2212344117952,34904.351475067793,0.0
300012.02908761695,3902225.878295721,-37500.0,16973.541071782369,7996.3967983148341,1697.6841686173666,19658.979193178206,3832.6444193125153,13034.934363400973,21341.688940799944,4855.0847908166706,11208.642898841183,-11208.642898841183,-4855.0847908166706,39799.746207866723,0.0
305012.02908761695,3902225.878295721,-37500.0,16831.014611815775,9328.5490439870064,2702.8454880006489,22682.040323878195,4482.186360866428,16098.981318502132,24605.121922666211,6449.6078066372693,10652.578420085756,-10652.578420085756,-6449.6078066372693,45327.244242755107,0.0
310012.02908761695,3902225.878295721,-37500.0,15680.201012494872,10858.563645393633,4227.5744486513768,25911.177238927623,5209.2232003314002,19895.351886581309,28322.601622325212,8615.8815334628398,9160.7875361811984,-9160.7875361811984,-8615.8815334628398,51444.19550416265,0.0
315012.02908761695,3902225.878295721,-37500.0,12946.003422693908,12536.084492871223,6504.0486819271264,29060.16246625677,5955.9400798618508,24504.518394030565,32422.312837411115,11519.595190559692,6234.0707072937948,-6234.0707072937948,-11519.595190559692,57973.412157455234,0.0
320012.02908761695,3902225.878295721,-37500.0,7898.777961362397,14218.211177454448,9815.5721906667804,31540.707611441161,6539.5592940478691,29828.820984243666,36666.699417790143,15305.503078515569,1247.5437972731634,-1247.5437972731634,-15305.503078515569,64511.892792110113,0.0
325012.02908761695,3902225.878295721,-37500.0,-162.48607910918781,15663.400307869662,14431.085418462953,32351.784186799112,6509.4519978111002,35305.367120977964,40540.960252003395,20037.998160829458,-6397.3506635942576,6397.3506635942576,-20037.998160829458,70401.68557565668,0.0
330012.02908761695,3902225.878295721,-37500.0,-11449.198335466635,16719.266799766141,20470.899753107296,30202.166653995009,5022.648202614786,39478.73213545981,43211.890408724277,25725.960428380997,-16917.851654041697,16917.851654041697,-25725.960428380997,75084.735276950261,0.0
335012.02908761695,3902225.878295721,-37500.0,-25120.032608451053,17883.707950938104,27830.914494400233,24168.872488967118,1196.1327777401755,39809.515920289152,43801.348858251091,32660.273976254422,-29775.914322945646,29775.914322945646,-32660.273976254422,79358.329146541262,0.0
340012.02908761695,3902225.878295721,-37500.0,-39115.447962827631,20676.977772908478,36351.92541723467,14635.984885327483,-4314.6371168760643,33439.450488458722,44494.926498536784,41749.4073944435,-43622.860668833142,43622.860668833142,-41749.4073944435,86400.84949056989,0.0
345012.02908761695,3902225.878295721,-37500.0,-49866.423716849087,25968.717615075646,45444.258340465931,4042.2892527811173,-7488.5214097656544,19142.007209316245,55071.058284358442,52818.797537544509,-55658.144772872736,55658.144772872736,-52818.797537544509,97516.286247383381,0.0
350012.02908761695,3902225.878295721,-37500.0,-53154.131608343152,30469.321213772662,52160.815648077034,-1876.4149833244194,-3688.2536209021546,2242.4966176831294,60983.574685638523,60738.196427881703,-61088.747297515918,61088.747297515918,-60738.196427881703,105652.46142043763,0.0
355012.02908761695,3902225.878295721,-37500.0,-50972.506962759224,28565.824340244973,51971.512672322053,-61.058502118805961,3500.1006527645595,-446.1103935088679,58969.828872179183,58583.695592881726,-58981.913589115975,58981.913589115975,-58583.695592881726,102145.875233707,0.0
360012.02908761695,3902225.878295721,-37500.0,-47836.598411728897,22169.095744525061,44660.247330612772,-1718.5935621555143,4853.5839548130643,18625.808726347579,51639.96998730849,48881.211172953816,-53291.920678917973,53291.920678917973,-48881.211172953816,91538.483468207429,0.0
365012.02908761695,3902225.878295721,-37500.0,-39275.789400950227,17676.137532181572,34257.391663792041,-13956.676176292955,741.81013857988637,40122.769068579721,44466.855571248088,38774.487615895108,-43242.095608781325,43242.095608781325,-38774.487615895108,86001.081499040825,0.0
370012.02908761695,3902225.878295721,-37500.0,-24052.107713428926,15769.383329985882,24140.397818031252,-27835.690317125147,-3003.9916421552966,48529.792796899594,48288.128304863058,30160.221274128871,-28838.057085953846,28838.057085953846,-30160.221274128871,84795.727750508522,0.0
375012.02908761695,3902225.878295721,-37500.0,-7935.2713842230996,14394.986401930215,15977.828506741123,-35651.120936777123,-4493.7742662637829,45692.295378087416,47102.134176330153,22730.059904447829,-14322.517904670945,14322.517904670945,-22730.059904447829,81612.419989206421,0.0
380012.02908761695,3902225.878295721,-37500.0,4558.7092451674262,12757.104626197604,10127.124821162859,-37105.932134194554,-4564.5768914126593,38315.222368502669,42968.428093236857,16605.63035372279,-3006.598494371261,3006.598494371261,-16605.63035372279,75258.401374013265,0.0
385012.02908761695,3902225.878295721,-37500.0,12494.315855443592,10989.667387514795,6218.1141312508171,-34770.002519316702,-4124.3500955164182,30599.6837691113,37780.790842859162,11906.714593828839,4447.3626550708286,-4447.3626550708286,-11906.714593828839,67238.65243492453,0.0
390012.02908761695,3902225.878295721,-37500.0,16758.630388298312,9330.7802097320564,3704.139094056864,-30886.649276363765,-3598.0280976504255,24079.710568042548,32627.84276819001,8489.5877773454285,8770.9724334505754,-8770.9724334505754,-8489.5877773454285,59004.864566621312,0.0
395012.02908761695,3902225.878295721,-37500.0,18564.561011966256,7894.6680509514908,2120.7599890480255,-26730.585959451866,-3117.9584386231454,18971.59023944131,27983.428807245491,6077.0264763755986,10955.448597869257,-10955.448597869257,-6077.0264763755986,51351.45952245644,0.0
400012.02908761695,3902225.878295721,-37500.0,18883.52671655134,6697.7665348376313,1137.5660180566915,-22867.84536612716,-2705.3411551429663,15056.511319380879,23980.488856983906,4392.7071621952527,11805.270845576213,-11805.270845576213,-4392.7071621952527,44575.811828411963,0.0
405012.02908761695,3902225.878295721,-37500.0,18365.402346883064,5713.2308434024571,535.92580271892825,-19484.71716337531,-2351.9338929818941,12051.688449566109,20597.109031529271,3215.7645889175101,11868.904418213166,-11868.904418213166,-3215.7645889175101,38712.574328096307,0.0
410012.02908761695,3902225.878295721,-37500.0,17409.800250041262,4903.3816627589631,175.34487668933019,-16597.599784802103,-2046.5837029530292,9722.0333268761915,17756.098891853173,2386.6344781588086,11491.477114723846,-11491.477114723846,-2386.6344781588086,33686.342364880758,0.0
415012.02908761695,3902225.878295721,-37500.0,16251.999267757985,4233.2124735532116,-33.56484703980324,-14159.61170904463,-1780.9399405659435,7894.5756552126149,15370.57568765818,1795.4890663011565,10881.853158317062,-10881.853158317062,-1795.4890663011565,29389.115092279982,0.0
420012.02908761695,3902225.878295721,-37500.0,15027.097874897539,3674.1708631031493,-147.57537803212568,-12107.614780731083,-1549.2803021838793,6446.1443005918854,13361.438429619237,1368.2683873182768,10164.015506247357,-10164.015506247357,-1368.2683873182768,25713.278979598992,0.0
425012.02908761695,3902225.878295721,-37500.0,13811.092992597194,3204.0777792734598,-202.78029879511249,-10380.411290484388,-1347.4250109499421,5288.6017309585659,11662.134332040314,1055.2461696170603,9410.7037682238661,-9410.7037682238661,-1055.2461696170603,22563.071835866056,0.0
430012.02908761695,3902225.878295721,-37500.0,12645.453129873729,2805.9280474007346,-222.14652248307971,-8924.4231367877419,-1171.9620059527119,4357.5755147274258,10218.379483246083,822.86154557312557,8663.9850040467354,-8663.9850040467354,-822.86154557312557,19856.86560065817,0.0
435012.02908761695,3902225.878295721,-37500.0,11551.441148563932,2466.6214187885944,-220.27516722083863,-7694.513179156249,-1019.8604954969561,3604.9249388468011,8986.3234461701923,648.22155003573289,7947.513553810244,-7947.513553810244,-648.22155003573289,17526.149021544035,0.0
440012.02908761695,3902225.878295721,-37500.0,10538.44099461533,2175.9388690478777,-206.41455877218232,-6653.1901588730871,-888.32989183544373,2993.8945510558033,7930.539406449564,515.50099997674397,7273.8153551799678,-7273.8153551799678,-515.50099997674397,15513.651339912863,0.0
445012.02908761695,3902225.878295721,-37500.0,9608.8452965544566,1925.7878974618138,-186.37527228924918,-5769.4342092912084,-774.79156192683661,2495.9729482966181,7022.2747255406148,413.60374430263028,6648.6533723742323,-6648.6533723742323,-413.60374430263028,13771.461133919096,0.0
450012.02908761695,3902225.878295721,-37500.0,8760.9727364826922,1709.6661576195002,-163.75810269918031,-5017.5776064910733,-676.88873320581183,2088.7946972142272,6238.052928539315,334.63842451883329,6073.6850564221568,-6073.6850564221568,-334.63842451883329,12259.406695366712,0.0
250012.02908761695,3907225.878295721,-37500.0,8757.947959912286,1294.7786398101109,-213.30173776175604,4881.0231305644675,476.36150328750023,1997.9753134499033,6070.9565906423877,-313.63946993955824,6422.7968538169898,-6422.7968538169898,313.63946993955824,11946.481707396544,0.0
255012.02908761695,3907225.878295721,-37500.0,9625.9838784132535,1441.0784583285063,-246.57534974618966,5616.1186681445379,533.23588595236117,2390.8174061833843,6832.8807388072855,-342.57970273777391,7067.263402843686,-7067.263402843686,342.57970273777391,13419.797303056963,0.0
260012.02908761695,3907225.878295721,-37500.0,10583.658967006175,1607.3781127545981,-280.2526992246855,6481.3897733943277,595.9151947450257,2872.8535456811937,7715.2265525347448,-370.14535524413395,7777.9144189089529,-7777.9144189089529,370.14535524413395,15117.974933782838,0.0
265012.02908761695,3907225.878295721,-37500.0,11635.321997334788,1796.9472541813404,-311.75387173143372,7502.2810683277057,664.07411437196561,3466.6229255163839,8740.4978849208546,-393.42104540471792,8557.2250465646866,-8557.2250465646866,393.42104540471792,17080.131851370395,0.0
270012.02908761695,3907225.878295721,-37500.0,12782.293192401185,2013.8138620684144,-336.70533596422416,8709.3708483003302,736.77658566992682,4200.8848238607652,9935.9965997912223,-407.61450095555847,9404.8605196390181,-9404.8605196390181,407.61450095555847,19352.609332106782,0.0
275012.02908761695,3907225.878295721,-37500.0,14020.582887413228,2263.0763506490212,-347.91623849384183,10139.296247375156,812.16253742035315,5112.5348462036109,11334.946566739716,-404.96309938993818,10315.634872431769,-10315.634872431769,404.96309938993818,21990.251462552864,0.0
280012.02908761695,3907225.878295721,-37500.0,15337.225761215395,2551.3863338806973,-333.78468765449838,11835.696025702106,887.03021295687665,6249.2516758843967,12977.872950095132,-373.00730544068938,11276.238128646326,-11276.238128646326,373.00730544068938,25057.820941228161,0.0
285012.02908761695,3907225.878295721,-37500.0,16704.304032631087,2887.6888890772466,-275.80925254724229,13849.920580713282,956.31840439730536,7673.2312436020984,14914.207662010927,-291.85503763530505,12259.92515563807,-12259.92515563807,291.85503763530505,28631.392913410436,0.0
290012.02908761695,3907225.878295721,-37500.0,18069.097992576131,3284.3054668901377,-144.69569187741592,16240.892408606998,1012.5152809843934,9466.5606667401044,17203.962132501834,-129.87032370282941,13217.823555364996,-13217.823555364996,129.87032370282941,32799.335302300155,0.0
295012.02908761695,3907225.878295721,-37500.0,19337.682803439842,3758.36800731534,105.74688238620431,19072.575840757316,1045.0438995460288,11738.957184830386,19918.902760924291,163.04527225581842,14064.587523169947,-14064.587523169947,-163.04527225581842,37661.805243710078,0.0
300012.02908761695,3907225.878295721,-37500.0,20347.588800199133,4333.3432370731425,548.15432706192564,22405.426666036768,1039.6243633424281,14638.455062641195,23141.724628841392,665.69033768778263,14654.722069142343,-14654.722069142343,-665.69033768778263,43326.200776171281,0.0
305012.02908761695,3907225.878295721,-37500.0,20822.998473629079,5039.6028068309261,1296.3764190235643,26273.606694931979,977.17639672409734,18364.099314003077,26959.574943534401,1500.4673377801755,14744.146274761135,-14744.146274761135,-1500.4673377801755,49892.742920618526,0.0
310012.02908761695,3907225.878295721,-37500.0,20305.212236575942,5911.2954405836954,2527.5449497441864,30630.439404640289,830.17486464391834,23173.558181329303,31443.802614845637,2853.1842065262681,13930.917742024612,-13930.917742024612,-2853.1842065262681,57418.068838377949,0.0
315012.02908761695,3907225.878295721,-37500.0,18059.110360424518,6974.030140163919,4512.1029949538624,35228.339309334617,549.30183640933001,29359.151500746706,36599.355079044341,4994.3364773829944,11575.300152374732,-11575.300152374732,-4994.3364773829944,65834.779843804281,0.0
320012.02908761695,3907225.878295721,-37500.0,12996.2448425935,8217.9297460885718,7644.2640040347878,39382.62919607044,21.082777204679118,37114.04537572393,42255.397414746709,8289.4410080727648,6730.7074395931004,-6730.7074395931004,-8289.4410080727648,74799.524706675889,0.0
325012.02908761695,3907225.878295721,-37500.0,3778.9769001808941,9575.0008351946963,12438.432285274381,41600.866287924342,-1038.1502787636121,46103.115568700916,47868.538127027125,13175.235064284105,-1786.4072954920193,1786.4072954920193,-13175.235064284105,83486.443868385555,0.0
330012.02908761695,3907225.878295721,-37500.0,-10493.744912898799,11032.278802184297,19401.969800621995,39319.466878782543,-3232.6226994749668,54462.887046282267,52295.527583453659,20105.529153236439,-14877.995177391966,14877.995177391966,-20105.529153236439,90585.5251023241,0.0
335012.02908761695,3907225.878295721,-37500.0,-28632.177411354318,13191.198720828977,28676.503625427245,29707.41204428576,-7238.5501100480715,57422.831906523919,53972.086471412957,29589.389336831322,-31894.264499673074,31894.264499673074,-29589.389336831322,95314.502860431938,0.0
340012.02908761695,3907225.878295721,-37500.0,-45674.822279032138,17886.688576775687,39483.181016000737,12798.589624768867,-11898.178297455899,47748.981711840534,53873.029069364085,42087.496004756838,-49203.491811320964,49203.491811320964,-42087.496004756838,99498.847146608357,0.0
345012.02908761695,3907225.878295721,-37500.0,-54136.545491391138,25804.334156641064,49248.427937541041,-4423.646274061517,-11767.65106757837,22094.925243212187,59871.012072013618,55554.571862738878,-60309.04644415035,60309.04644415035,-55554.571862738878,105310.16590404743,0.0
350012.02908761695,3907225.878295721,-37500.0,-51297.130867082706,31405.781269320767,53216.00511332586,-10120.451831679671,-2734.1453704491423,-7362.5994109305193,61928.935116063738,62043.695015214427,-60420.208988855375,60420.208988855375,-62043.695015214427,107471.71519232477,0.0
355012.02908761695,3907225.878295721,-37500.0,-45156.109821280887,28268.57185345238,49320.351890785161,-3537.0943089262437,6964.3484073591826,-17194.138299189697,55656.344299870369,56184.907925373656,-53829.462356948672,53829.462356948672,-56184.907925373656,98215.587132096189,0.0
360012.02908761695,3907225.878295721,-37500.0,-41573.380268766479,21012.259618004126,41615.866067187526,626.76405918272576,6721.7922047865632,-3200.7919756847577,47051.842329190091,45360.397811318093,-47423.532263056026,47423.532263056026,-45360.397811318093,81621.018566585728,0.0
365012.02908761695,3907225.878295721,-37500.0,-36029.499536793432,17173.990286337375,33617.41075724698,-5316.8040227446163,-373.74484003619057,16455.518192654006,39114.87609152864,37372.132534359356,-40367.860607133676,40367.860607133676,-37372.132534359356,70142.797033718161,0.0
370012.02908761695,3907225.878295721,-37500.0,-25556.42967606102,16818.594988694917,26008.908150710424,-15445.646609667381,-6624.2256565619391,27991.960531517376,37387.884537082369,31979.029093153935,-30458.840855711256,30458.840855711256,-31979.029093153935,66791.570083949948,0.0
375012.02908761695,3907225.878295721,-37500.0,-13077.599145223618,17034.678566453276,19165.285557225616,-23039.084865239172,-9417.6428923447693,30458.047479910325,37650.451015118393,27094.31321416195,-19305.844082770309,19305.844082770309,-27094.31321416195,65270.639764266336,0.0
380012.02908761695,3907225.878295721,-37500.0,-2176.5554978983928,16435.180585879592,13565.207510072874,-26277.375146313054,-9682.4150868891411,27888.288147265819,35594.428452629698,22242.330830182069,-9448.5955043812755,9448.5955043812755,-22242.330830182069,61979.985355189485,0.0
385012.02908761695,3907225.878295721,-37500.0,5656.107167174443,15060.913074163123,9351.5396251902712,-26211.773307126172,-8794.7516438727507,23655.738987877259,32225.556922883516,17779.108260606048,-2080.6293741317504,2080.6293741317504,-17779.108260606048,56963.444419182284,0.0
390012.02908761695,3907225.878295721,-37500.0,10547.880605378015,13333.854950997809,6352.3307148838685,-24360.361092151208,-7584.0562424789259,19439.971058079867,28481.284887738628,14004.431801801988,2832.7283987544142,-2832.7283987544142,-14004.431801801988,51187.786522545954,0.0
395012.02908761695,3907225.878295721,-37500.0,13216.813150994507,11581.312894151379,4284.1062655407432,-21806.749627630568,-6406.6427787517514,15814.603129672787,24876.827986588305,10981.950134424122,5828.7279496898345,-5828.7279496898345,-10981.950134424122,45407.77124690287,0.0
400012.02908761695,3907225.878295721,-37500.0,14393.16953932485,9969.8491062299927,2880.7098459688459,-19145.533829118991,-5375.6460974102674,12858.272292865473,21629.397336796348,8630.7381240938776,7488.6196470090072,-7488.6196470090072,-8630.7381240938776,40022.031162444007,0.0
405012.02908761695,3907225.878295721,-37500.0,14634.470601692776,8557.636118078548,1935.2821309916976,-16648.661725324415,-4506.4461805859401,10486.069605248302,18794.952813804419,6822.9596134658177,8273.6833934276037,-8273.6833934276037,-6822.9596134658177,35184.58019633776,0.0
410012.02908761695,3907225.878295721,-37500.0,14318.741334669923,7348.0795146843075,1300.0810104693394,-14415.239429508341,-3782.9338873420002,8584.6421962873192,16356.193895057282,5434.8713449590596,8507.2884809324732,-8507.2884809324732,-5434.8713449590596,30919.687710233215,0.0
415012.02908761695,3907225.878295721,-37500.0,13688.240654328714,6322.3087921173974,873.67685464781005,-12463.016526790614,-3182.5501707750286,7054.4122614843272,14269.089470003441,4364.4051874894058,8403.4985956720848,-8403.4985956720848,-4364.4051874894058,27193.603886647423,0.0
420012.02908761695,3907225.878295721,-37500.0,12894.081875989441,5455.166385504579,587.6357429046393,-10775.744727182013,-2684.1797611728466,5816.8786949436962,12484.364112515666,3533.0086036851244,8100.4178078637888,-8100.4178078637888,-3533.0086036851244,23951.643131517012,0.0
425012.02908761695,3907225.878295721,-37500.0,12029.253748907035,4721.9825315416601,396.06118491844182,-9325.3957858735612,-2269.9280661410908,4811.7590999152717,10956.097401918758,2882.0158452773776,7686.2341038836748,-7686.2341038836748,-2882.0158452773776,21135.254675737171,0.0
430012.02908761695,3907225.878295721,-37500.0,11150.335978569094,4100.9254137608987,268.1787614168046,-8081.7663137316031,-1925.0339965338587,3992.5702059566433,9644.3390486879471,2368.0465265389344,7216.9952827595989,-7216.9952827595989,-2368.0465265389344,18688.978028605678,0.0
435012.02908761695,3907225.878295721,-37500.0,10291.162388897004,3573.4869059301009,183.30237768575364,-7016.3218819798085,-1637.3847448090007,3323.0125836419829,8515.3250973339127,1959.0112818924281,6728.1309794841382,-6728.1309794841382,-1959.0112818924281,16562.90112295729,0.0
440012.02908761695,3907225.878295721,-37500.0,9471.2711136511152,3124.2520450516181,127.4781870211624,-6103.4970050804786,-1397.0287202164996,2774.3784954624962,7540.8241732846236,1631.032282371184,6241.771334295865,-6241.771334295865,-1631.032282371184,14713.13720626889,0.0
445012.02908761695,3907225.878295721,-37500.0,8701.1516205101234,2740.4642483029811,91.260398630770311,-5320.9436933756579,-1195.7759629498678,2323.7467617194493,6697.2880682905316,1366.193762849945,5771.3986149370066,-5771.3986149370066,-1366.193762849945,13101.532589245378,0.0
450012.02908761695,3907225.878295721,-37500.0,7985.5584052313707,2411.5819571472753,68.234815575433473,-4649.3792474200764,-1026.8815236411754,1952.7073869332614,5965.0595037201329,1150.9314333897687,5324.8435634223279,-5324.8435634223279,-1150.9314333897687,11695.131136937911,0.0
250012.02908761695,3912225.878295721,-37500.0,9165.4729212978655,513.38478564768013,-279.27630751917542,5076.458932641699,99.405437765766138,2071.2615788313774,6235.9660681694186,-1063.5587403148993,6862.6706446196358,-6862.6706446196358,1063.5587403148993,12274.352018862914,0.0
255012.02908761695,3912225.878295721,-37500.0,10088.31714569854,527.83487512100146,-320.18429764278744,5847.3043503950676,77.494515508006216,2481.1168491869339,7023.875956391109,-1215.1665294948148,7569.8146860719171,-7569.8146860719171,1215.1665294948148,13800.492492867328,0.0
260012.02908761695,3912225.878295721,-37500.0,11108.890110248212,535.8960651193496,-361.97178826849245,6755.8234405989169,42.028737306517272,2984.6384359610379,7937.4825578148548,-1388.9631537285672,8353.1825471689717,-8353.1825471689717,1388.9631537285672,15562.206562091586,0.0
265012.02908761695,3912225.878295721,-37500.0,12232.657966508661,534.91608028139206,-401.82477225255548,7829.2039453541502,-12.72708461637219,3605.6666380805696,9000.5915189956431,-1587.0325577068606,9216.8631146947264,-9216.8631146947264,1587.0325577068606,17601.2998173171,0.0
270012.02908761695,3912225.878295721,-37500.0,13462.129476946127,521.61029650562216,-434.96226160594364,9100.2203916770777,-94.795690651730382,4374.6879874325632,10242.209103635414,-1810.6624320978026,10162.329880063806,-10162.329880063806,1810.6624320978026,19967.648025519091,0.0
275012.02908761695,3912225.878295721,-37500.0,14794.523322610054,492.08720008759678,-453.53386741449287,10608.30894067002,-215.36666905683828,5330.9283504937075,11697.834708964801,-2059.4400030515853,11186.375236057123,-11186.375236057123,2059.4400030515853,22720.820717889073,0.0
280012.02908761695,3912225.878295721,-37500.0,16217.990898947017,442.0453751528654,-444.92197141302131,12400.730652155637,-389.9827019974278,6525.2881007414608,13411.099171707221,-2329.6912859192425,12277.759450611084,-12277.759450611084,2329.6912859192425,25932.013509200326,0.0
285012.02908761695,3912225.878295721,-37500.0,17705.407257303254,367.32093051579369,-389.12501385776187,14533.617344119239,-640.09625792471127,8024.5798680543176,15435.781873508824,-2611.802689283666,13411.709446628791,-13411.709446628791,2611.802689283666,29686.23446007054,0.0
290012.02908761695,3912225.878295721,-37500.0,19204.016136801911,265.08245165128227,-254.7213377861101,17072.339136683822,-995.0391237244188,9917.8343867210933,17838.145135934214,-2885.6641758271253,14540.784100133016,-14540.784100133016,2885.6641758271253,34084.507745747534,0.0
295012.02908761695,3912225.878295721,-37500.0,20617.875764399716,136.17882907850475,7.3759671601742909,20089.682710222787,-1494.3710314427383,12325.827165219453,20699.174322148279,-3112.9418242547399,15579.489936678277,-15579.489936678277,3112.9418242547399,39245.237016008214,0.0
300012.02908761695,3912225.878295721,-37500.0,21777.850088565705,-10.513731350126349,473.59535764289973,23658.049793235143,-2190.3843243699198,15415.245271307997,24115.432410558882,-3224.020446360777,16378.165444278551,-16378.165444278551,3224.020446360777,45302.396162456324,0.0
305012.02908761695,3912225.878295721,-37500.0,22390.570461851381,-150.41014875927124,1262.6943120582325,27826.519184171968,-3150.1936417576371,19418.024124057138,28195.08502456444,-3096.1189980218896,16678.792929694333,-16678.792929694333,3096.1189980218896,52394.695635707503,0.0
310012.02908761695,3912225.878295721,-37500.0,21954.567957027404,-230.1288506529331,2558.7255424972973,32561.618897760854,-4456.1776183674801,24650.753165689788,33040.769939514612,-2517.3125109926759,16042.360449061242,-16042.360449061242,2517.3125109926759,60632.263783965558,0.0
315012.02908761695,3912225.878295721,-37500.0,19635.586554739315,-145.97906916851997,4644.8397647835609,37606.053362361883,-6202.5178030149509,31507.387550540345,38700.566874681368,-1130.1807451835766,13739.363365127276,-13739.363365127276,1130.1807451835766,70012.517954347,0.0
320012.02908761695,3912225.878295721,-37500.0,14132.370735672137,290.48846450308611,7946.6057114541727,42170.050835459908,-8484.107545144956,40329.382530387978,45049.170551345436,1646.0100501103825,8623.9898453965379,-8623.9898453965379,-1646.0100501103825,80235.457440951301,0.0
325012.02908761695,3912225.878295721,-37500.0,3728.8752116495361,1410.1739984763019,13060.298174426483,44360.399016778785,-11369.673801472556,50871.691113433903,51540.215644416239,6686.5231405647573,-860.14117354032669,860.14117354032669,-6686.5231405647573,90371.014229015986,0.0
330012.02908761695,3912225.878295721,-37500.0,-12809.376910555326,3806.0118565909288,20655.147408837922,40560.748872593947,-14812.796308306722,60762.697754700166,56830.312609022585,15105.791089162301,-16023.505389797874,16023.505389797874,-15105.791089162301,98528.71208991883,0.0
335012.02908761695,3912225.878295721,-37500.0,-33389.510921159643,8583.6838108043557,30929.21953975526,26457.105072118273,-18208.606069375477,62761.147036085276,58837.433663360891,27768.767490411105,-35669.679544587962,35669.679544587962,-27768.767490411105,102533.86745644227,0.0
340012.02908761695,3912225.878295721,-37500.0,-49390.595576597341,17150.392623254284,42220.344604256417,3349.7351787652715,-18817.188890086047,45312.441195512904,58195.665813449246,43761.529422241452,-53069.677290056148,53069.677290056148,-43761.529422241452,103265.31445688366,0.0
345012.02908761695,3912225.878295721,-37500.0,-51355.463259460892,27726.776656109334,49767.365509294155,-14717.416356555947,-11151.659824264445,6984.6415081639998,60650.78830311737,57343.565366649629,-58993.695861068823,58993.695861068823,-57343.565366649629,105162.18860447386,0.0
350012.02908761695,3912225.878295721,-37500.0,-43065.096443443785,32105.171884789277,48865.841540674468,-13713.05893701529,4103.4023952665184,-28730.465608940547,59367.824979011697,59215.134510731041,-53037.908512587579,53037.908512587579,-59215.134510731041,105099.31882113963,0.0
355012.02908761695,3912225.878295721,-37500.0,-36789.154199856144,26435.563899028719,41819.945575213365,-1054.1196450757172,14544.270496580042,-37909.559053323632,50050.889446791829,49350.041230359369,-44744.448715289785,44744.448715289785,-49350.041230359369,94885.077461567009,0.0
360012.02908761695,3912225.878295721,-37500.0,-35208.757295773823,18118.47611863662,34973.628349876984,6927.2788617299857,12773.401078283225,-24714.563875739841,41481.319272590117,38275.768088267396,-39853.448318475457,39853.448318475457,-38275.768088267396,76925.069086718708,0.0
365012.02908761695,3912225.878295721,-37500.0,-33077.533077209147,14071.757478251955,30120.910248508935,5109.4604552461242,4043.541603545435,-6012.8282579124607,35194.863755238563,32158.819466673165,-36231.957701648942,36231.957701648942,-32158.819466673165,61135.160032588828,0.0
370012.02908761695,3912225.878295721,-37500.0,-27088.913203037333,14147.63321817309,25759.992807435487,-2088.9829331252795,-4150.0367213450982,7668.5508026974649,30443.064588540059,29410.24631883714,-30709.827862882412,30709.827862882412,-29410.24631883714,53192.299843965462,0.0
375012.02908761695,3912225.878295721,-37500.0,-18367.476607381384,15409.675302446072,21132.988246447614,-9282.531410139396,-8842.6241180166653,14405.755063215403,29039.628910760592,27108.623292647731,-23226.375386996646,23226.375386996646,-27108.623292647731,50450.569896197347,0.0
380012.02908761695,3912225.878295721,-37500.0,-9487.9067986058526,16029.093844756899,16577.735566113653,-14002.185421459955,-10460.027093423187,16228.788848890801,27990.843809244223,24171.357244320894,-15443.272234898246,15443.272234898246,-24171.357244320894,48555.736982665541,0.0
385012.02908761695,3912225.878295721,-37500.0,-2136.3248548946472,15646.805650222388,12582.341691215939,-16134.968049276747,-10287.926361225333,15515.170495600945,26117.571449132422,20794.779931402772,-8719.6815611599704,8719.6815611599704,-20794.779931402772,45841.154090653297,0.0
390012.02908761695,3912225.878295721,-37500.0,3198.2879735077595,14553.37049640397,9365.3540309229156,-16442.342460615913,-9324.2482455309455,13814.088725377753,23740.044181292098,17440.493888229001,-3565.57944948152,3565.57944948152,-17440.493888229001,42338.375690347028,0.0
395012.02908761695,3912225.878295721,-37500.0,6713.8856691421661,13120.039661466479,6909.0290429230672,-15705.098668698822,-8124.3925404155416,11901.697777206164,21236.391862790821,14415.177712949782,84.789613511626158,-84.789613511626158,-14415.177712949782,38474.836782446961,0.0
400012.02908761695,3912225.878295721,-37500.0,8830.7830272101928,11609.143534838719,5088.6006644162771,-14469.277560582039,-6943.7344876683374,10098.257262358167,18832.633224177345,11836.310413741685,2522.9301093478607,-2522.9301093478607,-11836.310413741685,34603.41754248982,0.0
405012.02908761695,3912225.878295721,-37500.0,9957.8276854725391,10165.425376082865,3759.3642048833899,-13057.355190713586,-5880.0896160157536,8507.322338791555,16632.700943874464,9704.69464299024,4064.6881020401638,-4064.6881020401638,-9704.69464299024,30931.400962416323,0.0
410012.02908761695,3912225.878295721,-37500.0,10417.374136552717,8853.7962523924525,2794.3319984926361,-11641.10554550594,-4959.2167713524077,7143.5465803619527,14669.373291521832,7969.5712830620887,4973.8095781707307,-4973.8095781707307,-7969.5712830620887,27556.647565514591,0.0
415012.02908761695,3912225.878295721,-37500.0,10441.564740655444,7694.2357855446926,2093.9286794003901,-10304.244090174318,-4177.2529926237494,5989.9936084677229,12939.967592888548,6566.0490747911999,5448.3984278733633,-5448.3984278733633,-6566.0490747911999,24511.708979940573,0.0
420012.02908761695,3912225.878295721,-37500.0,10190.605628738431,6684.3264426215783,1584.1382174085563,-9082.6233409281595,-3519.737980791514,5020.9443970463544,11426.508469919396,5432.0720339541731,5630.1561919692795,-5630.1561919692795,-5432.0720339541731,21794.325505253833,0.0
425012.02908761695,3912225.878295721,-37500.0,9772.8759821626536,5811.8415350301893,1211.3508895908376,-7987.1388070328858,-2969.6268862827283,4210.1439773583961,10105.932425478019,4514.3614826159355,5618.1962142843786,-5618.1962142843786,-4514.3614826159355,19385.30232444582,0.0
430012.02908761695,3912225.878295721,-37500.0,9260.9702210967753,5061.1870175030272,937.18353578837582,-7016.075265444978,-2510.4587317231603,3533.4693723049209,8954.7922719462731,3769.3403038413931,5481.1717603436418,-5481.1717603436418,-3769.3403038413931,17258.191766544038,0.0
435012.02908761695,3912225.878295721,-37500.0,8703.145334216897,4416.4886501552801,734.25765341513522,-6161.6333477261751,-2127.4862587442735,2969.6258592559871,7951.2183073482265,3162.1595763854707,5266.4122480757851,-5266.4122480757851,-3162.1595763854707,15384.3599020908,0.0
440012.02908761695,3912225.878295721,-37500.0,8131.1669350781704,3862.9592238950963,583.03389453274349,-5413.3945531618456,-1807.9645999294492,2500.1888117394715,7075.6099303390201,2665.2199564048296,5006.4236408898778,-5006.4236408898778,-2665.2199564048296,13735.608710383427,0.0
445012.02908761695,3912225.878295721,-37500.0,7565.5877143021471,3387.4015858757962,469.5261949696125,-4760.1488451144851,-1541.0911992868182,2109.413943993371,6310.7328753078127,2256.7242999971349,4723.394228528583,-4723.394228528583,-2256.7242999971349,12285.43781931077,0.0
450012.02908761695,3912225.878295721,-37500.0,7019.327714705244,2978.3152055052997,383.68259051108407,-4190.8713526501915,-1317.8203724806012,1783.9790176490601,5641.5959127013411,1919.4518853042189,4432.3185643771913,-4432.3185643771913,-1919.4518853042189,11009.6317020476,0.0
250012.02908761695,3917225.878295721,-37500.0,9328.8334253355097,-291.52821607624134,-231.16788326395849,5160.4526553794931,-288.13893573645436,2105.1843897344593,6324.4893465008427,-1737.1453467402634,7086.2351524551859,-7086.2351524551859,1737.1453467402634,12446.344412845145,0.0
255012.02908761695,3917225.878295721,-37500.0,10254.574160959168,-411.11766285040943,-253.55928634661802,5938.1576088389893,-390.21965889407295,2520.0246380965723,7120.3319665445715,-1991.682628768157,7808.8845960959761,-7808.8845960959761,1991.682628768157,13989.905683523646,0.0
260012.02908761695,3917225.878295721,-37500.0,11273.202758952188,-563.22078791169974,-270.32835427334237,6852.2965556955141,-525.17914142029656,3028.7908976982153,8042.0185811268211,-2286.0897466779111,8605.7349229777319,-8605.7349229777319,2286.0897466779111,15770.060535410343,0.0
265012.02908761695,3917225.878295721,-37500.0,12387.654906089143,-756.07254558595025,-276.32742461709881,7928.7656253169043,-703.97900093680755,3654.9492317286636,9112.9558955140765,-2625.4845062727177,9478.9895397376567,-9478.9895397376567,2625.4845062727177,17828.164120726378,0.0
270012.02908761695,3917225.878295721,-37500.0,13596.857859528092,-999.73260201038011,-263.57925374649676,9198.3002036450525,-941.4061654590339,4428.278427177911,10361.49223742381,-3014.5562285703436,10427.320029271885,-10427.320029271885,3014.5562285703436,20213.296603448736,0.0
275012.02908761695,3917225.878295721,-37500.0,14892.996997257986,-1306.2516345089139,-219.85755389771856,10697.159837658344,-1257.4336683417566,5386.742277213023,11822.076861855518,-3456.5844992672187,11443.413507466725,-11443.413507466725,3456.5844992672187,22983.7027182856,0.0
280012.02908761695,3917225.878295721,-37500.0,16257.198477569273,-1689.6214583156736,-126.57221861653619,12467.696339115524,-1679.0436229548034,6579.063030201979,13536.695275137619,-3951.6842924004786,12510.084850674179,-12510.084850674179,3951.6842924004786,26208.439032499289,0.0
285012.02908761695,3917225.878295721,-37500.0,17652.621573958284,-2165.2402578340671,44.378432740028742,14558.506597079686,-2242.6305776417003,8068.3836631702106,15556.591863437892,-4493.7270681133332,13594.053244171442,-13594.053244171442,4493.7270681133332,29969.143568874377,0.0
290012.02908761695,3917225.878295721,-37500.0,19013.225824706784,-2748.3724570692684,335.26615424361796,17023.439822551984,-2997.0776718557086,9937.6432065236477,17944.165401440991,-5064.9923232591045,14635.852755425132,-14635.852755425132,5064.9923232591045,34361.60064025571,0.0
295012.02908761695,3917225.878295721,-37500.0,20225.220528192309,-3450.6227247409602,809.39341698674491,19917.707977409998,-4007.4935909256251,12297.607567099587,20774.576594136808,-5626.9092608694236,15533.258710380906,-15533.258710380906,5626.9092608694236,39496.150526925456,0.0
300012.02908761695,3917225.878295721,-37500.0,21096.156838230843,-4272.5242099220795,1561.0689113987912,23286.930356137884,-5359.2377074372407,15298.602940696032,24135.722454474588,-6104.0236881237888,16113.839970080795,-16113.839970080795,6104.0236881237888,45494.467997520347,0.0
305012.02908761695,3917225.878295721,-37500.0,21303.744089032472,-5188.5853681781455,2729.8043931635102,27139.356586769827,-7160.8732360414397,19145.805979055775,28123.11328050153,-6356.2251910175883,16089.675132232554,-16089.675132232554,6356.2251910175883,52476.653085903439,0.0
310012.02908761695,3917225.878295721,-37500.0,20314.317408451927,-6117.7538057181473,4519.5812245461002,31379.202090392584,-9541.952969707012,24111.632905914572,32821.46336988447,-6130.9803694237753,14984.982891523465,-14984.982891523465,6130.9803694237753,60524.880820993509,0.0
315012.02908761695,3917225.878295721,-37500.0,17267.387704991233,-6866.235988144881,7222.0743498154407,35653.874963013273,-12634.10927889867,30515.261118021353,38254.68902526857,-4983.59713512296,12031.376792790848,-12031.376792790848,4983.59713512296,69594.451298057043,0.0
320012.02908761695,3917225.878295721,-37500.0,10869.448105705033,-7021.5533753416485,11234.613829691238,39027.567855954891,-16504.169350852022,38563.961809942601,44267.138353502247,-2156.5126926881403,6060.4294443900126,-6060.4294443900126,2156.5126926881403,79319.158843998986,0.0
325012.02908761695,3917225.878295721,-37500.0,-470.28993702708971,-5779.450199759277,17034.781244587859,39388.309653768141,-20959.378612910012,47741.908089059245,50277.349898392669,3547.9461819317175,-4427.2844495492591,4427.2844495492591,-3547.9461819317175,88652.666055832786,0.0
330012.02908761695,3917225.878295721,-37500.0,-17487.139308148871,-1769.7032433308989,24981.568617268633,32870.670355477603,-25054.61750847485,55047.808533680021,54914.261545506692,13663.418606429885,-20385.474840572875,20385.474840572875,-13663.418606429885,95490.755207208145,0.0
335012.02908761695,3917225.878295721,-37500.0,-36621.457063248432,6642.8210549433015,34600.769868074261,15477.940911510341,-26149.920220902659,51902.652372726523,56244.031249150998,28911.545092675788,-39361.983927909911,39361.983927909911,-28911.545092675788,97502.694892553423,0.0
340012.02908761695,3917225.878295721,-37500.0,-47163.635430320355,19192.483994392875,43078.428818369692,-8508.0599788554264,-19486.933615867965,26128.811498708776,55609.180010772434,45965.28142995829,-52350.833963780133,52350.833963780133,-45965.28142995829,96761.503485013745,0.0
345012.02908761695,3917225.878295721,-37500.0,-42140.126372578365,29834.368891916922,45191.819362449161,-20620.333414960245,-2566.8371168915719,-17876.118101429678,57730.203036814783,55489.330467549757,-51065.18532558588,51065.18532558588,-55489.330467549757,100310.60213118653,0.0
350012.02908761695,3917225.878295721,-37500.0,-32194.524320592525,30274.688807583145,39296.945331233954,-11388.680214343396,16455.559660417006,-50388.253812409625,58011.357475442834,50881.069394869904,-41363.475241750231,41363.475241750231,-50881.069394869904,103411.17577463073,0.0
355012.02908761695,3917225.878295721,-37500.0,-28524.578864202933,21813.365461304322,31159.106189665374,4902.3403547370017,25111.818996441762,-54721.978309107973,53165.007816661455,38351.185018382603,-34121.368193752351,34121.368193752351,-38351.185018382603,95934.254872917096,0.0
360012.02908761695,3917225.878295721,-37500.0,-29704.582275737936,12947.491577565526,26143.631710174508,14234.517170603924,21373.837880015872,-40837.735785165598,44400.437324598111,28149.170273440803,-31772.907999683179,31772.907999683179,-28149.170273440803,79662.015671654503,0.0
365012.02908761695,3917225.878295721,-37500.0,-30401.351024851476,8756.851560866513,24151.939681069674,14430.238537087354,11610.427125776067,-22913.234255053128,35434.5310782261,23774.104143020908,-31117.602094613969,31117.602094613969,-23774.104143020908,62311.96324332853,0.0
370012.02908761695,3917225.878295721,-37500.0,-27839.173128956838,8854.901250907993,22768.431799005171,9193.4791343087745,2086.7660282684838,-8431.6008641151257,28603.327747184092,23055.187240048708,-29070.149212590604,29070.149212590604,-23055.187240048708,49572.820876049293,0.0
375012.02908761695,3917225.878295721,-37500.0,-22330.322407263266,10721.231047087509,20617.168582993592,2636.8188557668923,-4411.569323380374,789.74209509214643,24548.83012197075,23021.154611495593,-24868.027581958624,24868.027581958624,-23021.154611495593,42545.907691065368,0.0
380012.02908761695,3917225.878295721,-37500.0,-15588.100259513707,12429.475076494662,17711.113986467015,-2837.724884130962,-7792.7355844557442,5652.3653366950139,22524.823156174982,22213.38083681705,-19412.62525767192,19412.62525767192,-22213.38083681705,39019.456900683515,0.0
385012.02908761695,3917225.878295721,-37500.0,-9147.2304919741255,13248.063757173755,14576.073777930851,-6504.8401362294899,-8980.8149266935088,7688.9579004799043,21027.604848223273,20491.901882688548,-13886.497610552116,13886.497610552116,-20491.901882688548,36637.138409921674,0.0
390012.02908761695,3917225.878295721,-37500.0,-3809.6203881282036,13193.110497463853,11654.711285269832,-8542.2692863904867,-8913.6883970118633,8146.434036216363,19444.269241864702,18231.188839847171,-9045.5637390790289,9045.5637390790289,-18231.188839847171,34302.295992762112,0.0
395012.02908761695,3917225.878295721,-37500.0,227.95153047463711,12536.822212857132,9162.5807256052503,-9400.8690615682863,-8239.156933629627,7815.7401929934258,17753.88825627137,15823.745067841228,-5168.6927891847236,5168.6927891847236,-15823.745067841228,31778.985657041645,0.0
400012.02908761695,3917225.878295721,-37500.0,3087.4312514397989,11552.908405055583,7144.5100592418157,-9504.1403231933473,-7332.5110634249404,7138.3466580593113,16053.892858768566,13525.30354792658,-2239.8530521160083,2239.8530521160083,-13525.30354792658,29139.787305629354,0.0
405012.02908761695,3917225.878295721,-37500.0,4999.3855094451028,10438.948235778218,5558.2764891709903,-9163.8251734529949,-6388.5361058795997,6343.6275237632199,14424.39980544538,11460.822205667435,-117.22011338641732,117.22011338641732,-11460.822205667435,26507.550583727872,0.0
410012.02908761695,3917225.878295721,-37500.0,6196.599875827058,9316.4324644842472,4331.3156528240734,-8585.7680830387744,-5498.890398276717,5545.4349813516419,12910.810409932763,9670.1652208130545,1368.671584756341,-1368.671584756341,-9670.1652208130545,23977.82439063213,0.0
415012.02908761695,3917225.878295721,-37500.0,6874.8410802603257,8251.7166902054269,3389.4069579748684,-7898.3836628041754,-4700.7467764641679,4797.5075416224045,11532.370141232972,8147.7810570028696,2371.9620055882615,-2371.9620055882615,-8147.7810570028696,21608.79671991758,0.0
420012.02908761695,3917225.878295721,-37500.0,7185.9566937117988,7276.2833592594279,2668.0027384323794,-7178.9842362592053,-4003.9258809722064,4122.6035179945438,10292.436612023781,6867.8789590346869,3018.4525922809835,-3018.4525922809835,-6867.8789590346869,19429.270752439235,0.0
425012.02908761695,3917225.878295721,-37500.0,7243.0667918555064,6401.216470286482,2114.9630400836058,-6472.583047089206,-3405.2153697510371,3527.4290189246844,9185.7303646488635,5798.1398417157861,3405.5857041274003,-3405.5857041274003,-5798.1398417157861,17448.364453178474,0.0
430012.02908761695,3917225.878295721,-37500.0,7128.6630372831032,5626.3815560819339,1689.7251702293204,-5804.1348296943816,-2895.7413241025642,3010.4055001578804,8202.7540335618451,4906.3895738290948,3606.8247697475736,-3606.8247697475736,-4906.3895738290948,15663.063188751648,0.0
435012.02908761695,3917225.878295721,-37500.0,6902.1398602796107,4945.8964098248534,1361.3458028760224,-5186.2162407478909,-2464.6958387192876,2565.8408599139789,7332.2931036551481,4163.437153902335,3676.7334711562971,-3676.7334711562971,-4163.437153902335,14063.346521526333,0.0
440012.02908761695,3917225.878295721,-37500.0,6605.8631459335129,4351.2854729168475,1106.4496016065864,-4623.8317161477871,-2101.182965277209,2186.2515567339351,6562.7966802749606,3543.9955804782294,3655.4712343345354,-3655.4712343345354,-3543.9955804782294,12635.531990206542,0.0
445012.02908761695,3917225.878295721,-37500.0,6269.7752510373566,3833.2409086816742,907.45089996088154,-4117.4287185000412,-1795.0789026984924,1863.6664426703148,5883.106737297785,3026.7030340478682,3572.3995011619832,-3572.3995011619832,-3026.7030340478682,11364.379563760476,0.0
450012.02908761695,3917225.878295721,-37500.0,5914.8088497494855,3382.5768418700914,751.13021409487612,-3664.810210590706,-1537.3828275182786,1590.3494859632706,5282.8313675111931,2593.7727407129883,3448.8565922056282,-3448.8565922056282,-2593.7727407129883,10234.403998341875,0.0
250012.02908761695,3922225.878295721,-37500.0,9249.9586163907152,-1073.7335498396462,-72.763402475294043,5133.4149531513785,-666.52300350793973,2099.7625318800133,6332.0300495994734,-2297.8598475374979,7089.3779120314393,-7089.3779120314393,2297.8598475374979,12458.991797340901,0.0
255012.02908761695,3922225.878295721,-37500.0,10128.744381909448,-1317.04241162211,-52.532818710711958,5889.8790551907914,-843.98737840687852,2507.7965229241236,7117.367581163162,-2626.4780945286202,7780.7444108711261,-7780.7444108711261,2626.4780945286202,13984.242600245763,0.0
260012.02908761695,3922225.878295721,-37500.0,11083.788384019934,-1614.8088782382902,-14.203899820128484,6773.3341738113504,-1071.4048863763919,3006.0029917658576,8023.6442616150252,-3004.1831507862253,8532.8429925853452,-8532.8429925853452,3004.1831507862253,15737.520946561512,0.0
265012.02908761695,3922225.878295721,-37500.0,12112.43503806936,-1979.1188372297529,51.300395553856184,7805.6760697179279,-1363.8790542475015,3615.9407869275265,9072.2578053315556,-3436.351051231748,9342.8984010646982,-9342.8984010646982,3436.351051231748,17756.716794716664,0.0
270012.02908761695,3922225.878295721,-37500.0,13206.150307639267,-2424.3223145112706,157.17574486057418,9011.8895096301003,-1741.3225032913376,4364.4894055609739,10288.689387056404,-3927.3064530327288,10202.812017525797,-10202.812017525797,3927.3064530327288,20085.994679878622,0.0
275012.02908761695,3922225.878295721,-37500.0,14347.198908347329,-2967.0518867137403,322.56500459785968,10419.928015254125,-2229.996790392719,5285.1734386617109,11703.269572508359,-4478.896675486917,11096.09517482236,-11096.09517482236,4478.896675486917,22776.580502540532,0.0
280012.02908761695,3922225.878295721,-37500.0,15503.605501824228,-3625.8236720555674,575.18028263073143,12060.083624166649,-2864.4928908171728,6419.8569665766108,13352.021850062469,-5088.0421637313821,11993.197193637578,-11993.197193637578,5088.0421637313821,25887.427600885392,0.0
285012.02908761695,3922225.878295721,-37500.0,16621.442868758619,-4419.7980818871874,955.03811142333632,13963.354660784893,-3690.21358536556,7820.9710002903385,15277.495682423414,-5742.5946658633729,12844.342074593569,-12844.342074593569,5742.5946658633729,29485.51310560479,0.0
290012.02908761695,3922225.878295721,-37500.0,17612.896028689272,-5365.8843864205946,1519.6995077276115,16157.796269993321,-4766.3185802723892,9554.4999149151809,17529.320532533085,-6414.3724307566481,13568.456195587314,-13568.456195587314,6414.3724307566481,33645.178480209324,0.0
295012.02908761695,3922225.878295721,-37500.0,18337.619510296692,-6472.6713707634954,2351.4616442212568,18660.719311452842,-6168.8396545475935,11703.93847905668,20163.806243089301,-7047.4698912503627,14035.935656329071,-14035.935656329071,7047.4698912503627,38445.199997912277,0.0
300012.02908761695,3922225.878295721,-37500.0,18573.659031545154,-7728.2854543407593,3566.7942508702781,21462.171301848277,-7992.9519833625727,14374.922662416247,23240.990955165234,-7538.63540378773,14041.876447963377,-14041.876447963377,7538.63540378773,43960.674836581726,0.0
305012.02908761695,3922225.878295721,-37500.0,17973.183517885267,-9076.6669229494692,5327.6294781571487,24489.957117719416,-10351.507401642481,17697.918909230502,26815.521413884122,-7704.4249088924971,13265.361605683736,-13265.361605683736,7704.4249088924971,50243.384606582506,0.0
310012.02908761695,3922225.878295721,-37500.0,16000.331935392651,-10371.958531682198,7851.8257132909366,27536.14130932073,-13361.95221616548,21818.255449392393,30913.670522112232,-7227.0823959414083,11211.743039486752,-11211.743039486752,7227.0823959414083,57277.647303905906,0.0
315012.02908761695,3922225.878295721,-37500.0,11863.897561477967,-11293.064950772001,11413.43351130964,30107.163748810337,-17100.613263328843,26837.718063409135,35481.237055088226,-5569.9879467823739,7146.9482787661018,-7146.9482787661018,5569.9879467823739,64887.442413769568,0.0
320012.02908761695,3922225.878295721,-37500.0,4519.4351665259692,-11194.592625983705,16304.889464826227,31142.680297300722,-21470.074407992815,32602.154124809767,40276.721200563981,-1866.6961369135088,83.493850498464326,-83.493850498464326,1866.6961369135088,72560.437167863682,0.0
325012.02908761695,3922225.878295721,-37500.0,-6990.425687790259,-8900.4614147573611,22686.378076895802,28605.935447049462,-25852.929676772088,38067.241196561336,44689.796130874543,5133.6271505339446,-10957.027500295377,10957.027500295377,-5133.6271505339446,79192.25767543682,0.0
330012.02908761695,3922225.878295721,-37500.0,-22173.099286283126,-2662.5134447893793,30157.990558633268,19423.948065001794,-28350.431412363469,39795.747636224201,47608.26816814662,16682.496017260099,-25799.400902187466,25799.400902187466,-16682.496017260099,83067.206224853478,0.0
335012.02908761695,3922225.878295721,-37500.0,-36164.897427807133,8753.3861412073857,36901.4652087742,1902.7982479770803,-24825.555396801807,30134.420871231545,48230.542010802914,32191.574768682356,-40445.696369675556,40445.696369675556,-32191.574768682356,83544.567477902179,0.0
340012.02908761695,3922225.878295721,-37500.0,-39535.811865129879,22466.706470704463,39190.029370872755,-16891.679221191269,-10443.35857454301,1360.1115743387713,49490.049074850132,45732.107006155617,-46050.197416660296,46050.197416660296,-45732.107006155617,85721.088717972656,0.0
345012.02908761695,3922225.878295721,-37500.0,-30598.095724845258,29707.636492512647,34208.665134234048,-20757.498373347677,12373.652029138308,-37426.182205634366,54889.720342167428,47779.058742629102,-38714.128839561716,38714.128839561716,-47779.058742629102,95334.249844469101,0.0
350012.02908761695,3922225.878295721,-37500.0,-21986.560748146079,25378.6742574399,24998.412283714504,-6965.579338300674,30926.771487445032,-61312.669283409072,59066.379450127584,37435.647865558902,-28045.040560653095,28045.040560653095,-37435.647865558902,102708.57531856553,0.0
355012.02908761695,3922225.878295721,-37500.0,-21081.299252084838,14993.365542184332,17839.907969098585,9688.8215275600014,36298.538367311943,-61732.652958512008,56610.414253112562,24206.081872744919,-22899.171471969774,22899.171471969774,-24206.081872744919,98276.992081472883,0.0
360012.02908761695,3922225.878295721,-37500.0,-24392.118263520151,6216.189109151017,15368.126552559908,19030.76918119824,30547.716349708127,-48657.457003605647,48725.157899955288,15747.061519107667,-23002.005020105396,23002.005020105396,-15747.061519107667,84477.227768254888,0.0
365012.02908761695,3922225.878295721,-37500.0,-27132.51039152755,2231.6974617825599,16024.846038912308,20384.736376451514,19999.970739777174,-32600.43353666515,39109.718583055917,13210.89902612908,-24739.270696891166,24739.270696891166,-13210.89902612908,67749.443145792713,0.0
370012.02908761695,3922225.878295721,-37500.0,-27064.585271837437,2377.1245483382254,17237.495791445144,16732.256169930693,9627.2529062439753,-18843.884806380232,30548.804948771089,14218.569169845516,-25362.900977202513,25362.900977202513,-14218.569169845516,52924.186463172198,0.0
375012.02908761695,3922225.878295721,-37500.0,-24155.099605270709,4586.907577460931,17484.780573670676,11164.968853804367,1772.2868854670965,-8924.5991640395605,24309.575331554202,16093.125926097924,-23911.326785012181,23911.326785012181,-16093.125926097924,42168.273688565023,0.0
380012.02908761695,3922225.878295721,-37500.0,-19490.241267254954,7094.0215071289103,16511.621031013405,5735.1278592543331,-3194.7794868852097,-2551.4558716060319,20422.455769760072,17289.516494605778,-20766.454776622602,20766.454776622602,-17289.516494605778,35404.788748635852,0.0
385012.02908761695,3922225.878295721,-37500.0,-14297.438865855931,8982.0553575166559,14712.292294051245,1381.7831042510475,-5837.0636732145231,1176.006591491001,18089.05091632386,17389.630541912135,-16802.684908369381,16802.684908369381,-17389.630541912135,31338.24164515303,0.0
390012.02908761695,3922225.878295721,-37500.0,-9437.0450755736292,10017.984166414733,12580.177661131336,-1704.6246194034882,-6914.5631295051089,3149.8875692915353,16439.387667841456,16579.819803893315,-12785.348290750857,12785.348290750857,-16579.819803893315,28623.250622539777,0.0
395012.02908761695,3922225.878295721,-37500.0,-5330.4824420602845,10314.360485151998,10470.353071536274,-3688.1313703520977,-7057.9446220440841,4043.5369701250647,15027.308563149783,15214.050549505533,-9172.2708372888192,9172.2708372888192,-15214.050549505533,26435.394579351439,0.0
400012.02908761695,3922225.878295721,-37500.0,-2085.9454713565851,10086.467832066206,8571.5591824000257,-4833.5371799110271,-6699.5579215883017,4304.7409723872925,13709.058321354021,13602.635552893375,-6151.7810976081964,6151.7810976081964,-13602.635552893375,24418.568389178999,0.0
405012.02908761695,3922225.878295721,-37500.0,355.89243391305445,9536.23080969904,6953.2240495589504,-5389.3298941069879,-6106.3990129041276,4212.789708855239,12458.153448196143,11955.890843334342,-3744.8160630337343,3744.8160630337343,-11955.890843334342,22467.15962711969,0.0
410012.02908761695,3922225.878295721,-37500.0,2120.6380075658267,8816.1942739539281,5617.4880550209436,-5551.4233849180737,-5432.3229750806831,3936.4521367026014,11280.596118995318,10394.66531363003,-1890.7463333319311,1890.7463333319311,-10394.66531363003,20575.14664402726,0.0
415012.02908761695,3922225.878295721,-37500.0,3345.2460387983433,8029.3242393170594,4535.5460734134576,-5462.2691281370135,-4760.7674417378475,3575.9202505895105,10186.157294571523,8977.442803558095,-500.30695241979993,500.30695241979993,-8977.442803558095,18764.580156504784,0.0
420012.02908761695,3922225.878295721,-37500.0,4153.7427323639122,7239.9110915912252,3668.3907523613075,-5221.0550406317379,-4133.5645452154777,3189.6063824583639,9180.7643925840293,7724.5341226742221,517.34720838337444,-517.34720838337444,-7724.5341226742221,17058.236502113137,0.0
425012.02908761695,3922225.878295721,-37500.0,4649.3730641970433,6485.2500984204289,2977.0658489780189,-4895.0072670273457,-3568.8080567628431,2810.521806131082,8265.7377927827147,6635.022158200818,1243.1279182151138,-1243.1279182151138,-6635.022158200818,15471.610418206974,0.0
430012.02908761695,3922225.878295721,-37500.0,4914.2938454695459,5784.9269976646592,2426.9552303478367,-4528.706537783577,-3071.4860477228576,2456.2206422224463,7438.8186923231187,5697.3420554443701,1744.540289119758,-1744.540289119758,-5697.3420554443701,14012.162085369006,0.0
435012.02908761695,3922225.878295721,-37500.0,5012.1577033089343,5147.3960591715977,1989.0342824108895,-4151.0223568368929,-2639.6774297347333,2134.8971661046367,6695.3935625195954,4895.4409346399807,2075.8811442935694,-2075.8811442935694,-4895.4409346399807,12680.824061899346,0.0
440012.02908761695,3922225.878295721,-37500.0,4991.4315843034929,4574.3899987446421,1639.7354951897564,-3780.067304802672,-2268.1165921807469,1849.1785540162468,6029.5053401616387,4212.1771466445134,2279.8592595597966,-2279.8592595597966,-4212.1771466445134,11473.912161204918,0.0
445012.02908761695,3922225.878295721,-37500.0,4888.5544771129053,4063.7687241972458,1360.2716257311426,-3426.6642101460839,-1950.2010226053637,1598.4931692333237,5434.5736340948042,3631.0695689819108,2389.5790026396576,-2389.5790026396576,-3631.0695689819108,10384.777322632732,0.0
250012.02908761695,3927225.878295721,-37500.0,8946.7803644649684,-1791.06482075706,181.89336164786548,5002.4927916929064,-1017.560514377118,2057.2436174352229,6259.6131006477881,-2720.3390591164571,6883.8998424448164,-6883.8998424448164,2720.3390591164571,12316.971212188933,0.0
255012.02908761695,3927225.878295721,-37500.0,9735.7584740658713,-2137.122216494346,263.53691116181272,5712.8037693632268,-1260.2521662865011,2447.8140356397166,7017.1683047522838,-3089.0998516074937,7502.6206138984035,-7502.6206138984035,3089.0998516074937,13790.542136180382,0.0
260012.02908761695,3927225.878295721,-37500.0,10575.449948228765,-2552.3870684216613,379.54631678105244,6533.9635891463704,-1565.9433926820168,2921.3939264910573,7886.3569194199363,-3506.7602373373279,8159.5938363955502,-8159.5938363955502,3506.7602373373279,15475.129168429941,0.0
265012.02908761695,3927225.878295721,-37500.0,11455.812262131896,-3050.1463168011473,543.54840017102902,7481.9243249802439,-1952.150876966014,3496.4480634706251,8885.2971914963127,-3976.118842462055,8845.112523287924,-8845.112523287924,3976.118842462055,17402.721923479363,0.0
270012.02908761695,3927225.878295721,-37500.0,12358.835758922503,-3645.3533982785953,774.52926129057289,8573.4006290485358,-2441.3788294779415,4195.3277474487804,10034.925651026355,-4497.4163627048438,9542.0487513714961,-9542.0487513714961,4497.4163627048438,19609.355730984385,0.0
275012.02908761695,3927225.878295721,-37500.0,13254.742624827579,-4354.0759748474447,1098.9191193543757,9824.7868693643104,-3062.4325075114016,5044.8708445362954,11359.226138834003,-5066.2052581015168,10222.242333488623,-10222.242333488623,5066.2052581015168,22134.972551145631,0.0
280012.02908761695,3927225.878295721,-37500.0,14096.499701951903,-5192.1643258232243,1553.4270900570777,11250.153728398747,-3851.929085455964,6076.9617050786819,12885.289682230425,-5669.9098803181914,10841.258154071766,-10841.258154071766,5669.9098803181914,25022.743130139443,0.0
285012.02908761695,3927225.878295721,-37500.0,14811.88707118144,-6172.5083748372635,2188.820871952883,12857.669870909016,-4855.8785937274333,7328.9493267595835,14643.005010071256,-6282.3227293138507,11330.779900268262,-11330.779900268262,6282.3227293138507,28317.411820921607,0.0
290012.02908761695,3927225.878295721,-37500.0,15292.041954792468,-7299.7458800154309,3074.768158988627,14643.246185759905,-6130.9510421962295,8843.6848346662664,16663.958528112486,-6854.8433904013709,11587.609896463242,-11587.609896463242,6854.8433904013709,32061.819543418918,0.0
295012.02908761695,3927225.878295721,-37500.0,15375.056136962481,-8560.4240614643568,4305.6093011694211,16579.148408309899,-7744.512337996619,10668.574682139249,18978.701099265654,-7302.6060976716253,11457.925876566431,-11457.925876566431,7302.6060976716253,36290.011778972585,0.0
300012.02908761695,3927225.878295721,-37500.0,14823.229669074608,-9905.0705452083876,6006.155134753938,18593.291714090632,-9771.2490636657312,12851.939720492097,21610.702991859736,-7482.7163880739217,10715.451041727509,-10715.451041727509,7482.7163880739217,41013.905685813217,0.0
305012.02908761695,3927225.878295721,-37500.0,13294.222068706207,-11216.03088121879,8334.6230849310668,20531.221539560527,-12281.282745484437,15431.814621392694,24563.772555674193,-7160.8394735566571,9033.6031935535957,-9033.6031935535957,7160.8394735566571,46197.937869364927,0.0
310012.02908761695,3927225.878295721,-37500.0,10313.614557127377,-12251.165698640991,11474.891169085284,22087.056735356491,-15307.851874609165,18403.759733873201,27797.283315436052,-5962.7463950510619,5958.0367863480342,-5958.0367863480342,5962.7463950510619,51712.49860172467,0.0
315012.02908761695,3927225.878295721,-37500.0,5280.2028751606331,-12550.766889212862,15598.45040985074,22685.058000076573,-18767.048349053875,21632.83815053396,31181.149128926416,-3314.6722841525589,907.05772079113808,-907.05772079113808,3314.6722841525589,57255.143901229399,0.0
320012.02908761695,3927225.878295721,-37500.0,-2398.8809784725031,-11306.791690511789,20750.43795496846,21310.040152332527,-22270.303563690428,24628.6705578129,34427.2466226365,1590.2395632501502,-6713.0556307655606,6713.0556307655606,-1590.2395632501502,62245.428827842232,0.0
325012.02908761695,3927225.878295721,-37500.0,-12804.506072476976,-7273.5509376114487,26569.723648787032,16403.009861796469,-24728.322866636569,26038.128738189302,37038.768363575524,9648.2794301873964,-17056.302254069466,17056.302254069466,-9648.2794301873964,65803.047815871221,0.0
330012.02908761695,3927225.878295721,-37500.0,-24281.484489341452,906.13605733927045,31749.399679956288,6372.3245698836918,-23717.638192095837,22808.050068705285,38522.389156775607,21096.625412021451,-28687.846693682332,28687.846693682332,-21096.625412021451,67307.338993955418,0.0
335012.02908761695,3927225.878295721,-37500.0,-31972.960711564854,13039.720188185489,33531.075757092243,-7974.8594454106606,-15330.999238512668,10059.020510606868,39607.200030488835,33578.879959268983,-37022.258081821848,37022.258081821848,-33578.879959268983,68631.031454842727,0.0
340012.02908761695,3927225.878295721,-37500.0,-30059.583617736524,24396.26401829689,28862.183733149024,-19455.228566228539,2862.8644118846505,-14585.306130726502,43751.808914540175,40471.90822012486,-35832.994126315047,35832.994126315047,-40471.90822012486,75796.404804256061,0.0
345012.02908761695,3927225.878295721,-37500.0,-20646.339369928257,27124.72720212875,18529.942251121753,-17947.754913461478,25413.242421908653,-42423.756657326841,51514.812579810736,35652.235456366543,-25541.488365886064,25541.488365886064,-35652.235456366543,89293.404268436294,0.0
350012.02908761695,3927225.878295721,-37500.0,-13956.197486929279,19666.888598586505,8390.180503883852,-4292.9536757740061,40828.284920946913,-58372.122678238367,56690.803026102032,22471.171652752088,-15541.233932313295,15541.233932313295,-22471.171652752088,98392.908774147319,0.0
355012.02908761695,3927225.878295721,-37500.0,-14427.448246604135,8605.0910483088028,3298.4177060423881,10618.079818555145,43724.516056382527,-58177.986392389175,55469.566687755949,10034.651958393666,-12069.655405376861,12069.655405376861,-10034.651958393666,96434.9813728843,0.0
360012.02908761695,3927225.878295721,-37500.0,-18705.343406730994,136.21481240500782,3469.6916879524915,19644.89037452063,37252.566185056799,-48247.512809806314,49196.732180849984,3392.0192326053675,-13826.914548721879,13826.914548721879,-3392.0192326053675,85677.607791061746,0.0
365012.02908761695,3927225.878295721,-37500.0,-22731.522667217909,-3706.888068214862,6512.063217650506,22146.585927050142,26818.081676671278,-35523.481202080984,40781.254278070992,2386.2658277316059,-17290.974173379836,17290.974173379836,-2386.2658277316059,71155.952900559103,0.0
370012.02908761695,3927225.878295721,-37500.0,-24497.014307931928,-3668.2414384752356,9956.8043129968955,20167.04644575862,16370.793865640404,-23848.899101800747,32501.378581054138,4694.5643595008223,-19942.844300008044,19942.844300008044,-4694.5643595008223,56830.111519243328,0.0
375012.02908761695,3927225.878295721,-37500.0,-23701.577821315572,-1434.9269148177682,12352.179066972752,15979.033244973363,7882.6795619647201,-14644.090395570656,25623.130351401131,7988.3526728441766,-20733.010080883927,20733.010080883927,-7988.3526728441766,44876.836807813641,0.0
380012.02908761695,3927225.878295721,-37500.0,-20972.696837591284,1460.3781349015683,13300.742463510764,11262.554236216909,1873.0055142135618,-8035.226618501727,20581.237415859294,10791.44493445415,-19703.134893141872,19703.134893141872,-10791.44493445415,36001.293345699043,0.0
385012.02908761695,3927225.878295721,-37500.0,-17214.894356647874,4062.7380571059557,13038.668368442455,6978.5960303327165,-1925.4717887012198,-3600.9245391478034,17195.969255839074,12521.054117668951,-17427.509564868691,17427.509564868691,-12521.054117668951,29924.728837443214,0.0
390012.02908761695,3927225.878295721,-37500.0,-13206.223430047712,5971.2021623633827,12008.277770997001,3522.0308091842066,-4055.9126949490269,-788.35231564827404,14944.029044489267,13174.834441216417,-14559.942734054215,14559.942734054215,-13174.834441216417,25891.993355552837,0.0
395012.02908761695,3927225.878295721,-37500.0,-9452.7348167645887,7139.9989073853967,10611.156608042946,945.22220505409075,-5054.2937201731784,896.37016737528074,13325.061304533734,13001.843102082597,-11604.516321101635,11604.516321101635,-13001.843102082597,23114.435697330337,0.0
400012.02908761695,3927225.878295721,-37500.0,-6207.4103752160763,7688.2421425469793,9126.0510191491358,-859.94470088617084,-5342.6180280932404,1831.5212378097394,12033.533808604865,12294.02722395023,-8866.6928405366052,8866.6928405366052,-12294.02722395023,21015.499776272136,0.0
405012.02908761695,3927225.878295721,-37500.0,-3548.0879026306484,7779.6764380501818,7714.1224286566749,-2051.15306236377,-5216.8520782355199,2284.9305442379855,10920.371517252006,11294.589628379385,-6490.6999413666717,6490.6999413666717,-11294.589628379385,19261.547836280297,0.0
410012.02908761695,3927225.878295721,-37500.0,-1453.114007480664,7565.2933344488047,6452.0664817389661,-2781.6893865259472,-4870.4032226998725,2438.2845439062385,9920.5754457757248,10176.088764047539,-4516.1549004171357,4516.1549004171357,-10176.088764047539,17690.379115265707,0.0
415012.02908761695,3927225.878295721,-37500.0,145.27117234281471,7164.124700378431,5364.7749555384507,-3180.2931236893155,-4423.4535621202158,2411.7836894884267,9007.6325822618946,9048.5973930723703,-2925.0285094331421,2925.0285094331421,-9048.5973930723703,16234.774206912931,0.0
420012.02908761695,3927225.878295721,-37500.0,1329.2998231387471,6662.1751330854622,4449.0632933049701,-3347.4766950922053,-3947.4085412828572,2283.5307481191271,8170.8820077634336,7975.9113803220835,-1672.8285000074457,1672.8285000074457,-7975.9113803220835,14872.227195203735,0.0
425012.02908761695,3927225.878295721,-37500.0,2179.3098492732447,6117.9989838226793,3688.5753289002491,-3358.4575614689829,-3482.5333912050801,2103.3837370801339,7405.378675893794,6990.721014311066,-706.74600671280723,706.74600671280723,-6990.721014311066,13598.154376971439,0.0
430012.02908761695,3927225.878295721,-37500.0,2766.5439395261624,5569.5012923703289,3062.2706034696462,-3267.9659075985574,-3049.802478201987,1902.4639236176449,6707.6944690060382,6106.1436192065703,24.90054968543609,-24.90054968543609,-6106.1436192065703,12413.313133853881,0.0
435012.02908761695,3927225.878295721,-37500.0,3150.8943495910039,5039.9147356522262,2548.8491252745034,-3114.9739925621284,-2658.5630767402145,1699.577619675586,6074.3782673738515,5323.6733465851512,568.38844341024651,-568.38844341024651,-5323.6733465851512,11318.58223658803,0.0
440012.02908761695,3927225.878295721,-37500.0,3381.0849382703714,4542.4463834906246,2128.8155599841702,-2926.7030063019342,-2311.3825876372216,1505.532368410775,5501.5545912428761,4638.3635908501983,963.14965485416678,-963.14965485416678,-4638.3635908501983,10313.237914871757,0.0
445012.02908761695,3927225.878295721,-37500.0,3495.8932957821421,4083.6641578179047,1785.2504370023134,-2721.7882629921087,-2007.0573221519101,1326.0183579381148,4984.9582566071067,4042.0670198296893,1241.7645659954931,-1241.7645659954931,-4042.0670198296893,9394.7296586833872,0.0
250012.02908761695,3932225.878295721,-37500.0,8450.432995269286,-2409.3045178312527,510.71660543600001,4780.486752191684,-1326.1936090791919,1981.7673230992596,6112.8695812507758,-2992.0833940707644,6495.2713780039439,-6495.2713780039439,2992.0833940707644,12032.170838234977,0.0
255012.02908761695,3932225.878295721,-37500.0,9117.3819891058029,-2829.694832257182,665.02456266306956,5424.7562606821193,-1619.9972946709779,2346.0539641068049,6827.7961812215335,-3366.3655991166443,7009.3296173589215,-7009.3296173589215,3366.3655991166443,13425.281310507451,0.0
260012.02908761695,3932225.878295721,-37500.0,9804.5208888630368,-3325.2553572479287,870.9388194313708,6159.1845144996105,-1984.7406563237232,2783.6637395219241,7641.7288396668846,-3780.7038920997488,7533.7996985462323,-7533.7996985462323,3780.7038920997488,15005.870111512913,0.0
265012.02908761695,3932225.878295721,-37500.0,10494.198154234398,-3907.5940017721709,1146.1149833424938,6992.844122432035,-2438.359181688716,3309.2469584852979,8568.7442425159425,-4233.1360281868674,8051.617378827681,-8051.617378827681,4233.1360281868674,16798.479907577297,0.0
270012.02908761695,3932225.878295721,-37500.0,11159.153516248904,-4588.4282331440727,1514.2716311097613,7933.1808691546912,-3003.1262324013633,3939.7333836889588,9624.3258950038889,-4717.1796716447197,8536.5697769403941,-8536.5697769403941,4717.1796716447197,18829.145432931338,0.0
275012.02908761695,3932225.878295721,-37500.0,11758.639141540969,-5378.1698053555328,2007.1593076189042,8984.0973138314348,-3706.3798828653944,4694.2025420026648,10825.062150700101,-5219.0105129701205,8949.5205175750325,-8949.5205175750325,5219.0105129701205,21124.318045539087,0.0
280012.02908761695,3932225.878295721,-37500.0,12233.165638049783,-6283.3229696034878,2667.0036929213175,10142.861351083615,-4581.0491598737153,5593.3517910562732,12187.976055452391,-5713.1738747092495,9233.2601466362539,-9233.2601466362539,5713.1738747092495,23708.910429115054,0.0
285012.02908761695,3932225.878295721,-37500.0,12497.482548976255,-7301.9060123642021,3549.3506121645496,11395.162616885642,-5665.5992659511667,6658.2533716786629,13729.223937662777,-6156.136128969657,9305.5868985853267,-9305.5868985853267,6156.136128969657,26602.91717122202,0.0
290012.02908761695,3932225.878295721,-37500.0,12431.471247921738,-8415.5975875032982,4725.9406442482232,12707.214336733958,-7002.6030697526221,7907.843050146761,15461.71272257425,-6476.7161283582209,9050.2899669169856,-9050.2899669169856,6476.7161283582209,29815.726463717925,0.0
295012.02908761695,3932225.878295721,-37500.0,11868.978562881561,-9576.5284495749656,6286.5886851575142,14013.064526954189,-8634.3637208164237,9354.0361143689206,17390.856554731283,-6562.1630143366692,8306.054355180042,-8306.054355180042,6562.1630143366692,33336.660860604577,0.0
300012.02908761695,3932225.878295721,-37500.0,10585.983012902789,-10685.50081069553,8337.5579872799171,15194.175747495374,-10592.399554124866,10992.128057865131,19507.218059403556,-6238.6518310706915,6854.6211128911045,-6854.6211128911045,6238.6518310706915,37119.523881411136,0.0
305012.02908761695,3932225.878295721,-37500.0,8293.3600049029774,-11557.123753962,10990.766089784287,16046.965038570097,-12874.354955064942,12781.245233086138,21774.202593009224,-5246.0807343260831,4413.2397427353853,-4413.2397427353853,5246.0807343260831,41058.191633982307,0.0
310012.02908761695,3932225.878295721,-37500.0,4649.6800634552856,-11867.352791572008,14331.633445327394,16233.985425485162,-15395.517858110636,14603.304429715994,24109.116388295468,-3211.975662207069,646.16719480688926,-646.16719480688926,3211.975662207069,44951.521418081757,0.0
315012.02908761695,3932225.878295721,-37500.0,-666.92388939860712,-11085.88902322047,18341.042776407947,15222.21568530064,-17890.952208794857,16176.97810254463,26359.823454730278,354.71911813392217,-4767.1941106066797,4767.1941106066797,-354.71911813392217,48465.950663581287,0.0
320012.02908761695,3932225.878295721,-37500.0,-7744.3324833039214,-8428.255813334461,22729.033118601099,12248.15121116057,-19731.711076867414,16888.47516317667,28297.681876497933,5985.2735687834029,-11925.33335019874,11925.33335019874,-5985.2735687834029,51146.222235328132,0.0
325012.02908761695,3932225.878295721,-37500.0,-15955.038461326267,-2964.2670116449635,26637.263468899317,6461.7001611550158,-19637.647529780817,15518.037653153993,29709.829200782493,13928.961495535314,-20228.236307098963,20228.236307098963,-13928.961495535314,52656.252130788445,0.0
330012.02908761695,3932225.878295721,-37500.0,-23231.861916626076,5771.1231111995658,28295.481097639436,-2379.2901580018311,-15453.932181932005,10031.789893353603,30814.163746820082,23335.780437763769,-27617.449990078447,27617.449990078447,-23335.780437763769,53674.227741425791,0.0
335012.02908761695,3932225.878295721,-37500.0,-25974.408177983492,16297.477830160946,25224.551006822643,-12324.044431427708,-4753.6399074276269,-1771.6823976995665,33103.283955046376,31067.796363851317,-30316.307214450389,30316.307214450389,-31067.796363851317,57342.931812411676,0.0
340012.02908761695,3932225.878295721,-37500.0,-21706.227476553875,23929.505536847668,16168.17268354583,-18121.616523279215,12524.747628625339,-19547.368821184493,38663.997901397815,32026.33424560224,-25237.58843889699,25237.58843889699,-32026.33424560224,67312.821609448016,0.0
345012.02908761695,3932225.878295721,-37500.0,-13558.72251969754,23485.898020146538,3975.3783339823804,-14692.635632166764,31069.89943608817,-37548.534922160485,46047.828451030051,23709.29527234257,-14777.945664454543,14777.945664454543,-23709.29527234257,80634.945140310883,0.0
350012.02908761695,3932225.878295721,-37500.0,-8371.6291128855555,15214.545638020223,-5583.7288983058415,-3517.7209878919607,43052.741339906017,-48100.984459656305,50825.687866978791,10463.402043566479,-6062.1788673083829,6062.1788673083829,-10463.402043566479,89381.99725098745,0.0
355012.02908761695,3932225.878295721,-37500.0,-8987.195946918855,4574.0083642954514,-9106.4204554688858,8732.2619259585717,45158.683426158277,-48785.128569255932,50668.041553427043,-681.41920793837198,-3363.2164988248205,3363.2164988248205,681.41920793837198,89378.893959759007,0.0
360012.02908761695,3932225.878295721,-37500.0,-13148.168997091188,-3594.6262565427705,-7315.7427717897717,17129.308702348597,39663.5331283372,-42640.616784201004,46331.668626924278,-6220.976226209611,-5621.5038506243354,5621.5038506243354,6220.976226209611,81941.597753355381,0.0
365012.02908761695,3932225.878295721,-37500.0,-17659.498710323176,-7629.9337558797552,-2761.7743839354707,20622.941759569163,30570.85122018024,-33727.630872767106,39773.707474302268,-6564.8722997941213,-9869.3549726143083,9869.3549726143083,6564.8722997941213,70525.182349875016,0.0
370012.02908761695,3932225.878295721,-37500.0,-20615.706530125222,-8061.6421710015111,2230.6473414789407,20277.736716163472,21011.014241107267,-24774.681467347804,32737.600475858038,-3726.9007355235271,-13781.663247301607,13781.663247301607,3726.9007355235271,58199.558174473321,0.0
375012.02908761695,3932225.878295721,-37500.0,-21445.06670104454,-6219.1203207507142,6267.0829118122729,17641.597283779065,12723.893959770821,-17092.841851982903,26344.904078144162,283.58751189588293,-16205.94389972986,16205.94389972986,-283.58751189588293,46922.257623602047,0.0
380012.02908761695,3932225.878295721,-37500.0,-20399.157927106327,-3402.9306179453574,8843.6419931502769,14030.925784365259,6355.1491674323806,-11081.92841600101,21144.642236065116,4087.6360863452583,-16916.021933944234,16916.021933944234,-4087.6360863452583,37629.701604266098,0.0
385012.02908761695,3932225.878295721,-37500.0,-18080.906461072504,-535.30708251616034,10038.466903281962,10332.217654773305,1887.8525622945488,-6665.9783751166997,17251.225796445975,7004.0704442096167,-16215.792566024491,16215.792566024491,-7004.0704442096167,30525.970987681179,0.0
390012.02908761695,3932225.878295721,-37500.0,-15121.160173772383,1885.4658952630457,10188.88434545036,7030.1147216611498,-1000.5401692053829,-3573.9310884764886,14475.126406525556,8867.1120683780391,-14595.742212937806,14595.742212937806,-8867.1120683780391,25369.503280655077,0.0
395012.02908761695,3932225.878295721,-37500.0,-12015.507347256791,3683.1018818978309,9670.9424144814984,4318.8355890203538,-2708.8399967903524,-1496.1315844341314,12495.072198103229,9794.7062321454432,-12518.094322043366,12518.094322043366,-9794.7062321454432,21713.996385729552,0.0
400012.02908761695,3932225.878295721,-37500.0,-9083.6860269988774,4871.1187679252998,8794.2965733484543,2218.9991127135181,-3597.3406370226717,-156.26857639275062,11022.556769777428,10010.562205869925,-10327.104429099976,10327.104429099976,-10010.562205869925,19091.743625568404,0.0
405012.02908761695,3932225.878295721,-37500.0,-6494.3876212177174,5548.798416499455,7775.4489846265406,665.832855497987,-3948.5270032845979,665.82088128412488,9861.5829220761225,9742.3042635828751,-8239.5267280542721,8239.5267280542721,-9742.3042635828751,17122.847468354656,0.0
410012.02908761695,3932225.878295721,-37500.0,-4310.2819130071966,5837.767630179068,6748.5577875201097,-436.12356168843382,-3966.417097843364,1134.8840818145579,8895.5004299557768,9178.1327723052964,-6370.0663073051383,6370.0663073051383,-9178.1327723052964,15547.898511724914,0.0
415012.02908761695,3932225.878295721,-37500.0,-2529.6703481446061,5850.6836430198919,5787.4188826476493,-1184.0304000275587,-3790.5600976777687,1369.5354949454577,8059.136739137688,8457.0343315737919,-4763.8802324419676,4763.8802324419676,-8457.0343315737919,14210.913248364173,0.0
420012.02908761695,3932225.878295721,-37500.0,-1117.0499016041383,5679.607982186928,4926.2679724702921,-1663.8776123697162,-3512.5745101537423,1452.9620427880971,7317.0160050064078,7674.0019275011573,-3424.030437080969,3424.030437080969,-7674.0019275011573,13026.476841043441,0.0
425012.02908761695,3932225.878295721,-37500.0,-22.7532843924958,5394.4659528614611,4175.5354662745813,-1946.4099837703627,-3190.4553635556103,1442.3223006914975,6649.6835998681581,6889.8420364756585,-2330.9912698336302,2330.9912698336302,-6889.8420364756585,11950.924862172027,0.0
430012.02908761695,3932225.878295721,-37500.0,805.65058912057873,5045.7690100711534,3532.4887378271837,-2087.3018429893968,-2859.4954163493167,1376.1685640004123,6045.9185215599973,6140.8292962297637,-1455.1298797120712,1455.1298797120712,-6140.8292962297637,10962.910682800879,0.0
435012.02908761695,3932225.878295721,-37500.0,1417.4003463598176,4668.558336651884,2987.8949216011665,-2129.066988171965,-2540.0841905778207,1280.0019049568657,5498.5464980731131,5446.5493605549618,-764.05807354670924,764.05807354670924,-5446.5493605549618,10051.979291842916,0.0
440012.02908761695,3932225.878295721,-37500.0,1855.8941141803732,4286.2334755467791,2529.9588667896414,-2103.45483389219,-2243.0745311844703,1170.3130074468288,5002.3167347377021,4815.7296553169854,-226.61175235100654,226.61175235100654,-4815.7296553169854,9212.4708844281431,0.0
445012.02908761695,3932225.878295721,-37500.0,2157.9152766877141,3913.7528959200235,2146.5045752483857,-2033.7470881037716,-1973.3711145493705,1057.4580780730325,4552.8695020388341,4250.3249699254802,185.25265673815261,-185.25265673815261,-4250.3249699254802,8440.4932779336086,0.0
250012.02908761695,3937225.878295721,-37500.0,7801.1660899352282,-2904.7267314048145,886.6944532913534,4484.2457485162195,-1581.5522578796115,1878.8624617862049,5900.9237942111431,-3113.3484469548957,5958.933279215652,-5958.933279215652,3113.3484469548957,11622.203422862332,0.0
255012.02908761695,3937225.878295721,-37500.0,8326.3722999756519,-3367.4686914406825,1116.5088955388214,5048.673091579928,-1910.1383805575952,2210.3179821831127,6561.7047493824439,-3461.8448202437276,6347.9192327477786,-6347.9192327477786,3461.8448202437276,12912.205719492413,0.0
260012.02908761695,3937225.878295721,-37500.0,8840.4422580489809,-3902.5250201120853,1413.3331051799105,5680.413787054149,-2312.2121650360505,2603.9007646853561,7306.8699483821838,-3834.9883192101734,6718.1716500183829,-6718.1716500183829,3834.9883192101734,14361.974377576287,0.0
265012.02908761695,3937225.878295721,-37500.0,9319.3488739301192,-4517.3901046837309,1797.361650589123,6381.7361953798381,-2804.2601605445188,3070.2140130401012,8146.2609672987392,-4224.9830435582453,7046.3250264656899,-7046.3250264656899,4224.9830435582453,15988.051836829442,0.0
270012.02908761695,3937225.878295721,-37500.0,9728.7593681562194,-5217.5360952501824,2294.7001347813311,7151.281737514787,-3405.8115260692466,3620.6121532274915,9089.8286305908696,-4617.6653305929804,7299.0459355238318,-7299.0459355238318,4617.6653305929804,17806.054237803102,0.0
275012.02908761695,3937225.878295721,-37500.0,10020.620810938281,-6004.1116815726518,2938.7746659073209,7981.6538101917449,-4139.3817476833046,4266.4786513739109,10146.936067001538,-4989.2909051077404,7429.6477301315081,-7429.6477301315081,4989.2909051077404,19828.88436081295,0.0
280012.02908761695,3937225.878295721,-37500.0,10128.944651915723,-6870.1776576634902,3771.728129311557,8855.8205593837938,-5029.7961165713468,5017.8680516439799,11325.204079183843,-5301.96325608187,7373.876969054525,-7373.876969054525,5301.96325608187,22063.914628279192,0.0
285012.02908761695,3937225.878295721,-37500.0,9964.8811131327657,-7794.6984531442513,4845.3952032177567,9741.8107662997718,-6102.3091472283522,5881.1228863622237,12628.670041651061,-5497.267293940602,7044.9495022540541,-7044.9495022540541,5497.267293940602,24508.663942892799,0.0
290012.02908761695,3937225.878295721,-37500.0,9411.5800684558471,-8733.1530409516999,6220.93177428532,10584.97266598126,-7378.4617474646338,6854.812530471766,14054.926753483585,-5487.7019292303985,6328.3304142797688,-6328.3304142797688,5487.7019292303985,27144.308228464459,0.0
295012.02908761695,3937225.878295721,-37500.0,8320.2624926199587,-9603.2411321729651,7965.2267033673625,11296.846349489466,-8867.7989259402493,7922.8696799781501,15590.814841790268,-5145.8119750345768,5077.6941879764809,-5077.6941879764809,5145.8119750345768,29926.232459514969,0.0
300012.02908761695,3937225.878295721,-37500.0,6511.0372252117859,-10263.962439585253,10140.392015300287,11739.653546532743,-10552.126140357588,9042.8744267751954,17206.268269462173,-4292.0287382030065,3115.6477034540253,-3115.6477034540253,4292.0287382030065,32771.03522380552,0.0
305012.02908761695,3937225.878295721,-37500.0,3786.4621430184989,-10487.184414539968,12779.396417727943,11706.255157888992,-12356.580154683237,10125.713332601032,18846.505257669698,-2685.3093957747769,247.33147140038477,-247.33147140038477,2685.3093957747769,35540.935030903885,0.0
310012.02908761695,3937225.878295721,-37500.0,-25.429666995651964,-9925.1409222267048,15835.690024504425,10899.346079759296,-14098.361875226094,11000.04692906843,20425.228943844559,-28.416357396370813,-3696.0427777312034,3696.0427777312034,28.416357396370813,38032.404245119702,0.0
315012.02908761695,3937225.878295721,-37500.0,-4968.0438439310929,-8091.440929793408,19088.745129585048,8926.2085930684207,-15401.495056151061,11352.477556399868,21829.421204805112,3983.0021450905911,-8751.9941442700456,8751.9941442700456,-3983.0021450905911,39994.164244615524,0.0
320012.02908761695,3937225.878295721,-37500.0,-10751.938609274852,-4409.6228017975036,21989.991600174944,5357.2071225122672,-15574.411245774516,10639.940712757478,22967.22567747609,9506.7869696869839,-14615.028109187891,14615.028109187891,-9506.7869696869839,41247.487876697764,0.0
325012.02908761695,3937225.878295721,-37500.0,-16445.838680985973,1547.6776199515082,23478.867990856514,-46.027225622021227,-13498.736000914487,8011.3300689708985,23929.122343389259,16205.327683412321,-20304.794785235263,20304.794785235263,-16205.327683412321,42065.780774404964,0.0
330012.02908761695,3937225.878295721,-37500.0,-20264.877464194564,9460.991794039759,21961.672923437527,-6800.1976708801549,-7733.5408244445034,2401.3173522943257,25318.293966646081,22688.298983925615,-23900.123486847184,23900.123486847184,-22688.298983925615,43890.828778957322,0.0
335012.02908761695,3937225.878295721,-37500.0,-20099.363598237152,17411.184797629514,15931.619569164193,-13002.579714314179,2732.4043171890971,-6857.9440794355878,28370.895585001846,26184.848765352373,-22995.320334675725,22995.320334675725,-26184.848765352373,49350.916718929315,0.0
340012.02908761695,3937225.878295721,-37500.0,-15394.142843787844,21844.13837242232,5559.2254498308012,-15458.2075302624,16916.348628479896,-18796.269519338231,33720.125507316094,23637.180250735913,-16627.757863602277,16627.757863602277,-23637.180250735913,59403.369926177329,0.0
345012.02908761695,3937225.878295721,-37500.0,-8876.4422221744844,19855.698231567774,-6052.2077561163151,-11870.416497160442,30931.294877898348,-30166.531565858917,39745.954173042002,14602.223503599027,-7382.0991253946086,7382.0991253946086,-14602.223503599027,70689.985410941765,0.0
350012.02908761695,3937225.878295721,-37500.0,-4803.615211792131,12192.521667546827,-14467.981478128822,-3410.5701256356301,40041.018509940346,-37238.180546315947,43759.861803504376,2740.4410224614458,-68.979644932280053,68.979644932280053,-2740.4410224614458,78247.426118778618,0.0
355012.02908761695,3937225.878295721,-37500.0,-5090.7213529689561,2708.2886876157404,-17289.70645990191,6123.087952531172,42113.194314333727,-38560.376904497192,44299.889791953043,-7025.8294429084081,2389.8127825524452,-2389.8127825524452,7025.8294429084081,79471.892879873223,0.0
360012.02908761695,3937225.878295721,-37500.0,-8518.4549101492939,-4975.9427728261762,-15170.617573057987,13479.620528360569,38315.942890344122,-35304.801667135354,41632.455525244353,-12076.348670601481,483.71793066425835,-483.71793066425835,12076.348670601481,74881.823374141997,0.0
365012.02908761695,3937225.878295721,-37500.0,-12816.437303368361,-9303.9170059685966,-10266.530732530266,17455.702209458952,31245.225624648472,-29603.338989260701,36922.963207400338,-12552.036984946626,-3637.0743290771388,3637.0743290771388,12552.036984946626,66585.97997692939,0.0
370012.02908761695,3937225.878295721,-37500.0,-16292.044193182594,-10431.376643730144,-4654.2920032331531,18368.351758929875,23245.419892964073,-23238.539854103114,31401.161814947824,-9958.9767857564166,-7974.1778667309427,7974.1778667309427,9958.9767857564166,56782.138090796318,0.0
375012.02908761695,3937225.878295721,-37500.0,-18185.632184857794,-9294.7900007400476,309.46337526648711,17136.582902981561,15824.475520313248,-17293.69083269815,25985.037825081556,-5959.2849102362861,-11329.821136411061,11329.821136411061,5959.2849102362861,47093.273822664225,0.0
380012.02908761695,3937225.878295721,-37500.0,-18443.202932592878,-6945.49151678002,4009.9971855347644,14712.059035114564,9704.6504180234206,-12271.420495901153,21223.409787095596,-1812.4449263375163,-13263.455072351902,13263.455072351902,1812.4449263375163,38474.084101498316,0.0
385012.02908761695,3937225.878295721,-37500.0,-17394.669942972847,-4223.8328827612022,6362.3819144592526,11840.538979621919,5064.1249932722503,-8301.3687194374143,17355.067685799408,1747.2283434475203,-13837.911188588379,13837.911188588379,-1747.2283434475203,31338.619622865692,0.0
390012.02908761695,3937225.878295721,-37500.0,-15496.827284459912,-1666.670576397436,7567.9237912231647,9010.1090186139263,1777.4415417240991,-5311.9907308181646,14382.814427697438,4422.7144805960761,-13361.929340147564,13361.929340147564,-4422.7144805960761,25732.47713040288,0.0
395012.02908761695,3937225.878295721,-37500.0,-13175.359937856178,457.82765512622098,7926.9109523864827,6486.9741900630979,-407.07319230539713,-3146.3194445375398,12159.491397182916,6200.5295017420922,-12203.170970062996,12203.170970062996,-6200.5295017420922,21485.353321444272,0.0
400012.02908761695,3937225.878295721,-37500.0,-10755.089174792061,2068.7650491470945,7728.8751701189803,4379.7435419806106,-1760.4735393266856,-1629.3693695440188,10491.62507056172,7210.8611761302354,-10684.857177363469,10684.857177363469,-7210.8611761302354,18328.661941895123,0.0
405012.02908761695,3937225.878295721,-37500.0,-8448.9247113714664,3192.8127572969202,7205.7846555280794,2700.6490788881711,-2521.5263157651866,-601.32873071563915,9210.5561323120673,7631.3803131277054,-9047.5326429680208,9047.5326429680208,-7631.3803131277054,15979.35589647917,0.0
410012.02908761695,3937225.878295721,-37500.0,-6375.7134230912197,3905.6196848799973,6523.4032885327242,1411.4797070156369,-2879.6229929326664,70.072728713260801,8192.7804619923063,7633.9965662981831,-7448.8512707450391,7448.8512707450391,-7633.9965662981831,14191.741584019637,0.0
415012.02908761695,3937225.878295721,-37500.0,-4586.5093145923529,4295.9532893222731,5790.2780010744109,453.28631741265718,-2975.4766947257544,488.09581151246425,7355.0860220585846,7362.040387974379,-5979.5666308953732,5979.5666308953732,-7362.040387974379,12779.423625783566,0.0
420012.02908761695,3937225.878295721,-37500.0,-3088.795451831144,4447.1233136894871,5071.8710048191597,-236.60430473133735,-2908.9691447604828,730.30748863698477,6643.8934090827661,6924.9706802659503,-4682.8163396670925,4682.8163396670925,-6924.9706802659503,11614.670274005039,0.0
425012.02908761695,3937225.878295721,-37500.0,-1865.0194145901278,4429.3226031579225,4403.8939533521279,-716.03566576833441,-2748.529503561037,853.3829673923766,6025.4982369878489,6401.3797489686749,-3570.8878903392142,3570.8878903392142,-6401.3797489686749,10616.290217472746,0.0
430012.02908761695,3937225.878295721,-37500.0,-885.294127893628,4297.9683829671076,3802.8169203258308,-1034.5304273080587,-2539.5990904905157,897.84389906626393,5478.7683940401885,5844.911920102898,-2637.8051693244297,2637.8051693244297,-5844.911920102898,9735.269089153664,0.0
435012.02908761695,3937225.878295721,-37500.0,-115.39016619905053,4094.8905934748027,3273.3797677583279,-1232.5662625926379,-2311.4106950985283,892.13057052461193,4990.2028123345917,5290.4147704358138,-1867.9494928698798,1867.9494928698798,-5290.4147704358138,8942.8467289030305,0.0
440012.02908761695,3937225.878295721,-37500.0,478.61923157130309,3850.5787196277738,2813.6352558493177,-1342.2005042427434,-2082.0757359176141,855.85939694127001,4550.8067115116273,4759.2358528536888,-1241.5780703655112,1241.5780703655112,-4759.2358528536888,8222.1798973309433,0.0
250012.02908761695,3942225.878295721,-37500.0,7043.7157846078308,-3265.057470686118,1281.3027920486566,4132.8206064864162,-1777.4107747054115,1754.8633007600047,5635.2800677391397,-3095.4696759767539,5315.8615336069033,-5315.8615336069033,3095.4696759767539,11108.591196323099,0.0
255012.02908761695,3942225.878295721,-37500.0,7420.0421880692356,-3738.4282510973203,1581.5286376888641,4609.9403091791864,-2124.006092532265,2049.3623396702101,6234.2260651064389,-3393.1604378222605,5571.4324096610017,-5571.4324096610017,3393.1604378222605,12279.741341497282,0.0
260012.02908761695,3942225.878295721,-37500.0,7756.7613604669968,-4273.7501566994752,1960.0917365963717,5131.6160357867138,-2541.6785866174537,2394.2727212758641,6902.3288130228848,-3696.3634313529392,5781.4976308488285,-5781.4976308488285,3696.3634313529392,13581.190995841034,0.0
265012.02908761695,3942225.878295721,-37500.0,8025.7123881147836,-4872.8834522501002,2437.679887334371,5694.2041522249701,-3044.0262867935612,2796.3412526645861,7645.5227471754361,-3991.5943882445436,5918.525111116759,-5918.525111116759,3991.5943882445436,15021.840238195742,0.0
270012.02908761695,3942225.878295721,-37500.0,8188.8673881461209,-5533.4843978080999,3039.8381273430741,6289.1093519989672,-3646.0545197623696,3261.8015683035496,8468.8594995200492,-4257.7650745317769,5945.342684930738,-5945.342684930738,4257.7650745317769,16607.740743255625,0.0
275012.02908761695,3942225.878295721,-37500.0,8195.8542434023075,-6246.0718093278883,3797.4752575360176,6900.2895564539322,-4363.343906776794,3795.2714855191916,9375.6140129619398,-4463.0503962031435,5812.6525051598965,-5812.6525051598965,4463.0503962031435,18339.955636844701,0.0
280012.02908761695,3942225.878295721,-37500.0,7981.3901553502747,-6989.61401126897,4746.7962000049629,7500.7955480598803,-5210.2867836335536,4397.9405805794122,10365.9732760433,-4560.7865856523031,5456.4332817381901,-5456.4332817381901,4560.7865856523031,20211.478998854342,0.0
285012.02908761695,3942225.878295721,-37500.0,7463.1411597844299,-7725.0616657961955,5927.9677343156536,8048.0835948865142,-6196.7378074833523,5064.685949197552,11435.183264666601,-4484.354675029349,4795.7531990584603,-4795.7531990584603,4484.354675029349,22202.942606284734,0.0
290012.02908761695,3942225.878295721,-37500.0,6541.1335258821864,-8386.1744902192586,7381.2276598028866,8477.8839876053244,-7322.0151086072228,5779.5763197185397,12571.056328663746,-4141.3446054146061,3732.1581336253766,-3732.1581336253766,4141.3446054146061,24276.913755433681,0.0
295012.02908761695,3942225.878295721,-37500.0,5100.9379289108001,-8867.143422068877,9138.1957509472777,8696.6225967874452,-8564.5804502594801,6508.9484782218633,13750.880360874164,-3408.0922730357679,2152.957010562317,-2152.957010562317,3408.0922730357679,26370.930754662983,0.0
300012.02908761695,3942225.878295721,-37500.0,3024.8629586796214,-9007.343307969757,11204.622050097596,8573.1332637915548,-9864.8903105112659,7190.8367714739607,14938.281471886274,-2127.4976624221213,-57.130652598244524,57.130652598244524,2127.4976624221213,28390.62977862656,0.0
305012.02908761695,3942225.878295721,-37500.0,218.63637534546857,-8576.082690283316,13528.809679938971,7932.3252202466629,-11098.011678653605,7719.0362676726745,16081.949928770466,-116.73247315585763,-2988.0081454421397,2988.0081454421397,116.73247315585763,30207.542308372533,0.0
310012.02908761695,3942225.878295721,-37500.0,-3334.6556900858441,-7266.6385465870508,15948.318817853673,6558.188929783958,-12032.620950843775,7920.0120106344712,17121.586465069675,2801.5611069821371,-6647.1656226337964,6647.1656226337964,-2801.5611069821371,31674.448926787529,0.0
315012.02908761695,3942225.878295721,-37500.0,-7479.6717872357249,-4722.6821826371497,18110.19313043803,4223.3624741441945,-12277.192700106913,7523.2297883087731,18013.851127480448,6720.2428876798313,-10857.977529264777,10857.977529264777,-6720.2428876798313,32689.691831588534,0.0
320012.02908761695,3942225.878295721,-37500.0,-11752.238755016853,-643.42512110784105,19377.678532730053,778.30463987628298,-11230.937949416975,6135.8449428240365,18802.419077293031,11487.842082760879,-15109.42762947494,15109.42762947494,-11487.842082760879,33371.573029160369,0.0
325012.02908761695,3942225.878295721,-37500.0,-15257.901055580109,4967.76953320748,18790.725707423109,-3657.1612029336784,-8100.8852901071323,3261.0030039769026,19751.95309092875,16456.344133420054,-18411.167932560238,18411.167932560238,-16456.344133420054,34391.121727533115,0.0
330012.02908761695,3942225.878295721,-37500.0,-16752.799529261778,11400.16875631479,15249.37038075606,-8404.753971274542,-2118.291531383376,-1553.9072404659703,21460.907437842769,20244.228858016329,-19347.76589910355,19347.76589910355,-20244.228858016329,37202.424118491093,0.0
335012.02908761695,3942225.878295721,-37500.0,-15219.787870674125,16920.595153606893,8137.195862899458,-12040.24360763332,6904.2632466055193,-8348.82708321272,24603.637207545675,20882.017271587316,-16663.518621271531,16663.518621271531,-20882.017271587316,43233.117448456549,0.0
340012.02908761695,3942225.878295721,-37500.0,-10906.9495120216,19173.380438360382,-1734.5344867892506,-12773.623129057547,17840.966576365208,-16280.390673048689,29119.642198841822,16812.309419629404,-10419.67839536523,10419.67839536523,-16812.309419629404,52053.305953777381,0.0
345012.02908761695,3942225.878295721,-37500.0,-5833.2077152134498,16651.391159994899,-11795.605969583607,-9606.4245326691234,28140.074713313785,-23582.936958996794,33793.572731078071,8409.5981474119035,-2732.221768130913,2732.221768130913,-8409.5981474119035,61065.703964830936,0.0
350012.02908761695,3942225.878295721,-37500.0,-2619.7846565436712,10089.129512304427,-18953.419353942336,-3331.8904955269995,35017.7035707209,-28399.355408680043,37032.298448293499,-1646.9989650007824,3274.3982680676613,-3274.3982680676613,1646.9989650007824,67288.145873866,0.0
355012.02908761695,3942225.878295721,-37500.0,-2571.6595582740661,2043.0492537407818,-21506.733578496973,3902.0443574575306,37087.934396489996,-29860.704520538995,37898.304193779251,-10038.762468469002,5609.8860617430428,-5609.8860617430428,10038.762468469002,69074.261135820561,0.0
360012.02908761695,3942225.878295721,-37500.0,-5129.2595534240518,-4896.5367603917684,-19795.807858695098,10024.180625755558,34820.712138951552,-28340.793293680599,36407.955855850509,-14783.209904138117,4354.0724202937508,-4354.0724202937508,14783.209904138117,66515.236201242791,0.0
365012.02908761695,3942225.878295721,-37500.0,-8812.9758890389894,-9333.3104057469136,-15376.736088872507,13960.855837387704,29746.343562992439,-24884.793696994602,33198.845564402283,-15719.555917101537,890.11603567765269,-890.11603567765269,15719.555917101537,60798.668736872714,0.0
370012.02908761695,3942225.878295721,-37500.0,-12263.916198096545,-11103.22615632952,-9945.8321978463573,15614.53781849422,23492.204903149512,-20569.326412249458,29078.172509377298,-13814.928711152328,-3225.1281795510495,3225.1281795510495,13814.928711152328,53390.479783539668,0.0
375012.02908761695,3942225.878295721,-37500.0,-14680.702656518,-10760.158603207554,-4755.6984446926863,15437.484735901178,17275.827291931706,-16191.394416496461,24740.732669678837,-10341.523213323904,-6872.8946288273773,6872.8946288273773,10341.523213323904,45534.986445073439,0.0
380012.02908761695,3942225.878295721,-37500.0,-15804.992703800364,-9085.2405478387245,-493.81427771042451,14051.152408354697,11806.445478950029,-12223.534951701433,20670.266752133059,-6387.4105553546215,-9488.7872136043115,9488.7872136043115,6387.4105553546215,38085.805620266372,0.0
385012.02908761695,3942225.878295721,-37500.0,-15742.943274652047,-6791.12377012863,2610.5748424724156,12026.962757809111,7379.1254853926175,-8880.4888977340979,17141.521060873718,-2682.7197340487392,-10945.9598263886,10945.9598263886,2682.7197340487392,31522.226937837146,0.0
390012.02908761695,3942225.878295721,-37500.0,-14778.93858392633,-4398.9091093419192,4617.1090043270187,9796.9281743886841,4017.5559939920959,-6207.1468055909472,14254.092863895912,389.7072422178926,-11381.302221811387,11381.302221811387,-389.7072422178926,26035.288986325184,0.0
395012.02908761695,3942225.878295721,-37500.0,-13238.386715931334,-2224.6915131599012,5724.0792328089037,7641.8771964458801,1600.3851926411669,-4153.2418876711445,11976.470559050569,2705.8584995842266,-11045.386175365333,11045.386175365333,-2705.8584995842266,21623.240702995241,0.0
400012.02908761695,3942225.878295721,-37500.0,-11408.962936069918,-419.08271181371089,6165.6664584737191,5716.6209802606263,-49.710249812715062,-2626.018210240105,10206.459489490002,4299.9283419498133,-10202.521831671049,10202.521831671049,-4299.9283419498133,18172.07441224084,0.0
405012.02908761695,3942225.878295721,-37500.0,-9508.7700957058805,979.05902102775292,6155.7433658174041,4086.0477511574932,-1113.3391932460909,-1522.5583038292777,8828.1097176642106,5282.9714941423517,-9078.7728911909035,9078.7728911909035,-5282.9714941423517,15515.735222746127,0.0
410012.02908761695,3942225.878295721,-37500.0,-7683.8383438327974,1995.1595785896125,5865.3630313136346,2758.4073396400081,-1748.8764748815859,-746.90028634572616,7740.6736081341314,5789.175676000953,-7844.1189723079269,7844.1189723079269,-5789.175676000953,13477.986571046471,0.0
415012.02908761695,3942225.878295721,-37500.0,-6019.7280633739065,2684.6848235802195,5419.8560891835723,1710.6750724321726,-2083.8891439556483,-217.33464707920049,6865.6679666513664,5946.1007114124204,-6613.9621249000302,6613.9621249000302,-5946.1007114124204,11898.928291155142,0.0
420012.02908761695,3942225.878295721,-37500.0,-4557.2549040315898,3111.7578939539603,4905.0138024413527,905.63212337284392,-2215.5705826774993,131.91446918527424,6145.3397092865762,5861.5357637918914,-5458.9968364498527,5458.9968364498527,-5861.5357637918914,10648.405377593283,0.0
425012.02908761695,3942225.878295721,-37500.0,-3307.1460887124649,3337.518089523352,4376.023028671817,302.25625763679477,-2215.0632768812557,351.81225726600178,5538.7417991543243,5620.1534947045157,-4416.9361813037603,4416.9361813037603,-5620.1534947045157,9628.9844526620927,0.0
430012.02908761695,3942225.878295721,-37500.0,-2261.679550390053,3414.85137152077,3866.0274251751248,-138.58673562477782,-2132.8244770161546,480.75995998011348,5017.5388721220852,5285.0920216954146,-3503.0158365863194,3503.0158365863194,-5285.0920216954146,8772.2842405243282,0.0
435012.02908761695,3942225.878295721,-37500.0,-1403.0515780110945,3386.8445546901576,3393.1251895933106,-451.47031668523698,-2003.6740323003196,547.07198924783484,4562.3386355466482,4901.493037746116,-2718.2242082095681,2718.2242082095681,-4901.493037746116,8032.4908654185429,0.0
255012.02908761695,3947225.878295721,-37500.0,6454.3169862238265,-3944.6413418983648,2026.7684929937639,4133.8774690124492,-2260.9863524616171,1872.0629048889573,5862.1816319953668,-3187.9006043392205,4732.9168059504082,-4732.9168059504082,3187.9006043392205,11558.35968316971,0.0
260012.02908761695,3947225.878295721,-37500.0,6623.160894034324,-4446.6141636677885,2470.1648911988341,4545.7852727286509,-2674.5748834007131,2166.8163004633734,6450.1597209220026,-3403.2842815756162,4790.5091349847717,-4790.5091349847717,3403.2842815756162,12703.105048431094,0.0
265012.02908761695,3947225.878295721,-37500.0,6699.7701914657991,-4990.6443634142415,3016.8975790257723,4973.2315672474688,-3162.6829856442141,2503.9782733534371,7095.4532782432643,-3586.2401957588563,4751.8619864672028,-4751.8619864672028,3586.2401957588563,13951.416935585077,0.0
270012.02908761695,3947225.878295721,-37500.0,6646.0847757188722,-5566.5610086115412,3689.1483935780821,5402.5463472071378,-3734.9213797330044,2885.5152295785897,7799.2727619639991,-3710.7942065939765,4579.6481546020932,-4579.6481546020932,3710.7942065939765,15301.530309029218,0.0
275012.02908761695,3947225.878295721,-37500.0,6414.3429553679316,-6155.09166133505,4511.6865434361562,5812.3227377172125,-4399.2224022902492,3310.7145818323652,8560.4213148850886,-3740.4296261483237,4227.0001149859745,-4227.0001149859745,3740.4296261483237,16745.497669899774,0.0
280012.02908761695,3947225.878295721,-37500.0,5946.3667468074782,-6723.4990781688812,5510.3033669737979,6170.5863617741361,-5159.343886267633,3774.2699257148197,9374.1190288691541,-3625.0984323741454,3636.8023506409822,-3636.8023506409822,3625.0984323741454,18266.422739752721,0.0
285012.02908761695,3947225.878295721,-37500.0,5174.1846997522316,-7219.759122497916,6708.3890296138215,6431.3654892135746,-6010.7294672423823,4263.450870811831,10230.564818405306,-3298.1747183266853,2742.3674966706703,-2742.3674966706703,3298.1747183266853,19835.050504851242,0.0
290012.02908761695,3947225.878295721,-37500.0,4023.3563001823104,-7565.2485417100188,8120.3299919857982,6530.8861609450105,-6933.8869548968769,4754.023018790911,11113.377841422207,-2674.2271565981305,1470.9489966534297,-1470.9489966534297,2674.2271565981305,21406.033927527766,0.0
295012.02908761695,3947225.878295721,-37500.0,2421.2556501820341,-7646.5128230640112,9739.741805530386,6384.0836492153767,-7884.1814566029843,5204.5232219744012,11998.383174432231,-1649.4848515979263,-247.47288129629601,247.47288129629601,1649.4848515979263,22914.962616023076,0.0
300012.02908761695,3947225.878295721,-37500.0,313.81223019269322,-7308.1179937455017,11519.829015437846,5883.0893118345566,-8776.7897461834618,5548.5039587464444,12853.943738463337,-108.66098883477025,-2462.2985391122584,2462.2985391122584,108.66098883477025,24279.021117811724,0.0
305012.02908761695,3947225.878295721,-37500.0,-2304.5213761715463,-6351.5934563936135,13342.906144699018,4901.2439498830117,-9465.9743032605529,5684.6378060013149,13645.57415351782,2055.3112169941146,-5169.9558439555367,5169.9558439555367,-2055.3112169941146,25408.023669855069,0.0
310012.02908761695,3947225.878295721,-37500.0,-5342.9189778627597,-4551.0293446488713,14977.929498199994,3309.4905923773845,-9719.9343043679528,5465.6547699349539,14350.381770514268,4898.3029819564081,-8261.5140897015517,8261.5140897015517,-4898.3029819564081,26240.196583708981,0.0
315012.02908761695,3947225.878295721,-37500.0,-8549.1922508500575,-1704.1811655979984,16032.454023712087,1016.6157493803312,-9198.643838384236,4690.2500624675968,14990.440927357946,8346.1537610078394,-11449.869652422518,11449.869652422518,-8346.1537610078394,26828.180090987335,0.0
320012.02908761695,3947225.878295721,-37500.0,-11447.261704181348,2255.484143332746,15925.145452902378,-1952.5107877682667,-7455.9321116995152,3109.3717853475719,15692.211703425386,12074.929818392095,-14195.612497553098,14195.612497553098,-12074.929818392095,27498.462605465134,0.0
325012.02908761695,3947225.878295721,-37500.0,-13337.45737052766,7073.0449471796928,13940.930796158123,-5337.3595595351753,-4009.3994910300694,470.30038284097009,16748.540931896223,15381.141938692308,-15695.080916683837,15695.080916683837,-15381.141938692308,29015.224072095571,0.0
330012.02908761695,3947225.878295721,-37500.0,-13467.933199571589,11967.916639175977,9462.9883163034465,-8523.8946675138741,1464.229076192614,-3370.661935872803,18575.880289222561,17155.193584705125,-15051.739969266666,15051.739969266666,-17155.193584705125,32408.912986795418,0.0
335012.02908761695,3947225.878295721,-37500.0,-11453.870893582491,15605.861648864053,2422.0802605151739,-10559.290549430667,8801.243124674198,-8265.0340191238138,21434.858004384154,16158.027482893551,-11733.875858250729,11733.875858250729,-16158.027482893551,38157.211665498537,0.0
340012.02908761695,3947225.878295721,-37500.0,-7775.848209070833,16519.989874981795,-6241.966251703011,-10467.258681729309,17059.410215827163,-13616.031006487019,25063.206693784392,11701.870043698151,-6170.3874978844815,6170.3874978844815,-11701.870043698151,45452.280691532782,0.0
345012.02908761695,3947225.878295721,-37500.0,-3847.2692827030642,13958.259897392536,-14608.290107297091,-7822.990483191129,24614.770778896316,-18448.023298926058,28642.261688091483,4374.7247154026782,65.821824530075901,-65.821824530075901,-4374.7247154026782,52513.045892319344,0.0
350012.02908761695,3947225.878295721,-37500.0,-1307.2086222610187,8516.5970489368519,-20585.27428873047,-3148.6011900531071,29812.276279770442,-21788.626492135973,31212.600955449558,-3949.0418083798572,4948.1332958170624,-4948.1332958170624,3949.0418083798572,57532.112514240871,0.0
355012.02908761695,3947225.878295721,-37500.0,-1046.227970518946,1869.0798500066221,-22968.346553764397,2309.9493620389326,31749.137694163826,-23115.724040311419,32162.828296597352,-11047.36384181468,7120.8942541962961,-7120.8942541962961,11047.36384181468,59450.340954695763,0.0
360012.02908761695,3947225.878295721,-37500.0,-2850.7813637298873,-4180.0208367684227,-21858.880695765372,7246.3443679661959,30558.19306865774,-22510.232662448234,31413.714798279379,-15444.295943320918,6466.0475995381048,-6466.0475995381048,15444.295943320918,58184.781481353573,0.0
365012.02908761695,3947225.878295721,-37500.0,-5807.6417040918159,-8470.5515111734385,-18275.963138814244,10820.848622856116,27093.500480391984,-20468.790494897894,29294.193168667007,-16813.517444968365,3805.1695605577188,-3805.1695605577188,16813.517444968365,54371.911276405255,0.0
370012.02908761695,3947225.878295721,-37500.0,-8911.0933627631111,-10663.168307261951,-13496.599841146421,12775.022812450834,22420.190190672674,-17611.792709581856,26308.986798282218,-15691.030134100156,257.39443707862119,-257.39443707862119,15691.030134100156,48944.252050127805,0.0
375012.02908761695,3947225.878295721,-37500.0,-11435.85911564751,-11009.515360315547,-8590.6780231783414,13271.149221525242,17452.828388644197,-14480.070658871853,22953.13495172777,-12973.887254518762,-3233.3798078160189,3233.3798078160189,12973.887254518762,42799.833634846531,0.0
380012.02908761695,3947225.878295721,-37500.0,-13028.407992766552,-10034.409660771396,-4246.3932669008591,12673.813555797524,12813.358211496399,-11454.929787109437,19617.496446870078,-9538.404558334114,-6079.9618332724112,6079.9618332724112,9538.404558334114,36637.037753704302,0.0
385012.02908761695,3947225.878295721,-37500.0,-13639.13734218364,-8296.1546842626612,-788.44541880600855,11384.68055799475,8836.0896609408901,-8758.180245413414,16563.103054481951,-6051.8752721793562,-8037.0407851294158,8037.0407851294158,6051.8752721793562,30915.711094768736,0.0
390012.02908761695,3947225.878295721,-37500.0,-13406.004813348171,-6256.8268243176462,1722.8234365004212,9750.473491338269,5636.4704010669329,-6486.4969700042029,13928.211968784726,-2929.7438951051904,-9104.1510871548217,9104.1510871548217,2929.7438951051904,25885.231864187892,0.0
395012.02908761695,3947225.878295721,-37500.0,-12548.797008310999,-4238.6626989145007,3382.0240912476283,8028.0511098582674,3191.1099527777324,-4652.7568044836153,11747.58220865466,-371.32797312421462,-9418.1770738796295,9418.1770738796295,371.32797312421462,21636.664586059764,0.0
400012.02908761695,3947225.878295721,-37500.0,-11295.657299940396,-2431.6604869528946,4351.6856250286628,6384.2132568821571,1404.3993109127814,-3221.6772788996182,9985.1190614272655,1576.6345706751472,-9168.3956296976812,9168.3956296976812,-1576.6345706751472,18155.512303598618,0.0
405012.02908761695,3947225.878295721,-37500.0,-9842.7534661330446,-923.50711671580791,4805.7972680610064,4911.9224730943315,154.61455451301583,-2135.7559265664654,8573.8838096836716,2958.1223651971382,-8542.4394901860451,8542.4394901860451,-2958.1223651971382,15365.310459956083,0.0
410012.02908761695,3947225.878295721,-37500.0,-8339.0314720562237,266.63673991410985,4899.8316287311281,3650.9624545524084,-678.78872804440755,-1331.8244997855343,7443.7785949360896,3860.3098297596498,-7699.0310349688443,7699.0310349688443,-3860.3098297596498,13159.98177535532,0.0
415012.02908761695,3947225.878295721,-37500.0,-6886.2741891737169,1159.5446912596055,4759.069616834845,2606.7477752955524,-1201.7179668888896,-750.30484078032202,6532.8463594258883,4382.4776332742049,-6759.072095848097,6759.072095848097,-4382.4776332742049,11426.289482606944,0.0
420012.02908761695,3947225.878295721,-37500.0,-5546.5369028669793,1795.287343724315,4477.5382662704851,1764.9001790283646,-1500.75912256987,-339.50178179333267,5790.1586724903536,4618.5276425266165,-5807.1305735863461,5807.1305735863461,-4618.5276425266165,10058.340220134472,0.0
425012.02908761695,3947225.878295721,-37500.0,-4351.7925188404561,2220.0164578110121,4121.9798356471174,1101.388566004156,-1643.3319271278608,-56.875777489388398,5175.6772098082492,4648.9377160616286,-4897.5447408093669,4897.5447408093669,-4648.9377160616286,8965.6672919594675,0.0
430012.02908761695,3947225.878295721,-37500.0,-3313.0535043989103,2478.4281853695652,3737.4695794437253,588.99148759656839,-1680.0807459852117,131.31329190674279,4658.9758254244616,4538.4585728825896,-4061.6913436448558,4061.6913436448558,-4538.4585728825896,8076.2315743974186,0.0
435012.02908761695,3947225.878295721,-37500.0,-2427.8248222976995,2610.0753750383574,3352.9182317000173,201.05288810439112,-1647.9823693181004,251.11221051100571,4217.5091090669885,4336.8647097399007,-3314.6626923181802,3314.6626923181802,-4336.8647097399007,7335.7843539686128,0.0
255012.02908761695,3952225.878295721,-37500.0,5479.0765183499452,-3999.548498527929,2425.0904554849703,3643.6924625306674,-2325.5269186502719,1686.7195742821964,5462.6817358966146,-2879.0533331122829,3880.5488525047635,-3880.5488525047635,2879.0533331122829,10778.212839781963,0.0
260012.02908761695,3952225.878295721,-37500.0,5499.5979563958945,-4442.6546000522885,2911.8134530343368,3952.2391431171482,-2718.8018963309482,1932.4780448906281,5972.1659372657696,-2999.4862381123394,3803.6463074486774,-3803.6463074486774,2999.4862381123394,11765.959762977576,0.0
265012.02908761695,3952225.878295721,-37500.0,5412.8079591395544,-4903.7990036392375,3498.7009112511619,4255.647132554599,-3173.4090828825233,2207.5217073576532,6523.5744402329037,-3066.5187868380399,3616.4921348084818,-3616.4921348084818,3066.5187868380399,12825.260695919846,0.0
270012.02908761695,3952225.878295721,-37500.0,5183.7938790907028,-5366.2422723088066,4202.4844166248786,4537.4369935546329,-3693.5448612805449,2510.5847535730932,7115.3723457326259,-3051.9488277256282,3284.8803339599358,-3284.8803339599358,3051.9488277256282,13948.736953341237,0.0
275012.02908761695,3952225.878295721,-37500.0,4771.2424892287527,-5803.3440084357226,5039.475480109164,4774.0068117313049,-4279.9746697094952,2837.2118897541145,7743.475845301793,-2918.4378016876581,2768.4037206822986,-2768.4037206822986,2918.4378016876581,15122.684013938395,0.0
280012.02908761695,3952225.878295721,-37500.0,4128.3731303145478,-6174.876909613612,6022.8218369241204,4932.6822261300467,-4927.2443392913337,3178.003822583582,8400.4342726314844,-2617.9688525514362,2021.4768829511172,-2021.4768829511172,2617.9688525514362,16325.046717994252,0.0
285012.02908761695,3952225.878295721,-37500.0,3205.6985178201357,-6422.6738918654191,7157.71355832065,4969.7449210580216,-5619.46269198547,3516.1996315698034,9074.650132834513,-2091.0963490537779,996.29917094716916,-996.29917094716916,2091.0963490537779,17523.416478960258,0.0
290012.02908761695,3952225.878295721,-37500.0,1956.8474914705287,-6466.1116631168479,8433.4872880988696,4828.9314719144386,-6324.1599381148035,3824.4681965999093,9749.9613420416808,-1268.1570504507213,-350.89056822001749,350.89056822001749,1268.1570504507213,18673.818515216517,0.0
295012.02908761695,3952225.878295721,-37500.0,349.15037749315917,-6198.722729750999,9811.3531693069581,4441.379821298754,-6983.7620713275146,4060.8614387035309,10406.301561000264,-74.473549914703426,-2048.3666737123176,2048.3666737123176,74.473549914703426,19722.017404626284,0.0
300012.02908761695,3952225.878295721,-37500.0,-1618.9744963595019,-5488.6833283944234,11206.560832715842,3728.8114810832735,-7504.563948628188,4164.1027246925441,11022.872274892603,1557.1760327825705,-4089.9199206292569,4089.9199206292569,-1557.1760327825705,20610.962054507472,0.0
305012.02908761695,3952225.878295721,-37500.0,-3892.1931144073433,-4188.2982049232169,12464.927837575158,2612.9515487695267,-7744.1360784462368,4048.9130918213218,11586.394020859347,3662.1669731912216,-6406.2353895912047,6406.2353895912047,-3662.1669731912216,21301.313167544031,0.0
310012.02908761695,3952225.878295721,-37500.0,-6324.8739032280691,-2160.7705443674181,13337.096396984813,1035.6306292369554,-7500.6058920406549,3603.2113045082069,12108.207671897875,6202.5501082809669,-8827.0809173578891,8827.0809173578891,-6202.5501082809669,21816.413137040548,0.0
315012.02908761695,3952225.878295721,-37500.0,-8648.1115442005412,665.09170985652963,13461.698214339869,-1005.3556721024889,-6512.1598830110161,2691.1948767030785,12652.978458637703,9006.4817867831462,-11042.220017169735,11042.220017169735,-9006.4817867831462,22322.580271141578,0.0
320012.02908761695,3952225.878295721,-37500.0,-10459.270459193802,4205.2890819656195,12382.114662755588,-3402.7849912150518,-4482.6265675209443,1169.6143593941697,13371.356054115142,11698.964459603854,-12584.594062377348,12584.594062377348,-11698.964459603854,23225.24549800465,0.0
325012.02908761695,3952225.878295721,-37500.0,-11274.702580276762,8109.5324090364547,9636.0274703227169,-5879.8915489959409,-1155.3431573046964,-1072.7447736494023,14500.097999343283,13662.104718663206,-12881.271909533672,12881.271909533672,-13662.104718663206,25159.999277665913,0.0
330012.02908761695,3952225.878295721,-37500.0,-10689.56368381354,11688.393908956976,4951.5845007676844,-7961.1467864068609,3550.4322580107169,-4046.5384765903109,16269.32298294903,14100.489678196127,-11425.954144653866,11425.954144653866,-14100.489678196127,28682.445805908708,0.0
335012.02908761695,3952225.878295721,-37500.0,-8634.9671936571776,13991.641500718064,-1479.1771154442554,-9038.8398102971769,9369.461250533921,-7579.6358734499954,18723.061398257898,12291.544282705956,-8074.6664377759225,8074.6664377759225,-12291.544282705956,33771.699836205356,0.0
340012.02908761695,3952225.878295721,-37500.0,-5593.7187261769877,14128.633016502696,-8807.7015420154821,-8580.9739578524568,15592.920144910431,-11273.951637975902,21591.430353162352,7994.7212284179095,-3323.8886820960711,3323.8886820960711,-7994.7212284179095,39667.495400920168,0.0
345012.02908761695,3952225.878295721,-37500.0,-2541.5143941411961,11737.019332264712,-15652.009314997043,-6414.4789207743761,21184.77340496816,-14570.32699523492,24337.655382405959,1780.2607897743653,1696.0742359017565,-1696.0742359017565,-1780.2607897743653,45188.129898282299,0.0
350012.02908761695,3952225.878295721,-37500.0,-528.68274184115603,7272.4682673693442,-20599.574876205999,-2886.7107647346106,25134.91626135039,-16930.502943247884,26368.72439518349,-5050.2342027181403,5651.6233965786814,-5651.6233965786814,5050.2342027181403,49209.947983426879,0.0
355012.02908761695,3952225.878295721,-37500.0,-165.83324870503415,1842.0131079792327,-22797.535186449721,1252.1711153121275,26850.964784423508,-18035.962350373458,27279.066503866918,-10996.437586339533,7613.6147163177093,-7613.6147163177093,10996.437586339533,51038.3167358629,0.0
360012.02908761695,3952225.878295721,-37500.0,-1400.8348231668597,-3308.0766219277375,-22219.270613139539,5171.5205956269519,26327.948161497872,-17873.934665417928,26966.61282649506,-14975.110803997188,7398.8530736652829,-7398.8530736652829,14975.110803997188,50540.80200820374,0.0
365012.02908761695,3952225.878295721,-37500.0,-3685.4681818482809,-7266.2068924912583,-19495.958267816088,8255.5490007147127,24030.158729582075,-16678.76521097359,25592.320951879046,-16615.065990796385,5470.4176216833712,-5470.4176216833712,16615.065990796385,48047.560937183254,0.0
370012.02908761695,3952225.878295721,-37500.0,-6313.2262507844171,-9640.7716167241942,-15536.053973726712,10221.85870139948,20631.161087421755,-14801.60027275603,23463.080111267882,-16165.549080609691,2591.0800296599828,-2591.0800296599828,16165.549080609691,44136.756507116384,0.0
375012.02908761695,3952225.878295721,-37500.0,-8689.1914307232892,-10485.501535777026,-11193.754082585558,11079.74615831468,16782.805183568478,-12592.958719059498,20918.000061250848,-14216.07998876917,-500.75424730484883,500.75424730484883,14216.07998876917,39431.487481756398,0.0
380012.02908761695,3952225.878295721,-37500.0,-10447.997815581282,-10116.494658411953,-7095.066371257798,11019.069403885438,12987.328394485499,-10334.925203948576,18254.907884795321,-11428.535545222687,-3268.1895155251141,3268.1895155251141,11428.535545222687,34469.957507275729,0.0
385012.02908761695,3952225.878295721,-37500.0,-11452.26195529601,-8939.0823623104152,-3602.567088529232,10301.586654315965,9563.3677845695001,-8219.2861872813301,15697.740333519734,-8368.7821546732666,-5416.266366035974,5416.266366035974,8368.7821546732666,29650.558542898048,0.0
390012.02908761695,3952225.878295721,-37500.0,-11732.699887458555,-7332.314864285705,-858.63271897098366,9185.1197731277989,6667.8878299654325,-6354.0603180206244,13389.515165642872,-5438.2953040855764,-6853.0279249978894,6853.0279249978894,5438.2953040855764,25228.107268198666,0.0
395012.02908761695,3952225.878295721,-37500.0,-11416.169541260282,-5592.8567606888319,1144.4191208086331,7883.2770487433327,4340.0763584538263,-4782.5342041997528,11397.094144977716,-2873.2313489308026,-7622.4313792508956,7622.4313792508956,2873.2313489308026,21336.31271400749,0.0
400012.02908761695,3952225.878295721,-37500.0,-10665.858772694395,-3921.8247720147488,2497.8909823102172,6552.0771744666954,2546.096315666618,-3504.5036668132116,9726.2812183981605,-776.95404333795932,-7840.1029292213407,7840.1029292213407,776.95404333795932,18018.826874077888,0.0
405012.02908761695,3952225.878295721,-37500.0,-9641.4794929936324,-2435.7440313091115,3326.7786719562573,5292.7944847821327,1214.9861274475682,-2494.5322216570648,8347.1849149548489,838.19991966542284,-7645.2648476543527,7645.2648476543527,-838.19991966542284,15259.071368479223,0.0
410012.02908761695,3952225.878295721,-37500.0,-8478.1352809307537,-1187.0282913299791,3758.1973798921977,4162.3023043938019,263.29167971269402,-1715.4189398761773,7217.1430995077681,2013.3300138698178,-7170.9690306919038,7170.9690306919038,-2013.3300138698178,13004.640706090991,0.0
415012.02908761695,3952225.878295721,-37500.0,-7278.8325764039737,-185.07662874405861,3904.7634069766318,3185.2279629134318,-390.23090312282011,-1127.0082369473296,6292.8159203713512,2814.7408210692502,-6529.3125352276111,6529.3125352276111,-2814.7408210692502,11185.476115291773,0.0
420012.02908761695,3952225.878295721,-37500.0,-6115.2588985946859,586.21588303782664,3858.1747249306845,2364.9207510847814,-817.21502102847592,-691.28887253194432,5534.7932702446969,3315.4163600701136,-5806.7944767906338,5806.7944767906338,-3315.4163600701136,9726.5740571210845,0.0
425012.02908761695,3952225.878295721,-37500.0,-5032.576157062299,1155.7158722482454,3688.7646438099737,1692.0590912088539,-1077.0078670916919,-374.88079615419946,4909.1706868099845,3584.375895992936,-5065.4652175292176,5065.4652175292176,-3584.375895992936,8556.3210625082429,0.0
430012.02908761695,3952225.878295721,-37500.0,-4055.4751916317741,1556.678287936897,3447.9924793600176,1150.8012510338117,-1216.6900482310307,-149.87345824677203,4387.9267628669068,3681.5621184662841,-4346.7503832749235,4346.7503832749235,-3681.5621184662841,7611.4369275553836,0.0
255012.02908761695,3957225.878295721,-37500.0,4535.1746774974335,-3924.465410681436,2757.167815753663,3159.0854630414242,-2325.7834928081861,1500.5598958414778,5051.9162310649153,-2500.764631396401,3054.3536075068273,-3054.3536075068273,2500.764631396401,9967.2556454863952,0.0
260012.02908761695,3957225.878295721,-37500.0,4432.9713793844739,-4292.1715622257561,3264.2492980749876,3374.9358923720652,-2686.6663323907615,1700.4817105825427,5487.9556782774216,-2528.3471927353858,2867.2761917501475,-2867.2761917501475,2528.3471927353858,10804.267907497429,0.0
265012.02908761695,3957225.878295721,-37500.0,4217.4774350670368,-4654.6816086653153,3861.972261663856,3570.1968958210678,-3094.4235463934137,1918.6393043989478,5953.1144918709824,-2486.9661888037172,2564.9890864708032,-2564.9890864708032,2486.9661888037172,11685.77183344838,0.0
270012.02908761695,3957225.878295721,-37500.0,3859.1586105409501,-4990.7061559530357,4560.5199356496005,3727.5795256625238,-3548.4588941276197,2151.5683515816595,6444.0860099201591,-2348.8230761477585,2118.7595784992768,-2118.7595784992768,2348.8230761477585,12601.03498539606,0.0
275012.02908761695,3957225.878295721,-37500.0,3325.4115858881714,-5269.3928812276772,5366.9587556642045,3823.8619315965002,-4043.6465655708962,2392.547823378824,6955.3177553426949,-2079.1951337741812,1497.091358308686,-1497.091358308686,2079.1951337741812,13533.703554003929,0.0
280012.02908761695,3957225.878295721,-37500.0,2582.6692495535854,-5447.704980611441,6281.832461697004,3828.8375915027896,-4567.6398912181485,2630.153378066751,7478.6347838699094,-1636.3243904808182,668.011708126352,-668.011708126352,1636.3243904808182,14460.735623486524,0.0
285012.02908761695,3957225.878295721,-37500.0,1600.3923991701313,-5467.8885442356759,7293.8883472094212,3704.6535457932441,-5097.1218873030894,2846.407585819562,8003.1426704451114,-972.65328609395522,-396.59791245808844,396.59791245808844,972.65328609395522,15351.970923012339,0.0
290012.02908761695,3957225.878295721,-37500.0,357.82078759578064,-5255.8417052307286,8372.3195066233693,3406.1077648843179,-5592.8298629510973,3014.550558448625,8515.8416350510906,-38.556232876243143,-1713.6413412412417,1713.6413412412417,38.556232876243143,16171.382423417759,0.0
295012.02908761695,3957225.878295721,-37500.0,-1145.6005567652544,-4721.9151028291326,9456.0571093969829,2882.8368871556522,-5993.4077190176395,3096.588554103198,9003.7210285097226,1209.7455928830134,-3277.3332519135183,3277.3332519135183,-1209.7455928830134,16881.989738839242,0.0
300012.02908761695,3957225.878295721,-37500.0,-2875.5168770120385,-3766.7568767518687,10440.286302623645,2084.8188924166489,-6208.6785649606036,3041.044227087772,9458.5972289385172,2795.8595881739138,-5042.7981699738812,5042.7981699738812,-2795.8595881739138,17457.960836594586,0.0
305012.02908761695,3957225.878295721,-37500.0,-4744.3377917000798,-2296.1120812856029,11162.01081676273,973.10211820163897,-6114.0316850590725,2781.7970262326517,9886.3870481876584,4700.214382075811,-6905.2080076070588,6905.2080076070588,-4700.214382075811,17909.289010674318,0.0
310012.02908761695,3957225.878295721,-37500.0,-6592.9072176127484,-249.37491736847588,11389.847412648773,-462.21858855266942,-5549.5533293134013,2239.66279320597,10321.98379632775,6827.5524546158085,-8678.0993134598884,8678.0993134598884,-6827.5524546158085,18324.299329381622,0.0
315012.02908761695,3957225.878295721,-37500.0,-8181.2634337343397,2354.6051598636232,10828.708123484357,-2175.9566056418207,-4330.3211937573296,1329.3913939333227,10846.926819708944,8968.9209318763969,-10080.619059961064,10080.619059961064,-8968.9209318763969,18924.222542593514,0.0
320012.02908761695,3957225.878295721,-37500.0,-9204.9434709669495,5357.8483918990878,9156.3251936647739,-4037.0539568861218,-2276.8757600872395,-24.373288299559754,11596.207896984877,10772.463492194389,-10752.13828243342,10752.13828243342,-10772.463492194389,20085.259820076513,0.0
325012.02908761695,3957225.878295721,-37500.0,-9357.4483382643484,8409.2223461335489,6109.8278408421793,-5805.0328866362424,726.13688889492835,-1859.3349280539294,12727.808452428524,11752.398624993988,-10318.821917525402,10318.821917525402,-11752.398624993988,22232.972189167813,0.0
330012.02908761695,3957225.878295721,-37500.0,-8448.3387326719931,10958.876555451594,1624.6875456098342,-7136.9834448573374,4646.0872540891432,-4138.04433414301,14341.990777688843,11375.451785889867,-8526.9851212040539,8526.9851212040539,-11375.451785889867,25582.917971346506,0.0
335012.02908761695,3957225.878295721,-37500.0,-6546.9086645690668,12355.207614438154,-4015.3677485095413,-7651.9861704666237,9221.336298684233,-6713.5488333175399,16392.305652409999,9244.7218400413185,-5416.0016579771573,5416.0016579771573,-9244.7218400413185,29926.068849882588,0.0
340012.02908761695,3957225.878295721,-37500.0,-4064.9114074780291,12061.674850423822,-10114.407611863749,-7057.6999791882799,13939.606216556502,-9323.0873007138489,18655.753732146295,5331.7784611279512,-1437.0333618635941,1437.0333618635941,-5331.7784611279512,34659.179951950464,0.0
345012.02908761695,3957225.878295721,-37500.0,-1678.0452041100289,9913.9944818236254,-15687.980301422984,-5291.987700356698,18129.415383877629,-11632.891711993438,20779.721585956038,120.24937651488472,2603.9443001249019,-2603.9443001249019,-120.24937651488472,38997.626397639702,0.0
350012.02908761695,3957225.878295721,-37500.0,-76.962149422630446,6254.7160390186918,-19771.883973959932,-2590.9847883784241,21155.648730747933,-13329.319040814025,22387.865895064067,-5479.0453989509351,5811.8857011038963,-5811.8857011038963,5479.0453989509351,42222.022929368424,0.0
355012.02908761695,3957225.878295721,-37500.0,315.89946487585115,1829.840783380665,-21759.544928619402,575.93543724079564,22624.707328774584,-14213.852024826891,23206.557058344239,-10437.657974413938,7543.0395502463352,-7543.0395502463352,10437.657974413938,43867.532462629824,0.0
360012.02908761695,3957225.878295721,-37500.0,-515.02975591655604,-2496.6386873729125,-21570.87836509047,3671.2545260886041,22485.465956570766,-14251.108021506523,23139.453212177246,-13965.190318668961,7612.2747702321376,-7612.2747702321376,13965.190318668961,43803.268185958281,0.0
365012.02908761695,3957225.878295721,-37500.0,-2244.2060061217335,-6031.0329709634179,-19584.734094533356,6255.9192239249678,20987.707891626887,-13552.201975825832,22259.63266919661,-15712.179187460712,6270.2865537483003,-6270.2865537483003,15712.179187460712,42195.489868369521,0.0
370012.02908761695,3957225.878295721,-37500.0,-4389.4769989487322,-8400.6264398587664,-16425.901680325391,8079.7981580921441,18550.994968392191,-12316.210727804195,20750.972570431157,-15759.975957537608,4020.9846984065407,-4020.9846984065407,15759.975957537608,39398.963498378493,0.0
375012.02908761695,3957225.878295721,-37500.0,-6491.7260766747277,-9549.5504134469629,-12744.513983096545,9084.6884496071871,15625.260641607367,-10765.620182511937,18840.608857230316,-14473.865994531325,1413.8049496949589,-1413.8049496949589,14473.865994531325,35836.608606046495,0.0
380012.02908761695,3957225.878295721,-37500.0,-8220.9994485156658,-9644.059114976284,-9071.0802162126183,9353.6355794959672,12594.397828114623,-9099.2019916719164,16747.162961688344,-12328.846327582669,-1099.5695361039307,1099.5695361039307,12328.846327582669,31907.664097929519,0.0
385012.02908761695,3957225.878295721,-37500.0,-9404.9438839017967,-8958.5060935547845,-5759.9929481960171,9045.8530994855573,9733.344049052128,-7468.2758965721387,14651.212362427292,-9776.9552951763253,-3224.6447103848705,3224.6447103848705,9776.9552951763253,27936.322569964868,0.0
390012.02908761695,3957225.878295721,-37500.0,-10006.653963522913,-7784.210244629483,-2996.3420855898726,8341.829673454924,7205.6763856044072,-5971.7906694418261,12683.100069380824,-7175.2840206463961,-4821.0358307838987,4821.0358307838987,7175.2840206463961,24154.594080096518,0.0
395012.02908761695,3957225.878295721,-37500.0,-10081.610521189215,-6374.1325812751174,-834.15692250294467,7407.4345547042212,5083.3033310478841,-4662.7147990557787,10920.254439105516,-4764.6285747276443,-5867.2977164659396,5867.2977164659396,4764.6285747276443,20707.190030631587,0.0
400012.02908761695,3957225.878295721,-37500.0,-9734.1458635376548,-4919.3154069753818,757.95264352067738,6376.1178236205524,3373.4299265542513,-3559.1774760025201,9391.9088499435347,-2679.5968012590174,-6417.5018774945302,6417.5018774945302,2679.5968012590174,17667.192906599237,0.0
405012.02908761695,3957225.878295721,-37500.0,-9083.4678755172354,-3546.8962793885148,1857.0502291432172,5344.2918649293533,2043.9207427691365,-2656.058418614316,8093.2793907844016,-972.87536405334095,-6563.1571414595219,6563.1571414595219,972.87536405334095,15054.76540723277,0.0
410012.02908761695,3957225.878295721,-37500.0,-8241.8009460003486,-2329.6149154610207,2556.9937430026043,4374.4805512807307,1043.1165214953671,-1934.7781117203322,7002.7468796282128,358.06016931945896,-6405.7465465786481,6405.7465465786481,-358.06016931945896,12854.496977983621,0.0
415012.02908761695,3957225.878295721,-37500.0,-7303.1122985252068,-1299.3982457956372,2950.3713538451361,3501.9453774600233,313.38313677256127,-1370.5392823034606,6093.1155338491672,1347.9565453115652,-6039.9991660512242,6039.9991660512242,-1347.9565453115652,11029.533436134847,0.0
420012.02908761695,3957225.878295721,-37500.0,-6339.4138903470048,-460.62787962414041,3118.9895586381685,2742.0160517477939,-200.72244100613028,-937.13084634310064,5336.7145487853068,2046.6874391033371,-5545.6702179405947,5545.6702179405947,-2046.6874391033371,9532.1793953463348,0.0
425012.02908761695,3957225.878295721,-37500.0,-5401.6375794669148,198.95195626976738,3130.1868865022193,2096.6380367536285,-548.26827628091371,-609.76321773152097,4707.5942225017334,2507.9452628807467,-4985.0524746506626,4985.0524746506626,-2507.9452628807467,8311.3699726331251,0.0
430012.02908761695,3957225.878295721,-37500.0,-4522.7734680023614,700.20313008122469,3036.616682961268,1559.5707447993057,-770.37704781543459,-366.50150624822112,4182.6009268203543,2782.5895489724589,-4403.8153344138409,4403.8153344138409,-2782.5895489724589,7317.6617251530379,0.0
260012.02908761695,3962225.878295721,-37500.0,3456.1526639037256,-4029.3232594966935,3517.4467597950634,2831.7864588022885,-2592.8143794605176,1478.0229598765829,5012.784336748533,-2028.7221929013615,2014.3061009756832,-2014.3061009756832,2028.7221929013615,9847.3063533259046,0.0
265012.02908761695,3962225.878295721,-37500.0,3147.6326943843478,-4288.2274533817299,4099.6386498012107,2937.0687044631154,-2946.0612734491046,1645.991066144504,5400.7604783549832,-1894.088285944209,1631.6245030675154,-1631.6245030675154,1894.088285944209,10567.613144535911,0.0
270012.02908761695,3962225.878295721,-37500.0,2704.5708951734332,-4498.1149436409305,4761.8900178023505,2994.8060259422846,-3327.5243537918277,1818.6075477266486,5803.3541446695472,-1655.8104861108275,1114.5455785069919,-1114.5455785069919,1655.8104861108275,11298.812365683205,0.0
275012.02908761695,3962225.878295721,-37500.0,2103.7742976798882,-4627.0391288062647,5502.5714252259877,2983.9325308758553,-3727.8238059569139,1988.0991142587598,6214.7934833390027,-1284.2417650598368,441.31388483229182,-441.31388483229182,1284.2417650598368,12024.491817667915,0.0
280012.02908761695,3962225.878295721,-37500.0,1324.5806564237903,-4633.2489836925015,6311.3738315637474,2878.5890561810738,-4130.2652701017505,2142.5801276404864,6627.6692663186122,-746.384869612579,-406.60102776930898,406.60102776930898,746.384869612579,12723.801398488857,0.0
285012.02908761695,3962225.878295721,-37500.0,353.2051176502232,-4464.388493013379,7164.3361885163495,2648.4349340160279,-4507.8571399400562,2264.7737311179176,7033.4164723177701,-8.4938464634207094,-1439.7349230931854,1439.7349230931854,8.4938464634207094,13372.468032579336,0.0
290012.02908761695,3962225.878295721,-37500.0,-810.83848004169556,-4058.222100894548,8017.2498751161393,2260.072416514668,-4819.7439322011069,2330.6490441029941,7423.685861482898,958.85550120497999,-2653.5273610660743,2653.5273610660743,-958.85550120497999,13946.032948521985,0.0
295012.02908761695,3962225.878295721,-37500.0,-2146.0148992349577,-3346.2713674674019,8797.6272101898139,1680.2990745407244,-5007.4082700770496,2308.2128146432069,7793.252129673755,2172.1105945973532,-4018.55890184697,4018.55890184697,-2172.1105945973532,14427.16871237399,0.0
300012.02908761695,3962225.878295721,-37500.0,-3598.1566981571286,-2262.326208944256,9396.2499877101636,882.08786016175918,-4991.5113263375069,2156.9068495357019,8145.2743386529637,3621.4271181758863,-5468.4567144025796,5468.4567144025796,-3621.4271181758863,14819.779953932981,0.0
305012.02908761695,3962225.878295721,-37500.0,-5069.7364638355875,-758.15111370722957,9660.8510271770137,-145.80529396766906,-4671.0766667182988,1828.3666739339967,8499.4505127847806,5252.3283293981394,-6887.2625017664222,6887.2625017664222,-5252.3283293981394,15172.53938866904,0.0
310012.02908761695,3962225.878295721,-37500.0,-6413.1215080626826,1171.8161012120509,9396.8812944568745,-1385.2195382090792,-3927.8636679327788,1269.672850079829,8901.9426928215144,6944.0331405178385,-8100.6717766934453,8100.6717766934453,-6944.0331405178385,15610.151019309667,0.0
315012.02908761695,3962225.878295721,-37500.0,-7435.0334110354506,3457.5720348397367,8383.1326051710239,-2772.1170020501349,-2639.881139542485,430.52313084249062,9431.5359186284186,8490.3168859641137,-8879.2342374824748,8879.2342374824748,-8490.3168859641137,16355.057477143995,0.0
320012.02908761695,3962225.878295721,-37500.0,-7921.8508432194803,5919.3461714398472,6411.3968653432121,-4181.5440988566179,-708.02671663513172,-724.41014360605118,10190.309737839671,9595.0711968117357,-8964.8590030659179,8964.8590030659179,-9595.0711968117357,17696.278083899266,0.0
325012.02908761695,3962225.878295721,-37500.0,-7693.3464384479275,8248.6221594595718,3355.3676153662195,-5422.7897490832602,1903.1403725138805,-2197.9993170082735,11268.244761604541,9900.5741576714045,-8130.6954286179089,8130.6954286179089,-9900.5741576714045,19868.605428317682,0.0
330012.02908761695,3962225.878295721,-37500.0,-6680.6868691505069,10029.670037229689,-740.29122107305693,-6256.936346814593,5117.5495278048338,-3941.3392932609481,12691.257009842131,9064.6884295172131,-6272.3995601688966,6272.3995601688966,-9064.6884295172131,22897.992427259382,0.0
335012.02908761695,3962225.878295721,-37500.0,-5001.790797364456,10823.347846984831,-5584.2015265118453,-6445.9708110935098,8712.0403252185279,-5840.5792413389345,14385.357756088915,6883.9286970607382,-3503.208129194195,3503.208129194195,-6883.9286970607382,26539.39305540952,0.0
340012.02908761695,3962225.878295721,-37500.0,-2985.8072752447047,10306.766277767303,-10629.411838638389,-5827.8201582427437,12320.998292542379,-7721.0128956095214,16179.432799272374,3421.4737756907871,-198.10336663307339,198.10336663307339,-3421.4737756907871,30342.257285488184,0.0
345012.02908761695,3962225.878295721,-37500.0,-1105.3918522555616,8415.4735260442176,-15172.746331123884,-4388.892266889271,15500.409849778083,-9375.7733350251983,17838.772343321107,-933.53568036766228,3066.1623895333041,-3066.1623895333041,933.53568036766228,33778.44150398465,0.0
350012.02908761695,3962225.878295721,-37500.0,174.20248377737789,5406.710744476919,-18545.917578624962,-2293.3471766378671,17839.344240730785,-10613.92143883455,19118.707610489084,-5535.2451875431088,5676.4622465895645,-5676.4622465895645,5535.2451875431088,36374.08464415303,0.0
355012.02908761695,3962225.878295721,-37500.0,557.31623950966923,1794.0298363682118,-20314.028431990995,154.62940928972836,19072.269870301974,-11308.870373079833,19831.715616544621,-9666.3542847085992,7180.8786727698789,-7180.8786727698789,9666.3542847085992,37811.875599268409,0.0
360012.02908761695,3962225.878295721,-37500.0,4.5326372404682331,-1817.4918431731139,-20383.023964190656,2599.8737436622719,19139.632399149614,-11425.552669564215,19896.012459530888,-12749.501917132066,7416.4214207510649,-7416.4214207510649,12749.501917132066,37979.366088949042,0.0
365012.02908761695,3962225.878295721,-37500.0,-1291.2006114617379,-4908.0374325604207,-18976.00112491156,4732.0946536320325,18175.24834953235,-11017.02002421784,19339.88488975928,-14483.340511475604,6513.0318401584136,-6513.0318401584136,14483.340511475604,36956.841961377162,0.0
370012.02908761695,3962225.878295721,-37500.0,-3005.226742537172,-7154.0285793941748,-16515.160251939527,6348.3755680057866,16439.792295631134,-10197.573262937967,18272.592842120761,-14860.795044426715,4798.1705571922903,-4798.1705571922903,14860.795044426715,34961.783887596474,0.0
375012.02908761695,3962225.878295721,-37500.0,-4795.9001131365703,-8449.9081398435701,-13480.485936792667,7368.9911933031171,14238.703315382982,-9107.7211644349773,16844.609464468773,-14096.149225857789,2668.2438836177471,-2668.2438836177471,14096.149225857789,32278.451083926506,0.0
380012.02908761695,3962225.878295721,-37500.0,-6387.2512914057261,-8864.5805785978228,-10300.181900380137,7817.3381116728351,11855.499489822496,-7884.0073574433145,15212.880674091159,-12517.323647321633,483.37491243425939,-483.37491243425939,12517.323647321633,29196.367898532266,0.0
385012.02908761695,3962225.878295721,-37500.0,-7605.5398872009591,-8571.4898217542614,-7292.8853476265922,7783.5197571662748,9513.2920592971313,-6639.8521076033521,13517.494509728775,-10469.558546806293,-1490.8448021747599,1490.8448021747599,10469.558546806293,25969.162659220274,0.0
390012.02908761695,3962225.878295721,-37500.0,-8378.3046737462282,-7782.6538423759339,-4655.2348039861927,7387.77349447084,7362.5882976479188,-5457.5533522342048,11869.183438443426,-8251.9768624164681,-3098.0336517150163,3098.0336517150163,8251.9768624164681,22794.466208371618,0.0
395012.02908761695,3962225.878295721,-37500.0,-8712.2841932503998,-6701.3520800070128,-2477.8701486442342,6752.437707940242,5486.8938655874526,-4388.5541318663973,10343.694710070256,-6088.3699749712014,-4277.4074834996954,4277.4074834996954,6088.3699749712014,19809.978639051242,0.0
400012.02908761695,3962225.878295721,-37500.0,-8664.7236598607797,-5495.8794033019421,-773.48204773044415,5984.7699126089528,3917.0687044613815,-3458.3916194166022,8981.0395242973791,-4123.5167029295335,-5037.6708460491409,5037.6708460491409,4123.5167029295335,17099.413122273774,0.0
405012.02908761695,3962225.878295721,-37500.0,-8317.2556133189246,-4290.2765073912678,494.32925203177382,5169.2032667731228,2647.7436966016817,-2673.398399639254,7791.9374484423961,-2434.229832147103,-5429.6484411662277,5429.6484411662277,2434.229832147103,14703.022481768072,0.0
410012.02908761695,3962225.878295721,-37500.0,-7756.4507349357355,-3166.0118238032996,1387.2230610932925,4366.2108240092493,1651.9239840715466,-2027.2408204078181,6769.5392241322024,-1046.2475250545067,-5523.6556381647206,5523.6556381647206,1046.2475250545067,12629.070915844122,0.0
415012.02908761695,3962225.878295721,-37500.0,-7061.6456615933521,-2169.206788319671,1975.1484931783405,3614.9551395280946,892.18766091194618,-1506.3279871975919,5899.0631571625818,48.760119663981186,-5393.588365781512,5393.588365781512,-48.760119663981186,10864.207909093933,0.0
420012.02908761695,3962225.878295721,-37500.0,-6298.8484146709234,-1319.5868921953961,2325.7733063728738,2937.5644561980198,328.33442050619493,-1093.8054205379601,5162.8024275724401,878.95158448732809,-5107.3425889290411,5107.3425889290411,-878.95158448732809,9381.9102272346645,0.0
425012.02908761695,3962225.878295721,-37500.0,-5518.9235095862914,-618.91785181160867,2498.8921233408478,2343.6343440329206,-77.970448062719299,-772.21759669024448,4542.4461376797517,1481.7704466125188,-4722.1449937157568,4722.1449937157568,-1481.7704466125188,8148.8436961072002,0.0
260012.02908761695,3967225.878295721,-37500.0,2588.8423019313195,-3688.085148877396,3670.6551857236964,2334.7761395831531,-2452.4491545405813,1270.2401627285099,4556.7579526902355,-1532.4599258898463,1264.7159999950247,-1264.7159999950247,1532.4599258898463,8918.4352399210675,0.0
265012.02908761695,3967225.878295721,-37500.0,2220.4627840544649,-3846.9393260134648,4215.9553595384923,2368.5023893254715,-2748.4200447311655,1395.3397731388332,4877.016066688675,-1323.8826478831311,834.11364370746935,-834.11364370746935,1323.8826478831311,9497.2112174967406,0.0
270012.02908761695,3967225.878295721,-37500.0,1731.8337890908663,-3940.5934233708185,4818.5980108442282,2350.4646930239255,-3056.9135758485208,1517.8163135271632,5203.9258507660579,-1012.0940245013853,284.79069162473678,-284.79069162473678,1012.0940245013853,10071.126181413892,0.0
275012.02908761695,3967225.878295721,-37500.0,1108.6471366095743,-3938.5696947849979,5469.7165547633731,2262.7451145234095,-3365.9431181865052,1629.7393332114673,5532.3976039667396,-573.84562232989219,-395.74391295915365,395.74391295915365,573.84562232989219,10625.615446232414,0.0
280012.02908761695,3967225.878295721,-37500.0,341.41491293876305,-3803.3555487153103,6150.8422920107196,2084.5964148510884,-3656.7649309468247,1719.8069122786005,5856.7031738509386,14.279831661414278,-1214.3044453455809,1214.3044453455809,-14.279831661414278,11144.088072398046,0.0
285012.02908761695,3967225.878295721,-37500.0,-570.48717838732159,-3490.9656700281403,6829.7442880741546,1793.3500488230763,-3901.7387464188396,1772.5517129882662,6171.3770036440192,772.58411538135636,-2167.5395279859035,2167.5395279859035,-772.58411538135636,11610.071478217056,0.0
290012.02908761695,3967225.878295721,-37500.0,-1613.47490773655,-2953.2291659846733,7455.4914289669377,1366.3615469240383,-4062.0862110137309,1767.6407691670686,6473.0087099536922,1712.8940145518113,-3235.9378581522365,3235.9378581522365,-1712.8940145518113,12011.745155923618,0.0
295012.02908761695,3967225.878295721,-37500.0,-2753.3551955389271,-2142.8365965803437,7953.3103280519408,784.44930234125923,-4086.0073268070937,1679.5029123494417,6763.3410277776493,2830.5844477853502,-4376.5362425363655,4376.5362425363655,-2830.5844477853502,12350.282764007834,0.0
300012.02908761695,3967225.878295721,-37500.0,-3928.776886350186,-1022.3411073376387,8220.5664906507645,37.265828079660494,-3908.0032284718491,1477.6566013054987,7053.9459473929337,4093.8026572527265,-5515.2541871626854,5515.2541871626854,-4093.8026572527265,12653.403834881723,0.0
305012.02908761695,3967225.878295721,-37500.0,-5046.5147770580716,421.92108328430868,8126.309889797194,-869.19065441846772,-3450.7626238687244,1128.2660926110323,7372.0032544856385,5430.6554354078162,-6540.9868224700422,6540.9868224700422,-5430.6554354078162,12993.680778799811,0.0
310012.02908761695,3967225.878295721,-37500.0,-5981.9894385879552,2161.0941218256557,7518.1602029054675,-1903.3597937635193,-2631.4722887353178,597.57650225280452,7764.7850051519636,6716.9490074761152,-7305.2607024715917,7305.2607024715917,-6716.9490074761152,13504.549665872737,0.0
315012.02908761695,3967225.878295721,-37500.0,-6589.7010802008199,4102.8385439391241,6241.2007209757912,-2998.8846874320961,-1374.5543484371142,-142.16928990019935,8297.4764987116505,7769.8541878623928,-7632.9047664459249,7632.9047664459249,-7769.8541878623928,14374.388313452724,0.0
320012.02908761695,3967225.878295721,-37500.0,-6728.1063502515344,6074.8293510167823,4172.6296035477808,-4048.895277328244,368.0331490522662,-1104.1513211520419,9037.9437587138673,8355.8639041662027,-7349.436560298861,7349.436560298861,-8355.8639041662027,15793.901504826883,0.0
325012.02908761695,3967225.878295721,-37500.0,-6299.9210601829473,7824.0805095904261,1271.1751273975574,-4909.1982532091752,2590.5078236087807,-2276.6128944431548,10028.659388307307,8222.375779230144,-6327.4114038123862,6327.4114038123862,-8222.375779230144,17864.188625435538,0.0
330012.02908761695,3967225.878295721,-37500.0,-5300.3740657759681,9045.2168058867792,-2369.4244940274643,-5415.9985488105403,5207.3736480664547,-3613.3440130606245,11258.864229907873,7157.3586112296962,-4544.7579201920507,4544.7579201920507,-7157.3586112296962,20525.328712367533,0.0
335012.02908761695,3967225.878295721,-37500.0,-3854.4904733131707,9444.2818298721959,-6485.5324344781193,-5420.1352870189339,8039.6422465785608,-5029.4526800047324,12653.950435314538,5067.9707138719641,-2134.5810966202007,2134.5810966202007,-5067.9707138719641,23554.958350925051,0.0
340012.02908761695,3967225.878295721,-37500.0,-2217.9787577469583,8826.983409187078,-10655.273159365264,-4831.3703252881269,10826.429741028274,-6407.2511440482076,14086.060405376513,2050.1026114035594,603.56899898703864,-603.56899898703864,-2050.1026114035594,26623.295894481078,0.0
345012.02908761695,3967225.878295721,-37500.0,-725.56010579670271,7178.3806908300403,-14372.217567520041,-3656.5025359643118,13268.119257053026,-7614.3345713753515,15396.203217776227,-1589.9779076224595,3253.5263596760296,-3253.5263596760296,1589.9779076224595,29368.421379511161,0.0
350012.02908761695,3967225.878295721,-37500.0,302.48966722049681,4692.6463371047757,-17165.55697355005,-2011.9508108190867,15091.877363966805,-8530.2042792615575,16421.850339735571,-5387.5340551294958,5387.0772118787609,-5387.0772118787609,5387.5340551294958,31469.987928397622,0.0
355012.02908761695,3967225.878295721,-37500.0,656.6068954664853,1730.7480555748198,-18720.333608400259,-100.91275488987988,16115.688488042942,-9072.3597956832091,17032.710050168891,-8833.5528895450734,6682.5477320875534,-6682.5477320875534,8833.5528895450734,32707.251037166476,0.0
360012.02908761695,3967225.878295721,-37500.0,292.74612937059987,-1278.0103826049653,-18946.541186262872,1836.9734582934273,16285.273561866055,-9212.0099168214638,17162.524673172444,-11503.997633146766,7004.9055074076023,-7004.9055074076023,11503.997633146766,32989.082777510295,0.0
365012.02908761695,3967225.878295721,-37500.0,-674.54817949128619,-3946.0559008599066,-17973.559283619623,3582.1531459363528,15671.95574700127,-8974.5012069476052,16817.381809610855,-13150.478827131104,6417.1303387938597,-6417.1303387938597,13150.478827131104,32351.261979432602,0.0
370012.02908761695,3967225.878295721,-37500.0,-2027.5031545145928,-6005.8356324589822,-16084.632898269712,4976.7656138681104,14438.446499973066,-8426.6236242318628,16061.704061598473,-13724.799276563026,5130.4058212697064,-5130.4058212697064,13724.799276563026,30927.647139512916,0.0
375012.02908761695,3967225.878295721,-37500.0,-3517.0589827261838,-7337.2613757217541,-13627.931676924674,5941.3378800605242,12790.795975395187,-7657.4708251305055,14994.778150202132,-13344.948592116005,3425.7230706302289,-3425.7230706302289,13344.948592116005,28908.954767987827,0.0
380012.02908761695,3967225.878295721,-37500.0,-4922.7998067471417,-7951.2522702133201,-10938.188559664495,6468.9447542641892,10934.225374509235,-6759.7771619078085,13727.918349547099,-12230.659750938714,1580.5529886347786,-1580.5529886347786,12230.659750938714,26502.642982296475,0.0
385012.02908761695,3967225.878295721,-37500.0,-6087.1721913683632,-7949.2990369518366,-8286.7082654812439,6605.9576167996674,9042.9518510551461,-5816.1226429388416,12367.227410494143,-10637.069708061974,-180.01118647887051,180.01118647887051,10637.069708061974,23902.356332413881,0.0
390012.02908761695,3967225.878295721,-37500.0,-6924.3494280096966,-7478.5760803549583,-5861.3974807915702,6429.0050033430616,7245.9398058633642,-4891.3459443184702,11002.829400831348,-8804.1152932092045,-1704.0833555325717,1704.0833555325717,8804.1152932092045,21269.615242728123,0.0
395012.02908761695,3967225.878295721,-37500.0,-7411.5301709829673,-6694.9599666598479,-3769.2719128811591,6024.7625603881525,5625.4197784172575,-4030.3966165021448,9702.7620469292633,-6927.1905709474358,-2911.9862409763768,2911.9862409763768,6927.1905709474358,18726.450527644498,0.0
400012.02908761695,3967225.878295721,-37500.0,-7571.8100481265383,-5738.6856264651151,-2051.4740448555094,5475.588206883016,4223.2485762431934,-3259.8968771006121,8509.8713698301362,-5146.5496788207729,-3782.7091885073787,3782.7091885073787,5146.5496788207729,16355.877159754076,0.0
405012.02908761695,3967225.878295721,-37500.0,-7455.7197645147025,-4722.1177851756383,-702.49131336451126,4851.3082427824211,3050.6441676972131,-2591.641448853049,7443.4164972894941,-3549.5845796969234,-4335.92471098433,4335.92471098433,3549.5845796969234,14206.941048260975,0.0
410012.02908761695,3967225.878295721,-37500.0,-7125.5698103414188,-3726.6405050249127,311.73589541445745,4205.9958627074529,2098.1856077946227,-2026.6627294847049,6506.1976295492923,-2179.9862554508431,-4614.9007301700312,4614.9007301700312,2179.9862554508431,12301.712862085016,0.0
415012.02908761695,3967225.878295721,-37500.0,-6644.202706120881,-2805.1684840336579,1039.3812207492033,3578.1146525749364,1344.3599016924579,-1558.9929189621391,5692.2828170882458,-1049.1842993724192,-4672.9388154051712,4672.9388154051712,1049.1842993724192,10642.448922287254,0.0
420012.02908761695,3967225.878295721,-37500.0,-6068.1265793873908,-1987.3673365782431,1532.5776178076821,2992.5388698285738,762.03401577844613,-1178.7219376371752,4991.6378139941426,-147.23472924116868,-4564.0141749322693,4564.0141749322693,147.23472924116868,9217.966404750061,0.0
425012.02908761695,3967225.878295721,-37500.0,-5444.1794959820763,-1285.5585451606148,1841.1004582202534,2463.323608266408,322.86605540762565,-874.23863205182784,4392.355625588234,548.23796595152317,-4337.1866584257205,4337.1866584257205,-548.23796595152317,8008.8054245610565,0.0
265012.02908761695,3972225.878295721,-37500.0,1439.8525323157332,-3367.6791849890415,4223.1494905180889,1870.0530767688567,-2519.7311703272785,1169.9144584832225,4388.2560103208398,-801.41502329478476,176.75985999057451,-176.75985999057451,801.41502329478476,8493.1234926865309,0.0
270012.02908761695,3972225.878295721,-37500.0,937.45868621230568,-3360.9441761744633,4751.0519581801382,1797.604053414379,-2759.2518685650257,1251.9698724413306,4651.9173578843947,-442.2985154362575,-373.54631101508926,373.54631101508926,442.2985154362575,8936.743482593487,0.0
275012.02908761695,3972225.878295721,-37500.0,325.67091482752915,-3251.946607109227,5299.7214895829693,1658.8709249292219,-2985.383970015851,1319.0538699023596,4913.2395769979403,30.449905563237849,-1028.1177575558891,1028.1177575558891,-30.449905563237849,9354.4338441988566,0.0
280012.02908761695,3972225.878295721,-37500.0,-396.24516191870248,-3009.1058026170281,5845.4592258386501,1438.1763445569657,-3179.1419109865556,1361.0480574600467,5168.5826211797676,631.14483274475936,-1784.5697389214565,1784.5697389214565,-631.14483274475936,9734.9106304981178,0.0
285012.02908761695,3972225.878295721,-37500.0,-1219.6769948146698,-2597.9460945147343,6351.9479951029934,1119.7632051656076,-3314.3470421261159,1364.7853801550168,5415.6847087747256,1368.4812073515677,-2629.8076576296312,2629.8076576296312,-1368.4812073515677,10069.987111990198,0.0
290012.02908761695,3972225.878295721,-37500.0,-2122.6778247415223,-1984.1673710004029,6767.0224439928907,689.82126605810197,-3356.4563178251533,1313.800555768559,5655.5470980623195,2240.6161148640749,-3535.4897998276319,3535.4897998276319,-2240.6161148640749,10359.662609905821,0.0
295012.02908761695,3972225.878295721,-37500.0,-3065.83839998332,-1138.9752183484936,7020.0445788286061,139.59200707367538,-3262.0307584307679,1188.4468019592032,5895.2171643311412,3228.6241857700029,-4453.2234886908473,4453.2234886908473,-3228.6241857700029,10620.194949842939,0.0
300012.02908761695,3972225.878295721,-37500.0,-3989.0218062455201,-47.215293444894783,7021.1559785608506,-530.32545665703049,-2979.5281707227123,966.64532279105788,6151.2621925048143,4288.6834507382355,-5310.5770536297041,5310.5770536297041,-4288.6834507382355,10895.093523966423,0.0
305012.02908761695,3972225.878295721,-37500.0,-4810.6607948096016,1281.6180524007416,6664.3308738708083,-1304.6305854313384,-2452.3499126397255,625.58860981594637,6452.8374490682527,5344.2013402003267,-6009.8006092496962,6009.8006092496962,-5344.2013402003267,11266.019813170436,0.0
310012.02908761695,3972225.878295721,-37500.0,-5431.988168427557,2800.5107765699254,5836.6794504486797,-2147.6468781382177,-1625.1836662929659,144.71122798640792,6841.8008697507821,6280.3906030839453,-6431.9968331854207,6431.9968331854207,-6280.3906030839453,11854.530069565677,0.0
315012.02908761695,3972225.878295721,-37500.0,-5748.7552711878652,4413.0385398157459,4436.3039819429096,-2998.839185077461,-454.42445242794446,-489.91044062609308,7366.32117759224,6945.3175939079265,-6449.8671735438784,6449.8671735438784,-6945.3175939079265,12800.491253224534,0.0
320012.02908761695,3972225.878295721,-37500.0,-5671.9263171723396,5967.6250061369819,2399.4008033416262,-3771.9653720419433,1077.5068995956442,-1279.9558518150968,8066.3572710739536,7162.4233550671097,-5951.2071002430648,5951.2071002430648,-7162.4233550671097,14212.338724737521,0.0
325012.02908761695,3972225.878295721,-37500.0,-5155.7018051656705,7264.8563030126688,-266.51705075007709,-4360.8319211209227,2946.0202180991,-2208.9569263203725,8955.3419460928253,6758.5239766958348,-4872.0083793432677,4872.0083793432677,-6758.5239766958348,16112.179698179403,0.0
330012.02908761695,3972225.878295721,-37500.0,-4226.0614776858274,8083.87056497103,-3452.1305239445919,-4653.8972006063059,5071.0184818352236,-3237.8409744755063,10007.432892088385,5606.7502902743699,-3232.1434655386392,3232.1434655386392,-5606.7502902743699,18411.398294859642,0.0
335012.02908761695,3972225.878295721,-37500.0,-2997.8158660604549,8228.2040837391178,-6932.6226450194326,-4557.2226407377566,7313.0234283716509,-4304.2729214182173,11157.057042713906,3675.5492396195223,-1160.0962770269289,1160.0962770269289,-3675.5492396195223,20926.172016445704,0.0
340012.02908761695,3972225.878295721,-37500.0,-1667.1969097482017,7581.2824000538176,-10384.847335552173,-4020.7629301009947,9484.8854197315359,-5327.8534439468731,12309.347186384311,1066.0092119056364,1109.1696965033809,-1109.1696965033809,-1066.0092119056364,23415.845011411406,0.0
345012.02908761695,3972225.878295721,-37500.0,-474.26375448752185,6151.7719289402794,-13440.247992442321,-3058.8680410365214,11380.559947591606,-6221.5524679245373,13354.564830587648,-1982.8536007760658,3272.3183645953095,-3272.3183645953095,1982.8536007760658,25627.781191156377,0.0
350012.02908761695,3972225.878295721,-37500.0,356.24956926405713,4087.322543301756,-15761.833067263562,-1755.503991250552,12814.74328763087,-6907.0694373772958,14182.627117484828,-5131.7908645872767,5024.9541174611068,-5024.9541174611068,5131.7908645872767,27340.346577871722,0.0
355012.02908761695,3972225.878295721,-37500.0,673.88977681760002,1646.5514837347964,-17119.012354529819,-249.92063567807796,13660.705920129181,-7329.5562191084591,14701.921763504408,-8013.6628178798646,6134.9585439070861,-6134.9585439070861,8013.6628178798646,28397.243137201105,0.0
360012.02908761695,3972225.878295721,-37500.0,437.68054579828981,-861.69982185467586,-17432.648471304736,1292.997991667758,13873.210226019686,-7466.9209476586539,14859.966297659588,-10314.618690779504,6493.6941750673786,-6493.6941750673786,10314.618690779504,28726.54785398085,0.0
365012.02908761695,3972225.878295721,-37500.0,-284.28234522855496,-3148.1534322668435,-16776.39861346989,2716.9302464522016,13489.792531972511,-7331.0898521337231,14652.350896375292,-11834.708399580744,6127.7545918662117,-6127.7545918662117,11834.708399580744,28341.345662817326,0.0
370012.02908761695,3972225.878295721,-37500.0,-1345.6615549085252,-4997.3654645475281,-15340.085995908088,3901.5115435431153,12612.858342744157,-6961.8246970607415,14116.590176187643,-12510.632173843431,5172.9416862821408,-5172.9416862821408,12510.632173843431,27324.516127230701,0.0
375012.02908761695,3972225.878295721,-37500.0,-2566.7766639010324,-6292.9617049702629,-13374.021033493747,4776.2846358636998,11381.435694502838,-6416.1080509927151,13318.173786186931,-12401.403709057686,3826.6417427807983,-3826.6417427807983,12401.403709057686,25804.403485940908,0.0
380012.02908761695,3972225.878295721,-37500.0,-3776.4436787375275,-7014.3869756356689,-11134.642913521271,5320.8701604923599,9942.5125000768021,-5756.7312243588322,12335.615579109668,-11650.658450880403,2298.1538106334719,-2298.1538106334719,11650.658450880403,23928.93229143702,0.0
385012.02908761695,3972225.878295721,-37500.0,-4840.182767522062,-7214.8038211025896,-8844.8036556865936,5555.3839804801637,8428.9119366913346,-5042.8763655402709,11248.133194626636,-10442.469586299747,770.83648073247787,-770.83648073247787,10442.469586299747,21843.834083976399,0.0
390012.02908761695,3972225.878295721,-37500.0,-5672.2563230361093,-6991.9111874428627,-6672.8734697639657,5526.4969567209919,6946.3796342413825,-4324.0163545850537,10127.109276690704,-8963.37377139206,-618.69288384651827,618.69288384651827,8963.37377139206,19677.692948702253,0.0
395012.02908761695,3972225.878295721,-37500.0,-6234.549632904238,-6460.7458404702402,-4728.1971237277639,5293.6085063200608,5569.2182479536086,-3637.1849953479459,9030.6368020914906,-7376.6640226198251,-1785.8412020617702,1785.8412020617702,7376.6640226198251,17534.024449148354,0.0
400012.02908761695,3972225.878295721,-37500.0,-6527.5031294848959,-5733.2912955676848,-3067.4463358321595,4917.7909071179492,4342.0628881441635,-3006.8930316744932,7999.8439386763621,-5809.4665808645077,-2692.6652913991143,2692.6652913991143,5809.4665808645077,15489.07994107671,0.0
405012.02908761695,3972225.878295721,-37500.0,-6578.0059642910373,-4906.0636525785503,-1706.3020290918259,4454.4363027543222,3285.0816464641898,-2446.7101323590819,7057.8385811876606,-4349.9570509686873,-3337.1275379974995,3337.1275379974995,4349.9570509686873,13593.53995868737,0.0
410012.02908761695,3972225.878295721,-37500.0,-6427.708035607513,-4054.6105743577814,-632.25733235468283,3949.3749078024075,2400.3750375346576,-1961.6203527455427,6213.2720959050775,-3051.0748380312625,-3741.1180576816641,3741.1180576816641,3051.0748380312625,11876.358247421294,0.0
415012.02908761695,3972225.878295721,-37500.0,-6123.5979097353811,-3232.9419750237903,183.99902991166419,3437.6599277964674,1678.0958825702048,-1550.4918925428756,5466.1432009255559,-1937.4177029522643,-3939.7891403719423,3939.7891403719423,1937.4177029522643,10349.398264210547,0.0
420012.02908761695,3972225.878295721,-37500.0,-5711.4276203915906,-2475.8907842505264,779.71548850610998,2944.096517173753,1101.541083278267,-1208.2793571422826,4811.9398462550098,-1012.9264692590164,-3973.3344582001014,3973.3344582001014,1012.9264692590164,9011.9975605868549,0.0
270012.02908761695,3977225.878295721,-37500.0,307.88334620784332,-2791.6069433770294,4583.6545364866279,1333.3065719418189,-2452.7717235704649,1021.3008602331321,4150.2513637177271,41.274638161051314,-873.8957474154472,873.8957474154472,-41.274638161051314,7905.7806935779017,0.0
275012.02908761695,3977225.878295721,-37500.0,-269.14741146942629,-2600.8607911398976,5026.1786888391007,1164.3386473049979,-2606.955839967688,1054.583224089419,4358.6174565550409,521.73457695017555,-1479.9164995312456,1479.9164995312456,-521.73457695017555,8217.8036114273582,0.0
280012.02908761695,3977225.878295721,-37500.0,-925.52224190415018,-2282.8405260290688,5439.4524274436826,924.08221393022586,-2720.0129227172229,1062.0766276896779,4561.7601580827759,1106.0665821382509,-2155.0877524558459,2155.0877524558459,-1106.0665821382509,8497.2767793838357,0.0
285012.02908761695,3977225.878295721,-37500.0,-1646.9495740313962,-1812.3619299691707,5786.4645715327551,602.49400926927603,-2768.4782705091188,1032.9897646405125,4760.2809779215295,1793.8727143628985,-2880.3907222392581,2880.3907222392581,-1793.8727143628985,8743.7407281529777,0.0
290012.02908761695,3977225.878295721,-37500.0,-2407.662494769329,-1167.3466350499054,6017.6992535678355,192.47036385370814,-2722.9916270217227,954.43412501464127,4958.6141686051778,2573.7770873383342,-3623.5962062667604,3623.5962062667604,-2573.7770873383342,8966.9846236641151,0.0
295012.02908761695,3977225.878295721,-37500.0,-3168.1602749096041,-333.71840884005695,6070.4069158483362,-307.61055825837656,-2548.6019117564902,811.78148527642315,5167.1743036297448,3418.5335254805036,-4336.5552030694016,4336.5552030694016,-3418.5335254805036,9193.8127344164732,0.0
300012.02908761695,3977225.878295721,-37500.0,-3874.2447541614174,687.94949707569731,5869.9239086834505,-890.70334658443971,-2206.2665400274332,589.525106002656,5404.4171848135129,4279.9162100778922,-4953.8528880474205,4953.8528880474205,-4279.9162100778922,9475.286535418285,0.0
305012.02908761695,3977225.878295721,-37500.0,-4458.6028128564294,1874.4386030876447,5334.3657927933173,-1537.575457761902,-1656.1074122018938,272.81581656244435,5697.5613202667273,5084.6225388474913,-5394.2619095161854,5394.2619095161854,-5084.6225388474913,9890.1452283264607,0.0
310012.02908761695,3977225.878295721,-37500.0,-4846.3707670642334,3171.7970180559109,4384.0594991487033,-2213.6396996009239,-862.9113041075999,-150.21096593377223,6080.0388476713597,5733.19393382412,-5566.7190596055925,5566.7190596055925,-5733.19393382412,10536.722597672824,0.0
315012.02908761695,3977225.878295721,-37500.0,-4965.8174128671953,4489.5722038211779,2956.5246529093424,-2867.2872870974657,195.99367163416659,-685.35470372618636,6584.1736858726726,6104.6109431569621,-5382.3295957885002,5382.3295957885002,-6104.6109431569621,11507.501921272444,0.0
320012.02908761695,3977225.878295721,-37500.0,-4764.1102704545101,5700.8907210586649,1026.294506252043,-3431.2426478708803,1521.1217268147607,-1328.8305992121154,7230.1108456657985,6069.1931790325225,-4772.7074891461807,4772.7074891461807,-6069.1931790325225,12853.032769331085,0.0
325012.02908761695,3977225.878295721,-37500.0,-4225.8950412343256,6652.2131487781262,-1373.7347855109151,-3828.4308945259581,3081.2718385454082,-2064.010551395017,8015.3812776505747,5510.9892653017969,-3712.4847845599861,3712.4847845599861,-5510.9892653017969,14555.126201933215,0.0
330012.02908761695,3977225.878295721,-37500.0,-3389.5511716653432,7185.0640329707658,-4135.8181250836333,-3983.0301830475019,4807.074144443015,-2859.4981907456231,8910.1586432511576,4357.4871329824109,-2240.4230767018953,2240.4230767018953,-4357.4871329824109,16523.508732498609,0.0
335012.02908761695,3977225.878295721,-37500.0,-2353.9014901139035,7168.0475841372918,-7074.0562960205743,-3835.599655316912,6591.2943826284154,-3669.752897603184,9860.1067944791957,2609.7415089172514,-470.72461947085139,470.72461947085139,-2609.7415089172514,18612.199803939729,0.0
340012.02908761695,3977225.878295721,-37500.0,-1268.9210478552141,6531.8304935959277,-9941.1272365223595,-3358.8406020837001,8298.6379607585004,-4439.115318484105,10794.719097154681,362.08647360481143,1413.7203629119267,-1413.7203629119267,-362.08647360481143,20644.775341289456,0.0
345012.02908761695,3977225.878295721,-37500.0,-308.89698093323102,5295.3311396366262,-12465.842027827322,-2568.8466300464615,9784.9620813866259,-5109.1150395522054,11636.843076069254,-2199.2750700679085,3189.481506643398,-3189.481506643398,2199.2750700679085,22441.755336773385,0.0
350012.02908761695,3977225.878295721,-37500.0,365.78817460402564,3571.7200825600885,-14403.383278477922,-1527.0430654991558,10921.892569218886,-5627.6418878729519,12310.575701167532,-4823.3530777903561,4636.7095882204521,-4636.7095882204521,4823.3530777903561,23846.634555768811,0.0
355012.02908761695,3977225.878295721,-37500.0,645.76541362874366,1549.4827037093232,-15583.065930278095,-330.92499703628357,11619.88298986179,-5957.576257932009,12750.822382236094,-7241.351447424483,5585.7106168555974,-5585.7106168555974,7241.351447424483,24746.93588767917,0.0
360012.02908761695,3977225.878295721,-37500.0,495.64783113841486,-546.143901311533,-15938.144502281059,904.02731710948046,11842.709631894859,-6082.4248087785681,12916.466237934685,-9218.9115623368489,5950.2917664374936,-5950.2917664374936,9218.9115623368489,25086.526669202787,0.0
365012.02908761695,3977225.878295721,-37500.0,-44.147549542988308,-2498.2766166590332,-15509.338859390717,2065.5553466229981,11609.563754641562,-6007.5345675240706,12798.606682903343,-10596.97631583687,5737.7632016670323,-5737.7632016670323,10596.97631583687,24867.22405975105,0.0
370012.02908761695,3977225.878295721,-37500.0,-874.80971161721345,-4135.8380710835236,-14424.161778166545,3062.6740931555187,10985.517295937914,-5756.9952565834628,12418.576963334861,-11310.476379042737,5035.3655280413586,-5035.3655280413586,11310.476379042737,24140.637616831882,0.0
375012.02908761695,3977225.878295721,-37500.0,-1867.231440031997,-5354.2865561024591,-12861.988491205502,3836.3541574928586,10064.750852439029,-5367.6390255339211,11819.614893780117,-11383.553552177618,3981.2584485363286,-3981.2584485363286,11383.553552177618,22993.630146217107,0.0
380012.02908761695,3977225.878295721,-37500.0,-2890.6632683441499,-6118.1497331617138,-11016.935633679816,4361.8468491159092,8952.0917453718757,-4882.0599225264632,11057.019348724087,-10907.906001827167,2731.3424396246819,-2731.3424396246819,10907.906001827167,21531.640989967669,0.0
385012.02908761695,3977225.878295721,-37500.0,-3834.5016016108102,-6449.7435570681337,-9067.7861219168881,4644.3055159521018,7747.3591548215154,-4342.3457387519256,10189.463750010556,-10013.979233423692,1431.2076334210096,-1431.2076334210096,10013.979233423692,19863.496628997618,0.0
390012.02908761695,3977225.878295721,-37500.0,-4620.1676310499251,-6410.8755010340756,-7159.2487099197633,4710.6209485338713,6534.8626228227113,-3785.5311649947648,9272.5119564374127,-8843.5551719980103,198.02001586825554,-198.02001586825554,8843.5551719980103,18089.883143439878,0.0
395012.02908761695,3977225.878295721,-37500.0,-5203.7369288841955,-6083.6823446452363,-5394.4800110576261,4600.2963578399376,5378.3677608502012,-3241.0637193963671,8354.1703667047932,-7528.894706106481,-887.14222064968772,887.14222064968772,7528.894706106481,16296.168477660151,0.0
400012.02908761695,3977225.878295721,-37500.0,-5572.0080764384784,-5554.6264181976294,-3836.2246522231999,4357.3773529230093,4320.5274952130148,-2730.0490545566918,7471.5375245197174,-6180.1095350881542,-1778.6983105726258,1778.6983105726258,6180.1095350881542,14549.204770383329,0.0
405012.02908761695,3977225.878295721,-37500.0,-5735.1488487377537,-4903.3664681106302,-2513.1263591983111,4024.4443040952674,3385.2359721771913,-2265.7713990756852,6648.5996224145902,-4879.9649029455613,-2460.9016184956249,2460.9016184956249,4879.9649029455613,12897.151950638028,0.0
410012.02908761695,3977225.878295721,-37500.0,-5718.499849223077,-4196.5081525688583,-1428.1773030530467,3638.8643746447715,2581.443461380135,-1854.950590969871,5897.2312146213744,-3684.1423156428705,-2940.0191883520943,2940.0191883520943,3684.1423156428705,11371.262146218236,0.0
415012.02908761695,3977225.878295721,-37500.0,-5555.2185924755486,-3485.2956732499288,-567.15120650755864,3230.9995865251803,1907.301113419486,-1499.2795617028014,5221.1750106930167,-2624.772030535873,-3236.4730404385095,3236.4730404385095,2624.772030535873,9988.6678719179836,0.0
275012.02908761695,3982225.878295721,-37500.0,-703.96812345013245,-2006.4845487817217,4681.0276818943084,767.48180026541934,-2245.3047930411794,832.92366679916938,3866.9962917882094,903.36758384155019,-1779.6761947695086,1779.6761947695086,-903.36758384155019,7214.794998503321,0.0
280012.02908761695,3982225.878295721,-37500.0,-1284.9401099312015,-1641.7739755800292,4971.9642434732004,524.14469704179373,-2293.8725695406683,816.74184442296871,4031.6597080832162,1451.1325544277192,-2365.1581477913801,2365.1581477913801,-1451.1325544277192,7423.7388560009904,0.0
285012.02908761695,3982225.878295721,-37500.0,-1901.8922219567085,-1144.0883820972003,5178.9283736991874,215.17287472087455,-2276.7423868418682,767.13606940531042,4196.2509253149883,2072.1674995859548,-2970.1648404767893,2970.1648404767893,-2072.1674995859548,7614.407547302324,0.0
290012.02908761695,3982225.878295721,-37500.0,-2528.4599208008635,-501.27060726342512,5257.3999150335076,-161.78490756471669,-2169.8499436331581,674.28983013362188,4367.4995182244666,2749.2402421423176,-3562.1266756645928,3562.1266756645928,-2749.2402421423176,7803.7263386193135,0.0
295012.02908761695,3982225.878295721,-37500.0,-3128.1315851518907,289.94384068052051,5154.1459036721881,-603.8640498189045,-1945.9902122741278,527.59450046218183,4557.3737465884205,3451.4231241902526,-4096.5939091868177,4096.5939091868177,-3451.4231241902526,8024.3072681552858,0.0
300012.02908761695,3982225.878295721,-37500.0,-3654.703696213172,1218.8855737296842,4809.6253973348585,-1100.7756605809652,-1576.5267109063682,316.45957216739214,4783.8467647925318,4131.1376272495663,-4517.56606858547,4517.56606858547,-4131.1376272495663,8327.6796660991276,0.0
305012.02908761695,3982225.878295721,-37500.0,-4054.9060777295545,2255.5513076308307,4163.0807037620634,-1632.6530220499012,-1034.3637518545868,31.569597269275622,5069.9961975284659,4722.6351097607067,-4760.2708300880122,4760.2708300880122,-4722.6351097607067,8781.851455806127,0.0
310012.02908761695,3982225.878295721,-37500.0,-4273.9510264279743,3346.0033648189719,3160.9368138216587,-2168.5081170490098,-298.34242136023022,-333.39724203634188,5440.3827869646939,5143.3418973751996,-4757.3460184024934,4757.3460184024934,-5143.3418973751996,9458.830182626356,0.0
315012.02908761695,3982225.878295721,-37500.0,-4264.3227754611235,4410.3692302152604,1768.5128977160343,-2666.0812549266207,641.09736920930118,-779.69420979816709,5914.6591583354366,5299.6541719637298,-4448.9518229486821,4448.9518229486821,-5299.6541719637298,10412.809731576423,0.0
320012.02908761695,3982225.878295721,-37500.0,-3997.1622966013642,5345.6514212188113,-16.120761339795273,-3073.9603831671748,1775.6765653278508,-1301.3565157444636,6500.2226951141129,5098.3579965390827,-3796.3035823263504,3796.3035823263504,-5098.3579965390827,11658.417224749397,0.0
325012.02908761695,3982225.878295721,-37500.0,-3474.1748684907056,6035.2827653716367,-2148.9164701349314,-3336.6415143812715,3073.8048939632417,-1883.4614434097907,7186.9394974002635,4463.5547744047826,-2796.4764344587993,2796.4764344587993,-4463.5547744047826,13160.427281668693,0.0
330012.02908761695,3982225.878295721,-37500.0,-2736.5154498543388,6365.9599130775105,-4531.5498871153814,-3402.5476946327326,4477.7777412514652,-2501.4319000003779,7946.1508148775383,3356.7552115394155,-1494.5080555162906,1494.5080555162906,-3356.7552115394155,14837.762828728895,0.0
335012.02908761695,3982225.878295721,-37500.0,-1866.4417758408936,6249.6980761730583,-7012.82123250321,-3233.9410729872238,5905.603109168821,-3122.0001534253825,8734.0778535132558,1795.2421795963551,12.246348357350143,-12.246348357350143,-1795.2421795963551,16576.483809304551,0.0
340012.02908761695,3982225.878295721,-37500.0,-978.60919886054728,5646.0188967561271,-9402.9696051288429,-2816.4783650733057,7258.6303485396875,-3706.1651087791015,9498.0279988169659,-137.80511509058306,1581.7223106187221,-1581.7223106187221,137.80511509058306,18246.229155187521,0.0
345012.02908761695,3982225.878295721,-37500.0,-201.02385968069393,4577.2665752592738,-11500.272008636381,-2165.4825130137492,8434.4619308919519,-4213.9217406493926,10182.813217023378,-2297.0835420629942,3047.6381317816399,-3047.6381317816399,2297.0835420629942,19717.406645340987,0.0
350012.02908761695,3982225.878295721,-37500.0,350.12178443613328,3130.8703454667011,-13124.428978287329,-1326.4359903162217,9342.6069243580114,-4609.8956721515005,10735.224493550997,-4494.601923819454,4248.919802927282,-4248.919802927282,4494.601923819454,20877.488870140856,0.0
355012.02908761695,3982225.878295721,-37500.0,594.37292842141619,1446.3067039169025,-14147.734590968896,-368.85074176946517,9918.9159827146359,-4868.5597422396422,11108.562331098221,-6530.8705111518193,5059.9780278155031,-5059.9780278155031,6530.8705111518193,21644.317299150771,0.0
360012.02908761695,3982225.878295721,-37500.0,502.24568375257633,-310.01407519688723,-14515.103124146315,625.09664968759819,10134.922283915463,-4977.725127977822,11270.770629928587,-8229.2759490196804,5412.8186827209593,-5412.8186827209593,8229.2759490196804,21974.228653731854,0.0
365012.02908761695,3982225.878295721,-37500.0,97.551422412326616,-1974.4516726341012,-14247.874995866045,1574.0178818581053,9999.8421359465665,-4939.5017483210931,11211.494322019911,-9463.9279187437169,5304.9435273812469,-5304.9435273812469,9463.9279187437169,21863.736905497415,0.0
370012.02908761695,3982225.878295721,-37500.0,-552.56719517981526,-3412.0472798654996,-13432.043058918178,2409.2925041591798,9555.4208902219434,-4768.7102115842499,10942.316285355342,-10174.219660613046,4792.3350330998182,-4792.3350330998182,10174.219660613046,21345.105397756171,0.0
375012.02908761695,3982225.878295721,-37500.0,-1355.3415582560708,-4532.6870529134994,-12196.196274291628,3082.9314227262607,8865.8463009660481,-4489.4211518730226,10491.799413052426,-10364.453933045752,3971.6720350514443,-3971.6720350514443,10364.453933045752,20477.532333221494,0.0
380012.02908761695,3982225.878295721,-37500.0,-2211.8372393548743,-5295.6958525863856,-10686.335400066009,3570.3673345307384,8005.8560560647884,-4130.6584701132624,9898.9295472648973,-10091.622054211135,2958.2869193404381,-2958.2869193404381,10091.622054211135,19336.361937338468,0.0
385012.02908761695,3982225.878295721,-37500.0,-3033.1861685349995,-5704.6765444121211,-9043.7201294944334,3868.763545588984,7049.8671463203636,-3722.2727698564531,9207.001304336558,-9446.8728932028753,1865.9013199156816,-1865.9013199156816,9446.8728932028753,18002.595876903881,0.0
390012.02908761695,3982225.878295721,-37500.0,-3750.924575877933,-5796.399167263593,-7389.3194563359675,3992.3758680826336,6063.9020217457692,-3291.6819454019405,8458.79336811549,-8536.2139507183874,791.93217046423706,-791.93217046423706,8536.2139507183874,16554.28571271824,0.0
395012.02908761695,3982225.878295721,-37500.0,-4321.0917877344837,-5627.7215047575028,-5815.7345990641325,3966.6879337108612,5100.9123648894883,-2861.7874290164127,7693.1113605912378,-7464.3757464600976,-190.42607682861308,190.42607682861308,7464.3757464600976,15060.550238044181,0.0
400012.02908761695,3982225.878295721,-37500.0,-4723.3113831138571,-5263.5745301007792,-4385.5363870276315,3822.7276246458418,4199.1940439767577,-2450.0426161645914,6942.0906516440964,-6323.7119822631375,-1034.0935312347187,1034.0935312347187,6323.7119822631375,13578.257300599627,0.0
405012.02908761695,3982225.878295721,-37500.0,-4956.7242420485663,-4767.6957537615344,-3134.0361032369606,3592.4283638371749,3383.0866190729566,-2068.4368820609457,6228.813462928897,-5188.266022831076,-1715.7322552636083,1715.7322552636083,5188.266022831076,12150.932765774152,0.0
410012.02908761695,3982225.878295721,-37500.0,-5034.563910276499,-4196.605914516228,-2074.4542036611101,3305.3801604144096,2665.0528823921036,-1724.0891123591741,5566.6584485429594,-4112.0959676109687,-2231.0270846016192,2231.0270846016192,4112.0959676109687,10809.29056403353,0.0
275012.02908761695,3987225.878295721,-37500.0,-1007.3283185457941,-1479.969864678538,4292.2572695503368,455.08306956089967,-1909.8152282471565,649.60848096377617,3434.8412671780825,1185.0940540420547,-1956.3927909770873,1956.3927909770873,-1185.0940540420547,6339.1155061148011,0.0
280012.02908761695,3987225.878295721,-37500.0,-1510.5594438255705,-1091.9503824639055,4475.1602026717173,219.76702372675024,-1908.7568964181605,618.09022854010732,3571.8186424070313,1683.7528793497727,-2451.5819218194697,2451.5819218194697,-1683.7528793497727,6501.5772829407242,0.0
285012.02908761695,3987225.878295721,-37500.0,-2027.7471555987167,-591.51084679687835,4564.2476815709779,-67.113771988541785,-1844.2621592815851,556.98648589175275,3713.2866274067728,2229.7907787734835,-2943.4002717706276,2943.4002717706276,-2229.7907787734835,6660.6133252006939,0.0
290012.02908761695,3987225.878295721,-37500.0,-2533.9721706896757,25.979146006123194,4521.1022170487813,-404.76890938354109,-1697.1770878540153,458.99040570604348,3867.1805866678196,2803.0422337274786,-3401.206212403581,3401.206212403581,-2803.0422337274786,6837.4772061588192,0.0
295012.02908761695,3987225.878295721,-37500.0,-2997.2473050475583,756.42406503875907,4302.1769812316306,-787.81005754653506,-1446.9083164639767,316.5870064440038,4045.5628306610515,3372.1467493288146,-3785.9937710250524,3785.9937710250524,-3372.1467493288146,7066.3361998079281,0.0
300012.02908761695,3987225.878295721,-37500.0,-3379.7210925525728,1583.4097183229665,3861.5940586611923,-1204.8083771938329,-1073.0606625254682,122.74321294425476,4264.409251789245,3893.1468004782128,-4051.6422117440316,4051.6422117440316,-3893.1468004782128,7394.0570548505193,0.0
305012.02908761695,3987225.878295721,-37500.0,-3640.5680358254376,2474.8138812993843,3155.926607742259,-1637.086571003902,-557.92818905357649,-128.12204495315981,4541.858855138722,4309.557622330567,-4148.1117696024648,4148.1117696024648,-4309.557622330567,7874.3517874538084,0.0
310012.02908761695,3987225.878295721,-37500.0,-3740.8827974493797,3380.550868820972,2151.1375340890481,-2058.152107281378,110.16884217340545,-438.91655957537313,4894.6206176393625,4554.8407365110561,-4027.0285632152541,4027.0285632152541,-4554.8407365110561,8555.2549206468102,0.0
315012.02908761695,3987225.878295721,-37500.0,-3650.4846285178728,4232.6874235381993,831.31667014210825,-2434.2691764949063,932.9521560716629,-808.51493457299171,5333.178518268066,4558.1341194706974,-3649.669694502606,3649.669694502606,-4558.1341194706974,9463.6841705800907,0.0
320012.02908761695,3987225.878295721,-37500.0,-3355.8469319516639,4949.2212897990939,-791.94961497866541,-2726.640070366082,1898.2438820235175,-1230.4764828016323,5857.3983289367688,4253.6095779329635,-2996.5865673662493,2996.5865673662493,-4253.6095779329635,10594.31919752519,0.0
325012.02908761695,3987225.878295721,-37500.0,-2867.5210361944264,5442.3858646967356,-2671.6688158395582,-2895.4463699906314,2976.951807420367,-1692.1578244221212,6454.223813281742,3592.8489485848186,-2077.0998006496129,2077.0998006496129,-3592.8489485848186,11907.387883721394,0.0
330012.02908761695,3987225.878295721,-37500.0,-2224.7223627385524,5631.2657398464935,-4721.7663577433614,-2905.5387537257225,4122.131374421755,-2174.5854733481574,7098.2115848655612,2558.2469844077714,-935.9783246651441,935.9783246651441,-2558.2469844077714,13334.120349304521,0.0
335012.02908761695,3987225.878295721,-37500.0,-1494.6784715563533,5456.9070688157744,-6820.3191001530658,-2732.9306138944262,5271.1592657532701,-2653.396695041647,7754.5591894494137,1174.1226124860307,345.6626026978156,-345.6626026978156,-1174.1226124860307,14786.133797828164,0.0
340012.02908761695,3987225.878295721,-37500.0,-765.28434202784774,4896.49683798153,-8821.1084497424108,-2370.656074538495,6351.4696832638128,-3100.9611171049751,8383.6045282992054,-488.34863860653661,1657.3488644350896,-1657.3488644350896,488.34863860653661,16166.213617175814,0.0
345012.02908761695,3987225.878295721,-37500.0,-131.57837272852714,3972.4102231277502,-10572.516913648627,-1832.3064067274258,7289.3132932219005,-3489.4806880277602,8945.2468631969223,-2315.3826852051625,2874.0988128236313,-2874.0988128236313,2315.3826852051625,17379.398377992471,0.0
350012.02908761695,3987225.878295721,-37500.0,321.11635559268615,2752.7040068043925,-11940.088842295532,-1151.9164762063263,8019.9173810629181,-3794.5331230718375,9401.6091635814428,-4164.5829560039265,3876.3642800938792,-3876.3642800938792,4164.5829560039265,18343.472896493386,0.0
355012.02908761695,3987225.878295721,-37500.0,532.94587342351213,1341.9935017332323,-12827.290451884042,-379.82584880434251,8496.7384134745953,-3998.309328078517,9718.8840977536674,-5886.0575050189564,4570.1273100679391,-4570.1273100679391,5886.0575050189564,18997.601999469502,0.0
360012.02908761695,3987225.878295721,-37500.0,479.78682708196197,-135.27350862606488,-13189.161153334746,424.64584576936926,8697.5848294068255,-4091.8169307241437,9872.1058336174101,-7345.4879210401805,4901.8075506790201,-4901.8075506790201,7345.4879210401805,19307.783417595459,0.0
365012.02908761695,3987225.878295721,-37500.0,175.43118578925677,-1554.7293691246552,-13035.721545810178,1201.9125405774805,8626.2786611671199,-4075.5921409295825,9850.9512144696728,-8443.3335341444908,4864.299832718636,-4864.299832718636,8443.3335341444908,19268.32165775344,0.0
370012.02908761695,3987225.878295721,-37500.0,-334.18323653860011,-2810.1262269962103,-12425.213728414707,1900.1486267335213,8309.8327707324061,-3958.8691434560769,9661.1306553447139,-9125.8926127431787,4493.4273648013605,-4493.4273648013605,9125.8926127431787,18899.398486033177,0.0
375012.02908761695,3987225.878295721,-37500.0,-982.23255543538028,-3825.6165401602825,-11450.056114666046,2480.9760465360591,7792.303462416985,-3757.5475350225947,9321.4923324474003,-9386.7697559013959,3856.9541125735595,-3856.9541125735595,9386.7697559013959,18241.653644727081,0.0
380012.02908761695,3987225.878295721,-37500.0,-1694.1967630274396,-4560.6648371146666,-10219.769580647458,2922.0505208746226,7127.095424849751,-3491.5220807466872,8859.5856212971339,-9260.1352659676431,3039.9420063515022,-3039.9420063515022,9260.1352659676431,17349.153837779657,0.0
385012.02908761695,3987225.878295721,-37500.0,-2399.7096306880544,-5008.2027749261788,-8844.9123608207974,3216.6901767581935,6369.4782162083175,-3181.9731136244527,8307.3281185514643,-8808.9097445230473,2130.3168296342164,-2130.3168296342164,8808.9097445230473,16282.169943766447,0.0
390012.02908761695,3987225.878295721,-37500.0,-3040.9908880211638,-5188.1034721980232,-7424.7422158380077,3371.3331625234705,5570.5759208752825,-2849.0794444567355,7697.4433132869517,-8111.3939289551618,1207.4274294662614,-1207.4274294662614,8111.3939289551618,15100.869538389285,0.0
395012.02908761695,3987225.878295721,-37500.0,-3577.1881458400285,-5138.4720835340231,-6039.6988445612906,3401.8461597267747,4773.4184635028287,-2510.4047497129677,7060.8264451413525,-7249.163322840016,334.87277764164082,-334.87277764164082,7249.163322840016,13860.551241130281,0.0
400012.02908761695,3987225.878295721,-37500.0,-3985.0594709565498,-4906.9070478304866,-4748.4737399458827,3329.6216652782914,4011.0696474919109,-2180.0139195758434,6424.5185804338917,-6297.8937049140013,-442.44165159319436,442.44165159319436,6297.8937049140013,12608.623203968993,0.0
405012.02908761695,3987225.878295721,-37500.0,-4257.0398305547333,-4543.1510683813012,-3588.6171584957538,3178.1295805703876,3306.4456322525834,-1868.2210066005011,5809.6809825145428,-5321.6314678522467,-1097.9032529386441,1097.9032529386441,5321.6314678522467,11383.164741013241,0.0
410012.02908761695,3987225.878295721,-37500.0,-4397.8610266650567,-4093.7785228331604,-2579.394348671759,2970.2746403029232,2673.295122529214,-1581.8047145032551,5230.1080051226627,-4370.2156548136354,-1620.6327895122745,1620.6327895122745,4370.2156548136354,10212.75047086459,0.0
285012.02908761695,3992225.878295721,-37500.0,-2060.2515277308312,-146.09746813230751,3967.3681881510834,-266.45368797457456,-1471.0527110720329,392.90266065704168,3300.7706323029479,2292.5677023437656,-2836.4642764169766,2836.4642764169766,-2292.5677023437656,5859.3940565228449,0.0
290012.02908761695,3992225.878295721,-37500.0,-2462.2505552057341,431.42580294902427,3831.3136686650523,-563.18510304438325,-1300.2326068150987,295.76136080760716,3443.4382284079729,2767.2497492369248,-3179.4367844657872,3179.4367844657872,-2767.2497492369248,6036.5210835320077,0.0
295012.02908761695,3992225.878295721,-37500.0,-2813.0144259908238,1092.0584926080928,3531.1361522572279,-890.18320559183212,-1040.2479371359566,162.49610841527362,3613.9604720573498,3217.4600401455232,-3442.4411476748487,3442.4411476748487,-3217.4600401455232,6279.0304671138238,0.0
300012.02908761695,3992225.878295721,-37500.0,-3082.4561137452379,1816.7511068077099,3032.5611481102887,-1236.154725141738,-676.99491643669546,-11.419442182992196,3825.5734119690696,3604.3216678540557,-3588.6010177999569,3588.6010177999569,-3604.3216678540557,6626.1765527981479,0.0
305012.02908761695,3992225.878295721,-37500.0,-3240.0998300092369,2574.142639672235,2305.7460634513445,-1584.4743625220997,-199.45050419135512,-229.11287382272951,4091.6261772347075,3880.7583987861262,-3580.2507489646841,3580.2507489646841,-3880.7583987861262,7117.1362916260687,0.0
310012.02908761695,3992225.878295721,-37500.0,-3259.1061947992262,3319.7757076416469,1330.7377142463952,-1913.1614507359191,397.88284292787102,-491.46854871642677,4422.5818188518151,3994.3086799265848,-3383.6167758095344,3383.6167758095344,-3994.3086799265848,7780.853756759423,0.0
315012.02908761695,3992225.878295721,-37500.0,-3121.333013479808,3997.2683048465869,103.776757684895,-2195.7241937752792,1112.3157747825269,-796.2548184174625,4822.7777286229702,3892.2096138312872,-2974.8653521905844,2974.8653521905844,-3892.2096138312872,8626.6160399239288,0.0
320012.02908761695,3992225.878295721,-37500.0,-2822.7145207290678,4542.1474074550561,-1356.5382838975459,-2403.1051505289734,1930.5434445518861,-1137.3776905227501,5288.0363409126467,3528.7256720745531,-2346.7700072197335,2346.7700072197335,-3528.7256720745531,9639.4023911106233,0.0
325012.02908761695,3992225.878295721,-37500.0,-2377.7660009848009,4888.6380065316744,-3004.7164557923761,-2506.7771142234969,2827.072478928133,-1504.4613193096206,5804.9119589359443,2874.0107351122942,-1514.6658640116095,1514.6658640116095,-2874.0107351122942,10780.927710008145,0.0
330012.02908761695,3992225.878295721,-37500.0,-1821.7276500969419,4978.9445990699278,-4767.2093172888681,-2482.7335839237489,3764.1866803909334,-1882.9624455981332,6351.7101424329621,1922.9704716550502,-519.93491970707942,519.93491970707942,-1922.9704716550502,11994.503582347606,0.0
335012.02908761695,3992225.878295721,-37500.0,-1208.9996255624376,4773.5945813769895,-6546.0874750655139,-2315.7558613339966,4693.9848272303207,-2254.969700566246,6900.9213114202339,701.92735993605413,570.69870958555327,-570.69870958555327,-701.92735993605413,13211.600883982204,0.0
340012.02908761695,3992225.878295721,-37500.0,-607.24284482224004,4260.5724048568254,-8228.0952149541154,-2003.0419869642965,5562.6258004120355,-2600.7099713208368,7422.4623560793534,-729.22789232463106,1671.0742922556376,-1671.0742922556376,729.22789232463106,14359.030747162404,0.0
345012.02908761695,3992225.878295721,-37500.0,-87.73941181522045,3460.7017107548681,-9698.1504749120177,-1556.2143014014148,6316.3286129128501,-2900.6050370481485,7886.785279699624,-2280.9928689671688,2686.3636040428155,-2686.3636040428155,2280.9928689671688,15366.268844146778,0.0
350012.02908761695,3992225.878295721,-37500.0,286.08412028359953,2427.3423523371998,-10854.830568813613,-1000.9819690644599,6908.0910312327742,-3137.5446116167172,8266.5474341070258,-3844.3935753811152,3526.7900464332611,-3526.7900464332611,3844.3935753811152,16172.380488206241,0.0
355012.02908761695,3992225.878295721,-37500.0,469.22543854804564,1239.9166721734896,-11624.449955150727,-374.30095533386003,7303.7423052868289,-3298.939995326361,8537.059510535988,-5305.5297699331186,4121.2145113742772,-4121.2145113742772,5305.5297699331186,16731.751980637611,0.0
360012.02908761695,3992225.878295721,-37500.0,442.12282080891566,-7.4554207145361904,-11970.500294600954,280.45197677336273,7486.0236692527205,-3378.1405985814508,8678.8475100033502,-6561.338027551541,4427.346394128941,-4427.346394128941,6561.338027551541,17017.811639156735,0.0
365012.02908761695,3992225.878295721,-37500.0,212.50354767419631,-1219.5281094587426,-11896.477273442799,919.22969526465477,7455.8878281868847,-3374.9463605628303,8682.2936277288009,-7532.9945371043086,4436.2873522838745,-4436.2873522838745,7532.9945371043086,17024.227949645614,0.0
370012.02908761695,3992225.878295721,-37500.0,-187.98780979642029,-2312.5946071385324,-11441.983286455581,1502.752942386556,7230.942155030807,-3295.1687196404191,8549.5929494271059,-8174.2241688470758,4170.8222829286087,-4170.8222829286087,8174.2241688470758,16763.574842714039,0.0
375012.02908761695,3992225.878295721,-37500.0,-711.02314923737572,-3223.6996632535756,-10673.694673298003,2000.5939264993283,6841.6499513615281,-3149.415493126347,8293.1345668170161,-8473.3708747023793,3678.5734084611954,-3678.5734084611954,8473.3708747023793,16263.949337532744,0.0
380012.02908761695,3992225.878295721,-37500.0,-1300.5490259687372,-3915.1343317360897,-9673.7565340682468,2393.3481869976808,6326.3167146025989,-2951.4139455227232,7932.4444235455449,-8449.8092113716521,3022.2438565670991,-3022.2438565670991,8449.8092113716521,15564.348719964222,0.0
385012.02908761695,3992225.878295721,-37500.0,-1901.3430268886289,-4374.2947622604352,-8528.22586810342,2672.862098398773,5725.9543715882974,-2716.2287534210918,7491.0789237925164,-8146.4603381078305,2269.4090381469618,-2269.4090381469618,8146.4603381078305,14709.692807428211,0.0
390012.02908761695,3992225.878295721,-37500.0,-2465.6404707748611,-4610.0051388744459,-7317.5400495167487,2840.9082066703063,5079.8858152697931,-2458.6734854699703,6993.9897054930216,-7620.6225840449761,1483.8250422030387,-1483.8250422030387,7620.6225840449761,13746.243898614999,0.0
395012.02908761695,3992225.878295721,-37500.0,-2957.1350647992836,-4646.8381758744163,-6110.0285329279632,2906.9042123993709,4422.5812186744006,-2192.1033650032518,6465.52500660855,-6935.0715719732125,719.3609004419759,-719.3609004419759,6935.0715719732125,12717.914116633336,0.0
400012.02908761695,3992225.878295721,-37500.0,-3352.3932997286388,-4518.9069555408068,-4958.6141556347256,2885.2829296403438,3781.8577648303294,-1927.6623163081179,5927.9471543867221,-6150.7672465329133,16.817858899551538,-16.817858899551538,6150.7672465329133,11663.692119720969,0.0
290012.02908761695,3997225.878295721,-37500.0,-2341.84392775574,733.6923199968428,3200.8566340830757,-658.66122556137873,-971.66245777754932,173.69910393531873,3083.4903229957717,2668.6915507583567,-2925.3096304521364,2925.3096304521364,-2668.6915507583567,5371.7208950594259,0.0
295012.02908761695,3997225.878295721,-37500.0,-2601.7719670354691,1321.9756609825231,2847.5337315527258,-934.72511370013262,-713.5249491220253,52.037726923190917,3247.5547385976574,3016.0182334069655,-3091.6830628412258,3091.6830628412258,-3016.0182334069655,5627.3940521747436,0.0
300012.02908761695,3997225.878295721,-37500.0,-2784.2181585811109,1949.4776312981585,2319.9985005127219,-1219.3283693280152,-370.07421727163131,-101.51377251596352,3451.0401033802673,3292.3705272223679,-3148.2640000175106,3148.2640000175106,-3292.3705272223679,5985.7635275388193,0.0
305012.02908761695,3997225.878295721,-37500.0,-2866.9574436840667,2587.2006006922152,1598.6920545299968,-1498.179175917114,65.085527936070605,-288.51429149972847,3703.1640070941044,3459.3758235078394,-3067.3467229036214,3067.3467229036214,-3459.3758235078394,6473.2621539052498,0.0
310012.02908761695,3997225.878295721,-37500.0,-2832.0485769805896,3196.8314112651547,673.48391904566256,-1753.3998877571337,593.563235190299,-508.70947248594393,4009.7860863663573,3476.3503528274186,-2826.0529441892895,2826.0529441892895,-3476.3503528274186,7105.0334695129413,0.0
315012.02908761695,3997225.878295721,-37500.0,-2669.4938075059245,3732.3361845685345,-451.89423925547993,-1964.4089314924061,1210.416948682061,-759.48188432790937,4371.3952873351936,3304.5459598085044,-2410.7827311229621,2410.7827311229621,-3304.5459598085044,7879.9293701698052,0.0
320012.02908761695,3997225.878295721,-37500.0,-2380.8098935686426,4143.428645272028,-1755.8977594049725,-2109.5373592006472,1902.6964794958851,-1035.4292087600377,4781.9455205897402,2912.7274790755773,-1821.7413946387796,1821.7413946387796,-2912.7274790755773,8779.2384494160378,0.0
325012.02908761695,3997225.878295721,-37500.0,-1981.6767667912497,4380.9297802488827,-3196.7216168886871,-2168.3442718388046,2648.6965412680779,-1328.1945563770973,5228.8370102425952,2283.4343534325717,-1076.587551372008,1076.587551372008,-2283.4343534325717,9768.6719233839322,0.0
330012.02908761695,3997225.878295721,-37500.0,-1502.7343621621289,4403.527150471833,-4712.4291377814443,-2124.4006684365086,3418.3192818046382,-1626.6650736454758,5693.9750490929764,1418.803647127329,-212.07698913040747,212.07698913040747,-1418.803647127329,10802.167766182869,0.0
335012.02908761695,3997225.878295721,-37500.0,-987.78433054512834,4184.8680816342012,-6224.4447197756117,-1968.1063171346441,4174.8139975611975,-1917.6095246409802,6155.6446694728957,344.51891171902111,717.28320214427367,-717.28320214427367,-344.51891171902111,11826.449759427273,0.0
340012.02908761695,3997225.878295721,-37500.0,-489.17180391016001,3719.4904682690462,-7644.5445663445234,-1698.9590876529592,4877.8959743033001,-2186.7445682859293,6590.8533350082052,-889.49741755697039,1644.0240096660254,-1644.0240096660254,889.49741755697039,12785.8972357373,0.0
345012.02908761695,3997225.878295721,-37500.0,-60.872041176350329,3026.0337153345877,-8884.567356601141,-1326.6962107530803,5487.8990909665135,-2420.1138526199798,6977.5601327677896,-2212.4915147621732,2495.5524748865009,-2495.5524748865009,2212.4915147621732,13627.490890421534,0.0
350012.02908761695,3997225.878295721,-37500.0,249.43343106917979,2146.6232920071134,-9867.1982221867293,-870.90587756787875,5970.2923421532469,-2605.5725279574772,7295.780123879751,-3540.2742717161273,3203.7189285071181,-3203.7189285071181,3540.2742717161273,14305.482485636201,0.0
355012.02908761695,3997225.878295721,-37500.0,407.57010484400752,1142.216291723438,-10535.671746463371,-359.04937687074755,6299.7120599279569,-2734.1141401559639,7527.3310248914549,-4785.3984413842763,3714.1568151971646,-3714.1568151971646,4785.3984413842763,14785.274811390678,0.0
360012.02908761695,3997225.878295721,-37500.0,397.73431107485754,84.742230912794668,-10860.388537514082,176.7793380506601,6462.7234644240007,-2800.7968077870278,7656.9656867200556,-5868.104619888868,3993.3786388260369,-3993.3786388260369,5868.104619888868,15046.001309122006,0.0
365012.02908761695,3997225.878295721,-37500.0,223.98524473265272,-952.29101879240989,-10841.176377587944,703.71377115577798,6458.8092520846494,-2805.1078419745386,7676.0245308637268,-6725.7871309903512,4032.176431056354,-4032.176431056354,6725.7871309903512,15081.467657875639,0.0
370012.02908761695,3997225.878295721,-37500.0,-91.738732501677404,-1902.7704502410832,-10505.043218343197,1191.8411030524974,6299.509623713594,-2750.7314244172208,7584.6277231316217,-7319.2092573342734,3844.8793361813141,-3844.8793361813141,7319.2092573342734,14899.422076894531,0.0
375012.02908761695,3997225.878295721,-37500.0,-514.31519356805325,-2714.8547546187388,-9900.3100088840802,1617.1320679006294,6006.0442218653088,-2644.8104217151922,7390.8540297422805,-7634.6125445335265,3465.0548785480341,-3465.0548785480341,7634.6125445335265,14519.416324390695,0.0
380012.02908761695,3997225.878295721,-37500.0,-1001.5489444003696,-3354.8061320470142,-9088.683339580668,1963.1785832111518,5606.0184823802283,-2496.8817828813567,7108.5884023336012,-7681.919443094348,2938.9755404383636,-2938.9755404383636,7681.919443094348,13969.735790887004,0.0
385012.02908761695,3997225.878295721,-37500.0,-1510.3188207479252,-3807.6522875595238,-8136.9697779480102,2221.6531377363708,5129.8956305988459,-2317.6992983153796,6755.2600741786018,-7490.0217657589246,2318.4176298769771,-2318.4176298769771,7490.0217657589246,13283.95652259694,0.0
390012.02908761695,3997225.878295721,-37500.0,-2001.6718291088318,-4075.2386234066298,-7109.8298185572976,2391.6754423902157,4607.8147969397287,-2118.1355844637515,6349.8814813369372,-7100.5315774311402,1654.1543767714425,-1654.1543767714425,7100.5315774311402,12497.633455021914,0.0
395012.02908761695,3997225.878295721,-37500.0,-2444.2563117649333,-4172.5972312204467,-6064.4179160765452,2478.4295610821978,4067.1318668726321,-1908.2956628432853,5911.522982421372,-6561.3248100006276,991.02727812833837,-991.02727812833837,6561.3248100006276,11645.484752403789,0.0
295012.02908761695,4002225.878295721,-37500.0,-2381.3604553757486,1468.5454062997305,2251.1378689914277,-939.35831030999816,-454.36231416302348,-25.391369772389144,2934.0248921662933,2789.2732130449958,-2750.4238096989502,2750.4238096989502,-2789.2732130449958,5082.617680919665,0.0
300012.02908761695,4002225.878295721,-37500.0,-2497.9576501392417,2006.9341393913282,1715.9992054054617,-1171.971547299582,-135.79632882869376,-159.43340065153157,3128.1058698449215,2976.4553915057663,-2741.5853817600951,2741.5853817600951,-2976.4553915057663,5443.4286551970727,0.0
305012.02908761695,4002225.878295721,-37500.0,-2527.4539878229734,2540.1703889980859,1018.0585972331405,-1394.0901810705027,255.93194026335192,-318.95048160594376,3364.436411875196,3059.6103186596474,-2612.589322456126,2612.589322456126,-3059.6103186596474,5916.2684895778475,0.0
310012.02908761695,4002225.878295721,-37500.0,-2458.3175845839755,3035.8937334336551,153.81548342367344,-1591.3686584991535,720.09479199200098,-503.09843327699673,3645.6852673121098,3007.6005549287502,-2348.4991319195742,2348.4991319195742,-3007.6005549287502,6507.0540897178071,0.0
315012.02908761695,4002225.878295721,-37500.0,-2285.9195980020722,3456.9334565549184,-868.68478316157723,-1747.9265251263437,1250.8135478296624,-709.26198660390924,3970.1047825860296,2792.3239780264603,-1942.5789394048895,1942.5789394048895,-2792.3239780264603,7209.0513565370502,0.0
320012.02908761695,4002225.878295721,-37500.0,-2014.8584279443951,3764.2633295760138,-2027.3900906834804,-1847.6390791302213,1836.2129242070991,-932.82622940025578,4331.0586872553931,2392.8796573924833,-1399.3145963381949,1399.3145963381949,-2392.8796573924833,8003.1175073390914,0.0
325012.02908761695,4002225.878295721,-37500.0,-1660.4509528147692,3921.1444197868968,-3285.0537824972771,-1875.8446779508993,2458.1337871766132,-1167.1352656165761,4717.3061392135205,1799.9524948590595,-736.58527949293807,736.58527949293807,-1799.9524948590595,8859.6784580278545,0.0
330012.02908761695,4002225.878295721,-37500.0,-1248.8170665152843,3898.0223143421467,-4589.970693410567,-1821.2836855962148,3092.6341450831137,-1403.7021056628612,5113.9369101699322,1019.6186110882588,13.726089311586122,-13.726089311586122,-1019.6186110882588,9741.556178001234,0.0
335012.02908761695,4002225.878295721,-37500.0,-815.15898348801659,3677.4080809173947,-5879.0441655196501,-1677.9680794954381,3711.4063455697487,-1632.7011257272202,5503.7906050965876,75.639837163594052,807.23899416498114,-807.23899416498114,-75.639837163594052,10607.153300738975,0.0
340012.02908761695,4002225.878295721,-37500.0,-400.19284774101186,3257.7573073649191,-7083.1427519819899,-1446.6128214905691,4284.0639263640214,-1843.7227202131182,5869.1637560137497,-990.5791622452424,1590.8753732381633,-1590.8753732381633,990.5791622452424,11413.815543226527,0.0
345012.02908761695,4002225.878295721,-37500.0,-45.158541359897683,2655.3831363019731,-8134.139967646508,-1135.2807349230923,4781.0446587928018,-2026.7087334320454,6193.4395698517073,-2122.8123161340104,2308.5926000434115,-2308.5926000434115,2122.8123161340104,12121.23627814553,0.0
350012.02908761695,4002225.878295721,-37500.0,213.72698692386609,1903.7600808177049,-8972.5217349657523,-759.01595420055844,5176.6922145292656,-2172.9358727130311,6461.8541092596879,-3255.4464768886273,2908.1419962088712,-2908.1419962088712,3255.4464768886273,12694.664091109687,0.0
355012.02908761695,4002225.878295721,-37500.0,350.26697554445002,1050.139365125425,-9554.1765037443292,-338.44879381750087,5451.9869269791652,-2275.8883996487552,6660.9121536134007,-4320.7034517305292,3347.5862304784728,-3347.5862304784728,4320.7034517305292,13107.577593902461,0.0
360012.02908761695,4002225.878295721,-37500.0,351.70234363489169,150.02671795734753,-9855.0899260342339,102.41698939341006,5596.4408018089862,-2331.8723909489786,6778.6069509732406,-5256.3530809046961,3600.2980610767509,-3600.2980610767509,5256.3530809046961,13343.497766633527,0.0
365012.02908761695,4002225.878295721,-37500.0,219.88650898894349,-739.41280632594714,-9873.1225443605163,538.83576036154966,5608.8412877659903,-2340.2751513391395,6807.2764274982273,-6012.4758300919339,3657.503007283739,-3657.503007283739,6012.4758300919339,13396.717966006956,0.0
370012.02908761695,4002225.878295721,-37500.0,-29.882873463474656,-1565.774647599477,-9626.7209766544529,947.90242178152062,5496.7781033775382,-2303.4426776237528,6745.8501834068438,-6556.1125817466209,3528.0381651994185,-3528.0381651994185,6556.1125817466209,13271.910439031328,0.0
375012.02908761695,4002225.878295721,-37500.0,-371.94417280557008,-2286.5441080089922,-9151.0703971867188,1310.6595229812535,5275.1370139339715,-2226.225513152262,6599.5240568788113,-6873.1776537552632,3235.6328431070374,-3235.6328431070374,6873.1776537552632,12982.757611033237,0.0
380012.02908761695,4002225.878295721,-37500.0,-774.46444634533236,-2872.2426082550051,-8492.6463124674683,1613.4522144369835,4963.9167772412075,-2115.2952459573648,6378.2053298425453,-6967.6637434490067,2814.5077614835782,-2814.5077614835782,6967.6637434490067,12549.89278239431,0.0
385012.02908761695,4002225.878295721,-37500.0,-1203.8504445115375,-3307.4071589186133,-7703.2739458459082,1848.4405299308412,4585.7977607402336,-1978.3623484884818,6094.8356169207264,-6858.6966877174564,2304.2927356157165,-2304.2927356157165,6858.6966877174564,11998.505761061675,0.0
390012.02908761695,4002225.878295721,-37500.0,-1628.6115484546233,-3589.6663133059692,-6834.6722609447579,2013.3475110515712,4163.8495948865566,-1823.4173747050829,5763.9191935650006,-6576.2929494930686,1745.1977934855768,-1745.1977934855768,6576.2929494930686,11355.949725293891,0.0
305012.02908761695,4007225.878295721,-37500.0,-2223.4643608602373,2452.9257328834478,546.62012416184939,-1282.7553070609092,389.70567298625753,-329.61781541929668,3066.4318663225658,2689.3741974966633,-2214.6919905615305,2214.6919905615305,-2689.3741974966633,5427.3784537728015,0.0
310012.02908761695,4007225.878295721,-37500.0,-2134.0155148579679,2854.203257714109,-251.61353838884631,-1434.6037431163452,795.36119456480424,-483.31427493383768,3322.4215991147116,2589.6195547650259,-1942.9015483617957,1942.9015483617957,-2589.6195547650259,5972.6425647024244,0.0
315012.02908761695,4007225.878295721,-37500.0,-1961.3777627633124,3183.5192528097955,-1174.5061396432802,-1549.8807404243596,1251.0587662747146,-652.84932360522635,3612.0218481636848,2349.8207682250704,-1555.9418167156009,1555.9418167156009,-2349.8207682250704,6603.6345498674782,0.0
320012.02908761695,4007225.878295721,-37500.0,-1711.656538814153,3410.6742535064036,-2200.8825061635662,-1616.5952319404346,1746.2827340286888,-834.36903111730896,3928.7110523724832,1956.3649120798448,-1060.5508985449899,1060.5508985449899,-1956.3649120798448,7302.3910078671288,0.0
325012.02908761695,4007225.878295721,-37500.0,-1399.0371786969738,3508.2209551527699,-3298.1965519391201,-1624.2154015927658,2266.00388220381,-1022.6063587256451,4262.7382786341941,1405.2041409167282,-473.69898312176963,473.69898312176963,-1405.2041409167282,8043.9293391130859,0.0
330012.02908761695,4007225.878295721,-37500.0,-1045.5200783916478,3455.0058559147237,-4423.499953486119,-1565.0201158235714,2791.1933523171233,-1211.072354221016,4601.8953584472447,704.32836188545923,177.35787353924809,-177.35787353924809,-704.32836188545923,8798.3103269103922,0.0
335012.02908761695,4007225.878295721,-37500.0,-679.40031372379201,3239.5422286729686,-5526.0241843386284,-1435.3470324309521,3299.9475074893699,-1392.4293619563516,4932.5855758219241,-124.94292631127308,856.51859453986981,-856.51859453986981,124.94292631127308,9532.8859891629054,0.0
340012.02908761695,4007225.878295721,-37500.0,-332.52854214331961,2862.5635384852581,-6551.2755328731409,-1236.501736367806,3769.1670244560537,-1559.0269046920189,5241.0819756364153,-1048.3472346045173,1521.8171981641417,-1521.8171981641417,1048.3472346045173,10214.661482852449,0.0
345012.02908761695,4007225.878295721,-37500.0,-36.682510860325088,2338.1548965784718,-7446.1766170612091,-975.11717829746783,4176.6058127533606,-1703.5421913275138,5514.7421671880138,-2020.9642582043621,2129.640659011869,-2129.640659011869,2020.9642582043621,10812.678251325946,0.0
350012.02908761695,4007225.878295721,-37500.0,180.36356568388339,1693.083458341189,-8164.5004903754634,-662.83454044334212,4503.002649054949,-1819.6410396726415,5742.5644659432055,-2991.2397625976823,2639.5604324534611,-2639.5604324534611,2991.2397625976823,11300.254432502541,0.0
355012.02908761695,4007225.878295721,-37500.0,298.35026539922524,964.31064217837684,-8671.6865097350892,-315.3079681269478,4733.9581588221909,-1902.5602456744202,5914.4618228520876,-3906.1764667137772,3018.9433346192177,-3018.9433346192177,3906.1764667137772,11656.858090347176,0.0
360012.02908761695,4007225.878295721,-37500.0,306.96337713117168,195.05649187895176,-8948.2118803487283,49.329295655083676,4861.252560673388,-1949.5209383169024,6020.9059746313369,-4716.8424987204926,3246.5172506416402,-3246.5172506416402,4716.8424987204926,11869.397765959622,0.0
365012.02908761695,4007225.878295721,-37500.0,206.74915843409929,-569.89254051823582,-8990.9760387029728,412.28469672116682,4883.4021011655477,-1959.9133574963514,6055.1683501837479,-5383.256066740636,3314.2772200476593,-3314.2772200476593,5383.256066740636,11932.783649475621,0.0
370012.02908761695,4007225.878295721,-37500.0,8.4274856068412944,-1288.8207109959544,-8812.5731150875963,755.91589251554706,4805.4036760761392,-1935.2337522602795,6015.5322496226536,-5877.8731335041593,3227.493820533924,-3227.493820533924,5877.8731335041593,11849.723630252043,0.0
375012.02908761695,4007225.878295721,-37500.0,-269.14805255260092,-1926.9163155608935,-8438.7454272482282,1065.2526737535845,4637.7694683375448,-1878.8013972563069,5905.2653979587412,-6187.2281265252677,3002.983425350099,-3002.983425350099,6187.2281265252677,11629.837126046164,0.0
380012.02908761695,4007225.878295721,-37500.0,-601.88696968477575,-2458.8026770094689,-7904.6129828526291,1329.039755985126,4395.0674610213637,-1795.3153454459557,5731.4614864479408,-6311.6870057281385,2666.1237624000341,-2666.1237624000341,6311.6870057281385,11288.260444377906,0.0
320012.02908761695,4012225.878295721,-37500.0,-1460.0672485590185,3085.3169722369653,-2299.9859700050906,-1414.2755003615719,1643.4979473276753,-742.65775449743523,3569.230101723273,1591.1589772562825,-789.62621904511025,789.62621904511025,-1591.1589772562825,6669.6349258944392,0.0
325012.02908761695,4012225.878295721,-37500.0,-1185.4594003503137,3139.4648257696999,-3257.726819396366,-1408.3248797573724,2079.0073745783961,-894.4899275946774,3858.4577876236067,1083.5907910164001,-271.32676038246308,271.32676038246308,-1083.5907910164001,7312.1537262741067,0.0
330012.02908761695,4012225.878295721,-37500.0,-881.77779179483321,3067.2219964549563,-4230.1227352620881,-1348.2817637509199,2515.4859660227394,-1045.4062905119504,4149.3471305615749,455.99880748559121,293.94370476622385,-293.94370476622385,-455.99880748559121,7959.2999626551245,0.0
335012.02908761695,4012225.878295721,-37500.0,-571.79915845712185,2861.170640950163,-5176.2114509553958,-1231.9795532070077,2935.9023826810267,-1189.8954003098504,4431.0875114442597,-272.84619529528408,876.8015777299679,-876.8015777299679,272.84619529528408,8585.3053038275975,0.0
340012.02908761695,4012225.878295721,-37500.0,-280.58313969022987,2523.3036592406465,-6052.7822979246912,-1060.9570525317147,3322.5647022474814,-1322.2889134675843,4692.9648401695831,-1074.6040233447322,1443.8937362373606,-1443.8937362373606,1074.6040233447322,9164.4357777739351,0.0
345012.02908761695,4012225.878295721,-37500.0,-32.813895030896653,2065.6832717321076,-6818.1623687052752,-840.65287902919056,3658.5806003305288,-1437.2047458545687,4925.2864345232056,-1913.1948819300924,1961.0214227645438,-1961.0214227645438,1913.1948819300924,9672.6860906751444,0.0
350012.02908761695,4012225.878295721,-37500.0,150.01746582229569,1509.8419099727803,-7436.1418063179981,-580.1393820063613,3929.3501286519909,-1529.9966974307029,5119.801638150183,-2747.8010108719382,2396.6322888895884,-2396.6322888895884,2747.8010108719382,10089.367435906446,0.0
355012.02908761695,4012225.878295721,-37500.0,252.11204514004285,884.93568284023002,-7879.4327818485681,-291.40487502481631,4123.873752501313,-1597.1485721011195,5268.925916074154,-3536.6419829185847,2725.1240792768672,-2725.1240792768672,3536.6419829185847,10398.438756346412,0.0
360012.02908761695,4012225.878295721,-37500.0,265.11175489437471,224.90275282951333,-8132.1174484588664,11.724160066781042,4235.6796307394761,-1636.5558805917292,5365.0225177183374,-4240.9572490126911,2929.4180101226661,-2929.4180101226661,4240.9572490126911,10589.436292881255,0.0
365012.02908761695,4012225.878295721,-37500.0,188.80854982168333,-434.91620049228004,-8190.7226389331545,314.85808953407894,4263.2400766693618,-1647.6580786649579,5402.1898483136856,-4828.571599345576,3002.3934189369729,-3002.3934189369729,4828.571599345576,10657.904777126472,0.0
335012.02908761695,3797225.878295721,-42500.0,188.86330115896129,-595.36603022004965,-7478.3500652169005,-467.4633004663458,-4589.1716594109175,-2066.0852580685664,5372.2588733562443,-4433.4912737734894,2638.6575560487954,-2638.6575560487954,4433.4912737734894,10558.514079963383,0.0
340012.02908761695,3797225.878295721,-42500.0,290.92141894869457,38.757831937042901,-7481.3432638513632,-135.3256834895125,-4587.5136265481151,-2062.5254509612741,5356.8817630192143,-3920.6033192827749,2625.7397315241838,-2625.7397315241838,3920.6033192827749,10528.555833108434,0.0
345012.02908761695,3797225.878295721,-42500.0,304.50306661211761,683.91965830426557,-7300.903342630394,201.89874619573447,-4493.8936256634488,-2023.1443941684201,5281.3425878244407,-3290.3798222630289,2486.73443229547,-2486.73443229547,3290.3798222630289,10376.329399131213,0.0
350012.02908761695,3797225.878295721,-42500.0,227.26610008829763,1305.544260886963,-6936.4968626269665,528.19408625695178,-4308.2558080187846,-1948.0386659253222,5149.5028783110101,-2571.072329439753,2224.6402135218059,-2224.6402135218059,2571.072329439753,10104.533222632499,0.0
355012.02908761695,3797225.878295721,-42500.0,65.120083087532635,1869.3615446835111,-6399.6863332556904,827.71271836500512,-4036.0626519355606,-1839.2992374936778,4968.2371058421741,-1798.1377544827712,1852.4042069270615,-1852.4042069270615,1798.1377544827712,9721.9905720997049,0.0
360012.02908761695,3797225.878295721,-42500.0,-168.14555739290202,2344.8374152938786,-5713.5324417260326,1086.2465358927952,-3688.0208373869232,-1700.9066851038551,4746.0261520954355,-1011.0091140183638,1391.9663067484069,-1391.9663067484069,1011.0091140183638,9243.3756891535886,0.0
365012.02908761695,3797225.878295721,-42500.0,-452.33929620011889,2708.2199895309313,-4910.5877949860596,1292.5356834160777,-3279.2066294288652,-1538.4216430290423,4492.1165062373966,-249.29915468784856,872.08786594705498,-872.08786594705498,249.29915468784856,8688.4077895768478,0.0
370012.02908761695,3797225.878295721,-42500.0,-763.21881158168878,2944.7137133725932,-4029.7671432965753,1439.2184197718655,-2827.7096398061822,-1358.5120625542547,4216.5362624777217,450.97479889787309,325.29799161625789,-325.29799161625789,-450.97479889787309,8080.5970598713402,0.0
375012.02908761695,3797225.878295721,-42500.0,-1075.3038711242809,3049.4512588904981,-3112.5957504391458,1523.2860584974064,-2353.0007604587886,-1168.3850105323377,3930.0158622702811,1060.5499517683452,-215.52961828945547,215.52961828945547,-1060.5499517683452,7445.6757098228181,0.0
380012.02908761695,3797225.878295721,-42500.0,-1364.6664367670335,3027.1890014014348,-2199.4224106321394,1546.0093779812473,-1874.2665166284794,-975.20341450072169,3643.41682040469,1559.0259338120825,-720.41221618233772,720.41221618233772,-1559.0259338120825,6809.8667559029336,0.0
385012.02908761695,3797225.878295721,-42500.0,-1611.2534276179945,2890.8872514854697,-1326.1534742065944,1512.3935077687911,-1408.9415963144054,-785.5651466489544,3366.9054249690103,1935.7043487270889,-1164.82166072881,1164.82166072881,-1935.7043487270889,6198.118937647967,0.0
320012.02908761695,3802225.878295721,-42500.0,-669.14057164202325,-2472.9827659723637,-6928.7663839649749,-1557.1632845186416,-4600.1280359654465,-2201.1256926136125,5603.7865414118178,-5587.3830047661686,2086.8126662254144,-2086.8126662254144,5587.3830047661686,11002.044251957142,0.0
325012.02908761695,3802225.878295721,-42500.0,-326.41203050061654,-1999.0997176641658,-7471.6572826008069,-1286.36873846451,-4886.048041895634,-2315.0708283533486,5795.601339237337,-5523.8881566112223,2448.6925696343114,-2448.6925696343114,5523.8881566112223,11374.254601250163,0.0
330012.02908761695,3802225.878295721,-42500.0,-30.634312366048576,-1415.8833887972867,-7876.4308848163801,-961.90099027198983,-5096.1511268487966,-2397.046210953532,5927.7524071200596,-5290.5500365022463,2715.9304853234544,-2715.9304853234544,5290.5500365022463,11631.51965769856,0.0
335012.02908761695,3802225.878295721,-42500.0,193.0032679407845,-744.76152154490239,-8107.390279521479,-594.75081375299874,-5213.3412839047123,-2440.6501341852413,5992.1334680032769,-4883.1060126766097,2861.4439996015499,-2861.4439996015499,4883.1060126766097,11757.307530668793,0.0
340012.02908761695,3802225.878295721,-42500.0,323.5552917177651,-16.967271415963616,-8136.467241630784,-200.32491335399553,-5224.3890570891926,-2441.0244477584392,5983.8915729510245,-4310.0484463339799,2865.1329025751729,-2865.1329025751729,4310.0484463339799,11740.121483468922,0.0
345012.02908761695,3802225.878295721,-42500.0,347.40583901823106,728.48831936650583,-7947.131042937559,202.52405499089284,-5121.679143055102,-2395.473137967369,5902.4476906379414,-3593.4005560463502,2717.1293636150731,-2717.1293636150731,3593.4005560463502,11575.048239091409,0.0
350012.02908761695,3802225.878295721,-42500.0,260.66812430790759,1448.2435063920025,-7537.319297271617,593.05818212637905,-4904.4949616285057,-2303.9046125733753,5752.0036435390857,-2767.7177388878963,2420.0272879393742,-2420.0272879393742,2767.7177388878963,11264.844849150848,0.0
355012.02908761695,3802225.878295721,-42500.0,70.3453644274216,2098.9985313897309,-6920.7525263959269,950.62114065246863,-4579.5725666825729,-2169.0095916565697,5540.9399604136379,-1877.2504975650975,1989.5360514941506,-1989.5360514941506,1877.2504975650975,10820.373906300965,0.0
360012.02908761695,3802225.878295721,-42500.0,-206.09253199562156,2642.2337270738758,-6126.235046918955,1256.723042002207,-4160.7642389594403,-1996.1239881662359,5280.1923803181426,-971.58180509474425,1453.272500819191,-1453.272500819191,971.58180509474425,10260.272484652951,0.0
365012.02908761695,3802225.878295721,-42500.0,-542.73278329654136,3048.4074338612591,-5194.9376970147196,1496.8969944146349,-3667.8129878735117,-1792.7805501840835,4981.9484347531006,-100.42406028359125,847.79547395006693,-847.79547395006693,100.42406028359125,9609.8477324769719,0.0
370012.02908761695,3802225.878295721,-42500.0,-908.50093697556122,3299.897296231909,-4176.0794540068728,1662.0237202001854,-3124.4194682270891,-1568.0137546010785,4659.321718394418,691.54390051745213,214.37555722897011,-214.37555722897011,-691.54390051745213,8899.3225969096293,0.0
375012.02908761695,3802225.878295721,-42500.0,-1271.072407403519,3392.2002565398611,-3121.7616239852277,1748.9175860591404,-2555.9194071105603,-1331.5260311748682,4326.0971023949196,1368.914757377052,-405.72524910611986,405.72524910611986,-1368.914757377052,8161.6298803733571,0.0
380012.02908761695,3802225.878295721,-42500.0,-1600.6851352634317,3333.3055539747693,-2081.8363375221188,1760.1335654127972,-1986.9470181916222,-1092.8440634872716,3995.9520656531968,1908.2330552577773,-975.62957326592868,975.62957326592868,-1908.2330552577773,7429.9812239275734,0.0
385012.02908761695,3802225.878295721,-42500.0,-1873.1987544429303,3141.5224432799509,-1099.6166813071125,1703.0993287601259,-1439.4331490299185,-860.58372550995057,3681.3560001980359,2298.8417144120895,-1466.1737093877507,1466.1737093877507,-2298.8417144120895,6735.3925434729199,0.0
390012.02908761695,3802225.878295721,-42500.0,-2071.991609128781,2842.320390898537,-208.95995370133622,1588.7955932838674,-931.17746206162212,-641.908754215253,3392.4805152720246,2542.027022989962,-1857.796647837376,1857.796647837376,-2542.027022989962,6104.2754373698272,0.0
395012.02908761695,3802225.878295721,-42500.0,-2188.5763491335888,2464.8293989593099,567.07897330196897,1430.2490028165078,-475.09675679677207,-442.22214927687259,3136.340411176785,2648.8840778520789,-2140.9301922770419,2140.9301922770419,-2648.8840778520789,5556.1837905871525,0.0
310012.02908761695,3807225.878295721,-42500.0,-1696.3920598851992,-3431.5493139407549,-5734.641476595104,-2253.2255415684294,-4249.207120989443,-2193.1880913102368,5562.9535235470976,-5613.1463644933465,1070.9357290737976,-1070.9357290737976,5613.1463644933465,10921.219251577388,0.0
315012.02908761695,3807225.878295721,-42500.0,-1284.6037865680362,-3212.7726672532704,-6552.3865094299426,-2100.2671470676678,-4713.0653566488982,-2391.2124114138937,5900.7758722614635,-5915.4788383268897,1608.3650673595771,-1608.3650673595771,5915.4788383268897,11575.093508847749,0.0
320012.02908761695,3807225.878295721,-42500.0,-859.13369766065387,-2848.4047428994741,-7313.6357909959288,-1870.5807229355908,-5138.0144046361256,-2569.9561035798338,6197.3227983398192,-6068.8748581930449,2117.2347873086387,-2117.2347873086387,6068.8748581930449,12148.251944417798,0.0
325012.02908761695,3807225.878295721,-42500.0,-449.9534445605795,-2336.7581166651908,-7970.6065927275358,-1564.7151878944887,-5499.270129877802,-2719.4246146578707,6437.8915934209635,-6042.819175396321,2559.7722768892299,-2559.7722768892299,6042.819175396321,12613.288623354869,0.0
330012.02908761695,3807225.878295721,-42500.0,-90.212840152123505,-1688.2999396843963,-8473.7724276952831,-1189.1593747297586,-5771.685396341154,-2829.6717381439339,6608.9027402940674,-5815.5832740344831,2897.0125748246069,-2897.0125748246069,5815.5832740344831,12944.21556372904,0.0
335012.02908761695,3807225.878295721,-42500.0,187.34036881973685,-927.0858928205937,-8776.7796385096226,-756.8732268963895,-5932.1511414895194,-2891.7265511036612,6699.2467276665675,-5378.4847475952629,3093.2290934469256,-3093.2290934469256,5378.4847475952629,13118.813312246748,0.0
340012.02908761695,3807225.878295721,-42500.0,354.68996693364176,-90.472529949406294,-8842.1014820721211,-287.02187063655737,-5962.2802411648063,-2898.600888838047,6701.7807548912624,-4739.1986073023154,3120.9110836234022,-3120.9110836234022,4739.1986073023154,13121.093488978497,0.0
345012.02908761695,3807225.878295721,-42500.0,392.93454860589009,773.27773783301461,-8646.556305042106,196.23223761379242,-5850.9683988602956,-2846.2260281855674,6614.7406382174331,-3923.2460990692639,2965.4380993398549,-2965.4380993398549,3923.2460990692639,12943.534447519694,0.0
350012.02908761695,3807225.878295721,-42500.0,295.82998860000953,1609.4725159211375,-8185.6197830009678,665.84556221570244,-5596.3533541722873,-2734.1498455818028,6442.5892794336296,-2973.0007284507756,2628.4500333950309,-2628.4500333950309,2973.0007284507756,12588.721742977379,0.0
355012.02908761695,3807225.878295721,-42500.0,71.623931662254279,2363.0033135472218,-7475.522876969857,1094.6641738333458,-5206.7355875680178,-2565.8425969601549,6195.5841758082315,-1944.0183484204433,2129.0248510307811,-2129.0248510307811,1944.0183484204433,12070.079408303534,0.0
360012.02908761695,3807225.878295721,-42500.0,-257.3954020880949,2984.9045243900141,-6552.464583739662,1458.4134648632457,-4700.1754515447947,-2348.5200685514806,5887.9135477652089,-899.09034222428591,1502.1627010177826,-1502.1627010177826,899.09034222428591,11411.474327105754,0.0
365012.02908761695,3807225.878295721,-42500.0,-657.69778049873185,3438.2084152905995,-5468.9007963217136,1738.3678675963165,-4102.7598075774449,-2092.4866960371837,5535.7642888846531,98.965674621570599,794.6961627325245,-794.6961627325245,-98.965674621570599,10645.691471216247,0.0
370012.02908761695,3807225.878295721,-42500.0,-1089.1449552359629,3701.9656579205025,-4287.5164308112817,1923.2182431644753,-3445.8098007719927,-1810.0989992864545,5156.4389732585469,994.44594965656552,59.360833996984013,-59.360833996984013,-994.44594965656552,9811.9440458450536,0.0
375012.02908761695,3807225.878295721,-42500.0,-1510.4936378493433,3772.7088735797993,-3074.0361643182555,2009.8229514791299,-2762.5342042903276,-1514.5265445807095,4767.7826994554398,1744.4916654308231,-651.7857005216141,651.7857005216141,-1744.4916654308231,8952.7271369173213,0.0
380012.02908761695,3807225.878295721,-42500.0,-1884.6451972342836,3663.2696607121366,-1890.216080678862,2002.7931046649064,-2084.7200773628665,-1218.5176318657434,4387.0914224508142,2322.4810027057001,-1293.3236675104308,1293.3236675104308,-2322.4810027057001,8110.3523826991359,0.0
385012.02908761695,3807225.878295721,-42500.0,-2182.678800465264,3399.4456431706362,-788.19984499069653,1913.1069563326701,-1439.9892577102073,-933.356804635289,4029.6278412208312,2718.7465846619771,-1830.7888053231907,1830.7888053231907,-2718.7465846619771,7323.425269872896,0.0
390012.02908761695,3807225.878295721,-42500.0,-2386.108898561974,3015.4096366779345,193.03220131384217,1756.1208640674681,-849.96403105191519,-668.13866458929283,3707.1787501359772,2938.906478322252,-2242.8282986530685,2242.8282986530685,-2938.906478322252,6623.4271159180298,0.0
395012.02908761695,3807225.878295721,-42500.0,-2487.2886000001026,2548.8511249713592,1028.9418443809432,1549.3957722223238,-329.45167414523002,-429.40508658848512,3426.9974055840112,3000.531622264612,-2521.2205536366878,2521.2205536366878,-3000.531622264612,6031.5994228273803,0.0
400012.02908761695,3807225.878295721,-42500.0,-2488.2757861475084,2036.6784902771069,1708.7347072561406,1310.7038054302216,113.45056804158256,-221.12022064056819,3191.3830107239023,2929.0391552082374,-2669.2054359084605,2669.2054359084605,-2929.0391552082374,5556.6392766208328,0.0
405012.02908761695,3807225.878295721,-42500.0,-2398.7045269166365,1511.7999229669269,2233.2695935787087,1056.458225815192,476.56312995133248,-44.908351950551946,2998.0516721938602,2753.6238300755854,-2698.7869165268489,2698.7869165268489,-2753.6238300755854,5194.1393838895929,0.0
305012.02908761695,3812225.878295721,-42500.0,-2481.9773540755041,-3872.3742167647747,-4870.2251224234624,-2709.5953438847259,-4060.554204581073,-2258.9730893537135,5650.2667941166928,-5412.3247511554628,266.23375848293199,-266.23375848293199,5412.3247511554628,11079.79765584549,0.0
310012.02908761695,3812225.878295721,-42500.0,-2069.6122678757938,-3834.3577441962984,-5817.5585653444314,-2646.607552438898,-4636.7797577628426,-2519.7343733361045,6084.6605690762372,-5932.7638060606332,870.96376132899286,-870.96376132899286,5932.7638060606332,11924.024068546494,0.0
315012.02908761695,3812225.878295721,-42500.0,-1601.2923004616705,-3641.2102081941007,-6766.4489207119686,-2495.9108448448997,-5202.5701492773442,-2771.6534989010879,6493.6352954170861,-6332.6003702867356,1495.8307732150806,-1495.8307732150806,6332.6003702867356,12714.859260164603,0.0
320012.02908761695,3812225.878295721,-42500.0,-1104.9997884220211,-3274.9247782020284,-7666.9710791414873,-2249.8778165304711,-5729.9098909629483,-3002.6367570692678,6858.6992511522094,-6566.8903814359037,2101.5618498295266,-2101.5618498295266,6566.8903814359037,13418.83391091751,0.0
325012.02908761695,3812225.878295721,-42500.0,-617.00278081106273,-2728.8203929788806,-8460.7293432258102,-1906.9235930024083,-6187.00907458847,-3199.3025141635217,7160.8727678403466,-6594.5605077367709,2641.6307444571685,-2641.6307444571685,6594.5605077367709,14000.827266107153,0.0
330012.02908761695,3812225.878295721,-42500.0,-179.04055814447958,-2011.4410173232866,-9085.2302527007687,-1473.2437744084473,-6540.6700154516357,-3347.983393189696,7382.140069045382,-6384.3317335514002,3066.2941327517656,-3066.2941327517656,6384.3317335514002,14426.68800713396,0.0
335012.02908761695,3812225.878295721,-42500.0,166.2551790328728,-1149.1306326695635,-9480.2071841603247,-963.8584461046263,-6759.5292811862328,-3436.0343084953879,7507.2406374317325,-5920.8014953026732,3328.3721097633434,-3328.3721097633434,5920.8014953026732,14666.412545968207,0.0
340012.02908761695,3812225.878295721,-42500.0,381.2551532208476,-186.3278645151114,-9595.3267251237921,-402.55299525835636,-6817.8850460918411,-3453.3293710971975,7525.7339575047135,-5209.5268802385926,3390.1228958639426,-3390.1228958639426,5209.5268802385926,14697.657923614517,0.0
345012.02908761695,3812225.878295721,-42500.0,439.58546795508647,817.14602451342489,-9398.0095390333499,179.58327906808503,-6699.4717123960118,-3393.6911616468742,7433.9810027348758,-4279.7089877277203,3229.993733358167,-3229.993733358167,4279.7089877277203,14508.988911115699,0.0
350012.02908761695,3812225.878295721,-42500.0,331.40401042346724,1791.9138400694965,-8879.8309849258112,747.02554491513524,-6400.4867170106145,-3256.0050141293959,7236.5220189796428,-3183.4024192736601,2847.7529540570617,-2847.7529540570617,3183.4024192736601,14102.396387431829,0.0
355012.02908761695,3812225.878295721,-42500.0,66.318277507727487,2667.2981028255263,-8059.8752225750241,1263.7524774405024,-5931.1244976855969,-3044.7493607973802,6945.941266279624,-1990.7825106644295,2266.5567658644131,-2266.5567658644131,1990.7825106644295,13494.516921032906,0.0
360012.02908761695,3812225.878295721,-42500.0,-327.02786752544517,3380.5441263316966,-6983.9219624712841,1697.5906174583545,-5315.1237575729938,-2769.7735697509133,6580.7622271520686,-781.97088365316267,1531.079444257653,-1531.079444257653,781.97088365316267,12716.188315493459,0.0
365012.02908761695,3812225.878295721,-42500.0,-804.86435391764167,3885.0938809289801,-5719.3283846634686,2024.1084857323683,-4587.2875847287351,-2445.3239041858155,6162.6669756146548,363.07547888015893,701.81222941413967,-701.81222941413967,-363.07547888015893,11810.318193166091,0.0
370012.02908761695,3812225.878295721,-42500.0,-1314.925803900989,4156.1434827683725,-4346.5111314485775,2229.2841602378808,-3789.3919346837024,-2088.4739366806152,5714.7162803399806,1374.5571199688193,-153.35415831869284,153.35415831869284,-1374.5571199688193,10828.295913749147,0.0
375012.02908761695,3812225.878295721,-42500.0,-1804.2867931403082,4192.3892954630301,-2948.8264088795249,2310.4540293098917,-2965.2991439970829,-1717.2558909239931,5260.2062930067859,2200.6456681583195,-968.41051987846413,968.41051987846413,-2200.6456681583195,9825.4328222368204,0.0
380012.02908761695,3812225.878295721,-42500.0,-2226.6508675078981,4013.8946387305809,-1602.920675509341,2275.496111755675,-2156.220816442144,-1348.8343569346457,4821.0897875108803,2811.7389348000079,-1687.4058102027357,1687.4058102027357,-2811.7389348000079,8855.9383083938264,0.0
385012.02908761695,3812225.878295721,-42500.0,-2547.6545413268359,3656.9511337146505,-371.31106480471664,2140.6047340249429,-1396.94689374172,-998.02002797025898,4415.9515977045385,3200.7716774406595,-2270.0165494415473,2270.0165494415473,-3200.7716774406595,7967.8179965140844,0.0
390012.02908761695,3812225.878295721,-42500.0,-2747.4439401536379,3167.3831429278625,701.82784967238194,1927.2753890839583,-713.52601339404384,-676.30624835498168,4058.107569906193,3380.180046031493,-2693.8534279538931,2693.8534279538931,-3380.180046031493,7197.9613585444531,0.0
395012.02908761695,3812225.878295721,-42500.0,-2820.5640455155585,2593.809356608534,1591.5849834092583,1659.1653278879335,-122.4866512477311,-391.47546859642375,3754.36981145457,3376.7446329918816,-2953.722227301952,2953.722227301952,-3376.7446329918816,6567.8815604746605,0.0
400012.02908761695,3812225.878295721,-42500.0,-2773.7840146742856,1982.0296322651059,2290.5574282621515,1359.366542978119,368.63162888842049,-147.70603925809164,3504.8761037014942,3225.6944356991257,-3058.6629487751738,3058.6629487751738,-3225.6944356991257,6081.2094749164116,0.0
405012.02908761695,3812225.878295721,-42500.0,-2622.7581957118164,1371.1624911139788,2805.4029499260573,1048.4072228350028,759.85371382962774,53.960655149555919,3304.1338937640885,2965.2304633544236,-3027.8355507794495,3027.8355507794495,-2965.2304633544236,5724.505376937007,0.0
410012.02908761695,3812225.878295721,-42500.0,-2388.389040622209,791.63296145809784,3152.7022445712842,743.07109967170084,1056.9031719470545,214.95287088411047,3143.0163985022759,2632.1932634194764,-2886.2268348018852,2886.2268348018852,-2632.1932634194764,5472.0537022167391,0.0
415012.02908761695,3812225.878295721,-42500.0,-2093.5412683879749,264.74120013378382,3354.9313532321012,455.95457359629529,1269.2769649299194,338.44340684757435,3011.0724770244524,2259.1553778493026,-2660.8757844402744,2660.8757844402744,-2259.1553778493026,5293.1031465203578,0.0
300012.02908761695,3817225.878295721,-42500.0,-3322.838320881895,-4063.2534634145286,-3734.0928591364732,-3083.2978102429483,-3678.0788342685364,-2241.6935794921742,5611.5271356567537,-4852.8783213063734,-702.74782011573097,702.74782011573097,4852.8783213063734,10973.499165970539,0.0
305012.02908761695,3817225.878295721,-42500.0,-2973.4391791341686,-4232.7735348699052,-4737.4353728276774,-3138.0673871521267,-4340.9266355075133,-2561.7872298196257,6130.8525770809465,-5566.1054895529651,-97.99662022411303,97.99662022411303,5566.1054895529651,11992.903764578508,0.0
310012.02908761695,3817225.878295721,-42500.0,-2525.7059834776496,-4259.5975038325769,-5808.0562197405534,-3104.4052808344359,-5030.406929614991,-2888.5641956740556,6648.250959522592,-6209.3684141035956,581.19786149625497,-581.19786149625497,6209.3684141035956,12998.998122034824,0.0
315012.02908761695,3817225.878295721,-42500.0,-1998.3452142210842,-4109.2983080323556,-6902.892673174857,-2965.2771854504117,-5719.5954644946705,-3209.3403653371556,7143.4680076449094,-6728.9421805910733,1302.3511362359,-1302.3511362359,6728.9421805910733,13955.6666908894,0.0
320012.02908761695,3817225.878295721,-42500.0,-1422.6938607220347,-3754.5392527390368,-7963.989030166018,-2708.1076830360976,-6374.0003320718142,-3508.4562850068969,7593.3988154676954,-7067.4864468813958,2019.8512265126833,-2019.8512265126833,7067.4864468813958,14821.276499794276,0.0
325012.02908761695,3817225.878295721,-42500.0,-842.09412848735269,-3180.9848746745847,-8920.5785670819969,-2327.6895551993284,-6953.003285613303,-3768.010492046817,7973.5764787781391,-7170.1434751844572,2676.9203162578397,-2676.9203162578397,7170.1434751844572,15550.855345081252,0.0
330012.02908761695,3817225.878295721,-42500.0,-308.83632036570054,-2393.1297443425719,-9694.0810987457353,-1828.9227846900217,-7412.7626048942066,-3969.1664453173712,8260.0557815258144,-6992.4259339863011,3210.2989994954651,-3210.2989994954651,6992.4259339863011,16099.40917759992,0.0
335012.02908761695,3817225.878295721,-42500.0,121.57966668635379,-1418.6973887260319,-10206.146970814996,-1228.7370815841196,-7710.5751832521128,-4094.0041106209746,8431.836417647497,-6508.8734377362289,3557.6894604495224,-3557.6894604495224,6508.8734377362289,16426.262127215683,0.0
340012.02908761695,3817225.878295721,-42500.0,398.42833332010088,-310.06433942469994,-10389.060235491836,-556.49312775514397,-7810.2870129598996,-4127.7236449504217,8473.6930571389203,-5720.7705681567795,3667.1966452509214,-3667.1966452509214,5720.7705681567795,16499.980963269223,0.0
345012.02908761695,3817225.878295721,-42500.0,484.71064453336828,858.5657615891796,-10196.918598787925,147.68074357505219,-7687.9447585232147,-4060.875872123811,8379.052753415308,-4660.8605260898203,3507.1350013368615,-3507.1350013368615,4660.8605260898203,16303.239197936171,0.0
350012.02908761695,3817225.878295721,-42500.0,365.07846782505453,1998.6989039303623,-9615.1755400194452,836.76909292569019,-7336.4970226286796,-3891.1549921110586,8152.1641200006989,-3393.1343508450786,3073.8855437920633,-3073.8855437920633,3393.1343508450786,15836.672865194572,0.0
355012.02908761695,3817225.878295721,-42500.0,50.517047933241166,3018.9584893325996,-8666.0441277481568,1462.5199416430812,-6768.3798608381885,-3624.3297098416006,7808.4823852036207,-2006.7857159534981,2395.4829149499874,-2395.4829149499874,2006.7857159534981,15120.946844988815,0.0
360012.02908761695,3817225.878295721,-42500.0,-421.88269136468978,3838.2073741722247,-7407.7842294587726,1981.8443266870202,-6015.0568144763074,-3273.9761018479289,7372.3384026286749,-604.86825373201168,1529.3698658421706,-1529.3698658421706,604.86825373201168,14196.273002807209,0.0
365012.02908761695,3817225.878295721,-42500.0,-994.44286095321399,4397.4128864749937,-5927.6052755957735,2362.5919047608086,-5123.4488101759771,-2860.022755019254,6873.0462917927671,710.05789907435201,554.37234572768557,-554.37234572768557,-710.05789907435201,13119.439625025139,0.0
370012.02908761695,3817225.878295721,-42500.0,-1598.5243567050602,4667.4209639670053,-4329.4545865139344,2587.4138722660327,-4149.8339426611201,-2406.3267018223246,6341.6859346972215,1850.1000878356563,-441.4215192002938,441.4215192002938,-1850.1000878356563,11958.529381310937,0.0
375012.02908761695,3817225.878295721,-42500.0,-2165.8283000336282,4650.958569543026,-2719.6007715411274,2654.9336220208306,-3152.6094613305704,-1937.8107699854691,5808.9476836196864,2752.7728056020646,-1373.9113213919086,1373.9113213919086,-2752.7728056020646,10786.196247111897,0.0
380012.02908761695,3817225.878295721,-42500.0,-2638.5997696102509,4378.8762223494796,-1193.2448491092616,2578.2015173989462,-2185.4366978294615,-1477.7273462616154,5302.7713234445218,3386.2454038301303,-2174.2797965523014,2174.2797965523014,-3386.2454038301303,9672.2408854377554,0.0
385012.02908761695,3817225.878295721,-42500.0,-2976.5580921449628,3902.1805690490332,175.19901031631758,2381.0958691578121,-1292.0521985563173,-1045.5311999839575,4845.5553488269652,3748.7147523061267,-2796.0998031694526,2796.0998031694526,-3748.7147523061267,8676.0819967821408,0.0
390012.02908761695,3817225.878295721,-42500.0,-3159.6125799876327,3282.2364336048317,1336.8809229507024,2093.7259876976527,-503.4151330511454,-655.62656524572481,4451.6916823343308,3863.0962765104846,-3217.4875337300223,3217.4875337300223,-3863.0962765104846,7839.631169815284,0.0
395012.02908761695,3817225.878295721,-42500.0,-3186.6911210660014,2581.4565111359238,2268.528030889076,1747.8988508370289,162.80679852642464,-317.01308024132112,4126.2902677135626,3769.1056229299197,-3438.9291554649349,3438.9291554649349,-3769.1056229299197,7181.6758449171739,0.0
400012.02908761695,3817225.878295721,-42500.0,-3071.8635389063938,1856.0923555439892,2968.9032446893862,1373.4301444454541,700.90961066863474,-33.667390935272458,3865.6780686009588,3514.871077435495,-3478.2700465044945,3478.2700465044945,-3514.871077435495,6696.0029288786809,0.0
405012.02908761695,3817225.878295721,-42500.0,-2839.2232698386874,1151.8065052932425,3453.3262140575162,995.67973022079707,1114.7100487811776,194.59583541847843,3659.6686666895584,3149.6870408152581,-3364.5608048444637,3364.5608048444637,-3149.6870408152581,6355.4405871404133,0.0
410012.02908761695,3817225.878295721,-42500.0,-2517.7930214325024,501.90785210925799,3747.7423255861108,634.33056840664517,1414.6962155346853,371.0474783348422,3494.8463942710068,2718.7575805545152,-3132.1529680683902,3132.1529680683902,-2718.7575805545152,6121.2055011624152,0.0
415012.02908761695,3817225.878295721,-42500.0,-2137.2837931919707,-72.347383736233084,3883.3887898158196,303.19206357978914,1615.3087932652122,500.96354156010585,3357.7103178847624,2260.0911329330702,-2815.9073886554206,2815.9073886554206,-2260.0911329330702,5953.4838676548361,0.0
420012.02908761695,3817225.878295721,-42500.0,-1725.0719356525176,-560.14968984819006,3892.6110674809652,10.709205177454329,1732.6747017383107,590.67925845050524,3236.8086295550193,1803.2493581879794,-2447.8533951476998,2447.8533951476998,-1803.2493581879794,5818.9381975198285,0.0
290012.02908761695,3822225.878295721,-42500.0,-4216.1474081878159,-3501.7487509518751,-1584.9125219552191,-3078.0489876971697,-2482.8582241552795,-1794.6593134439581,4903.6567722086211,-3131.8053359920991,-2140.9483141074365,2140.9483141074365,3131.8053359920991,9493.1102494473907,0.0
295012.02908761695,3822225.878295721,-42500.0,-4120.8836440325222,-3940.038754937078,-2412.7570859872731,-3318.6871027348952,-3111.6922291003279,-2129.5284649146429,5447.841048754618,-3940.9314964911127,-1743.8890300624346,1743.8890300624346,3940.9314964911127,10589.728945278635,0.0
300012.02908761695,3822225.878295721,-42500.0,-3903.1742103753045,-4313.5719126576714,-3380.6079241497982,-3507.5050192563299,-3819.042274061228,-2497.3002952222273,6029.0847554837546,-4786.2896256441181,-1220.266771341086,1220.266771341086,4786.2896256441181,11747.281756585104,0.0
305012.02908761695,3822225.878295721,-42500.0,-3555.2397020295907,-4580.5302650549665,-4476.896946606872,-3620.5567993454551,-4593.6709095362457,-2891.1602619795076,6636.196608530915,-5628.1446006861333,-573.86306772585567,573.86306772585567,5628.1446006861333,12941.2909564907,0.0
310012.02908761695,3822225.878295721,-42500.0,-3079.9373339845224,-4694.7141484722915,-5674.5855683221434,-3632.4431092160462,-5415.1681747314515,-3300.141181151972,7251.4094913422423,-6413.5709969559412,178.09811003420646,-178.09811003420646,6413.5709969559412,14138.119690593787,0.0
315012.02908761695,3822225.878295721,-42500.0,-2494.3194592233053,-4609.8502513660151,-6927.984125559261,-3518.8245701766859,-6252.5615108097509,-3708.6832683401822,7850.8120743557502,-7077.8872682920701,1001.9008273861873,-1001.9008273861873,7077.8872682920701,15294.773399705018,0.0
320012.02908761695,3822225.878295721,-42500.0,-1832.1584352491648,-4285.9437152835135,-8171.2156270620935,-3259.8962063617323,-7063.9479874931767,-4096.6803859746487,8405.786480546989,-7548.7931831470178,1845.8660872844671,-1845.8660872844671,7548.7931831470178,16359.815571061452,0.0
325012.02908761695,3822225.878295721,-42500.0,-1144.2983134900512,-3697.2889138038618,-9319.5658170466613,-2844.5584416392221,-7797.7667155834397,-4440.249844342783,8884.886330208521,-7753.6951644993824,2641.6461134082369,-2641.6461134082369,7753.6951644993824,17275.788872785444,0.0
330012.02908761695,3822225.878295721,-42500.0,-495.70076496511172,-2841.0292266692895,-10274.841367331421,-2274.6688512746719,-8396.2094789702078,-4713.3895137251975,9256.2731024144578,-7630.0371198011153,3309.3256008040253,-3309.3256008040253,7630.0371198011153,17983.348275685919,0.0
335012.02908761695,3822225.878295721,-42500.0,41.514418835897089,-1744.3938701410189,-10935.327968239622,-1568.4248542527548,-8800.969729246186,-4890.5559254283198,9490.9676119468404,-7137.4823998913362,3766.7739329465621,-3766.7739329465621,7137.4823998913362,18427.089620412229,0.0
340012.02908761695,3822225.878295721,-42500.0,398.77776597715399,-468.20592622565431,-11209.771551794664,-761.71771289179605,-8960.9148588410844,-4949.941200598978,9566.8106097152195,-6269.6056145695675,3942.5353827458475,-3942.5353827458475,6269.6056145695675,18562.559663171593,0.0
345012.02908761695,3822225.878295721,-42500.0,523.90046657840321,895.59021658124277,-11033.308087734538,93.563306629601456,-8840.5333409638224,-4876.9486005748413,9472.6364197348503,-5061.9106209381962,3790.0723864904548,-3790.0723864904548,5061.9106209381962,18363.471845428008,0.0
350012.02908761695,3822225.878295721,-42500.0,393.0742578969963,2233.5304004843192,-10381.850917761292,934.7269770855255,-8427.3701511716954,-4667.1507646512773,9211.7244174691568,-3592.9887290584579,3299.8983537997933,-3299.8983537997933,3592.9887290584579,17827.791914289985,0.0
355012.02908761695,3822225.878295721,-42500.0,18.457095762863034,3426.4721191104072,-9280.7704277318553,1696.4522475970316,-7736.3638359214747,-4327.9130173325702,8802.9996664259979,-1976.8916253730163,2505.7413176913292,-2505.7413176913292,1976.8916253730163,16981.126038936691,0.0
360012.02908761695,3822225.878295721,-42500.0,-551.54401411637389,4368.5208342700098,-7804.7220007545111,2320.3677953592,-6809.6186437192273,-3878.1647915958624,8278.6627637340407,-347.31130205978673,1482.040508990593,-1482.040508990593,347.31130205978673,15876.504189655296,0.0
365012.02908761695,3822225.878295721,-42500.0,-1240.1513980590287,4984.2915778468987,-6067.5882335220122,2763.7663182669171,-5711.1053014648223,-3346.1433745151598,7678.729070220963,1163.1297290138061,332.48028647376509,-332.48028647376509,-1163.1297290138061,14589.985505172866,0.0
370012.02908761695,3822225.878295721,-42500.0,-1956.403628464448,5239.9399971681696,-4204.7876535277201,3005.2915268967918,-4517.4603946470997,-2765.6037517444047,7045.5967808406876,2443.2410901133494,-827.70387641452442,827.70387641452442,-2443.2410901133494,13212.843493802186,0.0
375012.02908761695,3822225.878295721,-42500.0,-2611.6936883392418,5145.288658804473,-2352.4573732104077,3046.3193974008004,-3307.0801748770236,-2171.346634756304,6420.0924802100835,3418.155276250061,-1890.9024132327745,1890.9024132327745,-3418.155276250061,11841.430008936122,0.0
380012.02908761695,3822225.878295721,-42500.0,-3134.1571475434107,4747.2794723814814,-628.7368850321343,2908.0876187893518,-2150.0872661266812,-1595.0596021251158,5837.8102706399159,4055.5956271599516,-2772.8255951350202,2772.8255951350202,-4055.5956271599516,10565.954736230626,0.0
385012.02908761695,3822225.878295721,-42500.0,-3477.6126622827232,4117.5448512977191,878.85298982716074,2625.8263385288597,-1101.2060710884957,-1062.269065261497,5325.2373063273362,4363.3165163885506,-3421.3947618362317,3421.3947618362317,-4363.3165163885506,9459.1595489189876,0.0
390012.02908761695,3822225.878295721,-42500.0,-3623.9462803016204,3338.0390002830495,2118.3741661325853,2241.7113337548167,-196.43450008029336,-590.77156286982085,4896.6795572814553,4380.0379127218994,-3818.0695892216836,3818.0695892216836,-4380.0379127218994,8565.9800099486438,0.0
395012.02908761695,3822225.878295721,-42500.0,-3579.9172799872681,2488.2751797243168,3071.5841753973218,1798.3402033477755,546.73782462605971,-190.48718944691677,4553.3577217425391,4163.3866317841157,-3973.0925508989676,3973.0925508989676,-4163.3866317841157,7896.7903661644532,0.0
400012.02908761695,3822225.878295721,-42500.0,-3370.5568953417755,1636.315859270585,3747.4664332016514,1333.8359512821755,1126.5720711172537,135.61930532377079,4285.3966537764454,3778.1148447384821,-3917.2828131082606,3917.2828131082606,-3778.1148447384821,7428.3188790226823,0.0
405012.02908761695,3822225.878295721,-42500.0,-3031.5026523902452,834.08634374738085,4173.7946094103936,878.96811172592913,1553.0326071577367,390.01496659591641,4076.15563435179,3286.7555465551977,-3693.0262459993319,3693.0262459993319,-3286.7555465551977,7114.1145383046151,0.0
410012.02908761695,3822225.878295721,-42500.0,-2602.0483752638434,116.41326118578498,4388.8514138315477,456.11982422158718,1843.5308151039108,578.89653638643733,3907.189320763353,2743.5630028050814,-3346.3682719776475,3346.3682719776475,-2743.5630028050814,6900.2922331698683,0.0
415012.02908761695,3822225.878295721,-42500.0,-2119.8805830596448,-497.36891534103381,4434.594712505319,79.624568780038942,2019.1822989191817,710.61380693235628,3762.0808686340379,2191.5786318546398,-2921.1753317797975,2921.1753317797975,-2191.5786318546398,6738.9078148479157,0.0
420012.02908761695,3822225.878295721,-42500.0,-1617.7531171776855,-1000.4473774205445,4351.7677089136059,-243.07286165130785,2101.9245289837959,794.38485753129396,3628.374806424511,1662.1104331997219,-2455.5390369201768,2455.5390369201768,-1662.1104331997219,6594.579510215045,0.0
425012.02908761695,3822225.878295721,-42500.0,-1121.8838882064836,-1395.1568686995331,4176.8988305437988,-509.90150323266118,2112.5557718446985,839.35889464903562,3497.8761168478518,1175.7668307603878,-1980.1104300220329,1980.1104300220329,-1175.7668307603878,6445.109351287937,0.0
290012.02908761695,3827225.878295721,-42500.0,-4759.7608288568072,-3479.25586263588,-1029.6247382409415,-3369.0551428363865,-2397.545373760528,-1920.4962448040199,5174.3785917911155,-2738.4920727515569,-2733.7885428576078,2733.7885428576078,2738.4920727515569,9949.6948965375523,0.0
295012.02908761695,3827225.878295721,-42500.0,-4732.0472707716362,-4017.9385068526494,-1868.9761295900498,-3690.3985943435891,-3095.8383037573931,-2316.130578200632,5787.4632458912083,-3626.6270951157694,-2370.1059474877129,2370.1059474877129,3626.6270951157694,11187.410234808272,0.0
300012.02908761695,3827225.878295721,-42500.0,-4562.8970570284555,-4504.9036827461041,-2880.0880574286457,-3962.2603699592182,-3898.4040015451219,-2758.5506586364759,6452.6090358208639,-4581.0279038308972,-1853.8167665600679,1853.8167665600679,4581.0279038308972,12514.982871151282,0.0
305012.02908761695,3827225.878295721,-42500.0,-4236.3042597438734,-4891.0585661782197,-4057.9710935777016,-4154.5864147472566,-4796.3154287807465,-3241.1353532361782,7159.331308967101,-5560.5239421300157,-1181.4776081981163,1181.4776081981163,5560.5239421300157,13907.111269128145,0.0
310012.02908761695,3827225.878295721,-42500.0,-3747.896090871342,-5119.1715583979894,-5379.7420780025777,-4233.8467490336052,-5769.1715334741239,-3751.724760923772,7888.7771757464061,-6506.2376736276919,-365.11448921838019,365.11448921838019,6506.2376736276919,15326.475000741502,0.0
315012.02908761695,3827225.878295721,-42500.0,-3110.3089262692492,-5128.4472244675153,-6799.4424564469473,-4165.9633373845345,-6782.5371568009414,-4271.6785711234579,8613.352918207258,-7341.9436702060102,562.7773604697345,-562.7773604697345,7341.9436702060102,16722.772891946053,0.0
320012.02908761695,3827225.878295721,-42500.0,-2357.7812835453574,-4862.1569256947096,-8244.4049389016873,-3920.7859925033204,-7786.4882267869052,-4775.5183900433176,9298.0493104783054,-7977.8862620967357,1545.7353723187239,-1545.7353723187239,7977.8862620967357,18033.110584625752,0.0
325012.02908761695,3827225.878295721,-42500.0,-1548.3276660014155,-4278.1972435769812,-9615.0032938897111,-3477.9398525821898,-8716.2537406584506,-5231.5645967021983,9902.6715899215051,-8319.1322943677224,2503.1130397183406,-2503.1130397183406,8319.1322943677224,19184.430198122558,0.0
330012.02908761695,3827225.878295721,-42500.0,-761.59598819912242,-3361.390783522007,-10789.737020904078,-2833.309326521538,-9495.9122993246147,-5603.9233201950074,10384.926526718349,-8278.7525155786625,3335.0076700168152,-3335.0076700168152,8278.7525155786625,20098.483165590726,0.0
335012.02908761695,3827225.878295721,-42500.0,-90.877100963047951,-2135.043852556546,-11637.089922143945,-2004.8070016322852,-10045.765053994744,-5856.008252805821,10704.757526989541,-7794.7240238536897,3933.5780072408497,-3933.5780072408497,7794.7240238536897,20699.553452848675,0.0
340012.02908761695,3827225.878295721,-42500.0,371.00669570658778,-668.11190297790017,-12034.031902566054,-1035.5619155246848,-10293.112482344553,-5955.3906472421813,10829.894338850518,-6847.4845143225057,4200.4006467935387,-4200.4006467935387,6847.4845143225057,20924.384398308186,0.0
345012.02908761695,3827225.878295721,-42500.0,550.05531766415936,925.90387470313999,-11888.693386279094,7.3421447530007704,-10184.945205623635,-5879.274197770691,10742.001811726477,-5473.3620935988574,4067.1416285058176,-4067.1416285058176,5473.3620935988574,20733.000635751188,0.0
350012.02908761695,3827225.878295721,-42500.0,409.39036222947146,2500.8633392755032,-11162.124753368673,1039.6923171716689,-9699.7805833850871,-5619.4224991616347,10442.128405249912,-3768.5241546808552,3514.3823679094116,-3514.3823679094116,3768.5241546808552,20118.327718756555,0.0
355012.02908761695,3827225.878295721,-42500.0,-38.314560129223992,3900.0663006977493,-9882.4803121725054,1972.0497250214746,-8855.1450191495678,-5185.1111657801366,9953.3781809568318,-1879.6976593796539,2582.2580551458955,-2582.2580551458955,1879.6976593796539,19112.050321968487,0.0
360012.02908761695,3827225.878295721,-42500.0,-729.38152794878533,4983.8856997218691,-8145.9892730055926,2724.3195039178358,-7707.8778871827717,-4603.0245320818194,9318.6329527067755,18.134005638114331,1367.9765234051924,-1367.9765234051924,-18.134005638114331,17784.800665584877,0.0
365012.02908761695,3827225.878295721,-42500.0,-1560.4821498270719,5655.3351806977671,-6102.7332176899745,3239.1775173386231,-6346.2981519570903,-3913.7741805803216,8593.1091073092703,1751.991400682854,9.3038126030098738,-9.3038126030098738,-1751.991400682854,16239.844414003403,0.0
370012.02908761695,3827225.878295721,-42500.0,-2409.9149651883913,5875.9513502505333,-3930.5487310220228,3490.5994523952349,-4876.0012617250177,-3165.8063011450604,7835.4082519551666,3180.6403567449479,-1341.7205694876347,1341.7205694876347,-3180.6403567449479,14601.15393414376,0.0
375012.02908761695,3827225.878295721,-42500.0,-3162.1760055319714,5667.6606187644102,-1804.5547413697309,3485.3308461991796,-3403.1276427965136,-2408.2611333451673,7100.3829888259861,4215.3859897978546,-2546.9320806880905,2546.9320806880905,-4215.3859897978546,12997.751710197406,0.0
380012.02908761695,3827225.878295721,-42500.0,-3728.3841481502336,5101.4234429404987,129.15876114954173,3257.5989183376464,-2019.5255816924653,-1684.5640218692006,6433.2782650799691,4827.1115995272939,-3503.9404985491619,3503.9404985491619,-4827.1115995272939,11546.366548217849,0.0
385012.02908761695,3827225.878295721,-42500.0,-4057.5292602966724,4277.7185759377317,1769.6410010344532,2859.443944451164,-793.04042294516421,-1028.0670655159599,5864.3404092947212,5039.9468316240072,-4156.8458219929798,4156.8458219929798,-5039.9468316240072,10334.069354872399,0.0
390012.02908761695,3827225.878295721,-42500.0,-4137.4793746226287,3305.4724302057289,3065.2876913906248,2349.8722420510298,235.96980479035776,-460.22963976122924,5405.327226507663,4916.0402297750907,-4495.3718394167399,4495.3718394167399,-4916.0402297750907,9403.5543070039475,0.0
395012.02908761695,3827225.878295721,-42500.0,-3988.102884536384,2284.8135791195455,4008.316446512435,1785.545949248612,1052.7664834621753,8.9498111672566232,5049.9949983833303,4537.3758047812571,-4545.6089642572551,4545.6089642572551,-4537.3758047812571,8746.8644106207066,0.0
400012.02908761695,3827225.878295721,-42500.0,-3650.412962219797,1296.3131328670884,4623.6474515738973,1214.4910699467839,1662.9885549465889,378.99483483362764,4779.0608154382235,3989.5410690543695,-4356.9472726136291,4356.9472726136291,-3989.5410690543695,8313.8126678049539,0.0
405012.02908761695,3827225.878295721,-42500.0,-3175.3811614019673,396.77335573746996,4956.3037592771825,673.05718931405204,2086.1378830431368,656.33380284113719,4567.6594955363125,3350.138803292024,-3989.2141037870042,3989.2141037870042,-3350.138803292024,8033.3840596764367,0.0
410012.02908761695,3827225.878295721,-42500.0,-2614.7885904394316,-379.98301205478077,5060.225183109942,185.5300781360778,2349.3859913778183,851.66778114553665,4392.0925894021875,2682.3813347234873,-3502.4694055219288,3502.4694055219288,-2682.3813347234873,7836.6016174378256,0.0
415012.02908761695,3827225.878295721,-42500.0,-2015.0658196786933,-1019.3727998498118,4989.9012802405268,-234.53067155886549,2482.5917595528431,977.73006429221084,4233.778475240154,2033.0184245461276,-2950.3198527826803,2950.3198527826803,-2033.0184245461276,7670.3400659162226,0.0
420012.02908761695,3827225.878295721,-42500.0,-1414.0316704406034,-1521.1590859420439,4795.0483269318484,-582.10938230228555,2514.8115386743066,1047.6058696345615,4080.3249931597948,1433.2042633911069,-2376.5035295677576,2376.5035295677576,-1433.2042633911069,7500.5992760505178,0.0
425012.02908761695,3827225.878295721,-42500.0,-839.90146592281963,-1894.6382615211255,4517.8790624057237,-858.36589861119603,2472.1942699107726,1073.6169111904214,3924.7997032823796,900.95406047008748,-1813.9630199100566,1813.9630199100566,-900.95406047008748,7309.563958683485,0.0
430012.02908761695,3827225.878295721,-42500.0,-311.79042479210398,-2154.5737745642296,4192.2553467833604,-1068.4816121670815,2376.9702413434488,1066.6849284537766,3764.3127499504517,444.15994156787053,-1285.5156255667389,1285.5156255667389,-444.15994156787053,7090.79631828326,0.0
285012.02908761695,3832225.878295721,-42500.0,-5127.1814400971816,-2710.0590255085226,275.78760764490823,-3207.6188120757574,-1594.9103376035307,-1624.4210411059348,4820.1271784653927,-1359.2911304386105,-3539.4441815672608,3539.4441815672608,1359.2911304386105,9114.1116394931832,0.0
290012.02908761695,3832225.878295721,-42500.0,-5321.1611179941974,-3344.0226106876289,-359.88272302472825,-3639.218074789881,-2227.9782187782707,-2022.0370952161834,5432.0883268706393,-2188.2165858183635,-3393.2634549311388,3393.2634549311388,2188.2165858183635,10358.6426221577,0.0
295012.02908761695,3832225.878295721,-42500.0,-5388.8587135290027,-3988.6555640496208,-1183.0397038929721,-4057.6762881627269,-2991.142607614262,-2484.8916020377228,6116.6139729312017,-3141.2496520693262,-3092.0951531571677,3092.0951531571677,3141.2496520693262,11741.869993627646,0.0
300012.02908761695,3832225.878295721,-42500.0,-5297.9124067736411,-4602.4701745082157,-2211.011436447719,-4433.9812872496395,-3889.6575146670748,-3012.8696974838872,6872.0078426719247,-4197.4819220854415,-2612.1526822957412,2612.1526822957412,4197.4819220854415,13251.93379323583,0.0
305012.02908761695,3832225.878295721,-42500.0,-5021.2353043476442,-5129.7387644634809,-3448.6559886679747,-4731.3779757641378,-4919.1995014102231,-3600.5775929780889,7689.6785115621124,-5316.9510517313338,-1939.5085964533914,1939.5085964533914,5316.9510517313338,14864.495293584518,0.0
310012.02908761695,3832225.878295721,-42500.0,-4543.5013033799805,-5501.5248057457729,-4881.1081381093281,-4906.5812607370881,-6061.5831427451358,-4235.4317681016346,8550.7628483393528,-6436.8194799211378,-1077.0711227895918,1077.0711227895918,6436.8194799211378,16539.806732628331,0.0
315012.02908761695,3832225.878295721,-42500.0,-3868.8313671027713,-5639.9786673055769,-6465.9630859815743,-4912.9009644353491,-7280.4667621217786,-4895.8933299522068,9424.4150597319749,-7469.8072731007969,-52.176006508333558,52.176006508333558,7469.8072731007969,18220.482672664948,0.0
320012.02908761695,3832225.878295721,-42500.0,-3028.3771127977425,-5466.9648776636432,-8126.509976898863,-4705.7416607164996,-8518.0537254726369,-5550.3239581157559,10268.559866495687,-8306.7875309366827,1076.8348953550571,-1076.8348953550571,8306.7875309366827,19830.804344760025,0.0
325012.02908761695,3832225.878295721,-42500.0,-2085.5818875899927,-4917.4577188909107,-9748.5593493454126,-4250.5486406082173,-9694.2801759541107,-6157.1303613136633,11032.284159529658,-8825.5404674312049,2217.5648197317951,-2217.5648197317951,8825.5404674312049,21278.660983344853,0.0
330012.02908761695,3832225.878295721,-42500.0,-1136.1430459711078,-3956.7375814588809,-11184.014724473731,-3532.475386287942,-10710.19647911508,-6666.8964129044152,11659.590166111124,-8906.914534968706,3247.1175531696922,-3247.1175531696922,8906.914534968706,22461.167550922906,0.0
335012.02908761695,3832225.878295721,-42500.0,-299.71825155857516,-2598.3333110927019,-12264.086964003725,-2565.9634832361126,-11456.972338641468,-7027.0208719812699,12095.059812898073,-8457.7721577357188,4024.945690075328,-4024.945690075328,8457.7721577357188,23274.620287489972,0.0
340012.02908761695,3832225.878295721,-42500.0,298.12548084069067,-917.38857288647989,-12823.20977808803,-1401.3311831910839,-11830.811684921529,-7188.8340586801787,12291.633897515381,-7437.0503085289756,4415.6981940067808,-4415.6981940067808,7437.0503085289756,23628.487127696244,0.0
345012.02908761695,3832225.878295721,-42500.0,551.98633187271923,947.0784245289268,-12731.106565655035,-125.00417386078165,-11752.027108029599,-7116.281153050214,12219.763630937588,-5877.9332428971493,4319.0589089043215,-4319.0589089043215,5877.9332428971493,23461.72943284479,0.0
350012.02908761695,3832225.878295721,-42500.0,404.67921734060297,2806.2153235625065,-11925.784088300186,1149.1107175807961,-11184.046022975703,-6794.2563894765608,11876.048673263685,-3897.2170440116802,3699.0707637114388,-3699.0707637114388,3897.2170440116802,22758.148954732857,0.0
355012.02908761695,3832225.878295721,-42500.0,-132.16304121840034,4452.091250295488,-10436.845049575461,2297.0347096626765,-10146.463010959738,-6234.0622922207904,11288.42452823432,-1684.6957306238687,2602.5281941555863,-2602.5281941555863,1684.6957306238687,21556.579137412067,0.0
360012.02908761695,3832225.878295721,-42500.0,-974.10362905016586,5698.5857928053056,-8389.0719770472842,3207.2728239439034,-8716.7602572390733,-5473.7986581940295,10514.450094033202,528.44604374579967,1157.3734331862279,-1157.3734331862279,-528.44604374579967,19952.2199241694,0.0
365012.02908761695,3832225.878295721,-42500.0,-1980.4235467722708,6419.9529269386503,-5982.10043484996,3801.9797842069875,-7018.5445254573006,-4572.8745427797712,9631.1913162629498,2514.5727366181482,-451.3730909881931,451.3730909881931,-2514.5727366181482,18087.357690039687,0.0
370012.02908761695,3832225.878295721,-42500.0,-2986.6404644763456,6574.0687989463604,-3451.3210675805176,4050.0260989503336,-5199.1735051131545,-3601.9696591799848,8720.7608633373784,4093.7544242528088,-2021.3544475633539,2021.3544475633539,-4093.7544242528088,16132.765351130653,0.0
375012.02908761695,3832225.878295721,-42500.0,-3841.6147384961832,6203.1425336265638,-1022.6414480513096,3968.1856929246951,-3403.5823008862326,-2631.3401517441284,7857.5771095299078,5162.9822703429145,-3374.8161891177829,3374.8161891177829,-5162.9822703429145,14262.860359976783,0.0
380012.02908761695,3832225.878295721,-42500.0,-4436.6917535409966,5413.9988807164964,1124.6521473085361,3611.3759193109163,-1752.1063720986194,-1720.7841495931089,7098.6918960945131,5703.0645810717078,-4389.2207503257896,4389.2207503257896,-5703.0645810717078,12628.162726960416,0.0
385012.02908761695,3832225.878295721,-42500.0,-4719.1798578763255,4347.2423664715116,2877.7979254587353,3056.5581219737837,-327.47780505681976,-913.47083371235999,6476.3772237954454,5765.1494062861429,-5009.2398753023363,5009.2398753023363,-5765.1494062861429,11328.306232029525,0.0
390012.02908761695,3832225.878295721,-42500.0,-4689.8178504082052,3146.481901413893,4191.9537580891147,2386.0118586240337,827.89010301200585,-234.18912165138875,5995.1175037818994,5445.4788402189652,-5241.0321915081413,5241.0321915081413,-5445.4788402189652,10392.354229779203,0.0
395012.02908761695,3832225.878295721,-42500.0,-4389.4228272104119,1935.6035806651532,5078.1016988497795,1674.2661521164846,1706.6518432005162,308.86097023885355,5635.7480044356635,4858.3525995509499,-5135.3604580975189,5135.3604580975189,-4858.3525995509499,9778.2381266106822,0.0
400012.02908761695,3832225.878295721,-42500.0,-3881.5831503583877,806.92598259179533,5584.7894049806091,980.46670663470445,2327.0932818007173,720.26260338117186,5365.769343103746,4114.4136191979724,-4767.3509084983052,4767.3509084983052,-4114.4136191979724,9397.3310194858695,0.0
405012.02908761695,3832225.878295721,-42500.0,-3236.8712545202466,-181.06301701861426,5779.9557638119886,345.83843612883919,2722.9506954984904,1013.0049290222635,5150.8891243320177,3307.1683992968192,-4218.7441371857431,4218.7441371857431,-3307.1683992968192,9151.216544705414,0.0
410012.02908761695,3832225.878295721,-42500.0,-2521.4072808500537,-999.66857284561365,5736.4714367514443,-205.22649537765486,2934.6954707819623,1204.5220771709207,4962.9278792174755,2507.2815596660339,-3565.4223443851624,3565.4223443851624,-2507.2815596660339,8959.2698237744462,0.0
415012.02908761695,3832225.878295721,-42500.0,-1790.3070074285317,-1643.0191963776986,5522.5567591135732,-662.11903435318959,3003.21046182705,1313.6269376711218,4782.7197088517714,1762.5131284649569,-2870.5030714742225,2870.5030714742225,-1762.5131284649569,8768.4261211875673,0.0
420012.02908761695,3832225.878295721,-42500.0,-1085.1868909272105,-2120.6532346393383,5196.6341137534746,-1024.3316685319044,2965.8707800985494,1358.432996496862,4599.4842623060104,1100.8812124465298,-2181.8981833044063,2181.8981833044063,-1100.8812124465298,8550.4745793285565,0.0
425012.02908761695,3832225.878295721,-42500.0,-434.4238841012899,-2451.0760271232411,4805.4865875314135,-1297.9848936316334,2854.5804474181364,1355.1419629275415,4408.7181637724916,535.10719775722282,-1532.8194955883228,1532.8194955883228,-535.10719775722282,8294.910901685671,0.0
430012.02908761695,3832225.878295721,-42500.0,145.05723034349273,-2656.841854296486,4384.5172749886997,-1492.9717046705798,2695.183112786372,1317.4891469671945,4209.9578898547315,67.088346969341558,-943.86458549231429,943.86458549231429,-67.088346969341558,8002.0306977091986,0.0
435012.02908761695,3832225.878295721,-42500.0,645.38861850203443,-2761.1776684877832,3959.1260330732403,-1620.8322418546452,2507.7184013973756,1256.6349566111232,4004.9854770585857,-308.25189061600707,-425.68973588629029,425.68973588629029,308.25189061600707,7677.7939826595812,0.0
280012.02908761695,3837225.878295721,-42500.0,-5140.4597881507452,-1713.4179216011973,1375.1811782853408,-2835.2591081628375,-776.92673666944586,-1262.4348422760406,4428.0046921705116,49.919253107132135,-4046.2496482654451,4046.2496482654451,-49.919253107132135,8182.858149450798,0.0
285012.02908761695,3837225.878295721,-42500.0,-5550.298889817398,-2355.5233864646952,984.57631285082641,-3336.230611493681,-1296.4978771926505,-1633.9525238737031,5006.3881307591046,-626.54973703727978,-4138.6688077924136,4138.6688077924136,626.54973703727978,9355.6947154696772,0.0
290012.02908761695,3837225.878295721,-42500.0,-5873.6295973170863,-3064.0811998041695,420.80146850505855,-3863.6473198825061,-1955.4823150741709,-2083.361533071437,5670.1559075051855,-1460.2639418628778,-4102.6112494573326,4102.6112494573326,1460.2639418628778,10702.767832567213,0.0
295012.02908761695,3837225.878295721,-42500.0,-6069.4623157526239,-3813.5761331659364,-349.91061619845431,-4395.4985837847926,-2772.5504562274691,-2617.9375643058188,6425.3776802919801,-2453.3572368850419,-3900.4253242764062,3900.4253242764062,2453.3572368850419,12228.554320238938,0.0
300012.02908761695,3837225.878295721,-42500.0,-6094.114787305316,-4562.3697632230287,-1357.0332546618313,-4899.583885223492,-3761.1248786169276,-3241.2967554664638,7274.4113323370129,-3592.7293120657896,-3496.0487043770772,3496.0487043770772,3592.7293120657896,13927.170636093848,0.0
305012.02908761695,3837225.878295721,-42500.0,-5906.3909068928588,-5249.9239001753076,-2618.9413371585329,-5332.4342311160781,-4924.6515297409833,-3950.9679106305111,8212.3412060558639,-4843.4805021424118,-2861.3962818145292,2861.3962818145292,4843.4805021424118,15778.114421841365,0.0
310012.02908761695,3837225.878295721,-42500.0,-5475.4718995593867,-5796.0864073488656,-4133.7083581485122,-5639.7097037756239,-6250.6187492180143,-4735.4977536994365,9222.1435717836539,-6142.434220613035,-1985.2370477873415,1985.2370477873415,6142.434220613035,17741.717915812773,0.0
315012.02908761695,3837225.878295721,-42500.0,-4791.2798908523746,-6104.1717382775832,-5868.0835657740663,-5759.0216805696055,-7703.8374357672265,-5571.3964755186516,10270.946447558328,-7393.5210918978337,-883.95779129753237,883.95779129753237,7393.5210918978337,19754.926457163005,0.0
320012.02908761695,3837225.878295721,-42500.0,-3876.1057554455665,-6069.824813428977,-7746.380424994285,-5626.2126323898783,-9220.2321247402706,-6420.5941269061304,11309.467191439911,-8467.7453768496052,387.50785062289151,-387.50785062289151,8467.7453768496052,21728.661833008613,0.0
325012.02908761695,3837225.878295721,-42500.0,-2794.7148158412156,-5597.1229958697604,-9642.5197066337005,-5185.6855596917949,-10703.210216593476,-7229.3955816551934,12274.106290344576,-9211.0170655359543,1727.8836726810559,-1727.8836726810559,9211.0170655359543,23548.343575849231,0.0
330012.02908761695,3837225.878295721,-42500.0,-1658.5760343653383,-4621.7612684210744,-11379.968248218878,-4404.3939784414724,-12025.453368596942,-7930.2224329728269,13091.192288606944,-9462.7908919359616,2989.6014867292624,-2989.6014867292624,9462.7908919359616,25079.52466529216,0.0
335012.02908761695,3837225.878295721,-42500.0,-618.9933552829275,-3138.050346827205,-12744.808578920753,-3287.3228182759744,-13039.018313008131,-8447.3303557826275,13684.144541825803,-9086.2408469581242,3991.7780630386633,-3991.7780630386633,9086.2408469581242,26180.199323687317,0.0
340012.02908761695,3837225.878295721,-42500.0,154.83564732317933,-1222.4080253730472,-13515.445519560541,-1890.1614027587793,-13595.401885426108,-8707.0438940751646,13984.26849693851,-8006.2582416602772,4549.1614031316431,-4549.1614031316431,8006.2582416602772,26720.234710713336,0.0
345012.02908761695,3837225.878295721,-42500.0,512.31661273584939,957.29410011702885,-13507.275286109721,-323.26967990422145,-13574.006986322609,-8651.5255431169826,13944.403865241826,-6245.4853812054807,4514.6530993004872,-4514.6530993004872,6245.4853812054807,26605.927453322594,0.0
350012.02908761695,3837225.878295721,-42500.0,364.55023735101128,3156.6826876833575,-12622.742312031191,1258.3775897128626,-12912.934574872454,-8253.1266041999461,13552.791861304762,-3943.860001614808,3825.055600995433,-3825.055600995433,3943.860001614808,25804.843516735928,0.0
355012.02908761695,3837225.878295721,-42500.0,-281.15303245672197,5097.461792244615,-10889.856510150355,2680.6428333052318,-11632.038515863829,-7524.7074943912685,12842.644584866834,-1348.0040797531854,2532.9660837725914,-2532.9660837725914,1348.0040797531854,24363.739400644245,0.0
360012.02908761695,3837225.878295721,-42500.0,-1311.9627345224744,6528.6611003249654,-8471.2294376335012,3785.7787162910822,-9837.9546517284671,-6521.4055928585612,11891.877905179894,1233.7143822410205,808.05118198334299,-808.05118198334299,-1233.7143822410205,22412.50248781588,0.0
365012.02908761695,3837225.878295721,-42500.0,-2533.7687578009632,7285.9743363770076,-5634.8917486500231,4466.6755070976478,-7706.2720657788741,-5331.8688445110065,10809.411921291818,3499.0182860302857,-1098.3867971417001,1098.3867971417001,-3499.0182860302857,20150.404442432144,0.0
370012.02908761695,3837225.878295721,-42500.0,-3721.8978591442196,7326.3710710518526,-2694.7069096667406,4687.3572204878856,-5445.4434213185195,-4061.183730616739,9711.9242771644986,5218.4337362587321,-2914.6550616127574,2914.6550616127574,-5218.4337362587321,17816.239840092261,0.0
375012.02908761695,3837225.878295721,-42500.0,-4678.1749071640243,6725.7134726690238,57.703336720638333,4482.9452940469928,-3255.0076138448994,-2811.198383959676,8701.2560439372301,6276.5057336625277,-4412.1590298915025,4412.1590298915025,-6276.5057336625277,15647.800323277164,0.0
380012.02908761695,3837225.878295721,-42500.0,-5272.5441321249791,5644.3092732517698,2405.4223046314273,3941.4690728465343,-1292.0931374579059,-1664.5068853771672,7847.9710932549569,6676.1017819886956,-5448.0516263756972,5448.0516263756972,-6676.1017819886956,13836.742513877438,0.0
385012.02908761695,3837225.878295721,-42500.0,-5457.6426246770452,4277.9867749158338,4229.2826093966705,3176.7800371133221,345.32677715580729,-675.95356905035703,7181.6580956224916,6511.6733580221889,-5976.5262316442941,5976.5262316442941,-6511.6733580221889,12486.723543088543,0.0
390012.02908761695,3837225.878295721,-42500.0,-5258.4569732224318,2813.5981373420304,5502.3185023065171,2302.8278780787045,1618.1492320641007,128.09342224104921,6691.1183151579262,5927.938070751612,-6033.2305838407374,6033.2305838407374,-5927.938070751612,11591.334157879792,0.0
395012.02908761695,3837225.878295721,-42500.0,-4747.9592285428334,1400.3630795433305,6266.3526797979657,1415.8843605554846,2534.3357428152704,744.99976449157623,6336.7012411774431,5080.5511413360391,-5705.8561413770722,5705.8561413770722,-5080.5511413360391,11052.253637486934,0.0
400012.02908761695,3837225.878295721,-42500.0,-4020.4196164775858,138.86341748732187,6603.2505981196964,586.26844192277076,3132.6234331362871,1188.724079977457,6069.1008361747181,4108.3855283308694,-5103.7797808331998,5103.7797808331998,-4108.3855283308694,10732.48769265022,0.0
405012.02908761695,3837225.878295721,-42500.0,-3170.1429604715863,-916.62491806698176,6609.8410341208646,-142.25554534672833,3467.1581634759996,1482.7066397121559,5844.9160775604141,3119.5613035586471,-4334.7352448476895,4334.7352448476895,-3119.5613035586471,10508.909198906229,0.0
410012.02908761695,3837225.878295721,-42500.0,-2278.2916822706457,-1748.6765462624192,6380.375920848317,-748.52406710419064,3595.7895169853209,1654.1297391254968,5633.7693059706471,2188.4226582788147,-3490.8411331237662,3490.8411331237662,-2188.4226582788147,10297.111901515646,0.0
415012.02908761695,3837225.878295721,-42500.0,-1407.0973104220923,-2365.2396042408127,5996.6776671833795,-1228.22312631614,3572.6045069557981,1729.9516790841808,5418.4236490976573,1359.1941048146346,-2642.8030242788882,2642.8030242788882,-1359.1941048146346,10051.374814391014,0.0
420012.02908761695,3837225.878295721,-42500.0,-599.28457712870977,-2789.2308272048735,5524.2426908686512,-1588.1697799501683,3444.0627085097644,1734.5606113141866,5191.6508307834047,652.54288237433786,-1839.7008931803157,1839.7008931803157,-652.54288237433786,9754.1803503618048,0.0
425012.02908761695,3837225.878295721,-42500.0,119.55191321654792,-3050.5114027910772,5012.1672510404769,-1841.5448045201192,3247.6857965529211,1688.6669209769011,4952.6062227960329,72.542106219360676,-1111.8338035622774,1111.8338035622774,-72.542106219360676,9405.0965414473958,0.0
430012.02908761695,3837225.878295721,-42500.0,737.35589300475931,-3180.4129991591935,4495.0944227439668,-2004.3573598736029,3012.3087789390738,1609.0289824657107,4703.9048864624638,-387.27722976891312,-474.74511131793247,474.74511131793247,387.27722976891312,9012.4542513176621,0.0
435012.02908761695,3837225.878295721,-42500.0,1251.8952030382729,-3208.4250528773914,3995.9417174465448,-2093.067544058018,2759.1333794555962,1508.6743094346368,4449.6339492679226,-739.25304379561771,66.716427563688342,-66.716427563688342,739.25304379561771,8588.0343024161957,0.0
275012.02908761695,3842225.878295721,-42500.0,-4766.9347094400136,-607.25460612674328,2176.9706590723781,-2282.082286672603,-17.414328027507693,-863.83898550263484,4050.1807711939005,1338.0847298342869,-4183.5697560605149,4183.5697560605149,-1338.0847298342869,7285.6114075408841,0.0
280012.02908761695,3842225.878295721,-42500.0,-5348.21698156616,-1172.2569157319876,2031.9903187858649,-2800.0675184046281,-392.10850678396821,-1183.6760321513527,4568.5421418752139,878.79490135034894,-4493.4904415615856,4493.4904415615856,-878.79490135034894,8317.4891640224851,0.0
285012.02908761695,3842225.878295721,-42500.0,-5898.1945802787423,-1840.7524910839672,1752.3713169162102,-3379.2372015511028,-897.73985181065871,-1585.7751307782671,5175.5241844183965,259.54501781086083,-4723.2982380814246,4723.2982380814246,-259.54501781086083,9538.1509108908049,0.0
290012.02908761695,3842225.878295721,-42500.0,-6377.5104237567393,-2606.4524528242755,1297.6884666531694,-4008.7787826018548,-1562.3001108189239,-2083.9900330399792,5883.4541350691179,-540.97297395669648,-4831.7988172883788,4831.7988172883788,540.97297395669648,10968.291684345408,0.0
295012.02908761695,3842225.878295721,-42500.0,-6737.5235411852173,-3449.6573604322962,623.92723786742829,-4667.9444692880388,-2413.8927163024355,-2691.1112694771186,6703.7203929318375,-1536.1182296826207,-4771.6031742440955,4771.6031742440955,1536.1182296826207,12622.484051516532,0.0
300012.02908761695,3842225.878295721,-42500.0,-6922.4220882289246,-4332.0817085957742,-312.2815987487474,-5323.0786920215896,-3477.0489022559095,-3416.6528931262906,7644.7226465815947,-2724.5154883774417,-4492.7483330407322,4492.7483330407322,2724.5154883774417,14504.711348969533,0.0
305012.02908761695,3842225.878295721,-42500.0,-6874.2194253948292,-5191.7876562624497,-1546.3994739686523,-5925.0357655345515,-4767.0464530706395,-4263.6658565396201,8707.7870478269324,-4081.3853281775214,-3949.4022229553098,3949.4022229553098,4081.3853281775214,16602.662898198345,0.0
310012.02908761695,3842225.878295721,-42500.0,-6541.5937963215993,-5939.7372291811735,-3095.0707432549161,-6407.9924121637569,-6282.0108526142421,-5224.5629898663828,9880.663564129929,-5548.787416963527,-3110.3536753004882,3110.3536753004882,5548.787416963527,18881.033622122537,0.0
315012.02908761695,3842225.878295721,-42500.0,-5893.0053010781703,-6460.3192327525867,-4941.6177891899442,-6691.1037180021422,-7993.0896951316545,-6276.215851399189,11130.986600955994,-7026.6987381952495,-1973.268457986394,1973.268457986394,7026.6987381952495,21274.51055938346,0.0
320012.02908761695,3842225.878295721,-42500.0,-4933.2983836144531,-6618.9580887875736,-7019.3980819044509,-6684.7838159958346,-9833.9405244310929,-7375.0608057241734,12403.216009464581,-8368.3737729910026,-581.23355473819356,581.23355473819356,8368.3737729910026,23681.85459550194,0.0
325012.02908761695,3842225.878295721,-42500.0,-3720.8436701242167,-6279.9830378027355,-9196.7519627511465,-6303.280898108158,-11692.231949253015,-8453.648717836888,13619.569222791306,-9384.9714137608098,962.21494227800849,-962.21494227800849,9384.9714137608098,25963.475957829542,0.0
330012.02908761695,3842225.878295721,-42500.0,-2379.3299085169847,-5336.3522498947714,-11270.048124965266,-5484.0743847494759,-13407.453087416894,-9420.7512703727371,14684.184309211541,-9864.9699723457306,2486.2291126815826,-2486.2291126815826,9864.9699723457306,27945.621633434228,0.0
335012.02908761695,3842225.878295721,-42500.0,-1095.755635204308,-3748.7761490204466,-12973.504759944077,-4212.114110622817,-14780.411436695113,-10167.530166867165,15491.687952998995,-9612.0096041169309,3762.6269684831964,-3762.6269684831964,9612.0096041169309,29434.556660893853,0.0
340012.02908761695,3842225.878295721,-42500.0,-96.106534634362816,-1585.0269415510663,-14013.705495480663,-2542.9842080509766,-15598.893313560839,-10581.662410339213,15941.81770179365,-8498.8021246173303,4540.2582270877901,-4540.2582270877901,8498.8021246173303,30242.789824765678,0.0
345012.02908761695,3842225.878295721,-42500.0,404.34321673325184,957.0533255293177,-14130.269984519917,-615.10609287287173,-15679.520146805979,-10569.040753962907,15959.749992652862,-6524.5943026181258,4604.2122299018984,-4604.2122299018984,6524.5943026181258,30225.836977293875,0.0
350012.02908761695,3842225.878295721,-42500.0,267.00090035531053,3561.867265690445,-13171.25481458284,1359.8897656742474,-14917.757863577133,-10078.796137875408,15518.523609794982,-3853.190983350687,3846.8745902442133,-3846.8745902442133,3853.190983350687,29322.685103009226,0.0
355012.02908761695,3842225.878295721,-42500.0,-511.68061582782224,5854.0412732525683,-11156.946320840823,3134.0136118509463,-13329.121825349474,-9123.26055082721,14656.384977310901,-805.97129210430194,2323.3724243909019,-2323.3724243909019,805.97129210430194,27587.686055717688,0.0
360012.02908761695,3842225.878295721,-42500.0,-1779.8731119381309,7491.1503031550474,-8299.9763494204071,4479.9705169662875,-11061.711450943629,-7783.3832790377701,13479.812671337066,2201.8769113929111,260.22512443994674,-260.22512443994674,-2201.8769113929111,25200.340498512825,0.0
365012.02908761695,3842225.878295721,-42500.0,-3266.1021949970523,8256.9008600622092,-4963.323672842429,5248.1802859133304,-8368.9676174705237,-6194.5171278901507,12144.882851165969,4765.463427177192,-1997.2407576691426,1997.2407576691426,-4765.463427177192,22444.693969171167,0.0
370012.02908761695,3842225.878295721,-42500.0,-4660.1319700697386,8113.6597189585955,-1568.0117964294493,5399.8540192230585,-5550.0264203035331,-4516.3918448599279,10819.783903598078,6592.8358020518754,-4081.2089959550776,4081.2089959550776,-6592.8358020518754,19659.996918642166,0.0
375012.02908761695,3842225.878295721,-42500.0,-5702.3533095548064,7192.7208396810838,1510.7128033280144,5003.3659578596207,-2881.482836402155,-2898.8549828938217,9644.5999116195399,7563.0163811284074,-5699.0226306008335,5699.0226306008335,-7563.0163811284074,17172.118355224589,0.0
380012.02908761695,3842225.878295721,-42500.0,-6242.9460226698175,5733.7878281058474,4016.9757582283132,4199.9729804022763,-566.5627135471675,-1455.9302072411283,8703.014686197399,7721.9908038476724,-6691.8785305641568,6691.8785305641568,-7721.9908038476724,15217.699403778788,0.0
385012.02908761695,3842225.878295721,-42500.0,-6253.7721008096396,4007.2193914971413,5837.4218686034274,3157.7830188190151,1284.7508810239626,-254.81199732723408,8011.325667244706,7231.7129677673138,-7040.208821273086,7040.208821273086,-7231.7129677673138,13881.277344633703,0.0
390012.02908761695,3842225.878295721,-42500.0,-5802.1316250361906,2251.0562162827255,6980.9338664570096,2032.6395090622088,2647.4815493267165,681.34223193459343,7528.9218411449929,6303.6519125226368,-6829.1666193347664,6829.1666193347664,-6303.6519125226368,13083.869218922206,0.0
395012.02908761695,3842225.878295721,-42500.0,-5008.276568671783,637.66173484622141,7536.5784083373619,945.30207692437841,3557.6968397657552,1362.5624115814771,7186.6972970479728,5143.4540981033688,-6199.3193485204911,6199.3193485204911,-5143.4540981033688,12645.630492093438,0.0
400012.02908761695,3842225.878295721,-42500.0,-4006.06259864299,-732.11977001255946,7630.5213868325382,-25.260405288557081,4085.5285693664455,1819.1524009370492,6916.975380627593,3918.3893001522829,-5303.1500375265205,5303.1500375265205,-3918.3893001522829,12379.101602167144,0.0
405012.02908761695,3842225.878295721,-42500.0,-2916.2256683558071,-1817.7776555329158,7393.457418985905,-837.82136566462077,4313.0268702181593,2090.570902081417,6670.3203358417932,2746.1362230025406,-4276.5734427174184,4276.5734427174184,-2746.1362230025406,12147.611881435501,0.0
410012.02908761695,3842225.878295721,-42500.0,-1833.2797686200176,-2621.4732271280182,6941.3519928166716,-1479.948625562495,4319.5018481866082,2217.5729957554386,6418.3039744794751,1697.7139176142543,-3225.6213082498371,3225.6213082498371,-1697.7139176142543,11875.193785125861,0.0
415012.02908761695,3842225.878295721,-42500.0,-822.61320592159791,-3170.8966153181391,6367.2152219960799,-1958.3473769165232,4173.7256922616252,2237.5382963368525,6148.9487679282147,807.08698537870657,-2224.0734818441283,2224.0734818441283,-807.08698537870657,11531.924540980357,0.0
420012.02908761695,3842225.878295721,-42500.0,76.512728871156298,-3505.8252796745637,5740.0665208250402,-2290.6583968092436,3931.0743031851839,2182.245684969695,5860.6744164106576,82.218100676180711,-1317.2041619307633,1317.2041619307633,-82.218100676180711,11115.657283639273,0.0
425012.02908761695,3842225.878295721,-42500.0,845.47201197759955,-3669.0103131670926,5107.6905040563988,-2499.4094971758882,3633.6612741876547,2077.2633050583804,5557.3737227172887,-485.1794975154861,-527.96410484651528,527.96410484651528,485.1794975154861,10638.147815332764,0.0
430012.02908761695,3842225.878295721,-42500.0,1480.4293519842818,-3700.7726979075815,4500.8284852559482,-2608.0243142933427,3311.9718027105005,1942.2694173723116,5245.1416306353149,-912.18647820549995,136.63925043138602,-136.63925043138602,912.18647820549995,10116.381055470201,0.0
435012.02908761695,3842225.878295721,-42500.0,1987.2147067819415,-3636.3049550426999,3937.4596261236334,-2638.4649420469241,2987.0327115733076,1791.8251942078698,4930.3733707299352,-1219.5249100668491,680.03968578137187,-680.03968578137187,1219.5249100668491,9567.7800926179025,0.0
440012.02908761695,3842225.878295721,-42500.0,2377.304190944466,-3504.7352509937059,3426.5232241854728,-2610.0436718069136,2672.5767870491372,1636.2961427616294,4618.7962637589508,-1428.3117569660922,1111.8471076503602,-1111.8471076503602,1428.3117569660922,9007.8812574344283,0.0
275012.02908761695,3847225.878295721,-42500.0,-4711.5068636048281,55.478622299737459,2706.2221580626842,-2083.2392825722832,402.35848821230104,-710.36965266086895,4181.4705832666159,2162.1918796121308,-4409.41484913966,4409.41484913966,-2162.1918796121308,7407.2275263730862,0.0
280012.02908761695,3847225.878295721,-42500.0,-5416.7685460199191,-483.02257613580133,2687.0963704225833,-2648.8118459482262,74.556113877328499,-1037.3527776882843,4707.7325767872862,1809.379048067291,-4856.6687588227269,4856.6687588227269,-1809.379048067291,8433.6786820217785,0.0
285012.02908761695,3847225.878295721,-42500.0,-6119.2064532261365,-1147.6990095217484,2547.2966606797568,-3300.1444867593577,-392.35777543668371,-1460.1720901309936,5331.6422185349238,1289.3885812679498,-5246.6023195829339,5246.6023195829339,-1289.3885812679498,9670.7639525508166,0.0
290012.02908761695,3847225.878295721,-42500.0,-6777.8218361933796,-1941.2307669184813,2241.0864954091558,-4031.4748697460491,-1034.4669105980054,-1998.6831382642902,6070.9232641042436,570.52450047792445,-5533.9244301196013,5533.9244301196013,-570.52450047792445,11151.328408853224,0.0
295012.02908761695,3847225.878295721,-42500.0,-7338.1461075136913,-2853.2013739086747,1715.0867746955612,-4826.0981233880239,-1890.9206867434909,-2673.1350946397051,6943.8821403715783,-373.92368985088797,-5662.7025172522726,5662.7025172522726,373.92368985088797,12903.97647753304,0.0
300012.02908761695,3847225.878295721,-42500.0,-7732.8572376594748,-3853.2282146550588,911.57961282949361,-5651.9051539999982,-3000.3488134185168,-3501.7347419646917,7967.3970356804139,-1558.1935114586349,-5568.7997249473401,5568.7997249473401,1558.1935114586349,14947.691877128433,0.0
305012.02908761695,3847225.878295721,-42500.0,-7885.6572678389794,-4883.1935605915069,-224.57664398189914,-6456.7169335172675,-4394.5779077014968,-4496.7538715160917,9152.4856181325849,-2973.4888934957817,-5185.9965360590504,5185.9965360590504,2973.4888934957817,17284.542924215308,0.0
310012.02908761695,3847225.878295721,-42500.0,-7720.0933758984011,-5850.0573530367328,-1734.0763746970092,-7164.5244153866433,-6088.8998617785455,-5658.8847504603618,10496.091827475404,-4574.6423915851828,-4457.2675339538691,4457.2675339538691,4574.6423915851828,19890.384577456738,0.0
315012.02908761695,3847225.878295721,-42500.0,-7174.8103400465043,-6622.0851251544182,-3625.4863081291833,-7674.5630130615054,-8068.6172528966035,-6969.8477816256145,11970.838425320733,-6265.7001008122252,-3352.1985203669419,3352.1985203669419,6265.7001008122252,22704.025454962939,0.0
320012.02908761695,3847225.878295721,-42500.0,-6225.5846848514802,-7032.8924764627791,-5852.3566597056069,-7866.0516235638725,-10272.742620459616,-8383.9012671995915,13517.860591818715,-7888.3416674776217,-1890.0113127353688,1890.0113127353688,7888.3416674776217,25616.399647352107,0.0
325012.02908761695,3847225.878295721,-42500.0,-4911.735779414872,-6898.8029691648289,-8288.6629018030471,-7611.8974024731024,-12577.800110640957,-9819.9766909983664,15045.016238216129,-9219.8634736865642,-164.54147592318168,164.54147592318168,9219.8634736865642,28462.716912966032,0.0
330012.02908761695,3847225.878295721,-42500.0,-3359.9918560331485,-6054.3503108838113,-10710.615988994779,-6803.9938001859391,-14787.720090466519,-11157.690243777526,16429.784043013256,-9989.8587151699139,1637.1634656425822,-1637.1634656425822,9989.8587151699139,31022.512627467248,0.0
335012.02908761695,3847225.878295721,-42500.0,-1793.2993520363357,-4406.2156698288591,-12797.842420980813,-5389.5851930321014,-16638.8590461766,-12241.920954341231,17528.480603599117,-9924.3093790774474,3236.0455199595867,-3236.0455199595867,9924.3093790774474,33033.821175158177,0.0
340012.02908761695,3847225.878295721,-42500.0,-508.64166315651073,-1995.8553703230809,-14169.019257992291,-3411.7213209891866,-17829.947934034306,-12900.807884750135,18195.229545938171,-8819.0320814399711,4297.2740695640859,-4297.2740695640859,8819.0320814399711,34226.904665442649,0.0
345012.02908761695,3847225.878295721,-42500.0,187.41557198370668,952.95113648680888,-14460.809290970348,-1038.2580241715921,-18081.823534898132,-12979.25889504754,18311.879268138098,-6628.9023475046888,4509.4137467110977,-4509.4137467110977,6628.9023475046888,34378.462933754025,0.0
350012.02908761695,3847225.878295721,-42500.0,78.493590403436826,4035.5613282242557,-13439.524304999159,1441.8890235150336,-17218.228021391384,-12382.861400935843,17824.376736160426,-3538.2659840835481,3693.3761803435941,-3693.3761803435941,3538.2659840835481,33377.625476156485,0.0
355012.02908761695,3847225.878295721,-42500.0,-862.37124610455453,6742.7254758964455,-11106.441715247553,3670.6672212608064,-15240.081111979525,-11117.337063906027,16774.129892247514,34.060983582163544,1898.725168002265,-1898.725168002265,-34.060983582163544,31283.340010005359,0.0
360012.02908761695,3847225.878295721,-42500.0,-2429.754007753003,8601.9336804540762,-7739.7734573784437,5313.9303400005801,-12354.639571577074,-9303.2609624343877,15308.15419364274,3524.3726228961377,-570.58524786986231,570.58524786986231,-3524.3726228961377,28346.916264906497,0.0
365012.02908761695,3847225.878295721,-42500.0,-4238.422213333637,9326.7095614526079,-3834.5062236581743,6159.3217809029184,-8933.8079850393297,-7152.8234072207342,13653.53769901574,6386.3116525399373,-3234.5322941220029,3234.5322941220029,-6386.3116525399373,24980.93471353771,0.0
370012.02908761695,3847225.878295721,-42500.0,-5855.4200233631445,8897.8672776880612,42.787072228060765,6171.3605227011049,-5412.9994853067274,-4914.9557451938845,12056.086310064949,8251.6186000341477,-5591.6899180222936,5591.6899180222936,-8251.6186000341477,21674.89689903177,0.0
375012.02908761695,3847225.878295721,-42500.0,-6942.7859661046641,7537.4445629383381,3413.9572827526508,5478.5869822660034,-2177.1541405620369,-2813.4837320699739,10708.169809345834,9010.9278030309833,-7271.7131492460439,7271.7131492460439,-9010.9278030309833,18874.615298545687,0.0
380012.02908761695,3847225.878295721,-42500.0,-7340.1855086274481,5601.6825835321833,5990.5501963686011,4307.9554250744586,516.24951281515087,-1004.5711267133923,9699.9712692588255,8788.6861657926456,-8113.7278946748092,8113.7278946748092,-8788.6861657926456,16852.348411731211,0.0
385012.02908761695,3847225.878295721,-42500.0,-7064.3592332788867,3458.0924424669183,7688.6170530386325,2906.1646272510748,2556.2623498475641,435.35054340161639,9013.1330000130638,7848.683057204963,-8153.7384635154931,8153.7384635154931,-7848.683057204963,15622.705773879066,0.0
390012.02908761695,3847225.878295721,-42500.0,-6252.1089632105677,1399.7919530273014,8579.7743666546012,1481.6525656133467,3951.9461335836022,1497.266042607693,8557.6964745535115,6489.7959120182468,-7555.302103545916,7555.302103545916,-6489.7959120182468,14980.57142985368,0.0
395012.02908761695,3847225.878295721,-42500.0,-5089.690711678486,-387.15101568076648,8820.4769338153255,178.75525727966792,4786.942313960928,2216.5554516742191,8227.7246512709189,4972.6301102034049,-6530.5752421918169,6530.5752421918169,-4972.6301102034049,14646.940162988962,0.0
400012.02908761695,3847225.878295721,-42500.0,-3758.1881111524576,-1816.3098046769078,8591.2728836562383,-922.32908303865634,5176.909926784987,2650.589542393292,7940.4966594214411,3486.7980323799729,-5281.8326679345573,5281.8326679345573,-3486.7980323799729,14397.460683054907,0.0
405012.02908761695,3847225.878295721,-42500.0,-2403.738118591421,-2874.7118281809007,8058.2971369745565,-1792.1401733899825,5239.7075024982314,2862.2876227545667,7647.4659959701748,2148.7044765941641,-3970.9466977655143,3970.9466977655143,-2148.7044765941641,14102.57669570484,0.0
410012.02908761695,3847225.878295721,-42500.0,-1128.423479991874,-3594.0982865307474,7355.6346913381703,-2435.1714053862579,5079.0563168623012,2910.3376764398272,7328.0883825907413,1015.0707475292435,-2711.0622331237314,2711.0622331237314,-1015.0707475292435,13709.81386278012,0.0
415012.02908761695,3847225.878295721,-42500.0,6.4632163744654534,-4027.707981018666,6581.7538112638813,-2875.1905374201515,4778.2319693871896,2844.5991106655929,6979.3625378505685,100.82969039077079,-1571.0789427833117,1571.0789427833117,-100.82969039077079,13213.245339025203,0.0
420012.02908761695,3847225.878295721,-42500.0,971.83831505053502,-4234.61599477663,5803.3418304398838,-3144.5052624729046,4399.7705006065398,2704.8244874617753,6607.2008797056324,-604.70948660407771,-585.3471796764029,585.3471796764029,604.70948660407771,12629.621442850072,0.0
425012.02908761695,3847225.878295721,-42500.0,1761.3422193458011,-4270.6723929526606,5061.9047881505658,-3277.0647794008942,3988.0961526839142,2521.1982613434993,6220.8680145614935,-1125.6334316498799,236.01109405716647,-236.01109405716647,1125.6334316498799,11983.791703937783,0.0
430012.02908761695,3847225.878295721,-42500.0,2383.0826433312782,-4184.1621558573534,4380.5245047289736,-3304.5419331093476,3573.1233835772555,2315.6904686909238,5829.893631381542,-1491.2090900366336,898.29100056044786,-898.29100056044786,1491.2090900366336,11300.981850750157,0.0
435012.02908761695,3847225.878295721,-42500.0,2853.2987777131525,-4014.4329310870548,3769.6386499145251,-3254.4645282875281,3173.8117087524474,2103.6448947088593,5442.6076825009577,-1730.9018914195526,1415.5281679421751,-1415.5281679421751,1730.9018914195526,10603.276527051123,0.0
440012.02908761695,3847225.878295721,-42500.0,3191.9127137172904,-3792.169425548424,3231.5077974643887,-3149.625583064787,2801.2180417102072,1895.2948036182527,5065.6086461956584,-1871.6973007719082,1805.8544421114964,-1805.8544421114964,1871.6973007719082,9908.4137892235085,0.0
445012.02908761695,3847225.878295721,-42500.0,3419.6292998777208,-3540.448121624122,2763.4533008660883,-3008.2166395337667,2460.9230124824376,1697.0727787354119,4703.7223094191759,-1936.9154319946824,2088.4892608086193,-2088.4892608086193,1936.9154319946824,9229.7516023471617,0.0
270012.02908761695,3852225.878295721,-42500.0,-3705.1797995477364,1180.1303270168021,2997.5690450643237,-1261.1966885777911,1026.8561815895002,-253.45886774151913,3894.8428396009008,3105.0753853323358,-3911.0511816697181,3911.0511816697181,-3105.0753853323358,6768.9346176860727,0.0
275012.02908761695,3852225.878295721,-42500.0,-4469.4010581887678,828.67459180548531,3178.3658824830513,-1752.935344512555,874.3182169737596,-488.06176727042913,4336.3473632619571,3020.3998931569586,-4492.2447531942043,4492.2447531942043,-3020.3998931569586,7580.42185215259,0.0
280012.02908761695,3852225.878295721,-42500.0,-5292.6071697095649,351.89720264546054,3299.3404050644199,-2348.6738249808468,616.80685484783191,-807.55889940984707,4860.3907824120361,2809.8639938748356,-5081.758681078366,5081.758681078366,-2809.8639938748356,8571.0894713880243,0.0
285012.02908761695,3852225.878295721,-42500.0,-6150.2231797391632,-269.10742240684959,3323.6721140542804,-3056.7764763268833,218.07533478078162,-1235.1748262672163,5486.9333777249867,2435.3390365908244,-5647.181612944486,5647.181612944486,-2435.3390365908244,9784.6468070126375,0.0
290012.02908761695,3852225.878295721,-42500.0,-7003.1245314305424,-1047.8520496359645,3203.1722991543629,-3879.195174995345,-365.90383712203277,-1797.8853096898126,6239.4959880160413,1855.2206717053623,-6142.4341262466805,6142.4341262466805,-1855.2206717053623,11268.40263760704,0.0
295012.02908761695,3852225.878295721,-42500.0,-7794.5624039341701,-1986.5680122247563,2877.7375791876984,-4806.8826981717784,-1186.1512731383264,-2525.4287095593572,7144.6521065947181,1028.582772198974,-6506.1073906676866,6506.1073906676866,-1028.582772198974,13069.298647335007,0.0
300012.02908761695,3852225.878295721,-42500.0,-8448.4887986218819,-3067.9248723591486,2276.9726826487722,-5813.7387022660996,-2297.8210964869008,-3447.9963915390558,8230.3835883787633,-77.371437479990163,-6661.8480062555054,6661.8480062555054,77.371437479990163,15227.703935142048,0.0
305012.02908761695,3852225.878295721,-42500.0,-8871.0619164870495,-4244.4796484544559,1325.6738103934824,-6849.3559583430697,-3754.0168564187356,-4591.9305645923678,9521.6753907668408,-1475.537687307788,-6522.6264616318258,6522.6264616318258,1475.537687307788,17768.426895486853,0.0
310012.02908761695,3852225.878295721,-42500.0,-8957.8446898515467,-5426.9976235162139,-44.676864056729976,-7831.5804429610553,-5594.8147772865295,-5972.6883181257235,11030.833090290236,-3142.300876726415,-6001.2755565901134,6001.2755565901134,3142.300876726415,20688.456757914515,0.0
315012.02908761695,3852225.878295721,-42500.0,-8609.6145314591195,-6474.5665372926787,-1876.2662506003289,-8641.1089953547144,-7830.2154861651097,-7584.5003956725295,12742.74279072868,-4996.9940139948994,-5029.7392348311259,5029.7392348311259,4996.9940139948994,23941.377169755324,0.0
320012.02908761695,3852225.878295721,-42500.0,-7759.0909510265019,-7191.9746423456736,-4156.150192458379,-9122.0214225271502,-10416.81924659413,-9386.8125216733224,14601.353888233007,-6881.1162110481373,-3588.3145929753273,3588.3145929753273,6881.1162110481373,27419.572132474794,0.0
325012.02908761695,3852225.878295721,-42500.0,-6408.1502546433694,-7342.6451243901001,-6780.5456035670095,-9093.900929339703,-13230.68924736107,-11289.137478900486,16502.772611967554,-8545.3998274233927,-1742.7332130326586,1742.7332130326586,8545.3998274233927,30937.661290498763,0.0
330012.02908761695,3852225.878295721,-42500.0,-4668.9368908640708,-6686.743706837965,-9520.6467941836654,-8381.7990669919782,-16043.57217920467,-13138.582265488209,18294.717496516816,-9657.9656202716833,319.76219194257919,-319.76219194257919,9657.9656202716833,34223.846002828745,0.0
335012.02908761695,3852225.878295721,-42500.0,-2792.5551122810689,-5050.667718960085,-12007.297747934779,-6867.6070678819588,-18516.126972235481,-14717.928607183367,19784.383904485814,-9849.9274459084209,2273.7295883980642,-2273.7295883980642,9849.9274459084209,36929.628418642715,0.0
340012.02908761695,3852225.878295721,-42500.0,-1158.8096031359642,-2421.3101055066641,-13759.71072504133,-4557.2594589539394,-20226.952612118512,-15764.956550546374,20761.307224696204,-8809.6666766472572,3684.9059203104025,-3684.9059203104025,8809.6666766472572,38669.814188918288,0.0
345012.02908761695,3852225.878295721,-42500.0,-199.61830099189677,965.48524411898131,-14281.105664351388,-1641.7385580164594,-20753.269887755654,-16021.851564629322,21040.150382003474,-6416.0516360463907,4108.9673212898133,-4108.9673212898133,6416.0516360463907,39099.971980832881,0.0
350012.02908761695,3852225.878295721,-42500.0,-252.0489605946558,4598.8786889898092,-13218.888605407414,1487.4226607084449,-19799.207640228942,-15311.903670003034,20519.435915199196,-2863.0437605662823,3254.2332819984408,-3254.2332819984408,2863.0437605662823,38023.303864831447,0.0
355012.02908761695,3852225.878295721,-42500.0,-1389.87016609325,7786.6608190788647,-10536.17894810795,4306.883659609819,-17329.820765317338,-13618.685766030736,19238.325737730353,1305.9820471575383,1147.6169275451155,-1147.6169275451155,-1305.9820471575383,35494.540929251853,0.0
360012.02908761695,3852225.878295721,-42500.0,-3334.3910826669776,9870.6807522587496,-6595.6055761289808,6314.8912117124728,-13636.451832818289,-11124.153954499696,17401.954228888691,5321.0706940814216,-1802.2182316256617,1802.2182316256617,-5321.0706940814216,31869.968031771557,0.0
365012.02908761695,3852225.878295721,-42500.0,-5530.8301111558467,10470.363575313855,-2074.4422698724138,7204.6599426268731,-9273.6194971993991,-8170.8203037919566,15346.265073016119,8441.7238435361669,-4921.0296897393,4921.0296897393,-8441.7238435361669,27760.546927798216,0.0
370012.02908761695,3852225.878295721,-42500.0,-7369.3184828120047,9610.6463231505877,2266.5340775968589,6959.2819151122339,-4883.1433957287918,-5157.3099082275439,13434.917956962901,10212.626617766049,-7522.4598018251327,7522.4598018251327,-10212.626617766049,23882.037158725681,0.0
375012.02908761695,3852225.878295721,-42500.0,-8416.8315910666224,7660.6307155173627,5830.8748527918142,5816.1990165540501,-999.77572484377538,-2422.3984110803572,11927.866139439515,10572.623132819497,-9149.1064699815779,9149.1064699815779,-10572.623132819497,20834.164254727235,0.0
380012.02908761695,3852225.878295721,-42500.0,-8527.7814827215698,5143.6867667173274,8319.9222706000583,4139.7040911390677,2063.4705819444757,-175.05912461565714,10899.590150462624,9781.4024909372783,-9670.4361991805563,9670.4361991805563,-9781.4024909372783,18879.794061501732,0.0
385012.02908761695,3852225.878295721,-42500.0,-7808.2159152287277,2546.2254319955587,9719.7591479022576,2286.7517762544153,4221.0565069903314,1511.9026438811277,10258.429958469929,8249.3352821731569,-9226.2362754338028,9226.2362754338028,-8249.3352821731569,17869.559622328448,0.0
390012.02908761695,3852225.878295721,-42500.0,-6502.4612049749621,209.77751504382053,10200.943812465288,525.55018876890983,5549.855436451614,2666.2048423090396,9842.0739390301824,6380.7261445320391,-8096.6759792873718,8096.6759792873718,-6380.7261445320391,17415.038005200062,0.0
395012.02908761695,3852225.878295721,-42500.0,-4882.295207724057,-1687.3992086067019,10007.661879347603,-985.34450046045549,6208.1891603860495,3369.9755573471712,9508.3448736834016,4486.203854990029,-6583.1130685382641,6583.1130685382641,-4486.203854990029,17146.846207010356,0.0
400012.02908761695,3852225.878295721,-42500.0,-3178.2196556735353,-3096.3099584466777,9379.4839258226511,-2180.0598195160683,6373.0672472173965,3722.9747433423045,9170.9820702966899,2761.1770644946146,-4937.3985383386507,4937.3985383386507,-2761.1770644946146,16838.248029162824,0.0
405012.02908761695,3852225.878295721,-42500.0,-1553.6416090902965,-4048.8171689030087,8512.6206091640652,-3055.606862474694,6204.2429452658407,3820.4621886559171,8793.3620583952779,1302.4891093671852,-3337.2527718274241,3337.2527718274241,-1302.4891093671852,16394.521692523907,0.0
410012.02908761695,3852225.878295721,-42500.0,-106.49366321660753,-4616.2085072475847,7549.7734211369816,-3644.2771538690458,5829.7308779367895,3743.0699296726812,8369.7464051200313,137.79084170743829,-1889.9354245638056,1889.9354245638056,-137.79084170743829,15801.644714857694,0.0
415012.02908761695,3852225.878295721,-42500.0,1117.093821276183,-4881.233887616545,6585.1600672252425,-3993.6143277764954,5344.1829669645149,3554.127734819047,7909.4099977473916,-746.79383753294474,-647.73589504782012,647.73589504782012,746.79383753294474,15083.769211641458,0.0
420012.02908761695,3852225.878295721,-42500.0,2106.80878699406,-4922.364187744467,5675.1159242719414,-4153.998361415518,4813.275872171268,3300.7724967995168,7426.7853962038316,-1385.9599006381948,374.75441107664778,-374.75441107664778,1385.9599006381948,14277.847336139497,0.0
425012.02908761695,3852225.878295721,-42500.0,2874.3841956282427,-4806.6407406157914,4849.0442820938733,-4171.9840155729999,4279.9510690454545,3016.5570729588335,6936.340300998746,-1821.7700686118233,1186.071051816722,-1186.071051816722,1821.7700686118233,13420.89540398809,0.0
430012.02908761695,3852225.878295721,-42500.0,3443.3470988468512,-4587.6694092224734,4118.5485140697729,-4087.3747330680862,3770.439248357352,2724.348257565644,6450.3449209546689,-2095.8944477546802,1807.1818078356152,-1807.1818078356152,2095.8944477546802,12544.600039349098,0.0
435012.02908761695,3852225.878295721,-42500.0,3842.0959777842627,-4306.30220352367,3484.2628015177856,-3932.4889582555638,3299.283790378814,2438.9798198296612,5978.2095409543317,-2245.721550815827,2264.3380140904146,-2264.3380140904146,2245.721550815827,11673.758727859336,0.0
440012.02908761695,3852225.878295721,-42500.0,4099.6050009982746,-3992.469904689031,2940.6022941162182,-3732.5746833877679,2873.1984001696806,2169.4593810566307,5526.572926289311,-2302.8540175877961,2584.6731879655708,-2584.6731879655708,2302.8540175877961,10826.509208951356,0.0
445012.02908761695,3852225.878295721,-42500.0,4242.9916521081204,-3667.3137706239036,2478.8887359393984,-3506.7342145438247,2493.8793520270588,1920.7042186862766,5099.6985746062601,-2292.9419081723499,2793.7251354180598,-2793.7251354180598,2292.9419081723499,10015.275936646136,0.0
270012.02908761695,3857225.878295721,-42500.0,-3170.1327374069251,1938.6043160589102,3257.438418389148,-790.31002136461086,1449.6758266206277,16.698666815354962,4100.2734204033859,3795.9314290627399,-3703.4189193545217,3703.4189193545217,-3795.9314290627399,7102.0412297306584,0.0
275012.02908761695,3857225.878295721,-42500.0,-3996.3283608060769,1689.8347386885314,3553.0399900038669,-1267.5093014687211,1381.8946352951618,-186.71240330529406,4535.8177376595613,3865.9206169850504,-4382.3577859465522,4382.3577859465522,-3865.9206169850504,7865.1893982850806,0.0
280012.02908761695,3857225.878295721,-42500.0,-4918.3866075311971,1314.2951087212057,3819.0949722587748,-1866.3821909545441,1218.6731624514907,-478.84148588308091,5049.9215995984869,3830.1659777092827,-5106.808585998484,5106.808585998484,-3830.1659777092827,8794.9108408484008,0.0
285012.02908761695,3857225.878295721,-42500.0,-5919.4783704922838,784.84634304064355,4022.4501755972451,-2603.7769288918325,920.37677267582831,-888.08422535568911,5664.9143732376269,3646.8226075674829,-5850.2620978309878,5850.2620978309878,-3646.8226075674829,9943.002746906388,0.0
290012.02908761695,3857225.878295721,-42500.0,-6966.9602982588622,76.379441202084251,4116.5942503286287,-3492.0448961474767,436.33968035140248,-1449.2113149951713,6409.2735642836305,3266.5934833281881,-6570.533583091481,6570.533583091481,-3266.5934833281881,11371.291681669116,0.0
295012.02908761695,3857225.878295721,-42500.0,-8007.2198226769506,-828.43080341445238,4039.3459315507012,-4533.9376032687005,-295.75370082532908,-2203.1777143351023,7318.1065808671756,2635.5599126879465,-7205.976316811546,7205.976316811546,-2635.5599126879465,13148.34402051014,0.0
300012.02908761695,3857225.878295721,-42500.0,-8961.0097981511935,-1930.1028685528624,3712.1463123984468,-5715.1501968140192,-1348.524992290618,-3195.5250290695885,8432.5215569722823,1701.6085601274553,-7672.9996694056736,7672.9996694056736,-1701.6085601274553,15342.851345946807,0.0
305012.02908761695,3857225.878295721,-42500.0,-9721.2213550503038,-3199.5033829793015,3042.9201776888472,-6994.2987212023454,-2799.9131602612583,-4472.3578691640387,9796.0355976583214,426.19839026843147,-7867.0281350843015,7867.0281350843015,-426.19839026843147,18012.947875173744,0.0
310012.02908761695,3857225.878295721,-42500.0,-10156.300117295958,-4561.5480259763381,1935.3969063465934,-8290.8566520704644,-4722.2032049066765,-6072.5126018866958,11444.205409761371,-1196.8993566002146,-7670.1345093706523,7670.1345093706523,1196.8993566002146,21190.616286885506,0.0
315012.02908761695,3857225.878295721,-42500.0,-10123.838762048426,-5877.8348250270783,308.48561546197459,-9473.1019228265741,-7162.3571616094878,-8014.3462309395154,13384.995264053377,-3115.3776673996695,-6969.5118889148398,6969.5118889148398,3115.3776673996695,24860.416879911714,0.0
320012.02908761695,3857225.878295721,-42500.0,-9499.4630559848647,-6934.0954559067359,-1871.0040108692103,-10350.717054909166,-10111.471885784678,-10275.929630387123,15576.172600697286,-5187.1467154230249,-5690.814174006915,5690.814174006915,5187.1467154230249,28932.718370819966,0.0
325012.02908761695,3857225.878295721,-42500.0,-8224.3239490327287,-7443.2734736182265,-4541.8183065747317,-10680.274935708096,-13463.850612977698,-12769.058632018661,17909.600291945404,-7152.2970367549087,-3847.5121263542615,3847.5121263542615,7152.2970367549087,33214.290152898495,0.0
330012.02908761695,3857225.878295721,-42500.0,-6367.7876881684897,-7079.8623914509453,-7494.6499139734351,-10195.345925181176,-16972.546348478591,-15311.475763360619,20203.871741540035,-8625.1509928465566,-1599.5241518848834,1599.5241518848834,8625.1509928465566,37384.377075359902,0.0
335012.02908761695,3857225.878295721,-42500.0,-4187.5893976941898,-5561.4347998293542,-10331.314534285249,-8672.9718356263766,-20219.270278256634,-17608.71039728582,22206.983374959716,-9132.2501448993626,700.35854491135251,-700.35854491135251,9132.2501448993626,40991.741036845189,0.0
340012.02908761695,3857225.878295721,-42500.0,-2148.7356105025342,-2780.6434913594885,-12473.291109806318,-6038.349355828037,-22630.167121796079,-19265.92938904756,23620.222577602555,-8223.1718364475819,2512.785926276651,-2512.785926276651,8223.1718364475819,43495.076357445374,0.0
345012.02908761695,3857225.878295721,-42500.0,-846.90801527862152,1044.2256876061028,-13264.769039325409,-2482.3736289668386,-23574.761981639036,-19854.375839650776,24156.347037652915,-5658.521034415463,3220.8831955841279,-3220.8831955841279,5658.521034415463,44368.017506748307,0.0
350012.02908761695,3857225.878295721,-42500.0,-802.28857066975024,5286.0337526546664,-12190.262605135309,1474.5863651077584,-22562.212955885225,-19042.106474507218,23632.665831941733,-1619.1388484301779,2361.9847970500059,-2361.9847970500059,1619.1388484301779,43268.607220937607,0.0
355012.02908761695,3857225.878295721,-42500.0,-2177.3357221386605,9008.4135728454348,-9145.7758469370783,5061.286648414527,-19480.370207037882,-16753.553276160994,22073.588793644922,3197.7562871358141,-92.100888301875557,92.100888301875557,-3197.7562871358141,40226.989196360817,0.0
360012.02908761695,3857225.878295721,-42500.0,-4594.7022936566509,11290.218253852698,-4599.0705497899271,7508.6893114013092,-14738.322478300342,-13265.728445524541,19768.254781630156,7739.1504957981306,-3593.6933242643195,3593.6933242643195,-7739.1504957981306,35754.043337115472,0.0
365012.02908761695,3857225.878295721,-42500.0,-7244.4034480346327,11627.696787520621,526.38359564128734,8366.1418374550158,-9173.8688474769442,-9148.5683371365249,17222.383482860878,11003.131600573854,-7188.59230586991,7188.59230586991,-11003.131600573854,30771.324791520226,0.0
370012.02908761695,3857225.878295721,-42500.0,-9262.2149223508404,10138.352228010033,5221.3343895484986,7670.4946145053027,-3740.8150960817129,-5057.8864300141777,14978.281865132367,12449.779947648687,-9938.7855575724752,9938.7855575724752,-12449.779947648687,26332.586144163346,0.0
375012.02908761695,3857225.878295721,-42500.0,-10111.84534786664,7424.9940839248575,8772.2319859867494,5855.8448566250809,827.41516148751703,-1510.0883117786029,13370.792780658974,12137.486783564342,-11305.960795384486,11305.960795384486,-12137.486783564342,23205.184156223902,0.0
380012.02908761695,3857225.878295721,-42500.0,-9718.6872430886924,4240.1678017602435,10921.460572762708,3502.8554545827751,4180.7693197096887,1230.3586397730035,12402.011636749485,10546.157530217877,-11255.403335411984,11255.403335411984,-10546.157530217877,21519.547774584673,0.0
385012.02908761695,3857225.878295721,-42500.0,-8349.5332671878532,1199.2245150917472,11786.839252577889,1113.6931728180652,6312.4176864427418,3129.3673445143354,11847.736056365271,8281.918839116006,-10103.423832984703,10103.423832984703,-8281.918839116006,20824.755594728922,0.0
390012.02908761695,3857225.878295721,-42500.0,-6402.9253487402275,-1335.520080097803,11678.208688531859,-989.31655677760568,7418.710312099417,4294.3663590509077,11459.76499478384,5858.1992389009001,-8289.588163741797,8289.588163741797,-5858.1992389009001,20526.547791509725,0.0
395012.02908761695,3857225.878295721,-42500.0,-4249.0829257669357,-3231.7506229470305,10939.292544200829,-2658.7285898772307,7765.1507080479851,4887.4581249583989,11077.816476242886,3611.55945983116,-6212.1732169858005,6212.1732169858005,-3611.55945983116,20219.440194522176,0.0
400012.02908761695,3857225.878295721,-42500.0,-2157.8153497657504,-4508.4741288544546,9860.6868453654497,-3870.1156232028825,7603.0828214469093,5070.1758709439255,10633.555570685585,1712.2363351601982,-4158.3506782608547,4158.3506782608547,-1712.2363351601982,19726.926538120726,0.0
405012.02908761695,3857225.878295721,-42500.0,-290.68021488414615,-5259.9768770630735,8652.4244864574703,-4667.3760571034227,7134.343085125216,4978.5270014868202,10115.925539449638,211.94982848088398,-2300.0919392041633,2300.0919392041633,-211.94982848088398,19017.686934665522,0.0
410012.02908761695,3857225.878295721,-42500.0,1277.2716258342011,-5603.6717239532227,7449.2783599307604,-5122.8535481844301,6505.4393690334446,4716.8573880291578,9540.217391752918,-907.18953524006224,-718.92947120289045,718.92947120289045,907.18953524006224,18127.10100388102,0.0
415012.02908761695,3857225.878295721,-42500.0,2529.3967493297187,-5651.5118260312574,6328.012806151959,-5313.6543277420506,5815.0663227371051,4360.5125182844504,8929.7060060748045,-1696.2864245300443,564.04478645326583,-564.04478645326583,1696.2864245300443,17111.261696953079,0.0
420012.02908761695,3857225.878295721,-42500.0,3483.4652982004773,-5497.7568244179611,5325.5174280353185,-5309.8715350459497,5125.3833997931088,3961.40774634843,8306.8716073104624,-2216.9289990100447,1563.1540045172178,-1563.1540045172178,2216.9289990100447,16025.294149257354,0.0
425012.02908761695,3857225.878295721,-42500.0,4174.4947968038277,-5216.0570763187643,4453.537384197416,-5170.051319949298,4472.6332276498069,3553.7581548290632,7690.0577273321778,-2528.8667043677533,2310.4807107442202,-2310.4807107442202,2528.8667043677533,14915.085681723083,0.0
430012.02908761695,3857225.878295721,-42500.0,4643.7353416161977,-4860.9939328356104,3709.2186119523822,-4940.4993972016773,3875.6171181906066,3158.9555331713177,7092.755105668607,-2684.3753187371726,2844.6648593152308,-2844.6648593152308,2684.3753187371726,13815.388307738909,0.0
435012.02908761695,3857225.878295721,-42500.0,4932.2674813491567,-4471.3380456847017,3082.1192289289897,-4656.4262102140037,3341.9571260093267,2789.4231817795521,6524.0741240380185,-2726.4913391690693,3204.4418045877042,-3204.4418045877042,2726.4913391690693,12750.756441019248,0.0
440012.02908761695,3857225.878295721,-42500.0,5077.6480610445797,-4073.5301619213806,2558.5493723642271,-4343.7230445238911,2872.4390072722899,2451.4874498667323,5989.543894847061,-2689.2182997662399,3425.2925282209858,-3425.2925282209858,2689.2182997662399,11737.311070320256,0.0
445012.02908761695,3857225.878295721,-42500.0,5112.4734653345786,-3684.8110968964093,2124.1226862070566,-4020.8379174456936,2463.9371815943864,2147.4723669055525,5491.9680737124982,-2598.6201970615316,3538.0167990564109,-3538.0167990564109,2598.6201970615316,10784.659428524512,0.0
265012.02908761695,3862225.878295721,-42500.0,-1676.5881986967966,2744.8330606342943,3013.0078358258816,142.79874466848193,1788.1251511712151,443.26491575570964,3991.5521066554484,4120.5692605365894,-2622.2444848641335,2622.2444848641335,-4120.5692605365894,6985.7360485492745,0.0
270012.02908761695,3862225.878295721,-42500.0,-2400.2028724477827,2716.6616790234184,3390.5280148483093,-177.63879589123891,1868.3835430305367,353.46867763653717,4370.8621198733144,4401.031011590916,-3280.888710072345,3280.888710072345,-4401.031011590916,7607.7256895953506,0.0
275012.02908761695,3862225.878295721,-42500.0,-3252.8841530709292,2600.0039946821762,3788.7590895464841,-607.72062580798683,1899.5241310687359,201.30068288377697,4804.335898313755,4638.3374376925904,-4030.9805041572172,4030.9805041572172,-4638.3374376925904,8331.0027185274284,0.0
280012.02908761695,3862225.878295721,-42500.0,-4238.9007729663126,2365.496074354493,4192.0725850471699,-1172.1750605083962,1852.2388840267818,-38.224464705125868,5307.4399060847845,4800.9500536409196,-4867.0122460565835,4867.0122460565835,-4800.9500536409196,9193.0554208612812,0.0
285012.02908761695,3862225.878295721,-42500.0,-5352.7480017796906,1979.4498977136946,4574.6083897373883,-1897.1915160536578,1685.9825159662696,-398.00559434787971,5902.0435824467995,4847.1256562154203,-5772.4496617848954,5772.4496617848954,-4847.1256562154203,10246.690554141151,0.0
290012.02908761695,3862225.878295721,-42500.0,-6573.4810657389335,1406.1266730700852,4896.5329907532951,-2807.6335430669119,1346.1844483504744,-920.4097490157078,6618.6162369190752,4724.0634140959482,-6714.652319534569,6714.652319534569,-4724.0634140959482,11562.62353484203,0.0
295012.02908761695,3862225.878295721,-42500.0,-7857.5859385677095,612.58282802038468,5100.0161867534707,-3922.0172482255889,761.80911840391775,-1658.4081957249193,7498.5133299884164,4368.8221297005221,-7638.9606227002332,7638.9606227002332,-4368.8221297005221,13229.37146193746,0.0
300012.02908761695,3862225.878295721,-42500.0,-9130.9964296684266,-422.59432297261208,5105.8944961379575,-5244.2782618454539,-155.62443095384384,-2675.5158048723356,8595.5927477464775,3712.6773316112035,-8462.8782255361548,8462.8782255361548,-3712.6773316112035,15348.35815455507,0.0
305012.02908761695,3862225.878295721,-42500.0,-10281.988014176715,-1695.2880929332628,4812.9690642394789,-6751.369381677242,-1509.587277509243,-4043.1962603274492,9975.0346794240158,2691.2939279698221,-9072.4229677987314,9072.4229677987314,-2691.2939279698221,18022.416319254113,0.0
310012.02908761695,3862225.878295721,-42500.0,-11158.476148838539,-3155.7835188470572,4103.2904585267188,-8376.2474295495103,-3409.4824463529344,-5833.6145430286733,11704.185205147773,1263.594319132751,-9324.4128736631646,9324.4128736631646,-1263.594319132751,21336.449085236236,0.0
315012.02908761695,3862225.878295721,-42500.0,-11575.644772428437,-4683.7133931749695,2858.3288999942265,-9987.3326384863358,-5950.5508552672209,-8104.7196753706103,13828.769481948329,-558.23721707140066,-9060.4556924147619,9060.4556924147619,558.23721707140066,25329.168859688227,0.0
320012.02908761695,3862225.878295721,-42500.0,-11342.277175395646,-6063.2127704988725,991.87839468307914,-11368.880235610835,-9177.7112526328619,-10874.122208398039,16338.073029506648,-2667.7409654355979,-8139.9666911069726,8139.9666911069726,2667.7409654355979,29955.122746406763,0.0
325012.02908761695,3862225.878295721,-42500.0,-10314.641594778126,-6970.4605383946155,-1495.9355410897388,-12212.468446957771,-13029.973467303918,-14079.097182054242,19134.980674732287,-4818.7482324063576,-6498.5005545398189,6498.5005545398189,4818.7482324063576,35038.180208709287,0.0
330012.02908761695,3862225.878295721,-42500.0,-8481.5569837500934,-6995.0799202507187,-4446.0696638615664,-12137.848483724292,-17268.971705769312,-17524.604684670052,22016.944283230725,-6594.040038593962,-4230.4416143800509,4230.4416143800509,6594.040038593962,40224.155081218501,0.0
335012.02908761695,3862225.878295721,-42500.0,-6067.119177577566,-5724.0740797347153,-7467.9388837180759,-10768.125928012192,-21410.924647517444,-20832.516387603391,24667.555890860833,-7423.1109492751584,-1676.5031869704385,1676.5031869704385,7423.1109492751584,44952.545581297411,0.0
340012.02908761695,3862225.878295721,-42500.0,-3603.3918380173764,-2910.3059539803976,-9912.0256278471115,-7879.2821102032849,-24707.459509724093,-23425.320264501239,26674.586669988043,-6696.9315026323775,536.17216310681943,-536.17216310681943,6696.9315026323775,48483.945668805856,0.0
345012.02908761695,3862225.878295721,-42500.0,-1882.1674259811884,1294.4204078924702,-10960.409676983943,-3607.831872733595,-26246.746984498084,-24599.129868790355,27602.253185621452,-4012.9930282265841,1588.4114023705931,-1588.4114023705931,4012.9930282265841,50029.949865862902,0.0
350012.02908761695,3862225.878295721,-42500.0,-1689.2790849256987,6154.4476116457827,-9898.2158704274498,1381.4218925905163,-25234.800324361884,-23734.778216454892,27133.48037761627,496.77449975219417,773.94125756346682,-773.94125756346682,-496.77449975219417,49011.862483604629,0.0
355012.02908761695,3862225.878295721,-42500.0,-3346.3008398105744,10423.068811864938,-6519.4122473945572,5951.844792190951,-21408.643834716015,-20614.620552211578,25252.554862919544,5955.1920760044159,-2045.5411281950085,2045.5411281950085,-5955.1920760044159,45394.424234835118,0.0
360012.02908761695,3862225.878295721,-42500.0,-6346.8963092351987,12816.613112670195,-1415.9911808433208,8905.3641579155283,-15337.014425918964,-15660.353351588896,22370.730906674045,10932.536318119277,-6144.2623029897404,6144.2623029897404,-10932.536318119277,39916.955826510326,0.0
365012.02908761695,3862225.878295721,-42500.0,-9496.180204101569,12679.477129730636,4172.9749389496856,9571.9091014782698,-8293.9629178602554,-9847.2774278908819,19262.061287074415,14091.214241905591,-10169.727935736153,10169.727935736153,-14091.214241905591,33989.843910308336,0.0
370012.02908761695,3862225.878295721,-42500.0,-11570.941220980287,10308.825150082461,8948.5155929484627,8119.5332175134035,-1695.0241977684591,-4278.994313097056,16733.274769888187,14844.759222139606,-12855.457265623392,12855.457265623392,-14844.759222139606,29151.487372159809,0.0
375012.02908761695,3862225.878295721,-42500.0,-11952.3018062066,6664.5618292929148,12123.377831108322,5333.1740786483997,3486.6494318957175,262.73428124429824,15163.16345126982,13498.039506473486,-13627.401144567963,13627.401144567963,-13498.039506473486,26264.190910598449,0.0
380012.02908761695,3862225.878295721,-42500.0,-10746.924942875185,2787.5518187768894,13575.364001648752,2120.7707066038388,6926.7269150845905,3485.6317084356806,14360.892755375389,10862.381081142834,-12664.190694997134,12664.190694997134,-10862.381081142834,25074.170592598541,0.0
385012.02908761695,3862225.878295721,-42500.0,-8485.0117171074453,-600.88488471293499,13630.93621569517,-847.41903318803156,8790.0853881058574,5474.5849521731734,13906.372329533988,7772.8764768661995,-10554.001523920808,10554.001523920808,-7772.8764768661995,24704.050830030385,0.0
390012.02908761695,3862225.878295721,-42500.0,-5762.9844482227481,-3178.1360533461966,12766.828182782616,-3230.6487878225412,9459.5330853464038,6490.6120260735388,13488.237620951049,4821.3283238981558,-7927.6306033800911,7927.6306033800911,-4821.3283238981558,24423.532824720471,0.0
395012.02908761695,3862225.878295721,-42500.0,-3041.8021538596718,-4912.3754254642026,11414.386979720572,-4942.8719010081622,9336.0485650750725,6820.8652909129669,12971.543289750385,2317.5726563376184,-5263.1700818120144,5263.1700818120144,-2317.5726563376184,23892.523532028725,0.0
400012.02908761695,3862225.878295721,-42500.0,-599.74504424758379,-5922.3569947285914,9886.5090033352608,-6040.9199486212492,8746.4521797469479,6707.8134440706763,12334.46330852332,361.41600479839053,-2847.0905168522249,2847.0905168522249,-361.41600479839053,23042.034980191012,0.0
405012.02908761695,3862225.878295721,-42500.0,1435.8696049112773,-6375.8635143728552,8378.092860355071,-6638.9989159112374,7923.4530219967237,6331.7303879281344,11603.901545250919,-1068.8781106472572,-811.30937394234002,811.30937394234002,1068.8781106472572,21924.938034241815,0.0
410012.02908761695,3862225.878295721,-42500.0,3037.3704002995491,-6434.9413701789699,6993.907456091747,-6859.742949595422,7018.2189517641582,5817.104851094794,10819.13128208074,-2050.0255030791695,812.97107572650089,-812.97107572650089,2050.0255030791695,20628.688998871454,0.0
415012.02908761695,3862225.878295721,-42500.0,4232.7775161276577,-6233.8108775579785,5779.0823591343542,-6811.9952489000152,6121.52338361076,5245.6348185753859,10016.170792734107,-2673.8289896083552,2050.4011052294372,-2050.4011052294372,2673.8289896083552,19236.967797016441,0.0
420012.02908761695,3862225.878295721,-42500.0,5075.7154954479674,-5874.4635893187615,4743.1968413466675,-6583.7202711605978,5283.1532405416847,4668.5437806500559,9222.8800884896991,-3027.0910542841739,2951.211958256873,-2951.211958256873,3027.0910542841739,17816.850871368133,0.0
425012.02908761695,3862225.878295721,-42500.0,5627.3625347738653,-5430.0090374761021,3876.738769417102,-6242.0859032384387,4526.6893147402134,4116.2120257307133,8458.6665717859669,-3183.4955825049587,3573.2402418659808,-3573.2402418659808,3183.4955825049587,16417.108624926659,0.0
430012.02908761695,3862225.878295721,-42500.0,5946.8016650965728,-4950.4777852593315,3161.3911072929204,-5836.3778299799824,3859.813654084337,3605.1742874126835,7735.8609043037222,-3201.8338447363285,3972.4014469287667,-3972.4014469287667,3201.8338447363285,15070.68116887394,0.0
435012.02908761695,3862225.878295721,-42500.0,6086.5086408060679,-4468.5857351905915,2575.9844526293632,-5401.5448445487618,3281.0808996471173,3142.984767374232,7061.3615269578968,-3127.1205922558315,4198.2956547342883,-4198.2956547342883,3127.1205922558315,13798.047407674267,0.0
440012.02908761695,3862225.878295721,-42500.0,6090.8187281954688,-4004.6213070673493,2099.7061749748464,-4961.5509343503072,2784.2287771469742,2731.564429573526,6438.1571883444285,-2992.793829208631,4292.7432735554621,-4292.7432735554621,2992.793829208631,12610.477190280526,0.0
445012.02908761695,3862225.878295721,-42500.0,5995.9506638305638,-3570.2448392929959,1713.6428916472676,-4532.1953247148294,2360.8201842782437,2369.4575210320768,5866.5509098398334,-2823.0779105867086,4289.8387043680759,-4289.8387043680759,2823.0779105867086,11512.714556019046,0.0
450012.02908761695,3862225.878295721,-42500.0,5830.7634816707077,-3171.2970708099938,1401.3651758334554,-4123.3484668014135,2001.79658463786,2053.3239518762994,5345.0788138018852,-2635.1146527881879,4216.7067159423932,-4216.7067159423932,2635.1146527881879,10505.036233547293,0.0
265012.02908761695,3867225.878295721,-42500.0,-700.45233198816641,3358.9697512859971,2941.7795593250225,816.48362965245508,2087.883291406305,782.41772685783155,4323.4565264660487,4450.9035132090612,-1955.6564924112158,1955.6564924112158,-4450.9035132090612,7680.4648284302129,0.0
270012.02908761695,3867225.878295721,-42500.0,-1380.416697659972,3464.4253787011089,3371.4733522430292,580.90672720120313,2254.186780216869,757.26453657118998,4720.909637072953,4862.9868405147463,-2616.7178786855702,2616.7178786855702,-4862.9868405147463,8321.975458383964,0.0
275012.02908761695,3867225.878295721,-42500.0,-2211.6811149864629,3502.5076537003902,3848.4549096569031,237.1459158864408,2392.3882111010339,679.13681807483931,5164.8911954218693,5266.545292623131,-3397.2544956404481,3397.2544956404481,-5266.545292623131,9039.0975915330837,0.0
280012.02908761695,3867225.878295721,-42500.0,-3209.8721352546449,3443.1983487267103,4365.908937803054,-245.24518336906559,2476.4161227118761,522.13120178357485,5666.940837612332,5635.7899818006726,-4303.0136831800728,4303.0136831800728,-5635.7899818006726,9858.6336869590359,0.0
285012.02908761695,3867225.878295721,-42500.0,-4383.6794924764463,3249.4358240993211,4908.4773274047857,-901.42991064630098,2468.0912714134533,250.50809364379725,6244.7305034560604,5933.7993337351236,-5331.0363864302399,5331.0363864302399,-5933.7993337351236,10823.443348304898,0.0
290012.02908761695,3867225.878295721,-42500.0,-5728.7951939551294,2877.9559043904778,5448.0286057992562,-1769.5299678537037,2313.0988149549075,-184.13735973499269,6925.4467624099407,6110.1860261099455,-6463.9510819843044,6463.9510819843044,-6110.1860261099455,11999.409776060278,0.0
295012.02908761695,3867225.878295721,-42500.0,-7219.3773931103678,2282.4847915212467,5938.3973231826067,-2886.5173709950759,1936.5732689100182,-845.85227523201957,7750.3770693420829,6099.8220163523292,-7662.417137014796,7662.417137014796,-6099.8220163523292,13481.971532776055,0.0
300012.02908761695,3867225.878295721,-42500.0,-8797.0300982754379,1420.9744784905663,6309.677391828257,-4280.2941710376626,1239.224682668174,-1816.7482480706781,8780.2994592171308,5824.3107896759266,-8856.1133730737893,8856.1133730737893,-5824.3107896759266,15398.54419125891,0.0
305012.02908761695,3867225.878295721,-42500.0,-10358.343989418163,269.07867899685982,6463.6778880375587,-5956.0786170245037,96.01473764818796,-3197.3833601530064,10099.603810994631,5198.9845832550891,-9934.8322219960337,9934.8322219960337,-5198.9845832550891,17901.60397235191,0.0
310012.02908761695,3867225.878295721,-42500.0,-11744.199355130309,-1157.9179142789651,6273.8844436908985,-7875.2051433300512,-1638.8963509318601,-5102.339975487751,11812.663290967304,4149.4017702531037,-10743.373558003241,10743.373558003241,-4149.4017702531037,21147.786988297776,0.0
315012.02908761695,3867225.878295721,-42500.0,-12737.461928399103,-2773.8324754187461,5595.615967812354,-9925.4766509611945,-4114.8646101647,-7646.3118675899541,14019.81119136254,2641.8932058488845,-11087.014680969794,11087.014680969794,-2641.8932058488845,25260.822151613887,0.0
320012.02908761695,3867225.878295721,-42500.0,-13080.410662467293,-4384.2158084432103,4294.4603528629777,-11885.727175787042,-7446.7448302311486,-10913.825277823926,16767.969733442638,731.17563228830659,-10758.003771824202,10758.003771824202,-731.17563228830659,30278.271010460565,0.0
325012.02908761695,3867225.878295721,-42500.0,-12527.292322421021,-5654.621149070409,2301.4984007695252,-13394.89962937981,-11647.238642908907,-14904.359233998492,19997.623276217451,-1378.1892522905791,-9595.522912105509,9595.522912105509,1378.1892522905791,36082.700043895478,0.0
330012.02908761695,3867225.878295721,-42500.0,-10946.376625047145,-6109.944035808533,-301.30805936535739,-13949.504791001416,-16526.160247340857,-19447.642849887645,23505.010617122247,-3273.7425634693732,-7587.4384240011095,7587.4384240011095,3273.7425634693732,42322.426581178472,0.0
335012.02908761695,3867225.878295721,-42500.0,-8470.1634215410595,-5206.3122802263661,-3178.6822959128613,-12971.179257751201,-21571.576956518868,-24098.081132200947,26915.565063543942,-4321.458246470781,-5003.4152214051674,5003.4152214051674,4321.458246470781,48342.494246095397,0.0
340012.02908761695,3867225.878295721,-42500.0,-5647.7481817486496,-2522.9567554393634,-5669.409298984936,-9996.3619169360427,-25867.523065080306,-28052.45868795631,29684.499204571435,-3765.5196671241138,-2504.9668160101082,2504.9668160101082,3765.5196671241138,53176.59397394675,0.0
345012.02908761695,3867225.878295721,-42500.0,-3472.1881199107506,1914.7767471243287,-6839.2326869844819,-5007.8463309281351,-28161.858624268883,-30192.410982307279,31173.841805792163,-1016.6816569297838,-1107.8815079452434,1107.8815079452434,1016.6816569297838,55685.228255161601,0.0
350012.02908761695,3867225.878295721,-42500.0,-3084.4336903753683,7299.4495113222411,-5780.2201690781121,1203.6708144419092,-27229.067726469046,-29391.330850767936,30856.360383343519,3879.2538050754456,-1828.7510847587118,1828.7510847587118,-3879.2538050754456,54925.959917293934,0.0
355012.02908761695,3867225.878295721,-42500.0,-5070.702418015172,12024.104712120265,-2165.2902872166119,6986.349612564919,-22542.918184361242,-25117.765684867783,28631.349557606845,9849.2404621126534,-4994.1758595968095,4994.1758595968095,-9849.2404621126534,50727.558111827646,0.0
360012.02908761695,3867225.878295721,-42500.0,-8763.6232749433493,14337.318212714223,3276.7437000869641,10462.374010347128,-14877.277075350441,-18003.99608973234,25089.015332086252,14993.946960987356,-9663.5867504544985,9663.5867504544985,-14993.946960987356,44166.417290189289,0.0
365012.02908761695,3867225.878295721,-42500.0,-12395.776267049725,13422.407141167438,8946.8858227337041,10635.300189583861,-6156.1386548069713,-9752.2629540858288,21428.645330150131,17589.667395927096,-13938.439540259238,13938.439540259238,-17589.667395927096,37411.011434003849,0.0
370012.02908761695,3867225.878295721,-42500.0,-14261.978944207987,9900.3116110758056,13277.545523935125,7966.7468559401495,1561.0006288516036,-2239.7033164921941,18815.278751264457,17118.776010868169,-16161.317184146959,16161.317184146959,-17118.776010868169,32613.472839716316,0.0
375012.02908761695,3867225.878295721,-42500.0,-13752.336546470749,5235.6133670638046,15532.92785249816,3846.8580603303162,7071.0423263511921,3390.7929205775399,17523.334050747115,14329.67650824751,-15847.153521413798,15847.153521413798,-14329.67650824751,30431.913040646916,0.0
380012.02908761695,3867225.878295721,-42500.0,-11344.496688522539,773.82971898280721,15863.385433770742,-361.67677557316313,10216.613399494132,6928.397300477578,16974.152511744647,10471.836163479678,-13569.732133965048,13569.732133965048,-10471.836163479678,29871.846181045552,0.0
385012.02908761695,3867225.878295721,-42500.0,-7952.3765498966359,-2743.557685715964,14864.383201186369,-3846.4419570980208,11466.769462487355,8734.8500264294926,16551.401504365713,6583.5470698332938,-10282.888881596442,10282.888881596442,-6583.5470698332938,29660.524200937307,0.0
390012.02908761695,3867225.878295721,-42500.0,-4382.8013442497249,-5129.930207198694,13161.747830239223,-6337.4048342541864,11452.058712098926,9333.269793336367,15969.738512989441,3247.065118803293,-6798.5162625654666,6798.5162625654666,-3247.065118803293,29123.618023198498,0.0
395012.02908761695,3867225.878295721,-42500.0,-1140.4632200190599,-6511.8796074494157,11221.905677685378,-7889.1917102671432,10712.205717240629,9182.8018544595088,15182.664741315506,664.22918172271238,-3615.688511346696,3615.688511346696,-664.22918172271238,28106.294224899615,0.0
400012.02908761695,3867225.878295721,-42500.0,1544.4227234354541,-7126.429009557397,9328.0969574898863,-8686.4163594931306,9626.7865277540041,8614.9263288197435,14240.471898688269,-1184.9195461473807,-960.14227672783522,960.14227672783522,1184.9195461473807,26688.717174672289,0.0
405012.02908761695,3867225.878295721,-42500.0,3621.4703566681919,-7210.1277841853871,7622.9041481692047,-8932.4360160277538,8432.5240390145937,7845.5761971449319,13212.939431309787,-2416.1714032287728,1118.3113863542869,-1118.3113863542869,2416.1714032287728,25011.947449772251,0.0
410012.02908761695,3867225.878295721,-42500.0,5135.4646693845625,-6956.095425460725,6159.3803256618276,-8802.7845813356707,7263.4263779815483,7006.7663655382394,12159.999278124071,-3168.102787592502,2661.9333746774319,-2661.9333746774319,3168.102787592502,23206.357885513014,0.0
415012.02908761695,3867225.878295721,-42500.0,6170.6311129446867,-6506.5526523778854,4940.6246632483517,-8433.3518548970642,6187.3424544472173,6175.171681109191,11124.885288400621,-3568.1123254636618,3750.7440154639239,-3750.7440154639239,3568.1123254636618,21371.431728758376,0.0
420012.02908761695,3867225.878295721,-42500.0,6819.6738210021194,-5959.5552479258786,3945.4432498103811,-7923.1406323178417,5232.4343868267943,5392.6208667129758,10135.571745812567,-3720.65548868426,4472.6474392790587,-4472.6474392790587,3720.65548868426,19575.711476670134,0.0
425012.02908761695,3867225.878295721,-42500.0,7168.8686532839383,-5379.2942106430655,3143.2844844739116,-7341.3951965568785,4404.4383580638587,4679.5208094802338,9208.311847432582,-3706.0954261895877,4909.1891623767642,-4909.1891623767642,3706.0954261895877,17862.726610933682,0.0
430012.02908761695,3867225.878295721,-42500.0,7292.2443100767478,-4805.6991339285896,2502.2001790935838,-6734.9328337877869,3697.2948364995723,4043.3775481344805,8351.0929608758452,-3583.7838633796268,5130.0844589027593,-5130.0844589027593,3583.7838633796268,16257.601406624397,0.0
435012.02908761695,3867225.878295721,-42500.0,7250.359328235395,-4262.0463295217351,1992.6456617591668,-6134.2680193013011,3099.4186885102331,3484.1326786592335,7566.3448252907947,-3396.2475151436784,5192.1599296591075,-5192.1599296591075,3396.2475151436784,14772.552677550402,0.0
440012.02908761695,3867225.878295721,-42500.0,7091.2386493240729,-3760.5771806540374,1588.9843772970312,-5558.3797001882594,2597.2827491112043,2997.5296380625996,6852.9527950071206,-3173.195724537763,5140.3314925208406,-5140.3314925208406,3173.195724537763,13411.146019379867,0.0
445012.02908761695,3867225.878295721,-42500.0,6852.0978521914367,-3306.4412729780943,1269.7825859623026,-5018.2347826426367,2177.3543025487179,2577.2015414249054,6207.6449116037193,-2934.8673446530474,5009.3128623440543,-5009.3128623440543,2934.8673446530474,12171.338513690924,0.0
450012.02908761695,3867225.878295721,-42500.0,6561.2438097721379,-2900.3954673748603,1017.5350069996234,-4519.3530800333456,1827.0701785042697,2215.9580629634552,5625.9445595100051,-2694.6619069716062,4825.4622696205142,-4825.4622696205142,2694.6619069716062,11047.638270928148,0.0
260012.02908761695,3872225.878295721,-42500.0,923.47380062917523,3617.8177824546483,2346.0086444390663,1642.5140962937319,2085.165182332652,1089.0954884077789,4326.8202639091542,4115.6389653925553,-585.8552714321861,585.8552714321861,-4115.6389653925553,7887.8735415258361,0.0
265012.02908761695,3872225.878295721,-42500.0,473.82117480862195,3879.010505227684,2734.0648434300533,1595.7215669645916,2325.0703565823201,1166.5222385037796,4723.0376858778054,4600.7922000481767,-1082.2292152178807,1082.2292152178807,-4600.7922000481767,8545.1664090130362,0.0
270012.02908761695,3872225.878295721,-42500.0,-113.71920011664319,4121.1125018866833,3185.671263143473,1478.6969867407379,2573.3225219301121,1223.5045814023347,5156.8238859813318,5123.6458767571403,-1699.5526494084161,1699.5526494084161,-5123.6458767571403,9254.1032509881861,0.0
275012.02908761695,3872225.878295721,-42500.0,-865.68258167353031,4324.3304195365881,3706.5283989452682,1264.7010072008695,2817.6248411139518,1243.4661696863504,5632.4838367327557,5674.8815842127315,-2457.001455286586,2457.001455286586,-5674.8815842127315,10021.231686102683,0.0
280012.02908761695,3872225.878295721,-42500.0,-1809.0893599663668,4461.4391115920753,4299.38489990997,919.70137942613849,3037.5912408720646,1201.8405795013405,6156.4488423726389,6237.6909423752068,-3372.2918919120539,3372.2918919120539,-6237.6909423752068,10859.038595178623,0.0
285012.02908761695,3872225.878295721,-42500.0,-2968.1715282314076,4496.3649091485904,4961.3438429273829,401.60700804691959,3201.0326716257873,1062.8702524064038,6739.2511730599181,6784.7814114956846,-4458.2425710429734,4458.2425710429734,-6784.7814114956846,11791.432964113959,0.0
290012.02908761695,3872225.878295721,-42500.0,-4358.7473584252084,4383.4616927503494,5679.8314010022377,-339.52371909034315,3259.0288367663188,775.43841995979244,7399.0370708684077,7274.9362546801567,-5717.2670435846321,5717.2670435846321,-7274.9362546801567,12862.614197505727,0.0
295012.02908761695,3872225.878295721,-42500.0,-5979.3088146110567,4068.5528253539296,6426.9536886053165,-1359.2027240110599,3139.7931114179064,267.93170222185927,8167.4672913239347,7649.738015901823,-7133.1564842310181,7133.1564842310181,-7649.738015901823,14149.73577003468,0.0
300012.02908761695,3872225.878295721,-42500.0,-7797.9868625039526,3493.5945015476377,7152.316495540118,-2712.3200728247052,2741.8759946636806,-557.46183978862302,9098.8644256286352,7831.8992675935042,-8659.7948148983305,8659.7948148983305,-7831.8992675935042,15777.453140713842,0.0
305012.02908761695,3872225.878295721,-42500.0,-9735.3257091222604,2607.7740598093123,7775.2806412882837,-4440.2530983019587,1928.3863857096699,-1829.7302617760822,10282.256315305429,7727.9941266095775,-10207.414557325308,10207.414557325308,-7727.9941266095775,17927.437792998102,0.0
310012.02908761695,3872225.878295721,-42500.0,-11644.891183871374,1388.6506250821528,8179.4477655573573,-6547.5971893541227,526.0308657196141,-3710.2428330798994,11850.692967404753,7240.2504048346673,-11629.21018740418,11629.21018740418,-7240.2504048346673,20830.078368425427,0.0
315012.02908761695,3872225.878295721,-42500.0,-13297.99653378664,-123.44622722667174,8215.1450708474204,-8964.8209114804649,-1663.8286866830272,-6384.0443373700527,13969.054686210562,6293.8299976982571,-12715.124958824461,12715.124958824461,-6293.8299976982571,24725.126906850866,0.0
320012.02908761695,3872225.878295721,-42500.0,-14385.748928033818,-1778.0265792698472,7719.408615753935,-11495.82558517691,-4830.4816835948504,-10030.453362890488,16775.241629145112,4885.9886735892023,-13205.409256260002,13205.409256260002,-4885.9886735892023,29787.227262184235,0.0
325012.02908761695,3872225.878295721,-42500.0,-14560.170531284763,-3263.6485994070322,6565.4449294429232,-13757.958114101655,-9080.3187095512749,-14756.855010968677,20290.359097533335,3158.2413626781017,-12842.376772449959,12842.376772449959,-3158.2413626781017,36022.776109212093,0.0
330012.02908761695,3872225.878295721,-42500.0,-13541.44332196603,-4080.6603069289245,4750.3666818875054,-15140.665207012478,-14311.305103994362,-20477.590357115587,24347.128070781717,1477.497937062828,-11479.454985877141,11479.454985877141,-1477.497937062828,43147.306849084242,0.0
335012.02908761695,3872225.878295721,-42500.0,-11308.879144199418,-3588.6466173212839,2514.4271541677385,-14840.463228063985,-20040.024569845031,-26732.075061178854,28538.428936967623,483.14412131474182,-9251.873485645101,9251.873485645101,-483.14412131474182,50461.067021563329,0.0
340012.02908761695,3872225.878295721,-42500.0,-8346.6416037205818,-1200.3828263676533,449.2726550818137,-12066.374039346107,-25234.909994957208,-32484.55369456952,32187.401431332266,1016.0387156177371,-6765.8187643544825,6765.8187643544825,-1016.0387156177371,56778.859308847372,0.0
345012.02908761695,3872225.878295721,-42500.0,-5799.9251448672421,3223.2363931675754,-508.08985339581312,-6508.0572010688948,-28304.618136754729,-36058.262640435714,34409.51742106826,3813.7038405834764,-5162.153219074461,5162.153219074461,-3813.7038405834764,60542.374042537129,0.0
350012.02908761695,3872225.878295721,-42500.0,-5220.7039221860632,8863.2935010238489,638.19997463273558,999.90442876860857,-27501.182290426776,-35505.972118786412,34379.166341699776,8915.4505150701243,-5779.5630069878698,5779.5630069878698,-8915.4505150701243,60304.072202755728,0.0
355012.02908761695,3872225.878295721,-42500.0,-7584.2676861010068,13757.895251858634,4282.6730347825487,8139.0798337702645,-21914.410048682537,-29672.221835055228,31848.350230880387,15046.926439402723,-9209.2030115348934,9209.2030115348934,-15046.926439402723,55660.717326860766,0.0
360012.02908761695,3872225.878295721,-42500.0,-12032.140336677056,15635.437334313618,9555.0183029320997,12006.439446009595,-12565.503960976988,-19473.294806671147,27677.095004794166,19797.837534918697,-14273.569331702296,14273.569331702296,-19797.837534918697,48182.462740932831,0.0
365012.02908761695,3872225.878295721,-42500.0,-15982.443777874421,13575.435354103842,14553.183498966144,11158.293743471639,-2267.350248245139,-7885.4696912406644,23716.369586441411,21111.644971283669,-18385.137030945203,18385.137030945203,-21111.644971283669,41140.756728235618,0.0
370012.02908761695,3872225.878295721,-42500.0,-17154.108554035894,8723.0097677160265,17620.055748938976,6662.9159903850286,6141.650050863841,1941.0774652851503,21478.520089641061,18786.059901279325,-19511.035438871542,19511.035438871542,-18786.059901279325,37208.401454518942,0.0
375012.02908761695,3872225.878295721,-42500.0,-15174.375702071042,3151.5432557313616,18306.875892462624,878.76201148290113,11372.034050047723,8477.1952288978355,20743.382635387843,14245.505368097723,-17505.3023943767,17505.3023943767,-14245.505368097723,36174.433470289994,0.0
380012.02908761695,3872225.878295721,-42500.0,-11159.777095216323,-1586.5409666917926,17162.709472022034,-4300.2332645599081,13665.56963116328,11870.287020794916,20400.788229070095,9192.2778333380666,-13554.79002110329,13554.79002110329,-9192.2778333380666,36104.697092054274,0.0
385012.02908761695,3872225.878295721,-42500.0,-6492.8765360733469,-4893.117899200116,15026.024772522309,-8053.1119142890548,13920.395451352602,13012.428048877333,19808.600855674071,4728.5077749793254,-9009.0802656545766,9009.0802656545766,-4728.5077749793254,35658.171118662991,0.0
390012.02908761695,3872225.878295721,-42500.0,-2130.2567527598312,-6822.4461293761269,12573.106318468672,-10335.745481501221,13019.996366582163,12807.332315095677,18851.172284030003,1281.44974152386,-4771.7118606784534,4771.7118606784534,-1281.44974152386,34472.725320001387,0.0
395012.02908761695,3872225.878295721,-42500.0,1476.868542475388,-7689.2093327337052,10210.789747093113,-11437.435997596565,11594.190435711353,11906.856198585021,17624.133220651125,-1140.3841639013037,-1258.5772549258666,1258.5772549258666,1140.3841639013037,32665.941505262737,0.0
400012.02908761695,3872225.878295721,-42500.0,4221.0117894932991,-7835.2905622998678,8130.4879980972073,-11706.070753130534,10021.955489052396,10711.269087136308,16257.2006118266,-2706.7124227196023,1436.9685576477045,-1436.9685576477045,2706.7124227196023,30473.33793687405,0.0
405012.02908761695,3872225.878295721,-42500.0,6170.1127480822961,-7539.1473851885194,6390.8617014474512,-11436.463989573673,8504.290553895431,9443.9608886755232,14854.597927462532,-3626.3421092379185,3383.3075716181556,-3383.3075716181556,3626.3421092379185,28105.290290513301,0.0
410012.02908761695,3872225.878295721,-42500.0,7458.0591786036621,-6999.807714028696,4981.6270384868076,-10846.12547405132,7133.400824126471,8220.7249613825643,13485.696724265617,-4086.7342478262894,4708.2861211217378,-4708.2861211217378,4086.7342478262894,25713.158591412554,0.0
415012.02908761695,3872225.878295721,-42500.0,8227.9191304313481,-6348.8377515633911,3862.8568600238959,-10084.438158611985,5940.7914939949251,7096.338030974578,12191.286492960226,-4236.1276536588603,5546.846682034783,-5546.846682034783,4236.1276536588603,23394.117518791838,0.0
420012.02908761695,3872225.878295721,-42500.0,8607.7266309116385,-5668.1995923938466,2986.1858134426575,-9249.5238140312758,4926.622825395807,6092.1640669512908,10992.237042342867,-4184.1372128158446,6018.9664814644157,-6018.9664814644157,4184.1372128158446,21204.947728094903,0.0
425012.02908761695,3872225.878295721,-42500.0,8703.0467233289728,-5006.0007001615932,2304.9983717914401,-8403.5379751395358,4076.4078778993348,5211.6917103993273,9896.6265330572569,-4008.5198380778547,6223.0885242714176,-6223.0885242714176,4008.5198380778547,19174.89265784049,0.0
430012.02908761695,3872225.878295721,-42500.0,8597.0626331272852,-4388.2837498380613,1778.5515330550099,-7584.2553548458754,3370.0470281464845,4449.1575599430807,8904.747734741044,-3762.8023195796295,6236.4580409676373,-6236.4580409676373,3762.8023195796295,17315.317349675224,0.0
435012.02908761695,3872225.878295721,-42500.0,8353.4848062239216,-3827.2225702396413,1373.0496674578008,-6813.2554828124239,2786.4950224948448,3794.369819199459,8012.4091486622838,-3482.8893689589559,6118.0126087731014,-6118.0126087731014,3482.8893689589559,15626.429851190343,0.0
440012.02908761695,3872225.878295721,-42500.0,8020.1163141400057,-3326.5677409264408,1061.3075402037366,-6101.51521733954,2305.9947993542473,3235.4120236101958,7213.0120661232468,-3192.2142851548933,5911.8318448379514,-5911.8318448379514,3192.2142851548933,14101.73858761888,0.0
445012.02908761695,3872225.878295721,-42500.0,7632.2290905999062,-2885.1856208341596,821.87534394484192,-5453.2088211522123,1911.0164639877341,2760.1664579228377,6498.8606113995611,-2905.5646511451087,5650.3619404732472,-5650.3619404732472,2905.5646511451087,12731.014954240476,0.0
450012.02908761695,3872225.878295721,-42500.0,7215.4216231476685,-2499.2925030893271,638.03398643756498,-4868.250370955835,1586.5049399400805,2357.1316433615621,5861.9448311874949,-2631.8261555078643,5357.1252873532885,-5357.1252873532885,2631.8261555078643,11502.178969522802,0.0
260012.02908761695,3877225.878295721,-42500.0,2130.4824152230358,3892.5470965972631,2028.683377340127,2378.5310141620339,2182.4437770414938,1429.5858732107886,4733.6187347521418,3998.3797752002483,382.48208626607243,-382.48208626607243,-3998.3797752002483,8783.3620548513809,0.0
265012.02908761695,3877225.878295721,-42500.0,1818.2890370647549,4252.1925392731428,2395.8051311386425,2461.6805941165562,2472.6523496090531,1586.3263674777829,5183.3200441208801,4533.3493248653294,-17.209467764183501,17.209467764183501,-4533.3493248653294,9554.3896108275367,0.0
270012.02908761695,3877225.878295721,-42500.0,1373.5120981669047,4619.7017447585449,2834.4789776690736,2495.7000194858019,2789.7484961780719,1741.5494647636012,5674.3023946808889,5131.5704840115504,-539.94417448303329,539.94417448303329,-5131.5704840115504,10382.233080235676,0.0
275012.02908761695,3877225.878295721,-42500.0,763.53050948245664,4981.1185980335767,3356.441887200865,2455.132379006589,3127.4619497625895,1882.6409531688971,6208.5474354683465,5792.5667141411504,-1212.1398348833332,1212.1398348833332,-5792.5667141411504,11266.523447608746,0.0
280012.02908761695,3877225.878295721,-42500.0,-48.429824011391815,5315.3782460835964,3973.2392971282488,2305.6985052816358,3472.9892720069515,1989.2410857163427,6788.1658794151263,6510.6190052090778,-2062.4269667250019,2062.4269667250019,-6510.6190052090778,12207.560158303477,0.0
285012.02908761695,3877225.878295721,-42500.0,-1101.3217581982362,5592.1510475188397,4694.420898065644,2002.2820396393504,3803.3397452371701,2029.4988077547212,7416.3162607207387,7271.8237835963955,-3119.3767637413403,3119.3767637413403,-7271.8237835963955,13209.363338833409,0.0
290012.02908761695,3877225.878295721,-42500.0,-2431.9979259475531,5769.7655666697237,5524.4262960500719,1487.2806365217959,4080.1130264338476,1954.7965759487324,8099.4017720101392,8050.2273667957725,-4407.130019460923,4407.130019460923,-8050.2273667957725,14286.14771217807,0.0
295012.02908761695,3877225.878295721,-42500.0,-4067.2662833698173,5794.0500568106036,6457.6106588134635,690.31576007981096,4242.3683996186692,1692.5542501594098,8851.7798482162252,8803.2531281893826,-5937.855134451248,5937.855134451248,-8803.2531281893826,15474.588509704678,0.0
300012.02908761695,3877225.878295721,-42500.0,-6010.5729539676486,5599.8135725573129,7470.9599674219262,-468.73821990964535,4197.5953148995686,1136.9725932356544,9705.1246003629713,9467.3605751311679,-7699.8477057941391,7699.8477057941391,-9467.3605751311679,16854.422821316301,0.0
305012.02908761695,3877225.878295721,-42500.0,-8221.7870236702038,5118.0277581916871,8514.6313624486138,-2069.9495170057558,3811.7984382303093,138.37691367757384,10725.389480100774,9956.2924179055299,-9640.5647149235811,9640.5647149235811,-9956.2924179055299,18577.054649038302,0.0
310012.02908761695,3877225.878295721,-42500.0,-10590.143506400656,4293.385798135776,9502.0820484631786,-4171.3180806555365,2901.9784630828076,-1506.1665890924235,12038.258945580645,10166.625852795753,-11645.750611397167,11645.750611397167,-10166.625852795753,20891.683911295455,0.0
315012.02908761695,3877225.878295721,-42500.0,-12904.888362764892,3117.8323462066464,10304.82306212808,-6767.4030716778234,1238.5561549917404,-4054.0746784172829,13848.976626153089,9998.3529230236236,-13520.223715012293,13520.223715012293,-9998.3529230236236,24140.437205665177,0.0
320012.02908761695,3877225.878295721,-42500.0,-14837.152563521609,1683.3785876102481,10761.798142925358,-9722.2642496221069,-1428.1505483918882,-7795.9246543978606,16406.924050020341,9400.0479127249528,-14983.700925407036,14983.700925407036,-9400.0479127249528,28684.91799488954,0.0
325012.02908761695,3877225.878295721,-42500.0,-15960.04336377728,247.87637892013032,10717.947095774241,-12678.449830037027,-5296.0493283680362,-12986.304342554176,19876.955298559285,8444.3390091699039,-15705.041815367065,15705.041815367065,-8444.3390091699039,34753.171529090432,0.0
330012.02908761695,3877225.878295721,-42500.0,-15846.791452539706,-713.61161838608393,10104.704487058107,-14966.375737321639,-10370.721993533363,-19691.194956154668,24195.748375964111,7422.8952715911391,-15404.433877669788,15404.433877669788,-7422.8952715911391,42239.651495662642,0.0
335012.02908761695,3877225.878295721,-42500.0,-14285.318891286599,-530.46293775875688,9058.119261009002,-15582.958967211682,-16248.658928486602,-27520.00297143999,28979.010451847014,6915.7806365411998,-14042.863623003512,14042.863623003512,-6915.7806365411998,50501.512363403745,0.0
340012.02908761695,3877225.878295721,-42500.0,-11606.261209656894,1480.5818960474978,8032.0899478288247,-13374.635081377013,-21870.392953119393,-35261.743507066079,33454.011860932616,7741.6087718894669,-12073.170280629456,12073.170280629456,-7741.6087718894669,58206.207313037004,0.0
345012.02908761695,3877225.878295721,-42500.0,-8993.1211555207738,5585.2121403330011,7806.6402025555799,-7613.1924838694049,-25409.411998590829,-40607.023498390539,36484.613069972664,10652.246802816881,-10617.242976375306,10617.242976375306,-10652.246802816881,63381.04886856852,0.0
350012.02908761695,3877225.878295721,-42500.0,-8362.9035855317015,10991.308436697504,9227.8819330212591,966.57208178661097,-24657.242363155943,-40467.593695765056,36887.089937487304,15668.989901456855,-11226.153804563393,11226.153804563393,-15668.989901456855,63984.855639350513,0.0
355012.02908761695,3877225.878295721,-42500.0,-11149.974880190704,15482.900176260158,12555.473019808269,9300.8900050594239,-18314.040445375955,-32637.505971552717,34230.210523733338,21304.959124789297,-14756.981547422152,14756.981547422152,-21304.959124789297,59312.109150619988,0.0
360012.02908761695,3877225.878295721,-42500.0,-16270.283886606123,16394.051572703971,16777.649724907027,13109.190323508328,-7691.0328395976658,-18388.608133221991,29808.355444575442,24750.512854317218,-19799.02113496836,19799.02113496836,-24750.512854317218,51632.962386572784,0.0
365012.02908761695,3877225.878295721,-42500.0,-20100.48868876334,12902.067094679935,19973.614013440263,10454.637060272222,3409.5264666480425,-2760.9242843709162,26292.043896734202,23910.866347521966,-23037.622465832595,23037.622465832595,-23910.866347521966,45539.978509887085,0.0
370012.02908761695,3877225.878295721,-42500.0,-19841.789433511825,6848.4032146010213,20833.40572894198,3517.0915874549723,11499.895236529039,9249.0800854359168,25090.519202514759,19270.256007828411,-22263.935594784281,22263.935594784281,-19270.256007828411,43497.446437346312,0.0
375012.02908761695,3877225.878295721,-42500.0,-15765.981711358883,817.62996779242076,19473.329568763584,-4014.7614212811286,15552.470016634594,15954.104384614984,24988.973104401026,13034.326167363753,-18032.778622023394,18032.778622023394,-13034.326167363753,43659.791440433226,0.0
380012.02908761695,3877225.878295721,-42500.0,-9883.9100441187147,-3697.834822921709,16818.022663057302,-9829.6529450769194,16430.597867413962,18358.343182806399,24573.666953666157,7153.5684988278717,-12282.245109206773,12282.245109206773,-7153.5684988278717,43557.745000226525,0.0
385012.02908761695,3877225.878295721,-42500.0,-4002.1041238533126,-6428.9240069029911,13767.067726626185,-13374.974978480788,15454.77617591942,18166.408269856307,23496.588360656126,2541.1721699150994,-6643.1103060839514,6643.1103060839514,-2541.1721699150994,42314.107366651137,0.0
390012.02908761695,3877225.878295721,-42500.0,930.76598166730116,-7713.5297105955069,10876.574814462698,-15016.853684454423,13650.537419205446,16715.079565621927,21923.949961884075,-672.27229141664338,-1938.0433024678268,1938.0433024678268,672.27229141664338,40063.708318392812,0.0
395012.02908761695,3877225.878295721,-42500.0,4644.2227186518448,-8018.4120906076105,8393.5369160388418,-15344.604806570371,11630.418570502357,14802.82842722868,20102.075996203515,-2708.1539797755599,1618.0761393916468,-1618.0761393916468,2708.1539797755599,37205.136984472527,0.0
400012.02908761695,3877225.878295721,-42500.0,7219.6864609644872,-7736.8909450840156,6376.4731839806145,-14868.441039249585,9702.4297938489872,12837.46001300048,18220.524262289829,-3870.3976142274992,4117.228843800267,-4117.228843800267,3870.3976142274992,34091.184528754631,0.0
405012.02908761695,3877225.878295721,-42500.0,8865.5027689687904,-7145.624323707757,4792.5039495715891,-13950.77230308557,7994.5015501301095,11001.902369140849,16396.544367140094,-4430.8929979449613,5758.061697055814,-5758.061697055814,4430.8929979449613,30961.964170140993,0.0
410012.02908761695,3877225.878295721,-42500.0,9804.1056628583228,-6420.9517272305156,3574.8479412315592,-12825.337179138662,6540.6640752865242,9364.3498108787135,14692.399072303244,-4598.4876054847009,6747.3547416418405,-6747.3547416418405,4598.4876054847009,27959.832413634318,0.0
415012.02908761695,3877225.878295721,-42500.0,10228.212613440743,-5667.5862029051268,2651.5890044011685,-11634.406023562533,5330.9741074107123,7938.8253610042348,13135.163246899558,-4521.904643596451,7262.5311086579013,-7262.5311086579013,4521.904643596451,25159.518263764257,0.0
420012.02908761695,3877225.878295721,-42500.0,10290.427270804828,-4943.4682283025668,1957.9095524817449,-10460.663391240849,4337.8084174308306,6715.4533442837919,11731.437317591632,-4302.4461561285825,7443.3491742988008,-7443.3491742988008,4302.4461561285825,22593.418781637414,0.0
425012.02908761695,3877225.878295721,-42500.0,10106.126399555356,-4277.5905850287472,1439.9674045665308,-9349.5562913465328,3528.7971369269967,5674.8567708983674,10476.760340560559,-4007.0120183658655,7395.0796481131511,-7395.0796481131511,4007.0120183658655,20268.930780186249,0.0
430012.02908761695,3877225.878295721,-42500.0,9760.2442543660018,-3681.7336569257104,1054.9691796663387,-8323.737457364432,2872.7086447951774,4794.838157291314,9361.1809020674264,-3678.6086840404523,7194.9691711006371,-7194.9691711006371,3678.6086840404523,18179.343077104975,0.0
435012.02908761695,3877225.878295721,-42500.0,9314.208083587524,-3157.8704392522145,769.78217577172359,-7392.1216967936034,2341.8116365876058,4053.4547890113658,8372.4366184886458,-3344.0785624784712,6898.72302998345,-6898.72302998345,3344.0785624784712,16310.478057783734,0.0
440012.02908761695,3877225.878295721,-42500.0,8811.796523175155,-2702.6901773001828,559.16105291664508,-6555.4925598140035,1912.5205523985551,3430.3816567177428,7497.6889814445913,-3019.5165003892207,6545.9479431971349,-6545.9479431971349,3019.5165003892207,14644.624209640568,0.0
445012.02908761695,3877225.878295721,-42500.0,8283.7367725810655,-2310.3079251216027,404.06380325395151,-5809.9819009077,1565.2690160336763,2907.4543975958768,6724.4443526754731,-2713.9792789939484,6164.4058202175138,-6164.4058202175138,2713.9792789939484,13162.854927575916,0.0
450012.02908761695,3877225.878295721,-42500.0,7751.2194789410196,-1973.8516983416064,290.22047145396726,-5149.2501268117712,1284.0730649282414,2468.8113541980642,6041.0337775354092,-2431.9956762848433,5773.246886686733,-5773.246886686733,2431.9956762848433,11846.410135775244,0.0
255012.02908761695,3882225.878295721,-42500.0,3477.4440045644396,3599.6435004414384,1367.6641559211862,2914.4071481722553,1903.5938965467979,1563.4113841684823,4702.4050401718223,3209.7911179554258,1644.1142887273381,-1644.1142887273381,-3209.7911179554258,8905.1176671169233,0.0
260012.02908761695,3882225.878295721,-42500.0,3424.5419765243969,3996.1863928188368,1628.8733391126066,3152.4170831815522,2184.7951152051551,1783.5820834675733,5171.9615681060623,3681.2686037290305,1467.8703975591827,-1467.8703975591827,-3681.2686037290305,9747.4233289891235,0.0
265012.02908761695,3882225.878295721,-42500.0,3284.3096549304141,4428.7119631469659,1948.3007559207722,3384.6747930761558,2505.8895938910787,2028.0201131709505,5689.5525202454228,4225.3700744874741,1203.1775225583917,-1203.1775225583917,-4225.3700744874741,10664.509199957447,0.0
270012.02908761695,3882225.878295721,-42500.0,3027.8879186196518,4894.3240903118467,2339.1869735583559,3596.9520157647207,2869.1426775461869,2294.1788384745364,6257.8389882446763,4850.8645581687897,824.59278496605475,-824.59278496605475,-4850.8645581687897,11656.787177247115,0.0
275012.02908761695,3882225.878295721,-42500.0,2619.4897575292016,5386.2612024088621,2817.2178232678602,3768.2053913083337,3274.4290390791075,2575.53523177849,6878.5566524540509,5565.6836350116218,301.16501032314955,-301.16501032314955,-5565.6836350116218,12721.985727965024,0.0
280012.02908761695,3882225.878295721,-42500.0,2015.8173538244309,5892.0420650280303,3400.4209225993918,3868.0994081596632,3717.2636989856687,2859.0894396966646,7552.116937470244,6375.4674846602029,-403.76640106102104,403.76640106102104,-6375.4674846602029,13854.596483467622,0.0
285012.02908761695,3882225.878295721,-42500.0,1166.3583714202161,6391.0462458381589,4108.5114298255603,3853.9402509368419,4185.6952630972874,3121.5279438443763,8277.3033667121053,7281.2543087008253,-1331.8902753579659,1331.8902753579659,-7281.2543087008253,15045.984905218182,0.0
290012.02908761695,3882225.878295721,-42500.0,15.529570635506744,6851.6226763173872,4961.2279809912443,3667.2262243735613,4655.5376355914568,3323.431699451748,9051.4419717510718,8276.0214836735377,-2527.5147092248712,2527.5147092248712,-8276.0214836735377,16286.319394732151,0.0
295012.02908761695,3882225.878295721,-42500.0,-1491.7465064094697,7228.1908561476457,5974.9797939190548,3230.4849584516564,5083.3078201749968,3400.7131508450625,9871.9285676903219,9339.8912888397499,-4032.1057100406088,4032.1057100406088,-9339.8912888397499,17570.597300284233,0.0
300012.02908761695,3882225.878295721,-42500.0,-3398.6231158075475,7459.6076165416198,7156.930444672571,2446.1070431827247,5396.3123452626896,3252.422912007959,10741.118872866329,10434.256836247863,-5873.8768582467192,5873.8768582467192,-10434.256836247863,18912.925971773497,0.0
305012.02908761695,3882225.878295721,-42500.0,-5716.0025378082928,7471.5925185493788,8495.7762721163144,1200.7950434989095,5479.9991225629328,2724.5469764731856,11678.831980762065,11496.294347420782,-8050.2694734508686,8050.2694734508686,-11496.294347420782,20375.310843350355,0.0
310012.02908761695,3882225.878295721,-42500.0,-8390.7383690300194,7188.3315922459078,9949.5355958090004,-617.64769121423569,5164.7197541709056,1591.2825407295334,12750.095902894875,12437.817705032092,-10502.131391519328,10502.131391519328,-12437.817705032092,22115.993805603339,0.0
315012.02908761695,3882225.878295721,-42500.0,-11263.606823978618,6560.8786883792818,11433.714587895187,-3080.5295183299909,4218.7793827611322,-459.7456572733027,14114.434039361975,13156.505159022383,-13082.416243602989,13082.416243602989,-13156.505159022383,24447.32660773777,0.0
320012.02908761695,3882225.878295721,-42500.0,-14028.782967102168,5619.7811829221655,12819.197791383245,-6142.6076154721259,2363.2729014025354,-3821.4653586606678,16066.947580328637,13571.761952163577,-15531.69355965192,15531.69355965192,-13571.761952163577,27850.555108016648,0.0
325012.02908761695,3882225.878295721,-42500.0,-16225.646643870094,4550.1255465349395,13956.503832354825,-9523.8624765080731,-664.30935506685307,-8906.1281190010159,18953.58677908748,13696.080994458405,-17487.748763343228,17487.748763343228,-13696.080994458405,32850.653980004143,0.0
330012.02908761695,3882225.878295721,-42500.0,-17315.847435273176,3761.0819148229225,14743.455073914974,-12568.272326370123,-4964.4051187569939,-15973.455076938706,22924.937000009577,13734.397999705774,-18569.461458925965,18569.461458925965,-13734.397999705774,39709.221923708552,0.0
335012.02908761695,3882225.878295721,-42500.0,-16903.262803804937,3880.4265888057494,15231.126287574891,-14156.745581355563,-10231.524208278854,-24784.993347135365,27734.146764142868,14159.274156376465,-18566.56817840333,18566.56817840333,-14159.274156376465,48046.654049990429,0.0
340012.02908761695,3882225.878295721,-42500.0,-15112.291701124881,5572.1679148374487,15710.967728939431,-12841.28196674139,-15460.5897377771,-34068.009607040796,32617.01342235889,15652.331546919009,-17717.001847084593,17717.001847084593,-15652.331546919009,56556.182796401219,0.0
345012.02908761695,3882225.878295721,-42500.0,-13016.366320808784,9093.3816553071483,16672.376437228097,-7470.1730055165071,-18784.613718483233,-40962.573142986483,36265.45840122446,18777.204586713877,-16952.469475910799,16952.469475910799,-18777.204586713877,62977.488274378644,0.0
350012.02908761695,3882225.878295721,-42500.0,-12693.277105014473,13633.258175177391,18519.580582579169,1442.6721607973127,-17847.742455880954,-41142.844196026119,37198.572550152203,23317.428295077512,-17784.080108725935,17784.080108725935,-23317.428295077512,64738.547004048873,0.0
355012.02908761695,3882225.878295721,-42500.0,-15916.836787358581,16923.362913717112,21057.541271122282,10180.195603062713,-11261.504329772662,-31068.59254219108,34956.738351922904,27560.000182890439,-21173.744240487129,21173.744240487129,-27560.000182890439,60889.090193407857,0.0
360012.02908761695,3882225.878295721,-42500.0,-21322.649180278069,16346.534913498213,23167.908675689665,13013.909724013018,-671.91287486634235,-12460.757049317934,31448.903424862368,28684.656561859214,-25519.452735737112,25519.452735737112,-28684.656561859214,54541.176157040485,0.0
365012.02908761695,3882225.878295721,-42500.0,-24245.687391341973,11544.217154200058,23473.929652922983,7731.2034771134704,9523.7426991902612,6874.1570708862746,29500.512629253513,25156.781481039336,-27011.339727386807,27011.339727386807,-25156.781481039336,51105.830447363536,0.0
370012.02908761695,3882225.878295721,-42500.0,-21746.592963223509,4954.0515722601176,21596.487826159999,-1858.34808532692,15856.796910643803,19907.830447970267,29691.687404532226,18400.28245640028,-23696.673058513952,23696.673058513952,-18400.28245640028,51444.969447403062,0.0
375012.02908761695,3882225.878295721,-42500.0,-15195.414405074807,-785.89779284862527,18296.433472178742,-10705.636342901471,17963.516777154087,25417.432737524447,29908.835380994758,11110.606712636505,-17113.054623953649,17113.054623953649,-11110.606712636505,52198.243154824675,0.0
380012.02908761695,3882225.878295721,-42500.0,-7529.1750252294914,-4581.5820056500861,14592.030477385175,-16485.041472457066,17261.42801460312,25784.007157900192,29003.729417412273,5065.4714811578588,-9838.7835259502172,9838.7835259502172,-5065.4714811578588,51325.444376211686,0.0
385012.02908761695,3882225.878295721,-42500.0,-749.07102463180161,-6549.3266484963342,11162.414027730729,-19231.847596120566,15231.400018585835,23622.355172364667,27152.085501103986,773.06224909031062,-3527.5286625474209,3527.5286625474209,-773.06224909031062,48783.291978749134,0.0
390012.02908761695,3882225.878295721,-42500.0,4405.5018383952338,-7221.0533530555604,8296.8879133518803,-19826.438782765115,12824.655767671695,20597.745459128015,24806.218853239221,-1955.8697339442833,1255.6559029886639,-1255.6559029886639,1955.8697339442833,45204.320738072725,0.0
395012.02908761695,3882225.878295721,-42500.0,7940.7214968672215,-7110.3835707902981,6040.9370000197168,-19142.16361107718,10518.428532221295,17531.522763273519,22321.387153643907,-3517.1841840102725,4563.5862397698174,-4563.5862397698174,3517.1841840102725,41190.594420301881,0.0
400012.02908761695,3882225.878295721,-42500.0,10149.48661679545,-6588.0735587624895,4328.3396142036845,-17802.282013691754,8501.8824555613628,14751.828121785038,19909.681446471532,-4285.6029169162903,6676.6115587231943,-6676.6115587231943,4285.6029169162903,37143.991390366093,0.0
405012.02908761695,3882225.878295721,-42500.0,11370.297974262516,-5887.7911065889493,3058.2203742720799,-16191.526702850208,6818.3662867591438,12350.065895002512,17676.307112256512,-4548.3282547019826,7902.9697777282017,-7902.9697777282017,4548.3282547019826,33289.032817235806,0.0
410012.02908761695,3882225.878295721,-42500.0,11894.778046484991,-5144.3706705477962,2131.0540098736888,-14527.63623331067,5447.4540574649791,10319.686641331413,15661.399554169071,-4505.3266348616144,8504.2797149849557,-8504.2797149849557,4505.3266348616144,29732.255576731615,0.0
415012.02908761695,3882225.878295721,-42500.0,11946.967270995339,-4429.5301179495436,1462.0352415797006,-12925.363904863287,4346.2316584304472,8620.4814567594258,13869.965701420015,-4288.6467960126465,8680.3657197477132,-8680.3657197477132,4288.6467960126465,26511.277339611996,0.0
420012.02908761695,3882225.878295721,-42500.0,11689.785469149105,-3777.3336505298394,983.80728940791857,-11439.934004629917,3468.0949285335223,7205.1055875440634,12290.010084332554,-3982.5336898885021,8576.1529093166191,-8576.1529093166191,3982.5336898885021,23626.711649805966,0.0
425012.02908761695,3882225.878295721,-42500.0,11238.343564076016,-3200.4669503117902,644.90790604417953,-10093.39822330831,2770.3645422615282,6028.7551028969219,10902.497391528832,-3639.2326853814393,8293.8718586818613,-8293.8718586818613,3639.2326853814393,21060.793885355048,0.0
430012.02908761695,3882225.878295721,-42500.0,10672.614919840555,-2700.0606576167766,406.91178074374,-8889.8113955395856,2216.7035707404702,5052.0203228653991,9686.4518859069958,-3290.1539744393131,7904.4483854883501,-7904.4483854883501,3290.1539744393131,18787.627198150305,0.0
435012.02908761695,3882225.878295721,-42500.0,10047.464887569049,-2271.428772925497,241.53571777151376,-7823.7935713661336,1777.304337843208,4241.2447253249538,8621.4041058176826,-2953.3858929231496,7456.4799528265576,-7456.4799528265576,2953.3858929231496,16778.643910690174,0.0
440012.02908761695,3882225.878295721,-42500.0,9400.0357104116738,-1907.3228341294323,128.15193719061372,-6885.3315540257418,1428.2077915236985,3568.0664260424182,7688.4512499671928,-2638.6210721261964,6982.8408637519406,-6982.8408637519406,2638.6210721261964,15005.422305251814,0.0
445012.02908761695,3882225.878295721,-42500.0,8755.0106317723166,-1599.7208224872174,51.806606022242335,-6062.4657113288004,1150.3771176667763,3008.7545003563273,6870.6197317854821,-2350.3424506331367,6505.3910539114759,-6505.3910539114759,2350.3424506331367,13441.066717976712,0.0
450012.02908761695,3882225.878295721,-42500.0,8128.3559774891683,-1340.7728541292656,1.7052946760891903,-5342.8065894637493,928.78719223985502,2543.5540678252364,6152.9172853485416,-2089.875094575918,6038.3150581002228,-6038.3150581002228,2089.875094575918,12060.863513027323,0.0
455012.02908761695,3882225.878295721,-42500.0,7529.9480324732385,-1123.2562205048976,-29.91934128219399,-4714.3557766557042,751.62076799176714,2156.0796471017502,5522.2195247348118,-1856.6904942748522,5590.4607079694424,-5590.4607079694424,1856.6904942748522,10842.494637704049,0.0
255012.02908761695,3887225.878295721,-42500.0,4629.7789136028223,3481.5339068591857,977.71503372111272,3563.0252682189498,1798.4956177231854,1845.5359896850296,5088.7889866743462,2733.9249141208652,2651.5628867666042,-2651.5628867666042,-2733.9249141208652,9750.5788498686543,0.0
260012.02908761695,3887225.878295721,-42500.0,4747.9079087847367,3900.2099329148054,1178.0821790875707,3932.3051349080383,2079.2964993378387,2137.3572638258734,5624.4323050588691,3165.632490972117,2620.8733957135391,-2620.8733957135391,-3165.632490972117,10734.701902252405,0.0
265012.02908761695,3887225.878295721,-42500.0,4803.3568666746514,4368.7876160202559,1428.4947322640539,4324.8866213690153,2405.8435009944551,2473.6376984962371,6220.613066007666,3673.2807754393016,2521.2171383882205,-2521.2171383882205,-3673.2807754393016,11819.132888793418,0.0
270012.02908761695,3887225.878295721,-42500.0,4768.8617570910919,4889.7681891498905,1742.4065667484604,4732.9242816347505,2783.853758293405,2857.9085517652775,6882.1481925091402,4269.8927559532531,2327.6363879877672,-2327.6363879877672,-4269.8927559532531,13008.016749910788,0.0
275012.02908761695,3887225.878295721,-42500.0,4608.8598947637283,5463.5331117806454,2136.7769975150459,5142.7912325578172,3218.2902597029374,3291.5715153221477,7612.9469306679648,4969.8273115799293,2008.0908001569082,-2008.0908001569082,-4969.8273115799293,14302.365546111832,0.0
280012.02908761695,3887225.878295721,-42500.0,4277.7515136165457,6086.8581212597419,2632.7160593357617,5532.4052469304806,3712.0838841055624,3771.8861296636405,8415.2192393327314,5788.1841225988001,1522.1090072323304,-1522.1090072323304,-5788.1841225988001,15698.427438522765,0.0
285012.02908761695,3887225.878295721,-42500.0,3718.412874432795,6750.7511203063577,3255.9642006565437,5867.5652607199427,4263.9376323677816,4288.6413377702947,9288.3532199919373,6739.5537891229724,819.74434751727176,-819.74434751727176,-6739.5537891229724,17185.723767198142,0.0
290012.02908761695,3887225.878295721,-42500.0,2861.7332114309102,7437.4666275116469,4036.8599252417625,6097.1715792344012,4864.6733277342491,4818.746829428942,10227.462842592608,7835.7126039635923,-158.4726606774384,158.4726606774384,-7835.7126039635923,18745.144949436039,0.0
295012.02908761695,3887225.878295721,-42500.0,1628.6700706165632,8116.7290034484004,5009.1630359917535,6147.4922359242428,5491.3320248772779,5317.5818149177676,11221.806194092926,9081.7613199442312,-1479.2918602797226,1479.2918602797226,-9081.7613199442312,20348.181640764142,0.0
300012.02908761695,3887225.878295721,-42500.0,-62.480394434121507,8741.7506649084226,6206.6783954447028,5916.5078297824111,6098.0306887610686,5705.5235648691378,12253.905770149844,10470.271903541099,-3209.9619416244586,3209.9619416244586,-10470.271903541099,21959.950648643484,0.0
305012.02908761695,3887225.878295721,-42500.0,-2279.3167764150685,9246.9740947629325,7656.2169468338197,5271.3646714978395,6602.711035649836,5847.9667285754622,13301.8814878174,11973.6611190085,-5403.5162161297139,5403.5162161297139,-11973.6611190085,23551.804463402419,0.0
310012.02908761695,3887225.878295721,-42500.0,-5043.6207889078896,9552.1242310577036,9365.5565517239229,4055.9054352786643,6870.2444531887959,5528.3319852668383,14351.666308097165,13537.04995824744,-8072.2053258866799,8072.2053258866799,-13537.04995824744,25134.409679748864,0.0
315012.02908761695,3887225.878295721,-42500.0,-8281.0307870009474,9581.2119384701327,11307.025554129241,2121.6144643624707,6696.7176247018542,4418.4494079778033,15434.560621891893,15078.351158254625,-11147.506169423023,11147.506169423023,-15078.351158254625,26826.317416940383,0.0
320012.02908761695,3887225.878295721,-42500.0,-11758.660638811316,9308.26000050929,13403.319680683035,-597.9454835572393,5809.8154986958834,2063.4673399914232,16711.713708692536,16509.202812069812,-14434.783558842695,14434.783558842695,-16509.202812069812,28959.45373771197,0.0
325012.02908761695,3887225.878295721,-42500.0,-15042.240196474066,8835.3183729638331,15532.77266887587,-3951.0389240743111,3917.0012366170126,-2076.5134291222962,18555.750163320685,17793.891843255573,-17591.393298156756,17591.393298156756,-17793.891843255573,32149.083869654318,0.0
330012.02908761695,3887225.878295721,-42500.0,-17540.252060978441,8477.4675291652256,17578.034342578656,-7381.8132416722638,846.99609595692277,-8451.9581315819178,21363.895578382311,19046.21165812602,-20181.3942341855,20181.3942341855,-19046.21165812602,37120.801335986085,0.0
335012.02908761695,3887225.878295721,-42500.0,-18715.033629320951,8768.7789924283497,19518.237046639264,-9783.1209952722766,-3190.6522495304762,-17023.35141562199,25133.464387511282,20604.027779192173,-21854.212253365451,21854.212253365451,-20604.027779192173,44139.662900051648,0.0
340012.02908761695,3887225.878295721,-42500.0,-18476.941614127889,10259.750112623604,21486.398952173793,-9586.12893595073,-7299.1852912033264,-26593.973392575415,29313.78002485141,22938.568052475679,-22619.289843307783,22619.289843307783,-22938.568052475679,52332.034531981873,0.0
345012.02908761695,3887225.878295721,-42500.0,-17642.38930989931,13049.417141171833,23639.997854808862,-5386.4581324610963,-9777.099808306486,-34037.167908535812,32798.884319778532,26264.709737892532,-23081.242353802387,23081.242353802387,-26264.709737892532,59451.817059697241,0.0
350012.02908761695,3887225.878295721,-42500.0,-18097.354778584689,16218.480676332179,25797.159216681237,2532.7345129359487,-8588.803729176454,-34183.780349006789,34436.107594664354,29935.242182385031,-24397.730185007007,24397.730185007007,-29935.242182385031,62620.056739256535,0.0
355012.02908761695,3887225.878295721,-42500.0,-21584.162854130554,17713.104242694284,27146.446720703781,10165.608169687222,-2812.3441724791896,-22451.187925496939,34311.903028748457,32100.46921926106,-27349.678984354454,27349.678984354454,-32100.46921926106,60767.454246525718,0.0
360012.02908761695,3887225.878295721,-42500.0,-26465.187366679806,15627.826818224285,26614.696667704138,10948.38401028698,5651.5954252710071,-1046.8152361241075,33178.078287289412,30555.363994894848,-30284.26105694109,30284.26105694109,-30555.363994894848,57467.14999791218,0.0
365012.02908761695,3887225.878295721,-42500.0,-27574.906298834067,10349.15205024121,23868.071965964762,2899.8866591876154,12903.290532906065,19801.547434914086,32991.579096083165,24871.669762661561,-29472.896282259655,29472.896282259655,-24871.669762661561,57443.451267879856,0.0
370012.02908761695,3887225.878295721,-42500.0,-22463.611854160401,4324.0949417964148,19684.780267553386,-8634.1861783021832,16499.145985315579,31830.196183255463,34309.253231451847,17108.28198044833,-23653.672185056676,23653.672185056676,-17108.28198044833,59433.275170761699,0.0
375012.02908761695,3887225.878295721,-42500.0,-13673.456953792382,-410.50022095385577,15201.514952884672,-17860.749408410909,16732.081773107773,34853.292273928637,34396.471219995045,9779.0089659072819,-15227.183043289891,15227.183043289891,-9779.0089659072819,59873.309525355049,0.0
380012.02908761695,3887225.878295721,-42500.0,-4721.8251321767757,-3291.5735183729316,11189.971419293672,-22899.360429805442,15046.120434644052,32597.193045814245,32757.036418675481,4168.9935240870072,-7044.5633478023974,7044.5633478023974,-4168.9935240870072,57765.772529069625,0.0
385012.02908761695,3887225.878295721,-42500.0,2489.6664658416971,-4645.2571430899734,7949.8260339918625,-24466.073358638783,12662.313509895543,28307.718597624094,30073.468216653764,414.8018082484333,-549.36527636667608,549.36527636667608,-414.8018082484333,53823.029483916696,0.0
390012.02908761695,3887225.878295721,-42500.0,7541.7660657872229,-5002.7946581831566,5487.7106553036729,-23873.851044300369,10267.343658136309,23748.604070158999,26997.142297833401,-1850.3514059195663,4006.9153653296694,-4006.9153653296694,1850.3514059195663,49003.99653736395,0.0
395012.02908761695,3887225.878295721,-42500.0,10717.425338392681,-4802.8746360013192,3687.1745757213489,-22178.158197036038,8154.3092832500706,19635.885500184067,23932.727210266865,-3074.5585833836294,6914.9195447882366,-6914.9195447882366,3074.5585833836294,43999.495063059374,0.0
400012.02908761695,3887225.878295721,-42500.0,12484.314637376441,-4336.4083049960309,2404.1023094246543,-20042.194621723334,6403.3157005242047,16159.561639092841,21083.201685064028,-3627.0528504140616,8594.110292078145,-8594.110292078145,3627.0528504140616,39200.188186346088,0.0
405012.02908761695,3887225.878295721,-42500.0,13272.708727571771,-3774.8070869652265,1507.3704437468668,-17830.212450193801,4999.176915159579,13297.204537212046,18527.200881666206,-3770.3204512449329,9420.1567111794247,-9420.1567111794247,3770.3204512449329,34787.702275951204,0.0
410012.02908761695,3887225.878295721,-42500.0,13414.108548264347,-3210.4135036734892,891.07696988948624,-15721.886712459602,3892.7806474535782,10961.474890458428,16277.291736932088,-3677.6179589431408,9680.0587612125564,-9680.0587612125564,3677.6179589431408,30822.750956476983,0.0
415012.02908761695,3887225.878295721,-42500.0,13144.354444381346,-2688.1615202207272,474.63616797009172,-13794.478675712995,3028.9843404765779,9058.3550379277112,14315.370804217151,-3458.4300888688167,9577.5570563020774,-9577.5570563020774,3458.4300888688167,27304.111270665107,0.0
420012.02908761695,3887225.878295721,-42500.0,12624.718332048818,-2226.2832659961987,198.74383617709677,-12072.175710075202,2357.5858864100087,7505.5723800258556,12611.69804299821,-3179.8388176134094,9252.0042925797934,-9252.0042925797934,3179.8388176134094,24202.397499240407,0.0
425012.02908761695,3887225.878295721,-42500.0,11963.211894488126,-1828.7798935652074,20.636188865548426,-10553.191163163736,1836.5970399399207,6235.7899398030722,11134.180577063562,-2881.7852907383317,8796.8237885981725,-8796.8237885981725,2881.7852907383317,21477.672391978795,0.0
430012.02908761695,3887225.878295721,-42500.0,11231.252155463604,-1492.5668021692172,-90.119563168067813,-9223.9212851542943,1432.3153287183504,5195.0015141039939,9852.429060169241,-2587.2101095645667,8273.8568761900333,-8273.8568761900333,2587.2101095645667,19087.984762743039,0.0
435012.02908761695,3887225.878295721,-42500.0,10475.501633975106,-1211.4419931429202,-154.98092434748614,-8066.1333095371183,1118.2739405361863,4340.0064818582678,8739.2458952325233,-2308.5718565591915,7723.5650190563329,-7723.5650190563329,2308.5718565591915,16993.236613763991,0.0
440012.02908761695,3887225.878295721,-42500.0,9725.9299393084584,-978.201553595826,-188.96994976477563,-7060.516741868385,873.92601925286772,3636.1255819706071,7770.9128705211842,-2051.9505703256514,7171.9966276094547,-7171.9966276094547,2051.9505703256514,15156.705488341224,0.0
445012.02908761695,3887225.878295721,-42500.0,9001.2677633502426,-785.73005631101194,-202.53726988161245,-6188.4167896493573,683.42248022726301,3055.4060312555634,6927.019168556405,-1819.6254231129051,6635.5088757208714,-6635.5088757208714,1819.6254231129051,13545.536822179914,0.0
450012.02908761695,3887225.878295721,-42500.0,8312.6608782307248,-627.50274598185877,-202.90915003881165,-5432.6081776248157,534.57071894178682,2575.2359461756769,6190.0967295495511,-1611.6674434331767,6123.9354851920179,-6123.9354851920179,1611.6674434331767,12130.696824608105,0.0
455012.02908761695,3887225.878295721,-42500.0,7666.1444169523465,-497.78059430839085,-195.04759952653041,-4777.5915557007957,417.99881121453217,2177.2784261847942,5545.2280446178138,-1426.9247801423385,5642.7293982628507,-5642.7293982628507,1426.9247801423385,10886.718012167974,0.0
250012.02908761695,3892225.878295721,-42500.0,5429.4022059226836,2831.6799840537506,482.35300852639421,3734.4018144076763,1384.029922859746,1807.3292168971695,4929.0952272811746,1815.620367494274,3500.3369990273854,-3500.3369990273854,-1815.620367494274,9555.7970383823758,0.0
255012.02908761695,3892225.878295721,-42500.0,5739.0870160276963,3186.1402277915249,585.27361765346825,4181.8713116283652,1602.8457571683161,2113.4698780910644,5466.2754776809252,2114.5360107001734,3653.3936242767368,-3653.3936242767368,-2114.5360107001734,10566.31881080735,0.0
260012.02908761695,3892225.878295721,-42500.0,6031.9585788748927,3590.1084892234326,717.02792686808891,4681.2482538020677,1860.2320872453975,2475.2598655291004,6070.8217140346123,2471.0370483213892,3778.8438075848962,-3778.8438075848962,-2471.0370483213892,11695.523474870695,0.0
265012.02908761695,3892225.878295721,-42500.0,6291.1647830098382,4049.842316901616,886.55849500243392,5234.7669387256074,2162.8432826463218,2902.1439950911827,6750.7400682423431,2897.2657049820309,3860.5579260307813,-3860.5579260307813,-2897.2657049820309,12954.713591902788,0.0
270012.02908761695,3892225.878295721,-42500.0,6493.2117935955512,4571.6777291045792,1105.7093978324278,5842.3437007341181,2518.054895141338,3404.3589137956401,7514.3164541215692,3407.9075857966814,3876.5126109832322,-3876.5126109832322,-3407.9075857966814,14354.317983835059,0.0
275012.02908761695,3892225.878295721,-42500.0,6605.8083063413305,5161.5050214011808,1390.1450521232778,6499.9561006536969,2933.6953868943342,3992.3567951665441,8369.6610763956651,4020.5695965003356,3796.9399739646119,-3796.9399739646119,-4020.5695965003356,15902.634531030597,0.0
280012.02908761695,3892225.878295721,-42500.0,6585.2091169792293,5823.8599594628768,1760.4932481450471,7197.1921564406548,3417.4467584328486,4675.6388799758251,9323.9216760871986,4756.0445856514289,3582.0680725474117,-3582.0680725474117,-4756.0445856514289,17603.942575814457,0.0
285012.02908761695,3892225.878295721,-42500.0,6373.1248523980621,6560.4149770625272,2243.6831748320533,7913.5842360978659,3975.6578451953228,5460.5415950156839,10381.965135560346,5638.2697019664975,3179.5306680419985,-3179.5306680419985,-5638.2697019664975,19455.73909514178,0.0
290012.02908761695,3892225.878295721,-42500.0,5893.5983227384422,7367.5750207608717,2874.3233867947092,8613.273331492026,4611.1243186000183,6346.2161560079785,11544.265934410381,6693.6110048681658,2521.8183719471085,-2521.8183719471085,-6693.6110048681658,21444.901064698592,0.0
295012.02908761695,3892225.878295721,-42500.0,5050.88908372878,8232.8437645654449,3695.7037956440004,9237.5503228670241,5319.0862671696623,7317.4986891079798,12803.65373104332,7948.854252475413,1524.7014332922527,-1524.7014332922527,-7948.854252475413,23542.725323755381,0.0
300012.02908761695,3892225.878295721,-42500.0,3730.7362093621282,9129.795201046596,4759.5058422610773,9695.2574681626411,6080.2463300521285,8332.5805438140869,14140.640038665169,9426.9776523966284,88.672902037358654,-88.672902037358654,-9426.9776523966284,25699.471204538007,0.0
305012.02908761695,3892225.878295721,-42500.0,1809.655692016994,10012.269569340551,6122.4968138281893,9852.5551573362609,6849.1422555736026,9302.4778505550039,15517.593756675393,11139.679309676389,-1892.6826944311051,1892.6826944311051,-11139.679309676389,27840.887827104976,0.0
310012.02908761695,3892225.878295721,-42500.0,-819.96011296581401,10810.670921438194,7837.5512786098125,9527.4992986443012,7536.3544266599647,10059.077533801628,16874.125222367973,13076.529434715725,-4511.1427268378766,4511.1427268378766,-13076.529434715725,29873.768281945588,0.0
315012.02908761695,3892225.878295721,-42500.0,-4199.2351517427533,11438.07763068653,9936.3261116030189,8503.0753843735274,7985.7023617314135,10311.713356696553,18132.513931306061,15194.191451040522,-7801.9346808591072,7801.9346808591072,-15194.191451040522,31717.051825136867,0.0
320012.02908761695,3892225.878295721,-42500.0,-8223.0782649707453,11820.98740383035,12404.729926472222,6584.8747305910611,7957.1716373858371,9605.0712074333842,19240.109062901753,17417.549974378489,-11680.630636440119,11680.630636440119,-17417.549974378489,33389.106506852615,0.0
325012.02908761695,3892225.878295721,-42500.0,-12554.877813453199,11971.148579537634,15164.281370758588,3737.2767749253362,7148.1778496674306,7323.1983831385287,20310.718088907422,19675.419376830283,-15881.634764864388,15881.634764864388,-19675.419376830283,35179.573455581827,0.0
330012.02908761695,3892225.878295721,-42500.0,-16613.527172516882,12087.189527728116,18089.540296767085,304.63290076064777,5314.2373526513129,2836.0862398195241,21839.353098945452,21986.639305359644,-19962.596996420503,19962.596996420503,-21986.639305359644,37827.652831473577,0.0
335012.02908761695,3892225.878295721,-42500.0,-19746.582413134736,12590.755321731009,21081.226463489853,-2778.7274274607908,2538.7123692022847,-4084.0724674861262,24320.910674358012,24543.22239981627,-23451.795385836576,23451.795385836576,-24543.22239981627,42318.302794637631,0.0
340012.02908761695,3892225.878295721,-42500.0,-21609.361950169594,13916.122094767976,24117.786969742971,-4030.0248307768238,-438.98833504466165,-12531.509086203398,27301.097839953862,27606.358825836418,-26107.046397001555,26107.046397001555,-27606.358825836418,48872.814798561143,0.0
345012.02908761695,3892225.878295721,-42500.0,-22574.296044990126,15995.230434593388,27081.073069217684,-1993.3520262893569,-2183.4098680261518,-19606.614205108785,29710.686205547499,31046.320636563407,-28092.862933118795,28092.862933118795,-31046.320636563407,55864.710354774914,0.0
350012.02908761695,3892225.878295721,-42500.0,-23929.653898664601,17811.031836098558,29329.905486562697,3352.0493350242232,-1232.6490646595903,-20120.765740436771,32646.746241414796,33809.766780419384,-29961.733192165768,29961.733192165768,-33809.766780419384,60317.444661045563,0.0
355012.02908761695,3892225.878295721,-42500.0,-27038.727273301611,17733.733094972238,29631.896921673491,8455.7902981074621,2581.314059386144,-9112.1950231182982,34797.730421222674,34130.668483545436,-32141.234771848623,32141.234771848623,-34130.668483545436,60786.174553619669,0.0
360012.02908761695,3892225.878295721,-42500.0,-30376.047632927843,14927.766597164788,27128.283539459175,7063.8082079609121,7413.8497009214543,11322.305112644157,34434.215345207311,30829.684783994351,-33287.396579931585,33287.396579931585,-30829.684783994351,60255.847415431257,0.0
365012.02908761695,3892225.878295721,-42500.0,-29311.421214404603,10376.370297756446,22398.02419558672,-2421.3100225141729,10869.507393162678,30516.771310096916,34972.994094422778,24508.823887270977,-30427.111555251257,30427.111555251257,-24508.823887270977,62085.672190026664,0.0
370012.02908761695,3892225.878295721,-42500.0,-22197.422823631783,5850.5975725815179,16971.053274514248,-14316.250685084258,12007.676852162431,40231.926829196673,37031.531330191661,17131.143077470038,-23001.973216606097,23001.973216606097,-17131.143077470038,64315.139860594521,0.0
375012.02908761695,3892225.878295721,-42500.0,-12117.198676328531,2435.1129936083989,12074.864506825257,-23005.788205239431,11331.387852360116,40876.488662661148,36901.288385311607,10526.413609118741,-13694.664142710435,13694.664142710435,-10526.413609118741,64049.585768503792,0.0
380012.02908761695,3892225.878295721,-42500.0,-2621.8598222143455,308.91642725653833,8200.8710785213461,-27078.183980337704,9738.6644431232216,36646.377959328325,34734.154603666371,5530.054521813604,-5248.9726205175439,5248.9726205175439,-5530.054521813604,60980.583948213964,0.0
385012.02908761695,3892225.878295721,-42500.0,4617.4564934481641,-802.14235497587924,5353.4829356677028,-27628.246869384679,7908.2353343288487,30918.775188511907,31521.867648339929,2152.4425603171903,1132.9873973967801,-1132.9873973967801,-2152.4425603171903,56146.714637701269,0.0
390012.02908761695,3892225.878295721,-42500.0,9428.575127519056,-1252.8271405230735,3349.9958637332334,-26158.37218393771,6201.6690261584035,25389.498346916465,28010.884363190034,52.109968985389514,5407.0501760778079,-5407.0501760778079,-52.109968985389514,50612.173065343486,0.0
395012.02908761695,3892225.878295721,-42500.0,12266.258397439316,-1326.1001023680017,1980.3961343027368,-23777.808249319143,4758.2205573488081,20650.392342403007,24618.945111778983,-1156.2733776767659,7993.35854171143,-7993.35854171143,1156.2733776767659,45074.170208032607,0.0
400012.02908761695,3892225.878295721,-42500.0,13693.133817226699,-1208.9187985991691,1065.3362779098663,-21137.01475188824,3599.3475440044676,16778.971746165586,21533.962664106828,-1784.8186421075306,9376.2026754659601,-9376.2026754659601,1784.8186421075306,39893.878516640551,0.0
405012.02908761695,3892225.878295721,-42500.0,14181.944004968747,-1012.2678008143153,467.68722797416115,-18565.162175929083,2696.1596189891752,13670.178396060439,18813.339895644898,-2054.4175634819399,9955.8017073074498,-9955.8017073074498,2054.4175634819399,35216.500198687281,0.0
410012.02908761695,3892225.878295721,-42500.0,14077.147424064782,-796.88019522768457,87.885173969953229,-16205.427023653489,2004.4200728638352,11181.474600869591,16450.34432870425,-2110.9322748452914,10022.70296980624,-10022.70296980624,2110.9322748452914,31070.593839928162,0.0
415012.02908761695,3892225.878295721,-42500.0,13613.3063783424,-593.1756309794398,-144.4201705122033,-14104.63035410639,1480.1386007885815,9183.6496242110425,14411.712564582784,-2046.8889444752285,9775.0246051109752,-9775.0246051109752,2046.8889444752285,27429.996126904363,0.0
420012.02908761695,3892225.878295721,-42500.0,12944.741575796274,-414.35274688458207,-278.1524340663625,-12263.851420348214,1085.3005739405412,7572.4486250754217,12656.572828672794,-1919.4298440067505,9343.5722987273057,-9343.5722987273057,1919.4298440067505,24247.145169115924,0.0
425012.02908761695,3892225.878295721,-42500.0,12171.134192687141,-264.33662620439617,-346.97444516928215,-10664.585651940379,789.13386089110134,6266.8989778114601,11144.95484197199,-1763.0714977520183,8813.2193375754978,-8813.2193375754978,1763.0714977520183,21469.307375606561,0.0
430012.02908761695,3892225.878295721,-42500.0,11356.069974678405,-142.37313562781662,-373.85346046940987,-9281.4269467475206,567.5758450275315,5204.5232325388679,9840.9940622797967,-1598.1544197543712,8238.3867106514153,-8238.3867106514153,1598.1544197543712,19045.66498377996,0.0
435012.02908761695,3892225.878295721,-42500.0,10539.549250759868,-45.597174862273,-374.33623999511263,-8087.9139676561817,402.17604568442175,4336.8306964748972,8713.717715024779,-1436.2566358692088,7653.5282889088776,-7653.5282889088776,1436.2566358692088,16930.01432376809,0.0
440012.02908761695,3892225.878295721,-42500.0,9746.1747102694426,29.587808288188164,-358.85592563406681,-7059.044079929995,278.94591829252994,3625.8221297202804,7736.8243608911062,-1283.5961079715398,7080.0287839022876,-7080.0287839022876,1283.5961079715398,15081.458095694226,0.0
445012.02908761695,3892225.878295721,-42500.0,8990.4632267885536,86.804274459003011,-334.34082641474924,-6172.2226806001245,187.34719792931872,3041.444133361234,6888.1224253015371,-1143.151118827564,6530.7006550886017,-6530.7006550886017,1143.151118827564,13464.258678823624,0.0
450012.02908761695,3892225.878295721,-42500.0,8280.3158696706359,129.36992577865018,-305.33010624336697,-5407.5029245416181,119.46802656627681,2559.7511560442258,6148.9185825163049,-1015.9770727071118,6012.7306870288303,-6012.7306870288303,1015.9770727071118,12047.394957043411,0.0
455012.02908761695,3892225.878295721,-42500.0,7619.307020986269,160.17019343651063,-274.74150620298872,-4747.5104753054202,69.377509834527231,2161.5606290070659,5503.4569103384047,-902.01986613242434,5529.6249426396516,-5529.6249426396516,902.01986613242434,10804.038749005771,0.0
250012.02908761695,3897225.878295721,-42500.0,6298.3100976159885,2412.6375668670448,179.03163837265166,4197.1370054974568,1141.2912614496636,1999.6315024493256,5226.5631647671489,1175.7223556260433,4310.5943690433087,-4310.5943690433087,-1175.7223556260433,10190.062298239247,0.0
255012.02908761695,3897225.878295721,-42500.0,6746.6543956029354,2718.347890118489,226.49825832786274,4741.0986473415114,1320.1338438075813,2355.19594559097,5818.092639387497,1383.537408708394,4593.0815436520916,-4593.0815436520916,-1383.537408708394,11313.483266063418,0.0
260012.02908761695,3897225.878295721,-42500.0,7203.1102863837095,3069.2718156907249,291.48769671707697,5360.2536419448343,1530.8270671966757,2780.9582474076074,6489.1585000769983,1635.4685025425056,4871.1490994373398,-4871.1490994373398,-1635.4685025425056,12579.755555375379,0.0
265012.02908761695,3897225.878295721,-42500.0,7655.2639976207711,3472.3464670529779,380.61205521539512,6063.0959452677816,1779.2151078352611,3291.1803689522976,7250.9350931115932,1942.2529925753984,5132.7400180073619,-5132.7400180073619,-1942.2529925753984,14006.083815300526,0.0
270012.02908761695,3897225.878295721,-42500.0,8084.5290629352139,3935.3355106758472,503.02508270562453,6857.5911958123952,2072.0447618748326,3902.6965707104714,8115.7839827747976,2317.5019503053609,5360.3009237251235,-5360.3009237251235,-2317.5019503053609,15610.340232290187,0.0
275012.02908761695,3897225.878295721,-42500.0,8463.7243062258713,4466.7171322520571,671.40662399431426,7750.0440009179347,2416.960558554867,4635.0691879039005,9097.0565209256947,2778.4807553544297,5528.6675596195209,-5528.6675596195209,-2778.4807553544297,17410.170728346937,0.0
280012.02908761695,3897225.878295721,-42500.0,8753.8098242670058,5075.3625777210418,903.30660990144554,8743.2007525271874,2822.3638417867805,5510.4838851400946,10208.611241032366,3347.0375154178819,5602.2240417012454,-5602.2240417012454,-3347.0375154178819,19421.473430331509,0.0
285012.02908761695,3897225.878295721,-42500.0,8899.5632562293449,5769.8270654940416,1222.9361292944739,9833.1089993310507,3297.0007860723172,6553.0677836444356,11463.807788311762,4050.6183864143509,5531.1602445108401,-5531.1602445108401,-4050.6183864143509,21655.875130692857,0.0
290012.02908761695,3897225.878295721,-42500.0,8824.1208330963309,6556.9404252465893,1663.4531817826955,11004.022392018356,3849.0049731584741,7787.0445723245493,12873.598409888531,4923.16294550156,5246.7817742045272,-5246.7817742045272,-4923.16294550156,24116.694994003436,0.0
295012.02908761695,3897225.878295721,-42500.0,8422.6879540791087,7439.1931053780881,2269.6421543645906,12220.298609885553,4483.844834884615,9232.5511412850337,14443.066596383018,6005.3937341633045,4656.1716394894593,-4656.1716394894593,-6005.3937341633045,26792.637912481641,0.0
300012.02908761695,3897225.878295721,-42500.0,7556.8166365006991,8410.2129544498293,3100.5029551136113,13414.00485944564,5200.1026229314602,10896.887023235937,16165.415554343919,7343.5091368380345,3637.4478919175363,-3637.4478919175363,-7343.5091368380345,29648.339413343278,0.0
305012.02908761695,3897225.878295721,-42500.0,6053.077877779554,9447.6844558602188,4230.4187616061308,14467.346523005859,5981.1086176784574,12757.177788561172,18012.079693800024,8984.5653302688424,2038.9129452915708,-2038.9129452915708,-8984.5653302688424,32611.284589199127,0.0
310012.02908761695,3897225.878295721,-42500.0,3714.62570783604,10504.197694522351,5746.0406688089943,15191.602232530313,6779.3219117266399,14728.054260490724,19917.865088756254,10966.309148317589,-310.80394998992597,310.80394998992597,-10966.309148317589,35556.938440115489,0.0
315012.02908761695,3897225.878295721,-42500.0,360.89686010998503,11500.601173663434,7733.9893995773364,15312.216279510636,7490.2889524489137,16606.876047061454,21762.519068304529,13300.496169849601,-3569.3099537195985,3569.3099537195985,-13300.496169849601,38301.539073656408,0.0
320012.02908761695,3897225.878295721,-42500.0,-4085.653937544128,12336.054516668781,10254.109351706433,14487.457940550248,7918.8995300258903,17996.430259815836,23359.698319379771,15955.647107690462,-7809.5483247516913,7809.5483247516913,-15955.647107690462,40631.469805064051,0.0
325012.02908761695,3897225.878295721,-42500.0,-9464.3416530498707,12941.749164619201,13300.67741003471,12413.018819090159,7763.5472603351454,18237.560824706925,24494.296806976243,18861.427275719368,-12913.589948769311,12913.589948769311,-18861.427275719368,42432.780688511419,0.0
330012.02908761695,3897225.878295721,-42500.0,-15257.489781250964,13395.831504053842,16776.96345232919,9063.3159748159997,6692.3573862947942,16459.402711929262,25147.203601190748,21969.240059902917,-18487.436928326399,18487.436928326399,-21969.240059902917,43991.738891544883,0.0
335012.02908761695,3897225.878295721,-42500.0,-20642.928129685788,14024.313509212066,20524.840660195452,5012.494371273383,4615.5358507130732,11934.480652689428,26223.88750704837,25348.089096934611,-23912.548427015008,23912.548427015008,-25348.089096934611,46306.181432208701,0.0
340012.02908761695,3897225.878295721,-42500.0,-24811.93517116701,15243.626503749356,24370.961495258893,1565.2163116997122,2103.4362593713963,4853.5605873950544,29070.276021561996,29108.628211646686,-28560.502776856109,28560.502776856109,-29108.628211646686,50573.623918069337,0.0
345012.02908761695,3897225.878295721,-42500.0,-27396.267794333384,16976.68483327817,27971.036624780321,378.82417647809103,464.74975153347407,-2649.7321373511468,32479.723600497869,32891.328385286601,-31973.089466801815,31973.089466801815,-32891.328385286601,56333.670541449595,0.0
350012.02908761695,3897225.878295721,-42500.0,-28908.09141303338,18163.718367644644,30407.596741201432,2281.1527160656979,836.30974998720967,-5806.0214389038401,34870.918372916058,35340.499399957429,-34019.641672684105,34019.641672684105,-35340.499399957429,60738.88811914793,0.0
355012.02908761695,3897225.878295721,-42500.0,-30586.510080454755,17457.812833187792,30306.181563644743,4971.7016805868843,2765.9293023399305,870.30363206705169,35554.436098832753,34814.392934164985,-35009.935143265153,35009.935143265153,-34814.392934164985,61590.512267555736,0.0
360012.02908761695,3897225.878295721,-42500.0,-31835.24832643069,14836.411170718555,27064.288341057956,3010.7862672934921,4448.9419423513727,16729.246155043664,33828.166736553074,31060.090232155355,-34469.414379935333,34469.414379935333,-31060.090232155355,60943.993672694494,0.0
365012.02908761695,3897225.878295721,-42500.0,-29264.958137774811,11622.029959260119,21685.232760737974,-5557.6695901091243,4874.1930960345508,32599.386606043532,33458.063651090444,25346.302799544239,-30516.252579451022,30516.252579451022,-25346.302799544239,61969.912204395849,0.0
370012.02908761695,3897225.878295721,-42500.0,-21618.424019069349,8834.6632470978602,15891.668814645005,-16174.118330164581,4410.2652307919634,40657.106491182567,36239.841561011817,19164.507360287971,-22836.393764106579,22836.393764106579,-19164.507360287971,63455.490602311067,0.0
375012.02908761695,3897225.878295721,-42500.0,-11571.385203102966,6697.6074112148726,10895.840386141997,-23912.024937060018,3628.2758190196137,40692.929949379817,36286.925509437926,13570.026155504207,-13693.450669987962,13693.450669987962,-13570.026155504207,62861.136693274231,0.0
380012.02908761695,3897225.878295721,-42500.0,-2278.8412755296977,5130.4480506361824,7102.0568938351789,-27407.760051912068,2803.6940458318227,36275.105914527689,34192.090421681678,9090.203353750574,-5482.6180645835175,5482.6180645835175,-9090.203353750574,59739.768726360366,0.0
385012.02908761695,3897225.878295721,-42500.0,4748.4403918976113,4013.3560858501978,4423.1189107505115,-27623.386072518719,2044.4430704150011,30499.012950054024,31025.938834475804,5800.9409603473805,713.28171676461352,-713.28171676461352,-5800.9409603473805,54968.988834598771,0.0
390012.02908761695,3897225.878295721,-42500.0,9381.6947858530439,3231.6402706743465,2610.193595576397,-25962.028494430866,1397.4016250687716,24972.26335722367,27552.998105572231,3525.0334315569135,4864.9682153076346,-4864.9682153076346,-3525.0334315569135,49535.442578480564,0.0
395012.02908761695,3897225.878295721,-42500.0,12083.941766209806,2686.1613193756057,1417.1100364694857,-23477.852593916374,877.83519862578783,20259.569443710843,24197.572908450929,2012.7613109821959,7382.0529090315013,-7382.0529090315013,-2012.7613109821959,44106.882579327605,0.0
400012.02908761695,3897225.878295721,-42500.0,13415.75143142591,2299.5893889299632,650.0384464846295,-20789.388396812312,480.72105521867451,16426.495843337329,21149.411457892293,1036.9089174477172,8735.7518939739348,-8735.7518939739348,-1036.9089174477172,39033.523168855842,0.0
405012.02908761695,3897225.878295721,-42500.0,13844.012008929825,2016.6049661581724,169.48769500119275,-18205.299993484801,190.00831602244807,13360.65180093828,18465.581705137196,422.49004745953425,9314.9596009712604,-9314.9596009712604,-422.49004745953425,34456.113698351648,0.0
410012.02908761695,3897225.878295721,-42500.0,13706.111017575226,1800.1161377297497,-120.98263212322443,-15854.914046472068,-14.282151501136115,10914.778578471978,16138.350335020685,45.535811110564282,9401.091317038954,-9401.091317038954,-45.535811110564282,30401.329001718816,0.0
415012.02908761695,3897225.878295721,-42500.0,13229.75318194743,1626.4031501161699,-286.8050472489046,-13775.706004498574,-151.68642215632525,8956.9124613378917,14133.52620472645,-177.88180162813023,9185.1778571833129,-9185.1778571833129,177.88180162813023,26842.414747596958,0.0
420012.02908761695,3897225.878295721,-42500.0,12563.315825354406,1480.8164919006476,-371.94633202269972,-11962.583971228938,-239.18996966650232,7381.4409945948937,12409.603544736852,-303.1723535926676,8792.7123426638973,-8792.7123426638973,303.1723535926676,23731.924873850337,0.0
425012.02908761695,3897225.878295721,-42500.0,11801.70193755117,1354.5298066797507,-405.7687841317437,-10393.121250251465,-290.56173669480597,6106.9553499531712,10926.299842033945,-366.42641282728846,8304.739596745947,-8304.739596745947,366.42641282728846,21017.670356381765,0.0
430012.02908761695,3897225.878295721,-42500.0,11004.848828977207,1242.3013049654523,-407.77028846544715,-9039.5300267442599,-316.46117296262133,5071.0803268827794,9647.6844757369163,-390.98483231369619,7773.0316634106402,-7773.0316634106402,390.98483231369619,18649.593396182965,0.0
435012.02908761695,3897225.878295721,-42500.0,10210.083580534667,1141.0213887463356,-390.81215825733392,-7873.9970729550359,-324.87643651738875,4225.7080589607021,8542.8855157140042,-391.88521093729696,7230.2957347392075,-7230.2957347392075,391.88521093729696,16582.337384169434,0.0
440012.02908761695,3897225.878295721,-42500.0,9440.109777319838,1048.8091571446305,-363.29998200027001,-6870.8276340153843,-321.64898071583997,3533.3373453309323,7585.792806426447,-378.78643048568892,6696.8285995247297,-6696.8285995247297,378.78643048568892,14775.841303978601,0.0
445012.02908761695,3897225.878295721,-42500.0,8708.1468390559257,964.47298222554014,-330.65593546020875,-6007.1552696559665,-310.96693198202064,2964.4365747355055,6754.4573371550669,-357.86667477249466,6184.8300742108486,-6184.8300742108486,357.86667477249466,13195.164566001396,0.0
450012.02908761695,3897225.878295721,-42500.0,8021.2432224145441,887.19647813075926,-296.31189312853303,-5263.0120424768793,-295.78140291596179,2495.5541073337299,6030.4438496959583,-333.05040682116623,5701.2017122116413,-5701.2017122116413,333.05040682116623,11810.014373221729,0.0
455012.02908761695,3897225.878295721,-42500.0,7382.4372958761787,816.36320143048249,-262.37795768817045,-4621.1429374915551,-278.13657525895655,2107.9486111041633,5398.247860961601,-306.79979766175757,5249.3796005726999,-5249.3796005726999,306.79979766175757,10594.208428874925,0.0
250012.02908761695,3902225.878295721,-42500.0,7032.013799039767,1868.852604835733,-65.665004126498502,4587.7209454816893,838.07205964940295,2162.3231501535515,5487.8272033656358,482.21178225681069,5018.6425617149207,-5018.6425617149207,-482.21178225681069,10735.637206999958,0.0
255012.02908761695,3902225.878295721,-42500.0,7596.5636999633789,2097.9305412483495,-63.45611539138087,5212.5088489339096,960.89692862070115,2559.4264000425123,6126.9496547830076,584.38751895529776,5414.3483932214967,-5414.3483932214967,-584.38751895529776,11956.117100065294,0.0
260012.02908761695,3902225.878295721,-42500.0,8190.4082080474218,2360.7285771006473,-53.332784140642651,5932.0729238523454,1103.9475199487499,3038.9613211046653,6856.4233868185765,712.69004119207511,5826.4490621754885,-5826.4490621754885,-712.69004119207511,13340.658261518902,0.0
265012.02908761695,3902225.878295721,-42500.0,8805.1624965934152,2662.8057967843479,-30.881894168854455,6760.2970210370968,1270.5686930374907,3619.2894741632349,7690.3395323390032,874.88249357224731,6246.884597837794,-6246.884597837794,-874.88249357224731,14911.936199988113,0.0
270012.02908761695,3902225.878295721,-42500.0,9426.8702656881251,3010.6850100644306,10.367909611833092,7712.1764074758894,1464.5493847712937,4322.9095036045537,8644.8832101494063,1081.3450942132117,6662.7144083290714,-6662.7144083290714,-1081.3450942132117,16694.905083655416,0.0
275012.02908761695,3902225.878295721,-42500.0,10033.476669862735,3411.9940986759893,79.872505384106177,8803.2064985105062,1690.1221782978921,5177.3034137701061,9738.4503066757479,1346.0396364439894,7053.9197201632669,-7053.9197201632669,-1346.0396364439894,18716.415583605169,0.0
280012.02908761695,3902225.878295721,-42500.0,10591.213073089475,3875.5694760128295,191.40460423385281,10048.143867114915,1951.9227580012587,6215.8710283284108,10991.58728343123,1687.819513541895,7390.2625474454835,-7390.2625474454835,-1687.819513541895,21004.347743236947,0.0
285012.02908761695,3902225.878295721,-42500.0,11049.435499610068,4411.4354554486517,364.95719713849081,11458.62837321999,2254.8705500443662,7478.8320707084476,12426.53355614001,2132.1748423248673,7626.810034127996,-7626.810034127996,-2132.1748423248673,23585.871938333486,0.0
290012.02908761695,3902225.878295721,-42500.0,11333.370593314354,5030.4539957141542,629.41173755707678,13038.799122147419,2603.8649915159122,9013.7846257945585,14065.973196339708,2713.4382956721943,7697.6671701137457,-7697.6671701137457,-2713.4382956721943,26484.222662218865,0.0
295012.02908761695,3902225.878295721,-42500.0,11334.250499190168,5743.2274113285839,1026.1622722409063,14777.368062578222,3003.0261921359461,10875.093426569036,15930.223782204013,3477.3126531013313,7507.4947711983059,-7507.4947711983059,-3477.3126531013313,29712.872282811972,0.0
300012.02908761695,3902225.878295721,-42500.0,10896.886899386212,6557.4885302957264,1613.7414546217969,16633.633974481269,3453.8032074187372,13120.115238745777,18031.470644782086,4483.1647517137044,6920.8770006513278,-6920.8770006513278,-4483.1647517137044,33265.292129807611,0.0
305012.02908761695,3902225.878295721,-42500.0,9806.7047817377534,7472.7623423532723,2472.9840314722987,18513.782283942259,3950.3632469758877,15797.746450748989,20362.679503602776,5804.6584171523773,5751.2428781220497,-5751.2428781220497,-5804.6584171523773,37097.651013549774,0.0
310012.02908761695,3902225.878295721,-42500.0,7783.4758701769642,8471.0689108669176,3710.9434158949589,20233.654396549478,4468.9662233663566,18919.854883406304,22877.642442018921,7525.9197996016665,3755.2831048989715,-3755.2831048989715,-7525.9197996016665,41101.727902653802,0.0
315012.02908761695,3902225.878295721,-42500.0,4500.2060674715322,9504.5594881810448,5458.9928157130462,21468.926412301942,4945.7584318307772,22398.433665786302,25458.288567601106,9729.1628710273726,647.71130743432877,-647.71130743432877,-9729.1628710273726,45069.293052289067,0.0
320012.02908761695,3902225.878295721,-42500.0,-336.61487512738756,10489.611138749233,7856.2556360861054,21712.908551894099,5238.1528985037157,25925.485489751136,27869.602183419142,12471.860514261432,-3835.1625345389903,3835.1625345389903,-12471.860514261432,48666.423860666961,0.0
325012.02908761695,3902225.878295721,-42500.0,-6799.4407937487522,11336.886182925753,11007.521898116231,20309.579232903321,5082.2865465820778,28790.895631573574,29719.585895503333,15764.626130785498,-9788.3610800302849,9788.3610800302849,-15764.626130785498,51483.056190476316,0.0
330012.02908761695,3902225.878295721,-42500.0,-14450.26356974462,12063.345752820007,14917.255227796477,16693.440234598878,4120.5661675241727,29730.023002605412,30482.296082850302,19585.830555242534,-16914.806550268189,16914.806550268189,-19585.830555242534,53295.463737752689,0.0
335012.02908761695,3902225.878295721,-42500.0,-22129.640829756092,12958.228220288038,19432.456060210221,10932.355813727934,2166.9267468719117,27102.959951275032,29726.224516075679,23945.718588841883,-24359.288013208774,24359.288013208774,-23945.718588841883,54602.469862352125,0.0
340012.02908761695,3902225.878295721,-42500.0,-28167.586098778116,14504.179522661176,24204.36365089937,4349.3749237575339,-235.9303201181954,19842.889592710206,30156.333250997362,28803.052686570994,-30813.941273518245,30813.941273518245,-28803.052686570994,56757.87631016357,0.0
345012.02908761695,3902225.878295721,-42500.0,-31203.903454985506,16658.016453425658,28537.106056659202,-450.3151463816514,-1618.3775369813441,9257.1345441244666,34260.863401698422,33481.188884554169,-34955.097405952969,34955.097405952969,-33481.188884554169,60248.111030285421,0.0
350012.02908761695,3902225.878295721,-42500.0,-31467.381369583865,18122.809885244355,31189.312795713933,-1106.5350913927427,-903.28026730630381,620.87133586045593,36220.934657146572,36175.081479542147,-36261.796743287734,36261.796743287734,-36175.081479542147,62740.761624384191,0.0
355012.02908761695,3902225.878295721,-42500.0,-31026.010747663502,17432.152845714951,30899.879557275486,1124.4236103656428,693.61991458402099,1031.7074940462844,35557.468360162544,35296.872326692494,-35655.153098201583,35655.153098201583,-35296.872326692494,61596.969205431662,0.0
360012.02908761695,3902225.878295721,-42500.0,-30628.194595611811,15103.163792420935,27580.915210431074,829.55288350522574,864.7884824798432,11597.382604229892,32821.138682216508,31509.879449309199,-33906.834347186945,33906.834347186945,-31509.879449309199,58326.763114050795,0.0
365012.02908761695,3902225.878295721,-42500.0,-27853.68347693903,12893.42993339211,22433.765661501217,-4986.8331189514511,-618.20305265986281,24665.802875098969,29223.774389144932,26700.287285782579,-29992.913948259898,29992.913948259898,-26700.287285782579,56749.683998077388,0.0
370012.02908761695,3902225.878295721,-42500.0,-21215.886732957879,11464.77794841994,16919.842010599255,-13366.205180547622,-2294.0668490979006,32634.518178746574,32004.473651433615,21911.7378794629,-23314.2703554543,23314.2703554543,-21911.7378794629,56979.41235782297,0.0
375012.02908761695,3902225.878295721,-42500.0,-12403.292249213528,10428.365546723173,12037.727811404104,-20126.458799819917,-3251.3132726277472,34072.823959687805,32605.646004104739,17450.661470042607,-15260.10767055975,15260.10767055975,-17450.661470042607,56521.30324264073,0.0
380012.02908761695,3902225.878295721,-42500.0,-3950.681779103681,9417.7197860092874,8196.7329298360473,-23616.84332210711,-3508.1283000857584,31326.019863642778,31172.994595624994,13519.609273436581,-7725.8840906056539,7725.8840906056539,-13519.609273436581,54219.477444919787,0.0
385012.02908761695,3902225.878295721,-42500.0,2700.5918760086174,8366.0010317843971,5392.4464676657872,-24278.703213581033,-3374.7295715301325,26940.255368403545,28619.605279578747,10267.043989385116,-1772.0640329570906,1772.0640329570906,-10267.043989385116,50418.848915150003,0.0
390012.02908761695,3902225.878295721,-42500.0,7274.8060089460332,7336.2264380007691,3437.6865415391326,-23175.925953596179,-3088.5002963654142,22429.242017427619,25653.075166809387,7714.0078832088475,2421.0998010455546,-2421.0998010455546,-7714.0078832088475,45869.135447254346,0.0
395012.02908761695,3902225.878295721,-42500.0,10086.405322482251,6390.6337609613975,2114.1037957722192,-21212.82722072212,-2768.1955823764633,18425.032123883168,22695.732411766305,5780.0347610156368,5122.1901382482065,-5122.1901382482065,-5780.0347610156368,41170.739266875069,0.0
400012.02908761695,3902225.878295721,-42500.0,11599.35784147238,5557.7864616076795,1235.7005653192789,-18962.547239767457,-2459.9739524194379,15082.505187765131,19954.54941094324,4343.9633541149769,6713.3388754814869,-6713.3388754814869,-4343.9633541149769,36676.856912395539,0.0
405012.02908761695,3902225.878295721,-42500.0,12228.226726369403,4840.1527041246327,662.58179710683987,-16731.974043380338,-2177.6079504268373,12360.017815419822,17506.653150956219,3286.3621981883498,7536.4463570289627,-7536.4463570289627,-3286.3621981883498,32552.876837259868,0.0
410012.02908761695,3902225.878295721,-42500.0,12285.27287479229,4227.2489648421461,295.52613224087071,-14662.610347260672,-1923.2004213429193,10158.81685811752,15361.612542963754,2507.6814224611503,7851.3115222022116,-7851.3115222022116,-2507.6814224611503,28852.410655667809,0.0
415012.02908761695,3902225.878295721,-42500.0,11987.637527727942,3704.4832493589597,66.164279702121547,-12806.204889873314,-1695.5003293274144,8378.6235160598262,13498.667653340981,1931.6134475812451,7840.7432064669665,-7840.7432064669665,-1931.6134475812451,25571.705968253194,0.0
420012.02908761695,3902225.878295721,-42500.0,11480.345664213284,3257.5005357477985,-71.943345804578399,-11170.209527098823,-1492.5953477076971,6934.3999062256444,11886.318839001693,1502.1675308039157,7628.5137720023449,-7628.5137720023449,-1502.1675308039157,22681.338572942812,0.0
425012.02908761695,3902225.878295721,-42500.0,10858.281482357355,2873.789794587065,-150.11404236167232,-9742.2317135256253,-1312.5508679688792,5758.2773773845911,10491.616764578828,1179.1208395863732,7296.8452151547908,-7296.8452151547908,-1179.1208395863732,20142.72971837908,0.0
430012.02908761695,3902225.878295721,-42500.0,10182.788738478139,2542.9787336634668,-189.37971276225306,-8502.2605106434348,-1153.4741600907555,4797.0045574511678,9284.0143052466537,933.80057473545321,6899.8240735078925,-6899.8240735078925,-933.80057473545321,17916.007386245245,0.0
435012.02908761695,3902225.878295721,-42500.0,9493.0967461124073,2256.616171881677,-203.8184725552149,-7428.4465838157175,-1013.485916529014,4008.7712787137534,8236.6091048934577,745.75499423134988,6472.7689040773066,-6472.7689040773066,-745.75499423134988,15963.421256041971,0.0
440012.02908761695,3902225.878295721,-42500.0,8813.8955477263353,2007.8279939784074,-202.81740348357479,-6499.6858771279758,-890.72033959283863,3360.5302523354158,7326.2589096402262,600.31681593856911,6038.5210713723936,-6038.5210713723936,-600.31681593856911,14250.645369146438,0.0
445012.02908761695,3902225.878295721,-42500.0,8160.283634954827,1790.9887222058067,-192.60146722128377,-5696.660651090484,-783.35306666253371,2825.9588634942752,6533.2549420828509,486.88063626912253,5611.6026363168421,-5611.6026363168421,-486.88063626912253,12747.093158648891,0.0
450012.02908761695,3902225.878295721,-42500.0,7541.0103417207984,1601.4541081834018,-177.26518954100737,-5002.1667825003296,-689.63879839755771,2383.9557503670944,5840.874640308165,397.70524513183364,5200.9678745378642,-5200.9678745378642,-397.70524513183364,11425.813289535125,0.0
250012.02908761695,3907225.878295721,-42500.0,7593.2627461720531,1227.6227359997281,-228.64293643884429,4888.0971919461708,487.7138847926534,2288.4423150340222,5699.8283545518934,-224.29385362343646,5585.0448945501957,-5585.0448945501957,224.29385362343646,11168.919954881778,0.0
255012.02908761695,3907225.878295721,-42500.0,8241.6191998667764,1358.5299587870932,-254.90469141027606,5572.354062515451,542.17865832057839,2716.6696384400134,6375.7451566453619,-232.00388890659815,6067.2116354340851,-6067.2116354340851,232.00388890659815,12463.75518766584,0.0
260012.02908761695,3907225.878295721,-42500.0,8933.6643884017376,1506.0680835810049,-278.9956022100784,6365.2046024880565,601.47693372485458,3236.2012715447809,7150.0863749483888,-233.14661704196942,6580.9807058090701,-6580.9807058090701,233.14661704196942,13938.541357798864,0.0
265012.02908761695,3907225.878295721,-42500.0,9663.59370189117,1672.7618455933998,-297.77564739820468,7284.2056782202608,665.13506409348577,3868.2892803147329,8039.074488362432,-223.58527116840605,7121.109765035646,-7121.109765035646,223.58527116840605,15620.045852728497,0.0
270012.02908761695,3907225.878295721,-42500.0,10420.393884903053,1861.6992227140222,-306.33620364193803,8349.1275165178286,732.13906309085951,4639.4109509337313,9061.6975870401384,-197.12111049726127,7677.9132575715703,-7677.9132575715703,197.12111049726127,17538.560493041201,0.0
275012.02908761695,3907225.878295721,-42500.0,11185.243653126652,2076.750544034745,-297.1286479505664,9581.7053391523586,800.70422665423882,5582.6041362588885,10240.075473580953,-144.48866558891314,8235.0241106405811,-8235.0241106405811,144.48866558891314,19727.953322033303,0.0
280012.02908761695,3907225.878295721,-42500.0,11927.666971942715,2322.8823626315825,-258.68005304774613,11004.873174381524,867.98568241567114,6739.1560320260232,11599.749860088132,-51.870945546602343,8766.0752269360928,-8766.0752269360928,51.870945546602343,22225.389767775072,0.0
285012.02908761695,3907225.878295721,-42500.0,12599.808251943174,2606.5919358471629,-173.70203936781095,12640.968136713582,929.73619278901401,8160.6945191252398,13169.714935728374,101.28741468359112,9229.7569956033876,-9229.7569956033876,-101.28741468359112,25070.373949534776,0.0
290012.02908761695,3907225.878295721,-42500.0,13127.932688504579,2936.4479225180444,-16.330630817336534,14507.944638629391,979.91848853922784,9911.6286266908774,14981.818545445767,345.44023304596703,9562.4840521258411,-9562.4840521258411,-345.44023304596703,28302.483908172373,0.0
295012.02908761695,3907225.878295721,-42500.0,13399.968135932535,3323.6285802069383,251.86142777853109,16611.731265189228,1010.2435658378623,12071.490521998674,17068.741171043624,725.3776985798213,9667.6528950979737,-9667.6528950979737,-725.3776985798213,31956.544575992324,0.0
300012.02908761695,3907225.878295721,-42500.0,13247.941288201326,3782.1403687806501,687.48474689440673,18931.263621186186,1009.4762583662492,14735.581602602979,19458.982200842631,1306.1332492346714,9400.4721850991536,-9400.4721850991536,-1306.1332492346714,36052.915206538717,0.0
305012.02908761695,3907225.878295721,-42500.0,12425.432056710024,4328.0200809854559,1372.8892463390064,21390.109184250443,961.89902609638386,18009.326829774425,22165.857065037166,2180.0801779419853,8548.297175929898,-8548.297175929898,-2180.0801779419853,40578.764826637649,0.0
310012.02908761695,3907225.878295721,-42500.0,10585.189034333811,4976.4400655006912,2425.2719007279411,23805.423807648796,843.26711465535959,21984.61355733261,25165.287713646994,3473.6784080909197,6810.2682063623906,-6810.2682063623906,-3473.6784080909197,45454.067584795797,0.0
315012.02908761695,3907225.878295721,-42500.0,7276.2972573222023,5736.1546515987466,4004.7450477176162,25804.752007226452,610.60748149783558,26671.535806118045,28354.588550072171,5349.7373534248281,3791.1145291686544,-3791.1145291686544,-5349.7373534248281,50475.890098827535,0.0
320012.02908761695,3907225.878295721,-42500.0,2012.215434188875,6605.4789405525089,6313.0370157887128,26717.63485845385,180.94052038951781,31835.256102913208,31485.0839890924,7997.3820042393618,-951.03528722301235,951.03528722301235,-7997.3820042393618,55246.163268367978,0.0
325012.02908761695,3907225.878295721,-42500.0,-5491.0568241558531,7589.7119924116614,9563.2196502634142,25516.998630411465,-596.24024724461879,36676.357815478012,34076.980687544325,11600.945017144437,-7724.6284673165255,7724.6284673165255,-11600.945017144437,59136.718951564821,0.0
330012.02908761695,3907225.878295721,-42500.0,-14811.577125217722,8783.4555847354404,13888.403378603511,21047.396740294924,-1914.8941268681388,39396.081913702103,35382.670090501699,16287.895498101145,-16311.804561996498,16311.804561996498,-16287.895498101145,61464.029196215626,0.0
335012.02908761695,3907225.878295721,-42500.0,-24231.832005702203,10511.039491405545,19166.331934271489,12920.208600251623,-3761.699830309205,37120.798183488791,34613.090092778228,22049.192184050367,-25472.763224826424,25472.763224826424,-22049.192184050367,62126.055263674476,0.0
340012.02908761695,3907225.878295721,-42500.0,-30900.025804752095,13202.314662213323,24789.256053447578,2982.0014413004801,-5340.6683492965039,27325.933729480807,33184.859054160806,28486.763499695633,-32922.095862871327,32922.095862871327,-28486.763499695633,62322.910361741553,0.0
345012.02908761695,3907225.878295721,-42500.0,-32688.104825340764,16478.484325105514,29506.231640773036,-4326.4053467746098,-5018.6518180371659,11299.898763088462,36026.074521504735,34192.681288485932,-36487.669022411697,36487.669022411697,-34192.681288485932,63353.062572764014,0.0
350012.02908761695,3907225.878295721,-42500.0,-30685.843513266478,18432.117234615951,31759.303992314482,-5141.6074468165752,-2271.5968144456065,-3486.0322656012427,36704.536041519343,36760.580938421277,-36050.0808313499,36050.0808313499,-36760.580938421277,63676.900272732499,0.0
355012.02908761695,3907225.878295721,-42500.0,-28493.918492679564,17512.813440661535,30862.75681744593,-1127.6053879431558,422.34927977835207,-8035.6218509162345,34488.712046683249,35070.86241137614,-33861.429078414287,33861.429078414287,-35070.86241137614,60430.669833190295,0.0
360012.02908761695,3907225.878295721,-42500.0,-27571.496403994181,14945.24596024785,27616.686873017279,1421.9349641943827,218.46538111349435,-1000.2214387598231,31415.143598554278,30983.684852823659,-31648.87518671155,31648.87518671155,-30983.684852823659,54420.932029341639,0.0
365012.02908761695,3907225.878295721,-42500.0,-25722.681746852915,13019.215394763172,23261.746458385445,-1187.700018639503,-2478.0163213588762,10545.126352436147,27962.292542604184,26894.882561160783,-28656.165302230322,28656.165302230322,-26894.882561160783,49693.296993410833,0.0
370012.02908761695,3907225.878295721,-42500.0,-21034.38760532804,12330.15063023213,18640.223278068588,-7165.9972431050737,-5352.7328440256606,19392.867782190751,26741.581276363955,23422.722434359392,-23772.73139932668,23772.73139932668,-23422.722434359392,47964.671792777153,0.0
375012.02908761695,3907225.878295721,-42500.0,-14188.524247417454,12136.720441045414,14292.893408868764,-13016.909751196199,-7013.2494377035036,23214.49326785747,27208.532978721596,20208.219740073473,-17454.189030290006,17454.189030290006,-20208.219740073473,47356.759582268904,0.0
380012.02908761695,3907225.878295721,-42500.0,-7040.0447557593689,11770.523940240146,10571.645367839592,-16815.739300912846,-7417.0764544625581,23133.710740162296,26544.502951974202,17069.613254955613,-11024.4528363626,11024.4528363626,-17069.613254955613,46023.888945460152,0.0
385012.02908761695,3907225.878295721,-42500.0,-952.13831029449557,11055.628599341291,7615.0872372117356,-18389.322611641797,-7043.7866129134291,21014.338226692078,24868.295139474161,14115.608754111654,-5504.3101153777252,5504.3101153777252,-14115.608754111654,43563.27358136751,0.0
390012.02908761695,3907225.878295721,-42500.0,3583.3979236497312,10093.198992416616,5387.3505815547724,-18339.881776667,-6329.4664870381712,18204.034985213038,22683.320504994514,11499.944538978702,-1279.6622821704677,1279.6622821704677,-11499.944538978702,40317.496979227217,0.0
395012.02908761695,3907225.878295721,-42500.0,6642.4383188258034,9034.9548091583547,3765.8469165528604,-17343.613287730102,-5531.70033824027,15406.568902739074,20362.676112000743,9296.7856407101262,1701.4470433163515,-1701.4470433163515,-9296.7856407101262,36734.02649320443,0.0
400012.02908761695,3907225.878295721,-42500.0,8522.2572158821931,7992.0072048709462,2610.5104926504728,-15898.860697885999,-4770.3809087601812,12903.998386961521,18120.012156744171,7500.60876661984,3671.8726747567785,-3671.8726747567785,-7500.60876661984,33140.000045633984,0.0
405012.02908761695,3907225.878295721,-42500.0,9542.9744833161858,7024.6349908384527,1797.7656852658147,-14310.303230548139,-4089.4743999099801,10766.575012851488,16056.178577775705,6062.5316265985011,4889.6160839477097,-4889.6160839477097,-6062.5316265985011,29724.143851164717,0.0
410012.02908761695,3907225.878295721,-42500.0,9971.0023769855343,6157.1089966403651,1230.4353516860967,-12743.04879012184,-3497.9784870801022,8977.2576410389975,14205.964740436917,4920.3002624537548,5574.1584780430021,-5574.1584780430021,-4920.3002624537548,26576.165252598512,0.0
415012.02908761695,3907225.878295721,-42500.0,10005.115101289673,5393.3221309769979,836.46200621028765,-11277.057234613878,-2990.9900029317187,7491.2739901839323,12570.067194729998,4014.3933437839664,5892.5712992070185,-5892.5712992070185,-4014.3933437839664,23726.629631335338,0.0
420012.02908761695,3907225.878295721,-42500.0,9785.9038069231428,4727.3454035727991,564.05038118124367,-9944.9061766806008,-2559.1236535511184,6260.3978361503214,11133.738881490382,3294.2197011356775,5965.3336288205692,-5965.3336288205692,-3294.2197011356775,21174.37780779531,0.0
425012.02908761695,3907225.878295721,-42500.0,9410.185302818847,4149.3796942901272,376.56470679927446,-8754.3966592835659,-2192.3025706231201,5241.170843032005,9876.6275290843132,2719.1585228451586,5877.0401803680506,-5877.0401803680506,-2719.1585228451586,18902.769574313086,0.0
430012.02908761695,3907225.878295721,-42500.0,8943.7085258187763,3648.7354301119976,248.29533234402868,-7701.0568046492081,-1881.1146756841802,4396.7167631989678,8777.5029362596033,2257.47848074166,5686.3237605506747,-5686.3237605506747,-2257.47848074166,16888.510539496085,0.0
435012.02908761695,3907225.878295721,-42500.0,8430.7392532217018,3215.1903156039793,161.25868599443544,-6774.8136134965089,-1617.2128940317941,3696.4083862268276,7816.3511995399276,1884.6857197716104,5433.5587624120981,-5433.5587624120981,-1884.6857197716104,15106.307223470383,0.0
440012.02908761695,3907225.878295721,-42500.0,7900.8086912042954,2839.5115997605458,102.88669381385195,-5963.450722615522,-1393.3569437508922,3114.9745564331902,6975.1405907174349,1581.9276882842039,5146.4062089877207,-5146.4062089877207,-1581.9276882842039,13531.196444673455,0.0
445012.02908761695,3907225.878295721,-42500.0,7373.3397512297151,2513.5883855442808,64.393070873094644,-5254.3707319948098,-1203.335910667636,2631.5916995956886,6237.9786549841974,1334.6642417362698,4843.683340407265,-4843.683340407265,-1334.6642417362698,12139.66060092539,0.0
450012.02908761695,3907225.878295721,-42500.0,6860.8121529241371,2230.3980258404877,39.631843923294909,-4635.4793144593195,-1041.8591566200289,2229.1075259736062,5591.0202000361651,1131.6316857348165,4538.047055547142,-4538.047055547142,-1131.6316857348165,10910.130116218219,0.0
250012.02908761695,3912225.878295721,-42500.0,7955.6327612482473,524.36398502172062,-294.0510741869324,5085.3713990260039,107.23541601076857,2372.9882149797336,5850.8357565316055,-901.79153812651839,5979.6510055248391,-5979.6510055248391,901.79153812651839,11472.163218420917,0.0
255012.02908761695,3912225.878295721,-42500.0,8648.5563523255096,544.60008165821398,-327.58916427187671,5803.7849093364675,86.080293566661013,2820.1547524304378,6549.6233195541499,-1012.7029837321606,6513.6289667683614,-6513.6289667683614,1012.7029837321606,12813.611031794931,0.0
260012.02908761695,3912225.878295721,-42500.0,9390.7105431528908,561.41323074067554,-359.40463483288835,6637.434010451545,52.330869857718227,3363.4188783681229,7351.1793829172811,-1134.9036076507,7086.4075024495487,-7086.4075024495487,1134.9036076507,14343.868501540175,0.0
265012.02908761695,3912225.878295721,-42500.0,10176.714261099043,573.4823551456127,-386.17071797276287,7605.2519104807097,1.035748621188171,4025.3794533458627,8272.7079371953805,-1267.4366508463404,7693.5512944537932,-7693.5512944537932,1267.4366508463404,16091.731916578967,0.0
270012.02908761695,3912225.878295721,-42500.0,10995.832506912684,579.39581268660243,-402.662695096449,8728.674438244112,-74.530939945814652,4834.2902539248444,9334.4484310356365,-1407.737543653689,8326.1217028883457,-8326.1217028883457,1407.737543653689,18090.080747492353,0.0
275012.02908761695,3912225.878295721,-42500.0,11829.236888324356,577.8618483414233,-400.83359659018771,10031.44938072333,-183.44464817854546,5825.5669040802049,10560.13700073544,-1550.5860539642485,8968.3159000740197,-8968.3159000740197,1550.5860539642485,20376.114179803913,0.0
280012.02908761695,3912225.878295721,-42500.0,12645.917314482895,568.12066442212176,-368.45990673364383,11538.928180074981,-337.84573313471464,7043.7439995244595,11977.431169650943,-1686.4641943759243,9593.9281439624865,-9593.9281439624865,1686.4641943759243,22991.32133324353,0.0
285012.02908761695,3912225.878295721,-42500.0,13396.525891904328,550.70254907237472,-287.16452530029358,13276.30650001614,-553.78023835199667,8544.9977248576779,13618.131604598253,-1798.9859926026465,10161.006540625596,-10161.006540625596,1798.9859926026465,25980.852178061319,0.0
290012.02908761695,3912225.878295721,-42500.0,14004.095052035264,528.74237191082057,-129.54948763032513,15264.773800756586,-852.10389924744754,10400.297024342006,15517.843897681771,-1860.9123400232011,10603.782934623894,-10603.782934623894,1860.9123400232011,29391.654837718055,0.0
295012.02908761695,3912225.878295721,-42500.0,14350.131454795623,510.16485101200209,144.93309741669626,17513.487081280244,-1259.2928045668441,12698.900699625347,17714.283880363422,-1828.0366778812358,10820.554747117381,-10820.554747117381,1828.0366778812358,33268.049414345558,0.0
300012.02908761695,3912225.878295721,-42500.0,14254.381883073176,511.19714629777286,595.82658526345404,20003.320060959304,-1807.8180184578691,15550.773002168806,20242.58079443474,-1629.987758006122,10655.949976931497,-10655.949976931497,1629.987758006122,37642.138866687899,0.0
305012.02908761695,3912225.878295721,-42500.0,13447.518223794001,561.81978035929319,1309.6943040110446,22654.850983580327,-2535.4452344891329,19083.184061557258,23124.298267583214,-1156.9020110095953,9876.5919677999918,-9876.5919677999918,1156.9020110095953,42514.131883702779,0.0
310012.02908761695,3912225.878295721,-42500.0,11541.02798185412,713.9607800617498,2410.3528286070668,25267.961027300942,-3482.2791147793164,23418.187168533157,26344.118746347682,-241.53120033974574,8142.8650934450134,-8142.8650934450134,241.53120033974574,47814.226003298354,0.0
315012.02908761695,3912225.878295721,-42500.0,8014.9943285367253,1053.4616485491013,4069.5587435400043,27416.790865216404,-4683.3392081955044,28597.771390892132,29804.298283145334,1360.7869152336025,4991.9810702413579,-4991.9810702413579,-1360.7869152336025,53334.761660729724,0.0
320012.02908761695,3912225.878295721,-42500.0,2286.6742923448637,1717.2586260174508,6510.5807432428937,28297.750298346764,-6151.8835531218374,34385.642631350529,33245.447383641069,3983.1164684358641,-119.24406838110508,119.24406838110508,-3983.1164684358641,58628.27027861464,0.0
325012.02908761695,3912225.878295721,-42500.0,-5998.2769048253394,2917.5817457139265,9981.573935052078,26612.241218130563,-7840.43433735298,39835.575309359607,36138.089547050819,8016.9656554325857,-7598.2570837925532,7598.2570837925532,-8016.9656554325857,62914.765749675331,0.0
330012.02908761695,3912225.878295721,-42500.0,-16269.512992347181,4966.9215623777391,14644.630812498495,20820.066025924443,-9541.3644262123671,42618.818467832927,37633.631777509647,13773.835002204354,-17165.43243381389,17165.43243381389,-13773.835002204354,65196.524484796464,0.0
335012.02908761695,3912225.878295721,-42500.0,-26130.554096728953,8228.6676420673921,20303.17578990219,10439.708456247796,-10655.520708021659,38780.617674480556,36968.71254341484,21141.656137785885,-27058.365263979296,27058.365263979296,-21141.656137785885,65009.226201897276,0.0
340012.02908761695,3912225.878295721,-42500.0,-31720.235249365542,12700.690175488095,26007.753403009592,-1634.3328303902119,-9938.1833370938493,24924.413470381158,35716.174349325382,29007.130721132435,-34038.424920095291,34038.424920095291,-29007.130721132435,63713.369493762526,0.0
345012.02908761695,3912225.878295721,-42500.0,-31019.480226760505,17067.792277361852,30028.069013417735,-9034.3615132356936,-6158.682173893626,3562.5070935892113,36678.256052547236,34885.522704595758,-35666.683678999485,35666.683678999485,-34885.522704595758,63593.610554651415,0.0
350012.02908761695,3912225.878295721,-42500.0,-26919.592252422834,18807.088198603764,30941.377788261339,-7631.9843147861084,-366.13140021576248,-15057.728919215315,35872.154066771356,36177.516153558798,-33111.063026395874,33111.063026395874,-36177.516153558798,63549.352055827592,0.0
355012.02908761695,3912225.878295721,-42500.0,-24139.959409179854,16960.242282232273,29081.315966964503,-844.28498727152169,3651.6295920776392,-21474.208835225651,31865.370857714282,33020.650535526685,-29937.962451039966,29937.962451039966,-33020.650535526685,60023.552341342285,0.0
360012.02908761695,3912225.878295721,-42500.0,-23766.821893370605,13668.02895237333,26018.717978182849,4296.4745569697479,3294.2730253352374,-15732.817020362025,29057.937011777882,28426.753337532453,-28013.614643984994,28013.614643984994,-28426.753337532453,52835.109313308953,0.0
365012.02908761695,3912225.878295721,-42500.0,-23381.297394509711,11504.292842915165,22762.902450924077,4272.2717581550005,-285.63064456179791,-4758.8130129214132,26192.576709548965,24863.524054091315,-26369.314116980262,26369.314116980262,-24863.524054091315,45484.199420940895,0.0
370012.02908761695,3912225.878295721,-42500.0,-20851.279381765198,11037.252008932815,19448.934554836727,321.81155408282484,-4322.7202989521529,5055.6090274572771,23474.530688210165,22527.770691399375,-23501.918907325802,23501.918907325802,-22527.770691399375,40902.960542783076,0.0
375012.02908761695,3912225.878295721,-42500.0,-16160.369814531754,11398.416804706774,16089.629742437415,-4684.4379947187435,-7086.8505406460354,11122.496840219916,22323.419741613106,20589.902345710812,-19171.143473302742,19171.143473302742,-20589.902345710812,38869.252546116739,0.0
380012.02908761695,3912225.878295721,-42500.0,-10550.847505735241,11699.26382090299,12875.935470239914,-8765.3433506113215,-8299.0111177127728,13690.303830595463,21727.348399955077,18509.807930691408,-14159.641600501998,14159.641600501998,-18509.807930691408,37633.604635773139,0.0
385012.02908761695,3912225.878295721,-42500.0,-5231.6122569886593,11568.700833714582,10029.381619924396,-11282.393803193905,-8381.5268041585205,13968.99333623818,20707.591917422491,16241.945651037229,-9360.0056326222948,9360.0056326222948,-16241.945651037229,36092.55582947909,0.0
390012.02908761695,3912225.878295721,-42500.0,-854.32747805930035,11017.463355512553,7668.1091949844777,-12396.420582378529,-7838.6197856454355,13059.194365269697,19267.94906594948,13956.505687697085,-5302.3578146253458,5302.3578146253458,-13956.505687697085,34016.76079066949,0.0
395012.02908761695,3912225.878295721,-42500.0,2420.1531746324986,10194.506928673227,5798.8629959491482,-12520.760077032977,-7029.7005313701284,11669.507094717957,17619.278960230113,11820.429676371543,-2145.6035889722125,2145.6035889722125,-11820.429676371543,31560.3806539693,0.0
400012.02908761695,3912225.878295721,-42500.0,4697.2296959568548,9248.4499697831943,4363.1863967433419,-12043.296395637353,-6159.5858304731446,10178.544951108121,15933.322737752445,9927.3240130503345,171.16517944179031,-171.16517944179031,-9927.3240130503345,28940.168210346037,0.0
405012.02908761695,3912225.878295721,-42500.0,6174.8702937636954,8283.9850698742612,3280.2656390831098,-11245.40760291591,-5328.4490552038496,8761.6362151945996,14313.651283965179,8305.1327805731271,1795.155735567414,-1795.155735567414,-8305.1327805731271,26324.620967802792,0.0
410012.02908761695,3912225.878295721,-42500.0,7053.0114382042202,7362.3367557296297,2471.3884098448875,-10307.304244087398,-4577.6567904337071,7487.0283151484355,12812.099888979563,6942.4073063464657,2884.4537678872603,-2884.4537678872603,-6942.4073063464657,23819.457106941565,0.0
415012.02908761695,3912225.878295721,-42500.0,7499.4267512480219,6513.8084148934659,1869.8544899094686,-9336.0192115002974,-3918.9152220298806,6371.9696121594661,11448.545986397106,5809.8877890467429,3576.6380098300383,-3576.6380098300383,-5809.8877890467429,21481.682799835402,0.0
420012.02908761695,3912225.878295721,-42500.0,7643.623210253545,5749.7405167462994,1422.9432717054046,-8391.457505891758,-3350.1719983270714,5411.3416924465064,10225.197019350793,4873.3857246079733,3980.913938022004,-3980.913938022004,-4873.3857246079733,19336.308161642744,0.0
425012.02908761695,3912225.878295721,-42500.0,7581.4611581922545,5070.9177487799607,1090.5125892719407,-7504.8827440457353,-2863.6399993730706,4591.2221095757104,9135.3749427474213,4100.1312358555688,4180.082849670046,-4180.082849670046,-4100.1312358555688,17389.02448693493,0.0
430012.02908761695,3912225.878295721,-42500.0,7382.355731489256,4472.743600233438,842.60812619433318,-6690.663381787962,-2449.6495237967515,3895.016808744138,8168.4521686883245,3461.2801258537115,4235.4626042118507,-4235.4626042118507,-3461.2801258537115,15634.484286601039,0.0
435012.02908761695,3912225.878295721,-42500.0,7095.9475269410059,3948.2124331376867,657.10876185476866,-5953.3832646893934,-2098.4297884259013,3306.1524832688624,7312.4770208819536,2932.4971349126931,4191.8949469307099,-4191.8949469307099,-2932.4971349126931,14061.400916983741,0.0
440012.02908761695,3912225.878295721,-42500.0,6757.4324620114749,3489.5409618839863,517.75324477284107,-5292.088463357607,-1800.8915305663256,2809.2241479132226,6555.5220859832725,2493.6977487252375,4081.9372738665493,-4081.9372738665493,-2493.6977487252375,12655.643502538687,0.0
445012.02908761695,3912225.878295721,-42500.0,6391.545510389853,3089.0148838158939,412.60260808836159,-4702.800284511678,-1548.9217722448857,2390.4270711607805,5886.3185179798274,2128.4851025989401,3929.0950148948841,-3929.0950148948841,-2128.4851025989401,11402.050459243916,0.0
450012.02908761695,3912225.878295721,-42500.0,6015.4786846610486,2739.4106382896512,332.88397200643863,-4180.0260369810849,-1335.4529653258164,2037.6639498311845,5294.5395861301267,1823.5430573862723,3750.2403111365893,-3750.2403111365893,-1823.5430573862723,10285.516640679321,0.0
250012.02908761695,3917225.878295721,-42500.0,8106.115444349035,-200.84528400285453,-255.20287159187166,5172.9892484234524,-284.21478483633086,2413.3502947291427,5932.4824386900518,-1511.1923460285484,6184.6713437781727,-6184.6713437781727,1511.1923460285484,11634.560645952213,0.0
255012.02908761695,3917225.878295721,-42500.0,8801.609873603069,-293.28985069882668,-273.35703569377307,5898.5307757913815,-382.4143037749372,2866.4637960126865,6638.4593675755159,-1708.6387218428058,6731.7360697640233,-6731.7360697640233,1708.6387218428058,12992.093902017172,0.0
260012.02908761695,3917225.878295721,-42500.0,9542.3715081136452,-409.01434258580741,-284.584840874554,6738.2632564427768,-510.63097391164769,3416.1090477913126,7447.3486383707141,-1930.5929113836214,7315.7253991236921,-7315.7253991236921,1930.5929113836214,14539.406258472112,0.0
265012.02908761695,3917225.878295721,-42500.0,10321.115845821825,-552.92717334046301,-283.81723498864665,7710.0239493593199,-678.14532118264083,4084.5773376747488,8376.0323365154418,-2177.8602796316409,7930.6871572825512,-7930.6871572825512,2177.8602796316409,16304.943458452575,0.0
270012.02908761695,3917225.878295721,-42500.0,11124.502202118721,-730.53833553143181,-263.50816625900381,8833.5569320758295,-897.13813360294978,4899.5329327518484,9444.2311510669588,-2449.6370090622408,8565.5048914747713,-8565.5048914747713,2449.6370090622408,18320.966717410683,0.0
275012.02908761695,3917225.878295721,-42500.0,11930.17422824172,-947.69435706600484,-212.53354084572331,10130.037032463986,-1183.5490472057618,5895.3423288346703,10674.87190647729,-2742.2811296053187,9201.2970477873423,-9201.2970477873423,2742.2811296053187,20623.652380008622,0.0
280012.02908761695,3917225.878295721,-42500.0,12702.399193226365,-1209.9743715739719,-114.62511468324715,11620.938401727506,-1558.1230453041171,7114.7460166149222,12094.371279723076,-3047.3432639997932,9807.5629220300179,-9807.5629220300179,3047.3432639997932,23252.846659400671,0.0
285012.02908761695,3917225.878295721,-42500.0,13385.610797883151,-1521.4849899746494,53.837096480443961,13325.661508386338,-2047.6149057744708,8610.9377194160406,13732.659388047545,-3348.4341760484881,10336.452351838654,-10336.452351838654,3348.4341760484881,26251.124282415389,0.0
290012.02908761695,3917225.878295721,-42500.0,13894.833945793267,-1882.5986507235168,326.89334689984412,15256.779292302062,-2686.0113123939113,10450.004943665666,15622.55242807636,-3616.2640443657083,10714.240475896131,-10714.240475896131,3616.2640443657083,29661.440796881048,0.0
295012.02908761695,3917225.878295721,-42500.0,14101.629573898988,-2285.8826735969196,753.18685196880369,17410.689777126492,-3515.4100630059129,12713.285688118694,17797.651399687704,-3800.8491980971367,10828.758340505785,-10828.758340505785,3800.8491980971367,33521.972660924475,0.0
300012.02908761695,3917225.878295721,-42500.0,13814.167957766851,-2708.9476947234107,1401.453259470368,19749.443888042577,-4585.6733289773092,15497.897671202943,20287.090598046234,-3819.427532891475,10511.404942522639,-10511.404942522639,3819.427532891475,37855.41021611695,0.0
305012.02908761695,3917225.878295721,-42500.0,12751.423922183547,-3102.1879022574008,2367.2311638744995,22166.000616470672,-5950.8628953285306,18910.089126869538,23103.853399387212,-3538.2423221908339,9513.2840837417225,-9513.2840837417225,3538.2423221908339,42647.592545093867,0.0
310012.02908761695,3917225.878295721,-42500.0,10517.509714303607,-3368.4469155682718,3779.7479734008225,24420.209966721752,-7658.0537618081016,23036.827774105066,26220.707198688026,-2746.7799328297274,7479.5068759468832,-7479.5068759468832,2746.7799328297274,47806.898778175637,0.0
315012.02908761695,3917225.878295721,-42500.0,6600.777658865868,-3331.4384882084428,5805.2289127588492,26030.069774334366,-9719.1494534968569,27859.679106023017,29524.313490224653,-1126.7915380478225,3940.2156263721217,-3940.2156263721217,1126.7915380478225,53092.946083333845,0.0
320012.02908761695,3917225.878295721,-42500.0,469.23167727441358,-2694.0525928557163,8635.789374266873,26120.611477939703,-12047.298528150151,33034.397901479482,32737.754239689359,1767.3336450976365,-1625.131151515119,1625.131151515119,-1767.3336450976365,58011.0541404744,0.0
325012.02908761695,3917225.878295721,-42500.0,-8080.3563287755323,-1008.4128365554624,12436.628798923171,23331.527071152534,-14328.885917081905,37419.294503663114,35322.910058872789,6459.8728074216751,-9519.4097520698342,9519.4097520698342,-6459.8728074216751,61723.020954877305,0.0
330012.02908761695,3917225.878295721,-42500.0,-18132.57695076747,2256.5465555941169,17196.218726138697,16182.060620873079,-15816.182366986937,38364.974693906675,36482.629372067924,13299.410321528605,-19176.331433187901,19176.331433187901,-13299.410321528605,63209.293829356662,0.0
335012.02908761695,3917225.878295721,-42500.0,-26749.484577606454,7347.0208931023099,22423.699356694397,4667.7458798082371,-15166.062364716747,31610.72570907839,35758.707623385257,21822.715546968742,-28297.501033744396,28297.501033744396,-21822.715546968742,62221.273322143708,0.0
340012.02908761695,3917225.878295721,-42500.0,-29871.582430471877,13401.652928562105,26844.892876914662,-7195.8998536483259,-10862.821971969071,14183.158794197272,34961.501286268656,29957.262871604053,-33226.296243434685,33226.296243434685,-29957.262871604053,60886.022075447669,0.0
345012.02908761695,3917225.878295721,-42500.0,-26609.25119189118,17921.608960682366,28792.420237071183,-12293.667340283937,-2915.5258063626798,-9602.8845895869581,35737.843050304946,34399.45899985978,-32190.070758266796,32190.070758266796,-34399.45899985978,62119.533263342826,0.0
350012.02908761695,3917225.878295721,-42500.0,-21493.636840994823,18384.734563370788,27715.761379097054,-7773.2902532372937,5519.9892169674995,-28283.072051674131,35538.660985636481,33297.141112053469,-27912.853201860577,27912.853201860577,-33297.141112053469,63940.939049108129,0.0
355012.02908761695,3917225.878295721,-42500.0,-19204.732757605434,15105.452224410754,24980.909838675438,1262.9579299443208,10087.770290481221,-33925.773450694534,33457.810339851007,28461.35724360001,-24522.650640834647,24522.650640834647,-28461.35724360001,61758.701983241473,0.0
360012.02908761695,3917225.878295721,-42500.0,-19897.315487198339,10972.64220932406,22333.820494456319,7993.3679800242971,9235.3151128070549,-28209.49193870154,30171.721050209693,23485.628008515367,-23355.183682013438,23355.183682013438,-23485.628008515367,54884.837063993757,0.0
365012.02908761695,3917225.878295721,-42500.0,-20964.978908933808,8439.4079125799653,20296.798800399276,9628.6290798634327,4842.4825090766271,-17560.450868659915,26181.728586968005,20421.596996127311,-23094.231265252794,23094.231265252794,-20421.596996127311,46214.710362374055,0.0
370012.02908761695,3917225.878295721,-42500.0,-20327.219173170593,7950.3026230526384,18443.004546928943,7197.2763299564594,-246.98130391121373,-7279.4906769773033,22423.275144252002,19073.120126435584,-22072.719489482006,22072.719489482006,-19073.120126435584,38893.667965074506,0.0
375012.02908761695,3917225.878295721,-42500.0,-17604.496573074433,8641.8757405002689,16367.069228108299,3010.8978565092716,-4215.0671527685981,245.99730715987869,19746.191718444254,18356.864516827998,-19658.881472953624,19658.881472953624,-18356.864516827998,34217.555834295985,0.0
380012.02908761695,3917225.878295721,-42500.0,-13559.859618908738,9536.1637752132792,14049.426880651743,-1104.9476092841799,-6563.8682162334362,4784.2528384312682,18238.831568492213,17481.966431427856,-16201.148759455835,16201.148759455835,-17481.966431427856,31591.808916688973,0.0
385012.02908761695,3917225.878295721,-42500.0,-9180.7134046938245,10089.134628359461,11693.284391040224,-4278.6590430036504,-7549.0396400945701,7029.5575903636181,17196.669420754843,16208.907484461472,-12388.721136781251,12388.721136781251,-16208.907484461472,29855.990846393004,0.0
390012.02908761695,3917225.878295721,-42500.0,-5167.0272842174809,10165.839352416593,9506.0948894105386,-6344.4671040924377,-7631.3508068875481,7802.1343219371511,16135.070272747145,14629.576212870696,-8785.4735015316037,8785.4735015316037,-14629.576212870696,28261.34776488279,0.0
395012.02908761695,3917225.878295721,-42500.0,-1847.7604747084406,9843.2279650732817,7607.9175512083038,-7471.1552917431063,-7208.5502309517988,7736.7280230250517,14967.268560089113,12926.978611681488,-5694.4630078689825,5694.4630078689825,-12926.978611681488,26545.355774768064,0.0
400012.02908761695,3917225.878295721,-42500.0,711.66442897257446,9257.5812772031477,6033.7161783324882,-7914.261413311795,-6550.0617534756993,7244.1243089034497,13742.217127372094,11254.306693211347,-3206.7243492356019,3206.7243492356019,-11254.306693211347,24697.290109726069,0.0
405012.02908761695,3917225.878295721,-42500.0,2582.1009380072283,8531.9770173883353,4765.5944786280697,-7904.2306995293784,-5815.7211310337243,6565.3367616654696,12521.980066195594,9705.0461401958182,-1291.5396084152326,1291.5396084152326,-9705.0461401958182,22786.372311730815,0.0
410012.02908761695,3917225.878295721,-42500.0,3883.6262231898045,7755.5072725017562,3761.9454635278262,-7615.2379316476827,-5091.662905551716,5833.3536288217683,11351.287851797209,8322.2157805748211,133.52209982181876,-133.52209982181876,-8322.2157805748211,20886.546060443059,0.0
415012.02908761695,3917225.878295721,-42500.0,4739.8725466911637,6985.0582320323947,2975.5188134871928,-7168.081446558117,-4419.7954691464138,5117.9495685817628,10256.055490958472,7116.0772590676388,1162.340332327442,-1162.340332327442,-7116.0772590676388,19053.71392381937,0.0
420012.02908761695,3917225.878295721,-42500.0,5259.1732549351909,6253.458564588329,2362.3097581485213,-6642.5860170084516,-3817.184560534829,4453.3337049002703,9248.3803245201543,6078.8762435554272,1881.6128437928865,-1881.6128437928865,-6078.8762435554272,17323.641686070136,0.0
425012.02908761695,3917225.878295721,-42500.0,5529.5626952916164,5577.4492155829785,1884.8886322729722,-6089.7857614405311,-3287.6040475316099,3854.02921895383,8331.5109177472496,5194.5085351572379,2364.376975682288,-2364.376975682288,-5194.5085351572379,15715.902783201263,0.0
430012.02908761695,3917225.878295721,-42500.0,5619.7820912196912,4963.71177603244,1512.9142229879653,-5541.3142210970018,-2828.0958056513082,3323.783522215379,7503.4700618536099,4444.099424489058,2669.3130709268053,-2669.3130709268053,-4444.099424489058,14238.566701133466,0.0
435012.02908761695,3917225.878295721,-42500.0,5582.2851214823831,4412.9493616841719,1222.4456814954399,-5015.9757132416835,-2432.5956307211077,2860.5690480595795,6759.3977063534112,3808.9134956912549,2842.3277157635166,-2842.3277157635166,-3808.9134956912549,12892.038668383924,0.0
440012.02908761695,3917225.878295721,-42500.0,5456.5161319281578,3922.5094495487983,994.87838246584829,-4524.1883539765113,-2093.9043049550855,2459.4367614716198,6093.0087051744631,3271.7149023902352,2918.7647171748499,-2918.7647171748499,-3271.7149023902352,11671.897932640475,0.0
445012.02908761695,3917225.878295721,-42500.0,5271.8191429461576,3488.0104901217114,815.87400145693493,-4070.9433075940724,-1804.729213198344,2114.1578550711383,5497.4691414142417,2817.2787389516443,2925.5521015970471,-2925.5521015970471,-2817.2787389516443,10570.8769180318,0.0
450012.02908761695,3917225.878295721,-42500.0,5049.8217005656734,3104.3320892835304,674.42781130417836,-3657.7771510148914,-1558.2101433489686,1818.1704028669487,4965.9204561259148,2432.4737560339036,2883.0491874485442,-2883.0491874485442,-2432.4737560339036,9580.2184332906982,0.0
250012.02908761695,3922225.878295721,-42500.0,8046.0941823826724,-907.32634541475568,-115.23269918272358,5151.1961624811192,-667.16612223644597,2409.4785119385256,5940.9887115246111,-2020.2230226157812,6196.2188604871772,-6196.2188604871772,2020.2230226157812,11652.722883520482,0.0
255012.02908761695,3922225.878295721,-42500.0,8703.798727949259,-1104.0230606845053,-97.030800011461508,5857.5278224116282,-837.99894829264281,2855.7707393251849,6638.1504823579107,-2279.926205715547,6717.9096689495018,-6717.9096689495018,2279.926205715547,12995.451449330232,0.0
260012.02908761695,3922225.878295721,-42500.0,9394.1735652320876,-1340.6013298756748,-61.846066334811432,6669.7781678413057,-1054.2723054865789,3394.8592196767331,7434.2231152244176,-2570.7129105989225,7266.0519900555773,-7266.0519900555773,2570.7129105989225,14521.100996337425,0.0
265012.02908761695,3922225.878295721,-42500.0,10106.124547151625,-1624.2996936034274,-1.6915376532172424,7602.4828812423384,-1328.6801004978897,4047.2048207056132,8344.5316718946578,-2893.164150965019,7831.1527333094646,-7831.1527333094646,2893.164150965019,16255.474978581518,0.0
270012.02908761695,3922225.878295721,-42500.0,10821.442987551345,-1962.973884413836,94.73881840927109,8670.7568671103472,-1677.5034329495322,4837.7355180281502,9386.6218812077659,-3245.631457975303,8397.4568134937181,-8397.4568134937181,3245.631457975303,18227.161167165479,0.0
275012.02908761695,3922225.878295721,-42500.0,11511.636770930447,-2364.5831420517802,243.37839077522108,9889.277700693825,-2121.5328279034134,5796.7066667682575,10580.372055963298,-3622.6444564405606,8940.0709408520506,-8940.0709408520506,3622.6444564405606,20467.209610255471,0.0
280012.02908761695,3922225.878295721,-42500.0,12133.410535572177,-2836.133420389157,466.56816078211244,11270.398051430737,-2687.1096003619227,6960.6418684128867,11947.911138800691,-4012.4038419137278,9420.8329229502015,-9420.8329229502015,4012.4038419137278,23008.283705266665,0.0
285012.02908761695,3922225.878295721,-42500.0,12622.22004390292,-3381.6828254282077,795.43332676838747,12820.734714050303,-3407.1794176825929,8373.2615757849017,13513.126610142512,-4392.8679773166059,9782.3880815221364,-9782.3880815221364,4392.8679773166059,25882.864472781566,0.0
290012.02908761695,3922225.878295721,-42500.0,12883.155510166829,-3998.724594487102,1272.9524252997051,14535.039984728195,-4322.0509121954765,10086.099698434489,15300.324401464379,-4725.6774329388518,9939.7635588481153,-9939.7635588481153,4725.6774329388518,29119.716350873405,0.0
295012.02908761695,3922225.878295721,-42500.0,12778.347426961733,-4671.8185771916342,1957.7013639345112,16385.174777956552,-5479.1648139617973,12157.941723638787,17331.191895859254,-4946.8186555080174,9768.6365286959281,-9768.6365286959281,4946.8186555080174,32737.155634991876,0.0
300012.02908761695,3922225.878295721,-42500.0,12110.634962778713,-5361.6111738304653,2927.903646083425,18300.274431078928,-6930.2989168919557,14650.71722248502,19618.445539393029,-4952.5377392654482,9089.8662607480037,-9089.8662607480037,4952.5377392654482,36730.468964644788,0.0
305012.02908761695,3922225.878295721,-42500.0,10605.650101856931,-5986.3915706050102,4284.5457358329286,20131.536523514533,-8722.774422992481,17615.686645094422,22153.236811926385,-4578.9203011695363,7651.7257677343014,-7651.7257677343014,4578.9203011695363,41048.939897992605,0.0
310012.02908761695,3922225.878295721,-42500.0,7902.1069488902349,-6392.4888361891044,6150.25323945123,21592.293663480279,-10877.328376513373,21054.9022629106,24881.523556952074,-3574.9403122902645,5117.408949076098,-5117.408949076098,3574.9403122902645,45555.776632563073,0.0
315012.02908761695,3922225.878295721,-42500.0,3580.1549646585468,-6311.2944378636521,8656.0562463299284,22166.401359058073,-13337.79818026371,24824.307222415599,27663.24054629089,-1575.3045395075637,1082.0157164059947,-1082.0157164059947,1575.3045395075637,49964.80261412009,0.0
320012.02908761695,3922225.878295721,-42500.0,-2698.6275407969683,-5312.282952696477,11899.131301577456,21005.444382345304,-15866.340258063548,28414.845902476573,30212.89076094445,1899.2764498952292,-4819.0843053588396,4819.0843053588396,-1899.2764498952292,53763.604808585551,0.0
325012.02908761695,3922225.878295721,-42500.0,-10804.155775722153,-2804.0643420036376,15841.227256681603,16942.859070260787,-17854.695315518438,30538.139579646562,32052.660571339598,7332.5043974074588,-12589.465174721416,12589.465174721416,-7332.5043974074588,56202.497385506947,0.0
330012.02908761695,3922225.878295721,-42500.0,-19415.930936311615,1759.8995659963143,20117.521421186673,9015.538779198283,-18089.924497135649,28626.446551809771,32635.365853780939,14823.824093548841,-21230.584185288837,21230.584185288837,-14823.824093548841,56626.411781669645,0.0
335012.02908761695,3922225.878295721,-42500.0,-25493.574281808927,8217.5313109799245,23816.228900257393,-1940.7039194285053,-14809.657545348622,19149.058099031274,32105.207731758637,23298.859299232343,-28138.485390904058,28138.485390904058,-23298.859299232343,55632.38469630215,0.0
340012.02908761695,3922225.878295721,-42500.0,-25789.412048724047,14744.510398154265,25583.418456052073,-11418.110379149166,-6838.7431303494523,657.66465805634277,32472.860037193939,29927.978816499115,-30069.645897590763,30069.645897590763,-29927.978816499115,56245.720803865486,0.0
345012.02908761695,3922225.878295721,-42500.0,-20900.143135479571,18171.798840154675,24556.989562008588,-13272.589462726461,4223.6348684434188,-21533.090565101662,34774.958856546524,31515.454186744661,-26554.350613203009,26554.350613203009,-31515.454186744661,60565.406774244795,0.0
350012.02908761695,3922225.878295721,-42500.0,-15864.655415132529,16742.018283131256,21512.95762004338,-6474.6532853633125,13795.997178972622,-37348.787432622135,36997.171995743891,27698.440422279302,-21315.43163229795,21315.43163229795,-27698.440422279302,64802.137358735308,0.0
355012.02908761695,3922225.878295721,-42500.0,-14457.828699733751,12053.126014271758,18392.034011366599,3473.5775571368385,17943.933892727655,-41314.154893756437,36721.740630444183,21564.120452771796,-18209.760211639161,18209.760211639161,-21564.120452771796,64191.801805992996,0.0
360012.02908761695,3922225.878295721,-42500.0,-16111.447053471411,7265.2920529480425,16511.434752969872,10799.284628055808,16308.599475249783,-35735.227802318506,33452.107596254456,16566.487580129953,-17897.526874605839,17897.526874605839,-16566.487580129953,58272.358541683832,0.0
365012.02908761695,3922225.878295721,-42500.0,-18299.469058398361,4451.1286513605046,15792.344343480605,13426.805812657572,11196.700103689702,-25915.182735643939,28543.637864272067,14100.953737924492,-18838.333914194591,18838.333914194591,-14100.953737924492,49560.645545536849,0.0
370012.02908761695,3922225.878295721,-42500.0,-19126.938504809219,3876.0457128105127,15431.953274108109,12186.763792548096,5283.0648882031937,-16003.714133176749,23591.596980783728,13651.689834282181,-19356.059039527136,19356.059039527136,-13651.689834282181,40871.646756037662,0.0
375012.02908761695,3922225.878295721,-42500.0,-18045.91467888475,4735.4675985755839,14772.887614091811,8880.811654091709,287.79944734459582,-8026.2515496625601,19596.487304016118,14043.082884650699,-18635.225977831527,18635.225977831527,-14043.082884650699,33952.363430134195,0.0
380012.02908761695,3922225.878295721,-42500.0,-15467.014872710488,6070.5975880428487,13614.376900055653,5065.9792094817631,-3171.4296730276142,-2440.8379360491444,16865.266287008333,14362.245892649278,-16713.746054346302,16713.746054346302,-14362.245892649278,29228.617449741567,0.0
385012.02908761695,3922225.878295721,-42500.0,-12133.124003862438,7242.3405859044251,12080.023512983074,1661.2536004370829,-5178.2951520105398,1075.3690757661636,15132.276356468345,14210.560705777552,-14056.789661296534,14056.789661296534,-14210.560705777552,26210.677496021664,0.0
390012.02908761695,3922225.878295721,-42500.0,-8695.0353001261119,7983.904885522431,10394.105305701207,-972.87954725999077,-6090.5659327263738,3072.5240050908506,13906.059714121759,13564.259328451892,-11171.047885578409,11171.047885578409,-13564.259328451892,24157.624522134724,0.0
395012.02908761695,3922225.878295721,-42500.0,-5562.0653907059677,8273.0340682739534,8745.8504052388653,-2812.0920856116231,-6284.2843285637391,4057.3454678036883,12861.057055961046,12564.649008315502,-8420.9920260918025,8420.9920260918025,-12564.649008315502,22519.887909657667,0.0
400012.02908761695,3922225.878295721,-42500.0,-2921.5008127683018,8197.0908366116564,7249.5353577081842,-3979.5244708022392,-6055.0204162945074,4410.2956147024715,11872.62887686533,11378.962244914825,-6002.8445397266896,6002.8445397266896,-11378.962244914825,21016.893331175252,0.0
405012.02908761695,3922225.878295721,-42500.0,-813.07479697555254,7868.5857801577131,5954.1513442910873,-4634.6242765726765,-5604.8305483569329,4389.7124913619591,10913.703067134447,10140.873592049356,-3986.3720593975986,3986.3720593975986,-10140.873592049356,19546.903503908696,0.0
410012.02908761695,3922225.878295721,-42500.0,802.04688575688579,7386.8952818177268,4866.2850124940896,-4923.1420201095207,-5060.5688670878098,4161.6825875403401,9989.5579292499169,8938.4477118711275,-2366.1714025985189,2366.1714025985189,-8938.4477118711275,18093.909020113068,0.0
415012.02908761695,3922225.878295721,-42500.0,1995.0195267134457,6827.118305247116,3970.069795699003,-4961.5563223124009,-4496.9109241174283,3829.5883603720408,9111.635205212513,7821.4245764800871,-1100.4325917235997,1100.4325917235997,-7821.4245764800871,16673.016546514809,0.0
420012.02908761695,3922225.878295721,-42500.0,2843.5671235216978,6241.0439594549562,3240.3867616991547,-4836.8444415761996,-3955.0071335407351,3456.2206830985187,8289.1623249192162,6812.7629932927121,-134.62327482112914,134.62327482112914,-6812.7629932927121,15305.326624809659,0.0
425012.02908761695,3922225.878295721,-42500.0,3419.7628164590574,5662.0054779329921,2650.310693676799,-4611.4518018576346,-3455.4564735773697,3078.6519890444588,7527.4466418108459,5918.658334387781,586.01395842831653,-586.01395842831653,-5918.658334387781,14008.492577609355,0.0
430012.02908761695,3922225.878295721,-42500.0,3785.4237810477093,5110.0118971813008,2174.7482573889051,-4329.0307142623315,-3006.6928098263088,2717.8118524847155,6828.2954854234631,5135.7066943865439,1110.8173189996442,-1110.8173189996442,-5135.7066943865439,12794.267660616124,0.0
435012.02908761695,3922225.878295721,-42500.0,3991.3091741392313,4595.9647543853935,1791.877381933966,-4019.4153860081333,-2610.2063831616097,2384.5708163909235,6190.9213693667152,4455.551593031073,1481.7871735957895,-1481.7871735957895,-4455.551593031073,11668.783365356632,0.0
440012.02908761695,3922225.878295721,-42500.0,4077.991995489836,4124.7874105646524,1483.448183677488,-3702.5133015687979,-2263.729024367392,2083.6139107657846,5612.808369721949,3867.7236235010678,1733.4977567357121,-1733.4977567357121,-3867.7236235010678,10633.698100723763,0.0
445012.02908761695,3922225.878295721,-42500.0,4077.3211706551679,3697.6141682388238,1234.5462196259919,-3391.2036428679867,-1963.1371482343541,1815.9072270288075,5090.3865024461638,3361.2751346417385,1893.8090541470324,-1893.8090541470324,-3361.2751346417385,9687.4264887944009,0.0
250012.02908761695,3927225.878295721,-42500.0,7790.5766798031127,-1557.8217825326246,113.61147054937639,5026.7224696175681,-1023.6203564149281,2363.7749486409216,5877.2015386571693,-2406.3155946482152,6024.0933060463449,-6024.0933060463449,2406.3155946482152,11530.491843198268,0.0
255012.02908761695,3927225.878295721,-42500.0,8375.7391734255998,-1841.4132699078948,184.67548686868909,5690.4085328987867,-1257.5706628254163,2791.6568820193006,6550.5323666164995,-2699.7166796845509,6486.3267446288373,-6486.3267446288373,2699.7166796845509,12829.459610450584,0.0
260012.02908761695,3927225.878295721,-42500.0,8974.5107760913324,-2175.8724660485213,285.88337427366014,6445.8224856331353,-1548.7731212033125,3305.0369517759987,7315.1499453410306,-3023.4140476747989,6957.8085233898337,-6957.8085233898337,3023.4140476747989,14297.568814510749,0.0
265012.02908761695,3927225.878295721,-42500.0,9570.9637061271333,-2568.8582007013088,428.57874737134239,7302.6234124583571,-1911.8661151401745,3921.3561432238985,8183.8473717310062,-3375.759830130371,7424.296634859058,-7424.296634859058,3375.759830130371,15956.130506739019,0.0
270012.02908761695,3927225.878295721,-42500.0,10141.015803256741,-3027.9953032872445,628.19870035246106,8269.3177631515973,-2365.1240088597647,4661.1935361907526,9170.7376819561541,-3751.7297246110825,7864.1222624862367,-7864.1222624862367,3751.7297246110825,17827.679168497696,0.0
275012.02908761695,3927225.878295721,-42500.0,10649.223762429376,-3559.8886997337881,905.66289515607446,9351.6295408381884,-2931.1461340734195,5548.4967615055984,10291.027191262199,-4140.8706130890223,8245.1742106861639,-8245.1742106861639,4140.8706130890223,19935.078408673435,0.0
280012.02908761695,3927225.878295721,-42500.0,11044.428755787663,-4168.3400104042421,1289.1399052843501,10549.809577164298,-3637.4592444228338,6610.5678082819404,11560.468685517313,-4524.1939525426633,8520.7685145751911,-8520.7685145751911,4524.1939525426633,22299.891033982443,0.0
285012.02908761695,3927225.878295721,-42500.0,11253.924858600232,-4851.2525244040608,1816.1970118202139,11854.224853176833,-4516.7748400708615,7877.5347329106116,12994.247430685875,-4869.5197265968436,8624.067703075174,-8624.067703075174,4869.5197265968436,24939.54539929016,0.0
290012.02908761695,3927225.878295721,-42500.0,11175.870885220236,-5595.385182824627,2536.1868241646989,13238.109864137716,-5606.3443944090486,9380.7297104134286,14604.845821715933,-5124.5812642019282,8460.7445903388707,-8460.7445903388707,5124.5812642019282,27862.486907680119,0.0
295012.02908761695,3927225.878295721,-42500.0,10670.025527172291,-6367.6510066182827,3512.4097769517907,14645.629538066296,-6945.2845511971855,11148.720587628522,16398.099525284095,-5207.0124430638843,7899.8716874256206,-7899.8716874256206,5207.0124430638843,31059.977329505233,0.0
300012.02908761695,3927225.878295721,-42500.0,9548.1395979311419,-7101.0147644941753,4822.8399221360041,15972.3083921736,-8567.5726722096188,13198.173547579376,18366.102884951215,-4990.3529863161239,6764.0773865417395,-6764.0773865417395,4990.3529863161239,34492.401362620993,0.0
305012.02908761695,3927225.878295721,-42500.0,7568.8141387542346,-7672.4834186987218,6556.6615971099081,17033.756419914866,-10486.121984395859,15513.288658466905,20474.896706902186,-4286.0197399127428,4822.9881020208813,-4822.9881020208813,4286.0197399127428,38067.098520948006,0.0
310012.02908761695,3927225.878295721,-42500.0,4450.1901529181969,-7871.2666102877401,8800.7545057033385,17519.226804824291,-12659.079291816463,18000.550809395263,22644.432820529244,-2824.5581783868565,1801.4496957029121,-1801.4496957029121,2824.5581783868565,41605.111119737165,0.0
315012.02908761695,3927225.878295721,-42500.0,-67.841566752443015,-7360.5672805665026,11604.669329554681,16935.247438514827,-14922.721450607713,20393.625108469823,24720.236841374037,-249.78213552033048,-2569.539539608304,2569.539539608304,249.78213552033048,44800.524018903765,0.0
320012.02908761695,3927225.878295721,-42500.0,-6050.0732677579854,-5656.7468193411496,14905.067837619328,14579.213824911145,-16869.817625558288,22072.212546612405,26447.738605132858,3834.4178843218288,-8402.5574361137533,8402.5574361137533,-3834.4178843218288,47202.790721271333,0.0
325012.02908761695,3927225.878295721,-42500.0,-13003.970396050354,-2204.4475290283367,18390.525077513896,9677.6022666108856,-17670.72516870933,21787.928774184846,27502.440017817938,9674.1875249858185,-15325.750796271934,15325.750796271934,-9674.1875249858185,48333.495429937895,0.0
330012.02908761695,3927225.878295721,-42500.0,-19387.411492036306,3281.2327434556605,21334.351947766158,1977.3993013830229,-15950.751983989572,17490.98715655983,27743.392274332429,16904.703883389982,-21996.975659808984,21996.975659808984,-16904.703883389982,48206.162824175262,0.0
335012.02908761695,3927225.878295721,-42500.0,-22606.667706555148,10066.521000366567,22593.617360803186,-7022.279901488916,-10147.710668958731,6986.8291220805131,27940.200083583422,23889.931537382738,-25960.918357917562,25960.918357917562,-23889.931537382738,48395.001886376238,0.0
340012.02908761695,3927225.878295721,-42500.0,-20747.850095938131,15772.082099020065,21183.524123365762,-13274.938614069384,64.532932314683151,-9648.808107290406,29949.532995178146,27728.855837597719,-25013.642055827277,25013.642055827277,-27728.855837597719,51874.762594328909,0.0
345012.02908761695,3927225.878295721,-42500.0,-15400.121823392759,17450.967982133308,17385.826838133282,-12560.273385773533,12068.946094163764,-27570.376871679899,33886.034934083684,26219.445085207757,-19891.967537091681,19891.967537091681,-26219.445085207757,58701.920985393037,0.0
350012.02908761695,3927225.878295721,-42500.0,-10997.293552871923,14351.57858795203,13027.089558106483,-5087.5999986416273,21243.880869664001,-39610.852879245344,37115.974260448929,20361.719986501263,-14411.612893342888,14411.612893342888,-20361.719986501263,64286.792896853345,0.0
355012.02908761695,3927225.878295721,-42500.0,-10261.068163610129,8724.961183360585,10065.14571688031,4490.7933402830522,24578.973657186321,-42379.776642625155,37400.327729246856,13629.226898193694,-11728.008227524966,11728.008227524966,-13629.226898193694,64798.707539084397,0.0
360012.02908761695,3927225.878295721,-42500.0,-12419.388091441651,3555.8446290639545,9175.1661598753144,11731.643469567771,22403.716285220751,-37741.829392512132,34654.902355145248,8913.9973614998471,-12067.03555984589,12067.03555984589,-8913.9973614998471,60091.460441116469,0.0
365012.02908761695,3927225.878295721,-42500.0,-15269.06937261112,529.0756363159046,9768.8393573661269,14995.472734339521,16995.570647096094,-29528.431571778332,30092.60694654606,7043.9674332676732,-13885.086832102712,13885.086832102712,-7043.9674332676732,52242.047516490326,0.0
370012.02908761695,3927225.878295721,-42500.0,-17124.784905436522,-206.08435609808441,10823.147885215003,14804.56317640666,10711.813873773403,-20826.591549893088,25069.758750230001,7328.1583232950607,-15581.179119676755,15581.179119676755,-7328.1583232950607,43590.477368620377,0.0
375012.02908761695,3927225.878295721,-42500.0,-17341.192635021434,641.22111380125557,11556.178778423799,12479.617400717141,5100.208325360346,-13306.978295076287,20551.570920829879,8607.317774094161,-16256.546580226375,16256.546580226375,-8607.317774094161,35794.513401439144,0.0
380012.02908761695,3927225.878295721,-42500.0,-16062.787879046868,2194.7000100791101,11643.901377530619,9275.4981661119164,826.49084323474176,-7535.6108025629628,17014.411883620902,9944.395396988155,-15732.755078978556,15732.755078978556,-9944.395396988155,29643.169827019534,0.0
385012.02908761695,3927225.878295721,-42500.0,-13798.385341091191,3793.2620244380428,11116.711437060487,6051.1439767606935,-2049.3560465127475,-3454.7132775602363,14507.604776415541,10840.820904812854,-14268.460800956147,14268.460800956147,-10840.820904812854,25212.202005674262,0.0
390012.02908761695,3927225.878295721,-42500.0,-11091.867523937557,5080.8929444889545,10167.217999490069,3257.0909541640485,-3761.124705360975,-750.87768419690451,12785.742091424896,11162.103788234064,-12263.634811629327,12263.634811629327,-11162.103788234064,22152.998029546299,0.0
395012.02908761695,3927225.878295721,-42500.0,-8359.3355818235905,5940.9430352258632,9007.0657144007073,1050.7628372675281,-4620.4820334374781,933.1407598836206,11533.130663784559,10978.150786330782,-10076.332919791319,10076.332919791319,-10978.150786330782,19995.209928501146,0.0
400012.02908761695,3927225.878295721,-42500.0,-5854.7331124059965,6394.5184902300762,7800.7327685621849,-576.46751366096146,-4909.1227836521612,1906.0177063805022,10526.737639551558,10432.585468769814,-7955.0264164941127,7955.0264164941127,-10432.585468769814,18349.096374057943,0.0
405012.02908761695,3927225.878295721,-42500.0,-3698.7306086683202,6520.627685021117,6652.3263747835663,-1706.7682953264248,-4843.5403409487708,2403.6265087274896,9649.7833548729286,9669.0805556219693,-6040.2302667875147,6040.2302667875147,-9669.0805556219693,16967.376820603185,0.0
410012.02908761695,3927225.878295721,-42500.0,-1923.4257927729052,6409.4328424506893,5616.0776468733548,-2442.2399570472403,-4575.5809868025844,2594.7281280855736,8850.4980327559078,8801.96101562898,-4392.2156295879631,4392.2156295879631,-8801.96101562898,15720.59509532835,0.0
415012.02908761695,3927225.878295721,-42500.0,-510.75410252069446,6140.7990425368853,4712.3587918522771,-2879.2263355662922,-4205.4868483087321,2595.5068168118355,8108.7663167936316,7911.2223743496706,-3020.7327011939446,3020.7327011939446,-7911.2223743496706,14552.039175177464,0.0
420012.02908761695,3927225.878295721,-42500.0,581.08286471456756,5777.5097570770431,3941.4478517178991,-3098.7369777749982,-3796.327859290021,2483.9477136880814,7417.9394551362739,7047.6022458554271,-1907.8867804901547,1907.8867804901547,-7047.6022458554271,13442.481625918743,0.0
425012.02908761695,3927225.878295721,-42500.0,1401.7110136625572,5365.4706629247294,3293.1934800920421,-3164.8111019620465,-3385.9320907698416,2311.3368399232086,6776.2482616177967,6240.149952113743,-1023.1775300154354,1023.1775300154354,-6240.149952113743,12389.152770491066,0.0
430012.02908761695,3927225.878295721,-42500.0,2000.0201940450524,4936.5000017108396,2753.0353284544412,-3126.1862878795009,-2995.6308625153233,2110.6884124343087,6183.0931918188526,5503.1053826501484,-332.37867472141488,332.37867472141488,-5503.1053826501484,11394.892545236198,0.0
435012.02908761695,3927225.878295721,-42500.0,2420.122607900837,4511.6078841095023,2305.4307798233926,-3018.9854199204583,-2636.2898700906339,1902.6808296550466,5637.6253558004173,4841.1949347245027,197.69841762307306,-197.69841762307306,-4841.1949347245027,10463.186068316511,0.0
440012.02908761695,3927225.878295721,-42500.0,2699.8808249447497,4103.9279240944297,1935.6273234839812,-2869.4262574457407,-2312.3300662714641,1699.7668737421054,5138.3499243998749,4253.3812632009285,596.9573665156106,-596.9573665156106,-4253.3812632009285,9596.2532327055087,0.0
445012.02908761695,3927225.878295721,-42500.0,2870.7825552689314,3721.0573676108302,1630.4550503847163,-2696.1758646572671,-2024.3440305513286,1508.9866771527961,4683.144131250755,3735.3815885977374,891.20312207275106,-891.20312207275106,-3735.3815885977374,8794.5796028054119,0.0
250012.02908761695,3932225.878295721,-42500.0,7365.8814068513275,-2121.8493570372539,411.86352722950159,4811.7758887523314,-1338.5672073182982,2280.736706979721,5745.9715785387407,-2658.0798168521878,5689.9210094505279,-5689.9210094505279,2658.0798168521878,11278.140641235925,0.0
255012.02908761695,3932225.878295721,-42500.0,7852.3003791429028,-2468.6678108116885,545.91213268094646,5413.9900166702419,-1622.3161942152733,2680.5551392688863,6382.5241357029381,-2955.9918110832859,6066.2112349709405,-6066.2112349709405,2955.9918110832859,12508.238680332006,0.0
260012.02908761695,3932225.878295721,-42500.0,8329.7696981986846,-2870.4658847789815,724.09925053521397,6089.7056896880631,-1970.5238506756141,3155.9129135515218,7099.9904433969241,-3276.6518654985712,6430.6164329926805,-6430.6164329926805,3276.6518654985712,13888.32349225092,0.0
265012.02908761695,3932225.878295721,-42500.0,8777.5896574752096,-3333.2591943332845,960.70135063087741,6842.9630466245844,-2398.0724694127912,3720.4999053287443,7908.0461460949682,-3614.6772662479189,6764.0216191066729,-6764.0216191066729,3614.6772662479189,15434.044475140861,0.0
270012.02908761695,3932225.878295721,-42500.0,9166.2878134229886,-3861.7832879642915,1274.4533924970158,7674.9081823094366,-2922.8705163255154,4389.6441233749038,8816.6909528033248,-3959.942171732192,7039.0835932555628,-7039.0835932555628,3959.942171732192,17160.511876258955,0.0
275012.02908761695,3932225.878295721,-42500.0,9454.6809017686592,-4457.90819137365,1689.7600055355338,8581.6757650281015,-3566.0522319344173,5179.906457985021,9835.6994245013266,-4295.1431122740851,7217.3742612677233,-7217.3742612677233,4295.1431122740851,19080.851824899739,0.0
280012.02908761695,3932225.878295721,-42500.0,9586.1762723403517,-5118.0270262952845,2238.0444473488246,9551.1517200677608,-4351.7902795072951,6108.1481026739002,10973.667102250252,-4592.2989259177948,7245.7404411701291,-7245.7404411701291,4592.2989259177948,21203.892264395075,0.0
285012.02908761695,3932225.878295721,-42500.0,9484.3050067995919,-5828.8607262154383,2959.0497741420154,10558.049692187238,-5306.2985056174084,7189.6748456449714,12236.409545991741,-4807.8025388536562,7051.8423265426218,-7051.8423265426218,4807.8025388536562,23530.527819384028,0.0
290012.02908761695,3932225.878295721,-42500.0,9047.7897997184809,-6560.8505436002188,3901.6164424793315,11556.46065744419,-6455.2240363723067,8434.7311511212883,13624.333923024882,-4875.6077372133159,6539.1143125876761,-6539.1143125876761,4875.6077372133159,26048.098116222674,0.0
295012.02908761695,3932225.878295721,-42500.0,8146.1775125401473,-7258.0083144615655,5122.9257035515584,12468.669666955504,-7817.9623035579452,9841.9579912679328,15128.197540144236,-4698.2607661011189,5582.0567493735998,-5582.0567493735998,4698.2607661011189,28721.826577386302,0.0
300012.02908761695,3932225.878295721,-42500.0,6618.8503292442474,-7822.8976280412771,6684.1356326232171,13168.79850565161,-9396.2168930970656,11386.137325850719,16722.482470577215,-4136.1350589678959,4024.4099213680629,-4024.4099213680629,4136.1350589678959,31482.24378202972,0.0
305012.02908761695,3932225.878295721,-42500.0,4284.0572400326237,-8095.9019993908159,8638.426445793426,13460.376279015289,-11152.057638289398,12995.098653822977,18355.6541928035,-2997.2068814731497,1686.3210762340655,-1686.3210762340655,2997.2068814731497,34208.082790226232,0.0
310012.02908761695,3932225.878295721,-42500.0,972.16548231109482,-7830.7834415796196,11004.340435937524,13050.516690753138,-12967.7014964632,14506.745799796121,19937.807169407723,-1034.9280421597568,-1606.2304948200704,1606.2304948200704,1034.9280421597568,36707.539183653498,0.0
315012.02908761695,3932225.878295721,-42500.0,-3390.567028502041,-6677.9266085307609,13713.392386346717,11535.533769270314,-14576.630811506257,15593.262063292446,21331.239528024529,2026.2598830024685,-5944.5248929109039,5944.5248929109039,-2026.2598830024685,38712.48867180122,0.0
320012.02908761695,3932225.878295721,-42500.0,-8611.691401904458,-4210.8462519232917,16520.736969980197,8444.3760387716502,-15461.122992958255,15645.239181852177,22365.287673289273,6395.6432776309448,-11175.870585254415,11175.870585254415,-6395.6432776309448,39933.158877426118,0.0
325012.02908761695,3932225.878295721,-42500.0,-13968.643111457804,-77.051797024040823,18888.065117385337,3444.4992871247578,-14749.339375965754,13655.668538584738,22935.984998186355,11984.315342573,-16641.271236874643,16641.271236874643,-11984.315342573,40289.731879269799,0.0
330012.02908761695,3932225.878295721,-42500.0,-18006.636906810076,5613.9887634806446,19927.07071144713,-3152.598522105307,-11262.849385485473,8293.6453716297638,23303.872604146381,18007.644861543158,-20936.727354752045,20936.727354752045,-18007.644861543158,40471.303092928327,0.0
335012.02908761695,3932225.878295721,-42500.0,-18905.393171379776,11713.390077669255,18641.694863959608,-9687.4821768185411,-4044.9626333749688,-1417.4996077209744,24502.106413490048,22664.179242603514,-22163.801475280907,22163.801475280907,-22664.179242603514,42440.88104964004,0.0
340012.02908761695,3932225.878295721,-42500.0,-15930.361040262213,15904.420404340197,14690.334643163718,-13150.636698937235,6459.0808352245485,-14640.845155367793,27661.524351295513,23643.283271752436,-19244.527285176046,19244.527285176046,-23643.283271752436,47985.754756263377,0.0
345012.02908761695,3932225.878295721,-42500.0,-10924.934206053274,16004.999077805749,9187.6336037169367,-11100.747447268799,17548.289540212681,-27825.653562286305,31983.165558470013,19914.612365175741,-13543.457536923259,13543.457536923259,-19914.612365175741,55606.238213118901,0.0
350012.02908761695,3932225.878295721,-42500.0,-7257.4281684177749,11975.808450126015,4308.2130817675397,-4188.8256296370782,25505.272566880394,-36549.890213859086,35193.686374283381,13122.781439793242,-8318.5122455580058,8318.5122455580058,-13122.781439793242,61360.036084289262,0.0
355012.02908761695,3932225.878295721,-42500.0,-6822.5651428075671,6036.7030105426138,1724.1771009569236,4231.5580304682162,28202.482834572642,-38768.908526051055,35789.862487820668,6406.4320516466096,-5972.785187354234,5972.785187354234,-6406.4320516466096,62576.645283844184,0.0
360012.02908761695,3932225.878295721,-42500.0,-9003.5807232634797,747.04918001364126,1661.4650551143525,10949.100808085166,26074.798082243949,-35562.939942786208,33765.022142082657,2045.7353205341801,-6598.0198892548724,6598.0198892548724,-2045.7353205341801,59189.58948637353,0.0
365012.02908761695,3932225.878295721,-42500.0,-12054.962054210911,-2481.8273620035316,3272.8636569048358,14578.626964459278,21003.156314543452,-29377.317920708443,30004.902634113158,559.3654833349201,-8857.2304191223957,8857.2304191223957,-559.3654833349201,52725.757695967717,0.0
370012.02908761695,3932225.878295721,-42500.0,-14514.556712845764,-3498.0982191342555,5449.7949795273789,15295.308222138106,14939.215348332646,-22382.112369843944,25553.17015381208,1257.4928077567411,-11299.821377721411,11299.821377721411,-1257.4928077567411,45007.047432181964,0.0
375012.02908761695,3932225.878295721,-42500.0,-15676.308976876056,-2870.2323917984145,7356.1666761358238,13974.881602203212,9239.7026732852064,-15917.271664533047,21225.409939892306,3077.2248686837502,-13000.332252432128,13000.332252432128,-3077.2248686837502,37454.317918871435,0.0
380012.02908761695,3932225.878295721,-42500.0,-15477.399908384123,-1355.3261659021709,8582.9975067864852,11570.176485805649,4584.5947478660419,-10582.416014773922,17511.268026495003,5117.1167120208838,-13625.954667762082,13625.954667762082,-5117.1167120208838,30907.30559375924,0.0
385012.02908761695,3932225.878295721,-42500.0,-14216.907811394356,414.05157744403152,9069.2120573937791,8823.555004400263,1150.2799063028742,-6498.4568487564347,14602.648387021829,6827.4044286259996,-13256.843356349003,13256.843356349003,-6827.4044286259996,25693.077004336796,0.0
390012.02908761695,3932225.878295721,-42500.0,-12306.8943324877,2036.0624358147995,8947.5318620992766,6201.7553404414975,-1172.0773894132524,-3540.7137199787435,12456.499958848257,7983.1353494244058,-12167.140142011685,12167.140142011685,-7983.1353494244058,21776.585393750225,0.0
395012.02908761695,3932225.878295721,-42500.0,-10120.296610261659,3319.9294563789058,8413.3842805006843,3939.2719628029599,-2606.1448181519609,-1494.3032947221236,10893.45612794378,8573.8335524140784,-10663.220064073808,10663.220064073808,-8573.8335524140784,18921.655281200889,0.0
400012.02908761695,3932225.878295721,-42500.0,-7929.5320912836796,4219.393914370311,7648.3558524030041,2113.5996572867239,-3388.8057686491043,-138.67504539220187,9716.9611016475301,8694.8134319926739,-8999.5796615477466,8999.5796615477466,-8694.8134319926739,16830.529623574184,0.0
405012.02908761695,3932225.878295721,-42500.0,-5902.5563979160988,4767.2499749983808,6790.2090393064464,712.97178625379547,-3723.6040067374092,716.00318874397203,8780.2967205404129,8472.8552128523133,-7353.4995761092096,7353.4995761092096,-8472.8552128523133,15238.257274179525,0.0
410012.02908761695,3932225.878295721,-42500.0,-4124.2043141846352,5028.8178807040604,5930.1553398618053,-316.09813460872664,-3767.5231064999912,1219.2445030087717,7992.5389490506041,8026.7995945333269,-5831.223886515626,5831.223886515626,-8026.7995945333269,13952.315582434376,0.0
415012.02908761695,3932225.878295721,-42500.0,-2622.6250438830743,5074.9562777127558,5121.5637232014569,-1040.3617713336882,-3633.7715350123067,1482.8444265188589,7302.3599996999765,7452.173080751536,-4485.402514765432,4485.402514765432,-7452.173080751536,12851.431705852405,0.0
420012.02908761695,3932225.878295721,-42500.0,-1391.7275008058832,4969.1516587485921,4391.0330889683537,-1525.0138859785723,-3400.1973228571364,1587.6381936723305,6682.1444802917631,6818.8882912842673,-3332.9889165870281,3332.9889165870281,-6818.8882912842673,11867.03053180678,0.0
425012.02908761695,3932225.878295721,-42500.0,-407.29902254275311,4762.9785887539983,3747.9657004291594,-1827.1965638925956,-3118.2928483751903,1590.678442751838,6117.2877533086821,6174.6110218860831,-2369.5089308920433,2369.5089308920433,-6174.6110218860831,10963.62628949664,0.0
430012.02908761695,3932225.878295721,-42500.0,362.57958303844151,4495.8361302691892,3191.6251389700142,-1994.0525835916396,-2820.8573561524172,1531.4380634928511,5599.8923425336588,5549.7447953103074,-1579.0653776412003,1579.0653776412003,-5549.7447953103074,10124.28013913032,0.0
435012.02908761695,3932225.878295721,-42500.0,951.35377794243027,4196.493904529927,2715.8694195915432,-2063.00141021735,-2527.8740891666343,1436.7095188408741,5125.3011993672644,4962.1761042865528,-940.77369108320931,940.77369108320931,-4962.1761042865528,9341.451589996861,0.0
440012.02908761695,3932225.878295721,-42500.0,1390.6485469398303,3885.176286897376,2312.1273043375031,-2062.9532024897967,-2250.780892678807,1324.3059504172384,4690.311280334673,4421.16287025569,-432.61919111706629,432.61919111706629,-4421.16287025569,8611.8414814833031,0.0
445012.02908761695,3932225.878295721,-42500.0,1708.6920135600287,3575.5670824037943,1971.1512400288118,-2015.7841461782555,-1995.4568149767649,1205.7739070809964,4292.2964870828964,3930.2563049747973,-33.585307795340213,33.585307795340213,-3930.2563049747973,7933.6969768297758,0.0
250012.02908761695,3937225.878295721,-42500.0,6806.2410123355976,-2577.9321790113136,755.5259763794852,4522.5363138019793,-1601.0251006526335,2166.4173147929232,5555.2763336468279,-2775.2535478225345,5224.0595454940494,-5224.0595454940494,2775.2535478225345,10911.091447980596,0.0
255012.02908761695,3937225.878295721,-42500.0,7177.8154505693183,-2961.1876014860927,955.5042158616061,5050.0713701169489,-1919.0714329507805,2530.9327720613496,6144.9404368835694,-3051.1899542213687,5497.4091171285017,-5497.4091171285017,3051.1899542213687,12052.401814171779,0.0
260012.02908761695,3937225.878295721,-42500.0,7517.5311800139234,-3396.6180663013256,1212.1680625568918,5630.9519068987092,-2303.8926885595552,2959.4099285870284,6803.4724853369808,-3337.2212316342598,5736.9275262578867,-5736.9275262578867,3337.2212316342598,13321.078384336597,0.0
265012.02908761695,3937225.878295721,-42500.0,7800.9706738865243,-3886.8715650979261,1541.5655744880328,6263.6953909094254,-2769.0155730835227,3461.5399790299825,7537.2791266439226,-3623.5555785779934,5919.5474845097606,-5919.5474845097606,3623.5555785779934,14726.705320841629,0.0
270012.02908761695,3937225.878295721,-42500.0,7995.0287979563618,-4431.7492131890413,1963.9416071844419,6942.5211263438014,-3329.8732462462358,4047.2230396540976,8352.1868874954162,-3894.4635390561061,6013.8632178080779,-6013.8632178080779,3894.4635390561061,16276.694744653149,0.0
275012.02908761695,3937225.878295721,-42500.0,8055.5925494000085,-5026.0678448246526,2504.4738822619847,7655.0128899671372,-4003.3826043809809,4725.6503420568142,9252.6723236722755,-4125.7152356179067,5977.8035939004985,-5977.8035939004985,4125.7152356179067,17974.467642281699,0.0
280012.02908761695,3937225.878295721,-42500.0,7924.9753428080057,-5656.3943333234856,3193.7923325964275,8378.7751854198141,-4806.8389328136163,5503.6893897782456,10240.679256104138,-4281.1300223254821,5756.0087453451779,-5756.0087453451779,4281.1300223254821,19816.767757185757,0.0
285012.02908761695,3937225.878295721,-42500.0,7529.4406206229587,-6296.1713201718949,4067.8810084757374,9076.7179433988586,-5755.5923430568982,6383.1513333854919,11313.845657826661,-4308.0886586785182,5277.21378486914,-5277.21378486914,4308.0886586785182,21789.784321723637,0.0
290012.02908761695,3937225.878295721,-42500.0,6777.625377116552,-6898.6360065291965,5166.5725830914134,9690.5386922320031,-6858.5930747228895,7356.2349831111233,12462.911066505831,-4132.032730065589,4452.4072464607461,-4452.4072464607461,4132.032730065589,23863.70684504533,0.0
295012.02908761695,3937225.878295721,-42500.0,5561.612222918644,-7386.950446561541,6529.2057288148035,10132.028835981801,-8110.2966836843334,8397.9741104418845,13668.073944523305,-3650.466032622347,3175.4451175612116,-3175.4451175612116,3650.466032622347,25985.430787239566,0.0
300012.02908761695,3937225.878295721,-42500.0,3764.2025526964139,-7641.4050170533246,8184.9166847124097,10272.324900146148,-9476.5059906783481,9453.710207267548,14894.26133987603,-2728.1990871366443,1329.5832633977386,-1329.5832633977386,2728.1990871366443,28069.720514037384,0.0
305012.02908761695,3937225.878295721,-42500.0,1279.0939731626088,-7485.21024772892,10133.471204366004,9930.9405437405494,-10870.548634223846,10418.485707876585,16086.070453382907,-1198.2910234813376,-1193.4641335085807,1193.4641335085807,1198.2910234813376,29991.118615103991,0.0
310012.02908761695,3937225.878295721,-42500.0,-1944.7136540688084,-6674.9489238701472,12310.805770813096,8871.1549591645071,-12115.424908274885,11104.312951219254,17165.59076382318,1121.328585999672,-4450.5358939064527,4450.5358939064527,-1121.328585999672,31584.550647946748,0.0
315012.02908761695,3937225.878295721,-42500.0,-5819.2967391813099,-4912.2676645850661,14533.706492364028,6819.2328241787463,-12889.915335846328,11193.15299015142,18042.71207115168,4376.0911115283734,-8364.2467267399625,8364.2467267399625,-4376.0911115283734,32676.603615909509,0.0
320012.02908761695,3937225.878295721,-42500.0,-9987.9176182794199,-1912.5815825276293,16427.001795945569,3544.5718320654419,-12669.915227274316,10186.02079936237,18661.461010941493,8557.6788791814834,-12590.104480783346,12590.104480783346,-8557.6788791814834,33197.724776190575,0.0
325012.02908761695,3937225.878295721,-42500.0,-13689.338452030381,2413.5595840191013,17369.2849589496,-943.72279270259753,-10715.909714880732,7397.8412044439092,19124.473746696276,13298.380418242024,-16365.963367023956,16365.963367023956,-13298.380418242024,33451.581025073232,0.0
330012.02908761695,3937225.878295721,-42500.0,-15778.61421262795,7639.0350113637187,16563.348031963709,-6065.6143713264155,-6231.9647654567225,2122.1154896217286,19902.042758956341,17633.237943574033,-18495.258160566253,18495.258160566253,-17633.237943574033,34488.34117286485,0.0
335012.02908761695,3937225.878295721,-42500.0,-15194.650894047152,12516.594285186093,13395.020853238319,-10393.436182939413,1142.5341949428218,-5877.8843164291648,21826.441113653193,19996.663743072615,-17762.699212985794,17762.699212985794,-19996.663743072615,37891.823255227187,0.0
340012.02908761695,3937225.878295721,-42500.0,-11923.736082200725,15182.689128447808,8073.4880610626869,-11961.452202425138,10600.566823362347,-15661.771456867285,25243.177084213195,18882.875421039222,-13903.543871749001,13903.543871749001,-18882.875421039222,44119.150353973353,0.0
345012.02908761695,3937225.878295721,-42500.0,-7603.1816210279103,14248.282069191742,2004.9553781919285,-9505.620001139956,19919.4730022396,-24939.1036858445,29159.982041609474,14083.705569544833,-8373.1240807580907,8373.1240807580907,-14083.705569544833,51282.391512960414,0.0
350012.02908761695,3937225.878295721,-42500.0,-4598.5382377910855,10000.434452800439,-2824.4175680669705,-3677.2212171472602,26466.931666827466,-31164.641731470252,32000.519325623169,7270.2660840381141,-3665.7683123211023,3665.7683123211023,-7270.2660840381141,56551.960030162641,0.0
355012.02908761695,3937225.878295721,-42500.0,-4226.4426214631867,4272.4085281709004,-5089.5184756894978,3308.4624645710674,28779.540137163582,-33098.111430976955,32782.822316355887,953.33457406811203,-1547.0923854908951,1547.0923854908951,-953.33457406811203,58153.105734850484,0.0
360012.02908761695,3937225.878295721,-42500.0,-6119.3303009014899,-886.87768493202896,-4736.4705228917883,9232.6543469184162,27133.28822067249,-31222.518680940229,31458.886407140697,-3100.5587977538289,-2132.7803715259579,2132.7803715259579,3100.5587977538289,55977.923518752104,0.0
365012.02908761695,3937225.878295721,-42500.0,-9008.9269714778766,-4266.4216935733766,-2610.8670050152214,12935.075654849503,22877.331401349358,-26949.700141810921,28599.527778544783,-4475.8918471000534,-4407.501392702975,4407.501392702975,4475.8918471000534,51032.00114443888,0.0
370012.02908761695,3937225.878295721,-42500.0,-11686.16384175957,-5636.8061536838768,221.52528773471403,14320.439291070765,17519.009766862109,-21711.756228023558,24954.189925155089,-3726.8847007609002,-7145.8024069868479,7145.8024069868479,3726.8847007609002,44642.804633215303,0.0
375012.02908761695,3937225.878295721,-42500.0,-13437.204152384487,-5389.6203934938876,2922.1498761577427,13889.984708691483,12203.786506203009,-16529.092254347321,21170.7653249008,-1756.3570367929005,-9455.5740214225498,9455.5740214225498,1756.3570367929005,37953.995747362125,0.0
380012.02908761695,3937225.878295721,-42500.0,-14049.248458935361,-4135.6678909007469,5021.2083020541659,12314.500921107008,7593.2509934785166,-11965.13221968037,17693.29501324016,613.22522362697327,-10903.807402685878,10903.807402685878,-613.22522362697327,31741.223045357186,0.0
385012.02908761695,3937225.878295721,-42500.0,-13644.444752567768,-2442.223635914956,6370.5501507537856,10191.170815856191,3948.2554673609511,-8238.0459264126657,14759.838740586323,2819.9285344907075,-11424.507524220724,11424.507524220724,-2819.9285344907075,26417.031337010591,0.0
390012.02908761695,3937225.878295721,-42500.0,-12499.781575138592,-718.73830017471619,7027.3661231837277,7951.9237063532546,1270.6236205089242,-5354.4782857552691,12434.709252553828,4573.4269986133313,-11165.779220359051,11165.779220359051,-4573.4269986133313,22111.7602856638,0.0
395012.02908761695,3937225.878295721,-42500.0,-10916.449768510034,796.28405462661465,7142.8546551951895,5860.6034498368754,-569.95814636300383,-3215.2555625363993,10655.981887529357,5787.6256834739634,-10357.242837592838,10357.242837592838,-5787.6256834739634,18769.268446477137,0.0
400012.02908761695,3937225.878295721,-42500.0,-9149.2696827843738,1999.5352338396183,6886.0471785603813,4048.761785022471,-1748.532677032973,-1683.8487261168834,9301.8627984761915,6498.2330205176995,-9225.2667478625026,9225.2667478625026,-6498.2330205176995,16232.604392337076,0.0
405012.02908761695,3937225.878295721,-42500.0,-7382.4755146526168,2875.4628300933659,6404.2204465032883,2559.2382296887649,-2435.7333760880574,-624.05905991002487,8250.3950729920507,6796.460792050485,-7952.9229247423855,7952.9229247423855,-6796.460792050485,14311.718880326478,0.0
410012.02908761695,3937225.878295721,-42500.0,-5732.3901925083628,3455.9190539699398,5809.2522726464358,1382.9914501493861,-2776.0983133604159,82.956723495772309,7406.5988076138256,6786.6977271690039,-6669.9504328162029,6669.9504328162029,-6786.6977271690039,12829.552086657084,0.0
415012.02908761695,3937225.878295721,-42500.0,-4261.4117292207775,3792.3865369190776,5178.2057162302763,485.16836695707525,-2882.5107969362653,533.52731695327589,6704.8886047378501,6564.4245696490707,-5458.1879983818635,5458.1879983818635,-6564.4245696490707,11645.376127687525,0.0
420012.02908761695,3937225.878295721,-42500.0,-2993.9958037917409,3939.603025419588,4559.7531483653274,-178.57518495040947,-2838.50498756356,802.19926398882376,6102.7215001768291,6207.5183746630801,-4362.5281865935349,4362.5281865935349,-6207.5183746630801,10659.415119340258,0.0
425012.02908761695,3937225.878295721,-42500.0,-1930.3954524117262,3947.3198328082003,3981.7500311111198,-652.90541721284728,-2703.4808280519942,944.85251486009361,5573.4001171465397,5774.9809157161953,-3402.0847792817649,3402.0847792817649,-5774.9809157161953,9806.6770421881738,0.0
430012.02908761695,3937225.878295721,-42500.0,-1056.9505356217101,3857.0740073869279,3457.885207124074,-978.28574922925304,-2518.304467192168,1002.3851131378327,5100.365983754793,5309.0842659989439,-2579.418286208167,2579.418286208167,-5309.0842659989439,9047.3644665256761,0.0
435012.02908761695,3937225.878295721,-42500.0,-353.1264847945493,3701.6996703322502,2992.7909516024324,-1189.2158165591438,-2310.2264625119137,1004.1515225499656,4673.241136661738,4838.6426385832719,-1887.3475777889416,1887.3475777889416,-4838.6426385832719,8358.1044487935324,0.0
440012.02908761695,3937225.878295721,-42500.0,203.99782343979646,3506.1369655667449,2585.6722312915244,-1313.9773349213092,-2096.8071138418836,970.85396389838706,4285.2829397184269,4382.2784085615076,-1313.6223231765309,1313.6223231765309,-4382.2784085615076,7725.4409888961009,0.0
250012.02908761695,3942225.878295721,-42500.0,6149.9296739368538,-2914.4975345067628,1119.0390840931589,4177.4117830974956,-1804.5127425987578,2027.7963736520137,5315.2751022796647,-2767.3151659260939,4661.8576637868564,-4661.8576637868564,2767.3151659260939,10448.341275486651,0.0
255012.02908761695,3942225.878295721,-42500.0,6400.7654039190975,-3307.4474246732675,1381.0460362942101,4622.9465245562742,-2140.831734263098,2352.3599405851023,5851.2050736408637,-2999.9919181648615,4825.1935746163826,-4825.1935746163826,2999.9919181648615,11486.832490460667,0.0
260012.02908761695,3942225.878295721,-42500.0,6599.2408474274125,-3743.8646203450689,1708.9972795007589,5101.7278396211796,-2541.7152894115989,2728.7142587216308,6443.4044374312671,-3227.2556207653406,4934.774089483044,-4934.774089483044,3227.2556207653406,12628.580207015235,0.0
265012.02908761695,3942225.878295721,-42500.0,6718.9444551087572,-4221.9865253446169,2119.124631405416,5607.527617679043,-3018.0973241719594,3162.7292193326562,7095.2556263043853,-3435.136114728828,4965.2496457679354,-4965.2496457679354,3435.136114728828,13877.406200692463,0.0
270012.02908761695,3942225.878295721,-42500.0,6725.6432420216252,-4735.6797248379971,2630.9423984973855,6128.9688469091207,-3581.4368368836103,3659.3048040605036,7808.8875707491461,-3603.0368865098558,4883.6361547050183,-4883.6361547050183,3603.0368865098558,15233.715962405851,0.0
275012.02908761695,3942225.878295721,-42500.0,6575.8450719120074,-5271.9699824989812,3267.2917929432087,6647.2769253284914,-4242.696374318929,4221.1350448611447,8584.3308776285885,-3701.3877609755223,4647.8252164448668,-4647.8252164448668,3701.3877609755223,16692.5669733373,0.0
280012.02908761695,3942225.878295721,-42500.0,6215.6583632477359,-5807.5273251675744,4053.787367771447,7133.2880820218315,-5010.436480290663,4846.7428563376143,9418.3367564556866,-3688.7655529807439,4205.3450870697416,-4205.3450870697416,3688.7655529807439,18241.028912499027,0.0
285012.02908761695,3942225.878295721,-42500.0,5580.5341134982373,-6303.8234862448708,5017.1090667937706,7543.5942213673998,-5887.4804500353166,5527.4245450354838,10302.786155813592,-3508.6225763941566,3492.9478338030158,-3492.9478338030158,3508.6225763941566,19854.713200250695,0.0
290012.02908761695,3942225.878295721,-42500.0,4597.0047552082724,-6700.762013435392,6181.1876773610893,7815.8309024095324,-6865.3121733906946,6242.5740258043743,11222.667469185028,-3086.1220045330365,2438.1382904511638,-2438.1382904511638,3086.1220045330365,21493.498028498467,0.0
295012.02908761695,3942225.878295721,-42500.0,3188.3874610393273,-6908.9411131788002,7559.7681848783632,7863.4677202204375,-7914.9917628484036,6952.6170313680141,12153.777611820806,-2326.3116060781945,964.64290586659752,-964.64290586659752,2326.3116060781945,23096.916950144812,0.0
300012.02908761695,3942225.878295721,-42500.0,1287.7766844303674,-6801.699487310424,9143.082217660216,7571.3632032114256,-8972.9782519492383,7588.5276298957142,13060.807315802998,-1116.315945570816,-994.75723617365611,994.75723617365611,1116.315945570816,24580.885864294785,0.0
305012.02908761695,3942225.878295721,-42500.0,-1136.6458547838995,-6210.3927773654386,10875.723718847983,6795.3328400389719,-9920.1679380748683,8036.8211311486466,13897.685286030424,663.21097696228549,-3472.7400762053185,3472.7400762053185,-663.21097696228549,25840.282891949897,0.0
310012.02908761695,3942225.878295721,-42500.0,-4037.8394132182152,-4931.0437254010631,12623.245536070768,5373.0030499514451,-10553.728939964634,8119.8274541876417,14614.784710572789,3108.1503693369873,-6422.5322167490995,6422.5322167490995,-3108.1503693369873,26768.215115838258,0.0
315012.02908761695,3942225.878295721,-42500.0,-7224.5850040714686,-2758.461798974306,14129.225058178692,3159.8644616307283,-10556.499703723428,7574.9986626393365,15182.737861086529,6229.115583885452,-9649.1399693171224,9649.1399693171224,-6229.115583885452,27314.574955219021,0.0
320012.02908761695,3942225.878295721,-42500.0,-10287.210854467652,427.18295491623661,14978.052468931446,111.27748152590098,-9482.5513405275724,6048.0082811949906,15648.652898204949,9846.1823549211731,-12726.937340998531,12726.937340998531,-9846.1823549211731,27618.838602386826,0.0
325012.02908761695,3942225.878295721,-42500.0,-12567.493492666206,4500.254776515636,14607.704196678629,-3574.6943822946309,-6804.0577127028773,3135.9548869919904,16231.278826901855,13453.245439853579,-14954.332728145719,14954.332728145719,-13453.245439853579,28219.198240920767,0.0
330012.02908761695,3942225.878295721,-42500.0,-13285.722155213247,8886.5433647246737,12452.496454640919,-7288.5185075639447,-2091.3427589928797,-1461.4123990213363,17380.881920018583,16137.425224498978,-15461.581382151833,15461.581382151833,-16137.425224498978,30121.987610962809,0.0
335012.02908761695,3942225.878295721,-42500.0,-11935.547048457378,12478.491513994528,8277.678514906951,-9967.1825308993739,4636.7256697761495,-7655.0487971844659,19562.592302510024,16742.172568457645,-13602.612572928416,13602.612572928416,-16742.172568457645,34205.914478283012,0.0
340012.02908761695,3942225.878295721,-42500.0,-8825.7194993152298,13943.086927410212,2587.9679869281076,-10419.990756624095,12544.746843585102,-14677.639094916578,22701.863677392856,14431.253865595654,-9549.0379787495895,9549.0379787495895,-14431.253865595654,40154.437710607926,0.0
345012.02908761695,3942225.878295721,-42500.0,-5243.3139803797822,12476.104614697515,-3288.7951485972367,-8036.1452945899564,20001.93168348532,-21132.553482681229,25982.759092058641,9411.0875116494699,-4571.1361003165239,4571.1361003165239,-9411.0875116494699,46349.478524850652,0.0
350012.02908761695,3942225.878295721,-42500.0,-2795.9882461287643,8448.8380475053709,-7758.8624645010732,-3332.9841414684847,25252.103267119386,-25578.578604149021,28376.542447992291,3097.8867223699917,-473.72545766732833,473.72545766732833,-3097.8867223699917,50902.755473291756,0.0
355012.02908761695,3942225.878295721,-42500.0,-2402.5566370768342,3245.3557824521536,-9807.8336094304941,2276.5783288927378,27297.413186719685,-27255.794911706242,29231.947871979504,-2623.5667847992381,1468.9145222048674,-1468.9145222048674,2623.5667847992381,52640.936502645731,0.0
360012.02908761695,3942225.878295721,-42500.0,-3894.1716752294842,-1572.4283093592044,-9399.1779677597151,7302.0408038805863,26243.427280300719,-26325.06271462495,28463.754117017568,-6397.8596510129664,1092.110763095418,-1092.110763095418,6397.8596510129664,51414.951026926261,0.0
365012.02908761695,3942225.878295721,-42500.0,-6410.8710459073936,-4980.8401187538821,-7225.3271961239343,10818.821544724589,22964.650402457224,-23546.824972301572,26408.129599094384,-7831.1599172798942,-911.25540951298353,911.25540951298353,7831.1599172798942,47833.46402634609,0.0
370012.02908761695,3942225.878295721,-42500.0,-9009.5438295689764,-6673.0457128777171,-4209.6659026470716,12585.633728409506,18549.688794806319,-19815.059751583307,23573.241258345504,-7291.0345635073118,-3579.8466011370456,3579.8466011370456,7291.0345635073118,42810.269436962546,0.0
375012.02908761695,3942225.878295721,-42500.0,-11029.008183915439,-6862.7209196097783,-1137.0321449993303,12830.565196179929,13915.897219604809,-15861.415225480561,20447.120639872344,-5483.7452072765482,-6115.6986564445597,6115.6986564445597,5483.7452072765482,37217.240813052573,0.0
380012.02908761695,3942225.878295721,-42500.0,-12170.269963168412,-6001.6077250461331,1494.0371589955075,11985.10857815845,9666.6594323147801,-12162.823263420571,17403.902974780853,-3116.9166724441538,-8044.4736764088948,8044.4736764088948,3116.9166724441538,31716.413307270064,0.0
385012.02908761695,3942225.878295721,-42500.0,-12420.766943229901,-4564.9274668247162,3462.8812214524819,10495.859762333639,6106.3170516051387,-8966.2162032850756,14681.52692949964,-727.89401742934479,-9194.6644263809358,9194.6644263809358,727.89401742934479,26724.886527391482,0.0
390012.02908761695,3942225.878295721,-42500.0,-11935.270364821999,-2936.9781914913297,4748.879446994204,8728.8461231248748,3319.8016273513704,-6353.4782312362559,12392.615116164232,1357.0480002350696,-9603.2325090833183,9603.2325090833183,-1357.0480002350696,22447.913875032613,0.0
395012.02908761695,3942225.878295721,-42500.0,-10932.405438317095,-1375.9557095964233,5443.7060944117147,6940.7504118293318,1259.8167205326536,-4306.3131811892417,10547.991628915976,2991.4224866847489,-9415.414609986854,9415.414609986854,-2991.4224866847489,18935.039672356317,0.0
400012.02908761695,3942225.878295721,-42500.0,-9626.6145060401541,-24.909363082698846,5682.5001291657791,5287.2863494246094,-183.91951684075505,-2756.0146064105088,9092.491793122852,4152.307380785307,-8809.0337715536007,8809.0337715536007,-4152.307380785307,16135.701529099091,0.0
405012.02908761695,3942225.878295721,-42500.0,-8194.0511483410737,1058.7580861390886,5601.049313558141,3846.499550735738,-1139.2600963900013,-1616.0844211113438,7946.2330660589505,4886.7683382978212,-7949.4600453439125,7949.4600453439125,-4886.7683382978212,13945.395452237057,0.0
410012.02908761695,3942225.878295721,-42500.0,-6762.4865827673548,1872.2596753844655,5314.87150391675,2643.827150666511,-1726.5841016545612,-800.83955222506904,7032.9494122990745,5272.0996377351912,-6969.4777335209237,6969.4777335209237,-5272.0996377351912,12240.575172791798,0.0
415012.02908761695,3942225.878295721,-42500.0,-5414.6761131376961,2442.4969439677061,4912.7135563959446,1672.9471103431479,-2047.8111577079721,-234.39584695395513,6290.8952273177201,5391.0160887769825,-5965.0675236668912,5965.0675236668912,-5391.0160887769825,10902.556112908525,0.0
420012.02908761695,3942225.878295721,-42500.0,-4197.344459538469,2808.9600510743326,4457.805780487115,910.84688676401993,-2183.730267484359,146.18863598825357,5673.9502411125186,5318.6186990447886,-4999.3596087136348,4999.3596087136348,-5318.6186990447886,9831.0581026359123,0.0
425012.02908761695,3942225.878295721,-42500.0,-3131.1309668799827,3013.3823125018935,3992.3306818975143,327.65907867112935,-2195.5188361833034,390.91970240956812,5149.2283105018714,5117.1124507531549,-4109.5923873485644,4109.5923873485644,-5117.1124507531549,8948.9531840558448,0.0
430012.02908761695,3942225.878295721,-42500.0,-2219.2995916695563,3094.2605584904591,3542.5512565912222,-107.47154205132614,-2127.9220945567449,538.32473790498329,4693.9415434926532,4834.9553383568464,-3314.2582423755598,3314.2582423755598,-4834.9553383568464,8201.0090835318133,0.0
435012.02908761695,3942225.878295721,-42500.0,-1454.490352125606,3084.492554255547,3123.4045781971577,-423.2438355493714,-2012.7346273439132,617.40476338338476,4292.5243043179662,4508.1743713753776,-2619.1885391959004,2619.1885391959004,-4508.1743713753776,7549.698288169463,0.0
255012.02908761695,3947225.878295721,-42500.0,5568.8188356935771,-3508.1109763449995,1792.5574480986338,4157.0288855673189,-2286.4651267505478,2154.6067772214938,5516.1117725649119,-2825.9083811509313,4095.2205923389606,-4095.2205923389606,2825.9083811509313,10838.403966595197,0.0
260012.02908761695,3947225.878295721,-42500.0,5633.6356604327802,-3917.2900975307712,2177.8751265547257,4533.5539735913335,-2684.6355385181046,2476.9759028730605,6038.9583166454158,-2979.2196159410705,4080.997846747784,-4080.997846747784,2979.2196159410705,11845.452520968067,0.0
265012.02908761695,3947225.878295721,-42500.0,5603.539480656088,-4350.6290514163147,2648.7658790196538,4915.1251517706787,-3149.0822200412636,2841.7941188099439,6606.8255921822138,-3093.9200650267057,3971.5927044489872,-3971.5927044489872,3093.9200650267057,12930.855883448339,0.0
270012.02908761695,3947225.878295721,-42500.0,5445.789279726293,-4796.1907648746555,3221.8791720801632,5286.5833508833757,-3686.5576028811943,3249.793107424226,7218.9638844509864,-3146.1994992068489,3735.150466436437,-3735.150466436437,3146.1994992068489,14089.387008898699,0.0
275012.02908761695,3947225.878295721,-42500.0,5120.8868657968624,-5234.0228301740935,3915.0263011342176,5625.4803294768262,-4301.4914290859324,3698.5519047340504,7872.2103520790051,-3103.7959369892933,3333.0959287594587,-3333.0959287594587,3103.7959369892933,15309.916920722524,0.0
280012.02908761695,3947225.878295721,-42500.0,4582.8673936752575,-5632.8843921002899,4745.5733078081494,5899.7709416489397,-4993.5782129515619,4180.4984434986118,8560.0130753466947,-2924.0973593133444,2720.3556729683519,-2720.3556729683519,2924.0973593133444,16573.212214808813,0.0
285012.02908761695,3947225.878295721,-42500.0,3781.0237226046806,-5946.1630264315854,5727.3425178062362,6065.200393605699,-5753.9668479641286,4680.0150768383946,9271.2981785272423,-2552.5559769890701,1847.0161253663114,-1847.0161253663114,2552.5559769890701,17849.413258003024,0.0
290012.02908761695,3947225.878295721,-42500.0,2664.1947659077878,-6107.2148286249048,6865.1228569549903,6062.7265608855087,-6559.4431626827418,5169.3428824311786,9989.3533066286254,-1922.2597240947528,662.59860466386613,-662.59860466386613,1922.2597240947528,19095.619381823079,0.0
295012.02908761695,3947225.878295721,-42500.0,1189.3230395442083,-6024.9513858548435,8145.5733799599047,5816.7924485836174,-7363.8907116775672,5602.9585197029073,10691.197216737201,-956.26364974779347,-875.23661590694417,875.23661590694417,956.26364974779347,20254.709172312439,0.0
300012.02908761695,3947225.878295721,-42500.0,-663.38675551551364,-5581.6942693398842,9523.0965505923486,5236.1666240219311,-8086.4162485342185,5910.1987805350309,11348.527026584532,424.48758249561092,-2785.0115524115363,2785.0115524115363,-424.48758249561092,21258.019389103956,0.0
305012.02908761695,3947225.878295721,-42500.0,-2866.1472576936221,-4637.4935009500969,10899.66952823051,4220.6530055847479,-8596.2530287870759,5986.4029039111174,11932.5415830777,2283.1327930169646,-5035.8369873534466,5035.8369873534466,-2283.1327930169646,22037.473635469556,0.0
310012.02908761695,3947225.878295721,-42500.0,-5309.0304127592617,-3048.4928254817678,12099.732583740783,2679.3166994803214,-8696.7848149575238,5684.2924621241236,12426.92479964857,4632.6789925495186,-7510.2085075543609,7510.2085075543609,-4632.6789925495186,22557.84480461969,0.0
315012.02908761695,3947225.878295721,-42500.0,-7760.0266572479495,-710.64788984029201,12847.100224142689,568.21429444421449,-8116.2536672852921,4810.7513467505005,12855.259516516337,7380.2938415960425,-9959.2410917142624,9959.2410917142624,-7380.2938415960425,22885.255189832485,0.0
320012.02908761695,3947225.878295721,-42500.0,-9838.9826082468753,2360.1095787767727,12762.825782968912,-2045.5337647339338,-6522.2965790292692,3140.5979304612215,13325.889921098547,10253.442640596981,-11969.135168202769,11969.135168202769,-10253.442640596981,23298.783144056288,0.0
325012.02908761695,3947225.878295721,-42500.0,-11048.049603052696,5915.2005247845409,11419.593324338344,-4899.5301964554928,-3589.0170799971115,466.74574937026188,14072.683302942889,12736.404683126428,-12983.144641736395,12983.144641736395,-12736.404683126428,24378.336517191037,0.0
330012.02908761695,3947225.878295721,-42500.0,-10916.285506952003,9376.5479582456246,8493.6093396421657,-7473.2472760246219,855.61692357749382,-3294.9007497526036,15411.677239347215,14089.027970056943,-12443.814420984634,12443.814420984634,-14089.027970056943,26840.318872842116,0.0
335012.02908761695,3947225.878295721,-42500.0,-9272.4090088498724,11869.111251322593,4010.1942790024518,-9036.3880204698198,6618.8577748813195,-7959.5239679212245,17526.602344967589,13545.711600085197,-10083.956658403356,10083.956658403356,-13545.711600085197,30979.61994380433,0.0
340012.02908761695,3947225.878295721,-42500.0,-6513.9095785845211,12501.373398970891,-1442.2136892245683,-8893.9869598122896,12988.609853957629,-12973.063589476895,20209.535589601579,10711.104365443285,-6246.6872938758552,6246.6872938758552,-10711.104365443285,36228.105320272567,0.0
345012.02908761695,3947225.878295721,-42500.0,-3597.2379752285392,10836.840082708084,-6760.5146224144219,-6767.0488804592605,18829.241341786241,-17493.874907106332,22870.638349345358,5940.3130088284088,-1942.7756717486845,1942.7756717486845,-5940.3130088284088,41382.062287781948,0.0
350012.02908761695,3947225.878295721,-42500.0,-1607.9110635969548,7224.9581358153291,-10743.012729585134,-3035.4564445708493,22991.474235937407,-20694.445591433469,24843.008750690413,340.29393935506516,1551.9547060858426,-1551.9547060858426,-340.29393935506516,45204.581180073867,0.0
355012.02908761695,3947225.878295721,-42500.0,-1190.2098524539583,2669.2264257603865,-12627.137308931786,1402.3462230220337,24795.972007250377,-22103.501560810997,25687.312976989986,-4714.7784493832633,3324.5193906535114,-3324.5193906535114,4714.7784493832633,46912.471655792906,0.0
360012.02908761695,3947225.878295721,-42500.0,-2295.6135968073331,-1675.3918125463667,-12351.06693140294,5556.2426666399369,24243.430599428615,-21742.046793522117,25306.213372987397,-8195.6823689445846,3187.3553278135005,-3187.3553278135005,8195.6823689445846,46346.534896159959,0.0
365012.02908761695,3947225.878295721,-42500.0,-4368.3104432152504,-4971.9953255026539,-10417.315615948264,8723.7611179904197,21864.387273936645,-20003.055600751202,23884.145869340242,-9725.6446978637105,1576.4959012386757,-1576.4959012386757,9725.6446978637105,43853.045443439129,0.0
370012.02908761695,3947225.878295721,-42500.0,-6709.3924525384009,-6877.2846617806244,-7562.1363044645723,10620.350727756831,18404.639150360366,-17423.941737271842,21751.448830853642,-9503.0404187035929,-799.74489463964346,799.74489463964346,9503.0404187035929,40035.620151152674,0.0
375012.02908761695,3947225.878295721,-42500.0,-8752.5629852739421,-7460.5469016214429,-4470.0691751943614,11303.545371405466,14561.100227606546,-14503.686799067618,19260.099475673396,-8038.2612186515753,-3276.1089218952302,3276.1089218952302,8038.2612186515753,35530.422796638421,0.0
380012.02908761695,3947225.878295721,-42500.0,-10171.792917269404,-7023.6372161195495,-1628.7896041915317,11023.532016744835,10848.271980469124,-11614.474584014506,16708.115595022689,-5903.9308906784345,-5391.02138542179,5391.02138542179,5903.9308906784345,30870.589543249913,0.0
385012.02908761695,3947225.878295721,-42500.0,-10866.661802333854,-5937.2768194670725,695.40649412545849,10091.247031652652,7573.5572602299681,-8987.1423611387327,14309.54456088189,-3581.5151970920151,-6912.8666294503719,6912.8666294503719,3581.5151970920151,26435.066885759981,0.0
390012.02908761695,3947225.878295721,-42500.0,-10893.970679335411,-4536.5144539021003,2415.8231593286564,8794.6752761498592,4871.6409678019154,-6734.4802896318442,12191.630172434161,-1402.5676129786352,-7793.6395721284807,7793.6395721284807,1402.5676129786352,22451.447608930885,0.0
395012.02908761695,3947225.878295721,-42500.0,-10393.124601012933,-3073.8909780384106,3562.8395520794902,7360.0825324971647,2758.0970698535402,-4886.1133522797718,10404.186611462665,447.87753676235752,-8100.8385273102604,8100.8385273102604,-447.87753676235752,19024.211336830489,0.0
400012.02908761695,3947225.878295721,-42500.0,-9527.9541074350727,-1712.443057237301,4227.0776002273642,5943.8813445980595,1179.6060400602457,-3421.0294154316571,8938.0027492848239,1898.6808385169552,-7956.4531350139532,7956.4531350139532,-1898.6808385169552,16169.584253030425,0.0
405012.02908761695,3947225.878295721,-42500.0,-8450.614427745486,-539.59764461707607,4518.5849282667814,4640.9558376537198,51.765388917181198,-2292.4711846824025,7751.0031956070507,2953.5230418522142,-7494.0189272946509,7494.0189272946509,-2953.5230418522142,13847.51320049063,0.0
410012.02908761695,3947225.878295721,-42500.0,-7284.4046100933601,411.97196719016011,4542.579394146238,3499.1740404371076,-716.57396663660006,-1444.5706234580664,6791.5320512174876,3657.3177474444847,-6834.0220832842651,6834.0220832842651,-3657.3177474444847,11987.320085435786,0.0
415012.02908761695,3947225.878295721,-42500.0,-6119.4388246694161,1144.4534049786273,4387.9649086279815,2534.1207530219081,-1209.8756564042533,-822.19595594085911,6011.1034917562447,4072.1070793765357,-6073.27681472531,6073.27681472531,-4072.1070793765357,10506.762955488031,0.0
420012.02908761695,3947225.878295721,-42500.0,-5015.4575532084828,1679.2727887184681,4124.037110642912,1741.3387892504909,-1499.977486829386,-375.97292822013475,5368.9345677125448,4262.0579359665508,-5283.0907298317461,5283.0907298317461,-4262.0579359665508,9325.1855927692231,0.0
425012.02908761695,3947225.878295721,-42500.0,-4007.6412623323517,2046.2849023826311,3801.6082459293793,1105.3595514148021,-1644.6591788119817,-64.231637190038271,4832.6526151258604,4285.4333029320596,-4511.9886440704531,4511.9886440704531,-4285.4333029320596,8371.4875643552532,0.0
430012.02908761695,3947225.878295721,-42500.0,-3112.9597070544728,2277.0448484917874,3456.0255275457639,605.80935543420162,-1688.5710031404508,146.80765540731062,4377.5271407771324,4191.2073753362474,-3790.1951465794714,3790.1951465794714,-4191.2073753362474,7587.747844188536,0.0
435012.02908761695,3947225.878295721,-42500.0,-2335.8211360182077,2401.0752563013712,3110.6172188309856,221.2159908540423,-1665.1683053913223,283.74201567092308,3985.1684981302315,4018.4243477328064,-3134.2798508933529,3134.2798508933529,-4018.4243477328064,6929.5862643801984,0.0
255012.02908761695,3952225.878295721,-42500.0,4724.8814989493376,-3573.8397923051525,2165.1959373600439,3674.8927137765336,-2359.8146694062843,1946.8812630534567,5154.6973019244269,-2557.4190878948752,3349.3583353829113,-3349.3583353829113,2557.4190878948752,10133.910704622478,0.0
260012.02908761695,3952225.878295721,-42500.0,4671.811587421802,-3934.0973473556328,2589.8009415675856,3954.7292006014095,-2739.6223139370377,2216.2624324219646,5609.0856508870638,-2630.5321895117941,3225.9567352616277,-3225.9567352616277,2630.5321895117941,11005.435781225942,0.0
265012.02908761695,3952225.878295721,-42500.0,4514.9299498214605,-4299.2587847795921,3097.2861339241035,4221.7639037139197,-3173.6831166711813,2514.5091555751869,6095.7355651579728,-2648.7131998066966,2998.5145364343566,-2998.5145364343566,2648.7131998066966,11929.503611693122,0.0
270012.02908761695,3952225.878295721,-42500.0,4225.1932303513586,-4652.6346453193482,3699.8403228528996,4458.9503047905318,-3664.0372592699587,2839.2067403116412,6611.9375660593487,-2587.0197257266636,2638.6638906087292,-2638.6638906087292,2587.0197257266636,12896.979111323002,0.0
275012.02908761695,3952225.878295721,-42500.0,3769.6110680998236,-4969.2187719888989,4408.5170806202887,4642.7506728661256,-4209.006542170373,3184.3689184086693,7152.6373622942983,-2413.4409640575623,2114.1352662375921,-2114.1352662375921,2413.4409640575623,13893.042836390601,0.0
280012.02908761695,3952225.878295721,-42500.0,3112.7123376307336,-5213.0702004802451,5230.8295310763542,4741.6554267445445,-4800.6274243979942,3538.6422794856539,7709.7983719277972,-2088.1586186181521,1390.2309471498379,-1390.2309471498379,2088.1586186181521,14895.701713396125,0.0
285012.02908761695,3952225.878295721,-42500.0,2219.6658785765944,-5334.4898246760104,6166.7934474528593,4714.8708384691936,-5420.9159414937685,3882.8809778004493,8271.8622127777853,-1563.7023215787635,433.01757469607378,-433.01757469607378,1563.7023215787635,15874.524667322567,0.0
290012.02908761695,3952225.878295721,-42500.0,1061.9705452201647,-5267.5573853074047,7202.7606676925525,4511.688625753306,-6036.6457815780968,4186.9950558254859,8823.6191365580544,-786.9681311058672,-784.76821747836141,784.76821747836141,786.9681311058672,16790.34615305586,0.0
295012.02908761695,3952225.878295721,-42500.0,-373.15772395364752,-4929.2291944270728,8302.3569422038836,4072.4782110159467,-6592.4345950777433,4406.0777987491992,9347.1195159317158,295.34168940466566,-2273.8350980958749,2273.8350980958749,-295.34168940466566,17597.472500227363,0.0
300012.02908761695,3952225.878295721,-42500.0,-2068.5989192143243,-4222.2518464683999,9394.1448810012535,3332.9103424085579,-7002.3492523288569,4476.0895223780126,9824.8187856126915,1725.5624572582449,-4013.1547207604954,4013.1547207604954,-1725.5624572582449,18251.38752369471,0.0
305012.02908761695,3952225.878295721,-42500.0,-3958.0326009666451,-3045.6476104994326,10356.732034243038,2233.9060641619976,-7141.2739294758203,4309.9818419160129,10246.956488770767,3515.3133477257697,-5928.8730627914492,5928.8730627914492,-3515.3133477257697,18727.257291411945,0.0
310012.02908761695,3952225.878295721,-42500.0,-5903.7595535037244,-1318.1052190588689,11004.740498590243,740.59629785403013,-6839.4270088020967,3796.3669725828831,10625.845163344533,5614.7148478990439,-7869.2325639358878,7869.2325639358878,-5614.7148478990439,19056.919397505149,0.0
315012.02908761695,3952225.878295721,-42500.0,-7679.4723511804659,980.23447750888909,11084.199587731215,-1126.7900217159724,-5887.0938912762995,2804.9186998318355,11018.379007510055,7871.5639865573776,-9583.2811123689517,9583.2811123689517,-7871.5639865573776,19389.103532322177,0.0
320012.02908761695,3952225.878295721,-42500.0,-8975.0082335392071,3746.9697109106528,10293.293540263783,-3251.1656849392125,-4061.2911659584383,1205.3041176197592,11549.472700907203,9990.8877866737512,-10721.257253256937,10721.257253256937,-9990.8877866737512,20051.451844195595,0.0
325012.02908761695,3952225.878295721,-42500.0,-9448.8483623677639,6692.2503887565963,8349.6009753852759,-5378.0127260278832,-1188.0404345284489,-1092.6013314601673,12408.025686688663,11522.463503236842,-10885.325249460831,10885.325249460831,-11522.463503236842,21523.137608173471,0.0
330012.02908761695,3952225.878295721,-42500.0,-8848.4731602493484,9311.108819485924,5115.5867071793318,-7106.4442117058361,2755.8834763747941,-4075.7096760046788,13772.276158044158,11921.534497782084,-9756.5756324348968,9756.5756324348968,-11921.534497782084,24197.244797370167,0.0
335012.02908761695,3952225.878295721,-42500.0,-7177.6319826093677,10957.400400289509,753.99685898447456,-7955.3392528742461,7529.6972510587893,-7560.0676898075199,15671.913159429347,10719.769732081813,-7284.0398649797335,7284.0398649797335,-10719.769732081813,28039.891080312322,0.0
340012.02908761695,3952225.878295721,-42500.0,-4815.5889142524666,11056.197936817691,-4179.4120165666791,-7525.0174613907229,12577.426121514418,-11164.379176155893,17893.026586959684,7775.1455642194196,-3840.4226900416525,3840.4226900416525,-7775.1455642194196,32494.952806414498,0.0
345012.02908761695,3952225.878295721,-42500.0,-2457.0126244290304,9384.4349043607035,-8822.5639106574581,-5697.9422799690974,17122.494909497269,-14375.443991385826,20026.83118128244,3458.9989454836564,-195.99208040235681,195.99208040235681,-3458.9989454836564,36712.992975050598,0.0
350012.02908761695,3952225.878295721,-42500.0,-839.94767519267521,6236.7887929699473,-12293.343951112267,-2746.5260687653181,20411.250864403606,-16704.755371335992,21636.315429908158,-1393.1137548037186,2751.4503856657066,-2751.4503856657066,1393.1137548037186,39879.152264511431,0.0
355012.02908761695,3952225.878295721,-42500.0,-418.99856271528779,2331.2936395802039,-14023.633247624794,749.97454898437059,21979.465092505372,-17855.458643027843,22420.348896041196,-5788.7596841309714,4347.8015094228649,-4347.8015094228649,5788.7596841309714,41463.024350422369,0.0
360012.02908761695,3952225.878295721,-42500.0,-1206.4464350213282,-1490.6396595971958,-13930.98072953774,4132.5431075306178,21780.353183786614,-17799.42555747358,22286.418142889925,-8952.7704481794935,4409.960990779331,-4409.960990779331,8952.7704481794935,41317.719069439932,0.0
365012.02908761695,3952225.878295721,-42500.0,-2853.4858989713048,-4565.6290140175033,-12353.535904246501,6883.9943086578432,20122.96396335369,-16735.405556398513,21328.891815415947,-10541.604807709427,3195.6455191617679,-3195.6455191617679,10541.604807709427,39630.591547191565,0.0
370012.02908761695,3952225.878295721,-42500.0,-4860.9600617532451,-6556.0968025572129,-9844.4505113728737,8735.5758629017128,17500.751739567531,-14980.416429084729,19756.57209334206,-10631.053112660233,1203.389868786121,-1203.389868786121,10631.053112660233,36790.153128830556,0.0
375012.02908761695,3952225.878295721,-42500.0,-6772.2495137202795,-7434.359643368779,-6966.0388952041867,9654.2713400203647,14421.464305248255,-12863.638634156083,17815.526037366344,-9564.6309778343857,-1042.6019590603728,1042.6019590603728,9564.6309778343857,33246.383300663379,0.0
380012.02908761695,3952225.878295721,-42500.0,-8276.8265521371522,-7379.0661661458089,-4161.7632607033775,9766.9351691114389,11299.529647041729,-10659.411893943423,15733.397649921744,-7780.4398769973513,-3130.3757112964295,3130.3757112964295,7780.4398769973513,29410.609977716322,0.0
385012.02908761695,3952225.878295721,-42500.0,-9228.946029375531,-6659.7423112124043,-1712.7054589963902,9275.7236031551183,8416.1517015635036,-8561.450715373905,13690.268265015253,-5685.032623777538,-4808.8809049814872,4808.8809049814872,5685.032623777538,25604.508262788928,0.0
390012.02908761695,3952225.878295721,-42500.0,-9616.3553643903506,-5549.7823457577897,249.13160734433254,8393.3875997635641,5925.6158827358195,-6684.9089402855279,11809.0627440067,-3589.4628110238509,-5975.5260836620046,5975.5260836620046,3589.4628110238509,22047.379754659323,0.0
395012.02908761695,3952225.878295721,-42500.0,-9511.9577836313892,-4277.3406667671024,1701.8416700928756,7305.1749045460501,3883.6193649679153,-5081.9692880657094,10156.530728003441,-1694.3626386233741,-6635.8722399853468,6635.8722399853468,1694.3626386233741,18866.061128392441,0.0
400012.02908761695,3952225.878295721,-42500.0,-9028.8709899097394,-3007.4856511129997,2690.9342687087747,6152.9800731486594,2280.3736419067091,-3760.9037012399281,8751.2859166452727,-103.63592521172995,-6859.1469952971865,6859.1469952971865,103.63592521172995,16114.542405206797,0.0
405012.02908761695,3952225.878295721,-42500.0,-8287.6058760640808,-1844.1827569417137,3294.2168445916641,5034.1009552746391,1069.3114211555055,-2703.2147353352566,7579.1112147428776,1150.3992415120106,-6741.8066916183197,6741.8066916183197,-1150.3992415120106,13795.160089812727,0.0
410012.02908761695,3952225.878295721,-42500.0,-7396.4870188618443,-841.83266545358322,3597.6853069218105,4007.6153162513574,188.11190422545289,-1876.7481008774562,6610.2194056830785,2081.3250676199796,-6382.9189967674147,6382.9189967674147,-2081.3250676199796,11877.269405829315,0.0
415012.02908761695,3952225.878295721,-42500.0,-6442.7313439881336,-19.334660637033863,3681.4966643920734,3103.4384825764155,-427.82893958859364,-1244.6029336993493,5811.1301180692517,2727.6325289456618,-5870.3674482882998,5870.3674482882998,-2727.6325289456618,10312.018232639139,0.0
420012.02908761695,3952225.878295721,-42500.0,-5490.6359317677725,627.1463514631306,3613.4233220740784,2331.2079587566841,-837.90639439595793,-770.55542141977469,5150.2883785617323,3137.8505169192867,-5275.0476737588924,5275.0476737588924,-3137.8505169192867,9043.2821989142303,0.0
425012.02908761695,3952225.878295721,-42500.0,-4583.705212282086,1114.2288169933279,3447.0762661103608,1687.672224810223,-1092.9456499138712,-421.93053380584087,4600.16548369871,3361.2216836727139,-4650.0691889039654,4650.0691889039654,-3361.2216836727139,8015.2565391874487,0.0
430012.02908761695,3952225.878295721,-42500.0,-3748.4716441654737,1464.334948580344,3222.7485101810039,1162.2448392959527,-1234.376947874224,-170.79684446049876,4137.8402913285336,3442.5984528986519,-4032.6107252657639,4032.6107252657639,-3442.5984528986519,7177.2723102896944,0.0
255012.02908761695,3957225.878295721,-42500.0,3904.4985583158409,-3522.3906766367645,2480.7962583186159,3195.9045577537358,-2368.4394564413096,1737.2749207343174,4781.1535424670146,-2224.3348566646309,2622.8093969011388,-2622.8093969011388,2224.3348566646309,9398.4013372885092,0.0
260012.02908761695,3957225.878295721,-42500.0,3754.3065479318657,-3819.4175874014618,2925.0819100434451,3388.6774776271232,-2718.0665311400508,1956.8512599676869,5170.9610216026613,-2218.7687576605613,2410.1989417477771,-2410.1989417477771,2218.7687576605613,10139.274089801836,0.0
265012.02908761695,3957225.878295721,-42500.0,3498.3745791246361,-4102.777848654152,3444.3197959530003,3555.4180997559279,-3108.7059626849518,2193.8225144586108,5582.4905337433602,-2146.3810390688577,2091.7818713193865,-2091.7818713193865,2146.3810390688577,10910.901467603544,0.0
270012.02908761695,3957225.878295721,-42500.0,3112.8332036484135,-4352.629043222998,4045.3969973090066,3678.8604901884746,-3538.234460541843,2443.6569127711186,6011.9158710998236,-1983.129471534503,1644.3189334404924,-1644.3189334404924,1983.129471534503,11702.008942647375,0.0
275012.02908761695,3957225.878295721,-42500.0,2572.5465331347477,-4541.3381341167496,4732.0303889444494,3736.4665210827425,-3999.9687300472024,2698.2573944969727,6453.4304333909586,-1699.8326631144323,1043.4353077280666,-1043.4353077280666,1699.8326631144323,12496.469702571492,0.0
280012.02908761695,3957225.878295721,-42500.0,1853.3444697947814,-4631.7524912455528,5501.9458116817168,3699.7393106420368,-4480.2525826279725,2944.4990374844633,6898.99584922543,-1262.5246467469335,265.94823379173675,-265.94823379173675,1262.5246467469335,13272.653011202116,0.0
285012.02908761695,3957225.878295721,-42500.0,935.82605152669964,-4575.8040544160685,6342.7001977096488,3534.0203983111651,-4955.2110438723721,3162.3999130177613,7338.3923317694398,-634.04787351825212,-706.1264991151163,706.1264991151163,634.04787351825212,14003.475024981761,0.0
290012.02908761695,3957225.878295721,-42500.0,-188.68633576647943,-4314.1720061302231,7225.8087002724797,3199.3034960318087,-5386.6138600212953,3322.9714144238824,7759.9422926159741,222.22998065971535,-1879.2260849486647,1879.2260849486647,-222.22998065971535,14658.069563976771,0.0
295012.02908761695,3957225.878295721,-42500.0,-1509.5518523634164,-3778.2528664268884,8099.0555160501162,2652.8909744078151,-5717.0260336013034,3385.9424682656031,8152.5445853120909,1335.3702771457156,-3238.9406567513861,3238.9406567513861,-1335.3702771457156,15206.727233146425,0.0
300012.02908761695,3957225.878295721,-42500.0,-2985.5140211357621,-2896.3934790257763,8877.4572027176964,1855.0847155703632,-5864.9316834882766,3297.8335796137335,8510.0114399227368,2715.0552885710913,-4737.5525264625348,4737.5525264625348,-2715.0552885710913,15631.856766567136,0.0
305012.02908761695,3957225.878295721,-42500.0,-4531.8357826166603,-1607.0322509438445,9434.6523773639783,779.37464698010251,-5721.4655948236914,2991.342862511101,8838.9335019392802,4333.8616913146288,-6279.4172886264296,6279.4172886264296,-4333.8616913146288,15948.794974004471,0.0
310012.02908761695,3957225.878295721,-42500.0,-6009.3912884096562,118.49746992948705,9598.8256849440459,-571.59069375970671,-5151.9097541821784,2387.7577669511452,9170.6681272689675,6103.956098359221,-7707.7282790217023,7707.7282790217023,-6103.956098359221,16239.23705079765,0.0
315012.02908761695,3957225.878295721,-42500.0,-7223.0689660963153,2242.5045881960227,9160.6033449452425,-2144.3784468228941,-4007.0391474762964,1405.0202432362364,9574.6822414244125,7852.3869601872102,-8800.4549176712062,8800.4549176712062,-7852.3869601872102,16690.101886019507,0.0
320012.02908761695,3957225.878295721,-42500.0,-7941.0378961076585,4621.4554609589622,7903.3444280330659,-3811.4170952895061,-2150.6656007707311,-25.412175742810181,10162.226722509302,9306.1804790921997,-9288.2960658311422,9288.2960658311422,-9306.1804790921997,17601.526117495468,0.0
325012.02908761695,3957225.878295721,-42500.0,-7946.9175442338346,6975.9608227549443,5664.8841214058075,-5356.5846319325728,492.35613694828919,-1931.0670674619812,11060.658971290508,10107.112887530682,-8909.1991591411897,8909.1991591411897,-10107.112887530682,19297.237280486552,0.0
330012.02908761695,3957225.878295721,-42500.0,-7126.1905136663772,8898.63453925678,2427.536671671045,-6487.7718413450557,3872.8054716300039,-4263.6990088811699,12349.878891177033,9879.0546554468001,-7504.1067733204009,7504.1067733204009,-9879.0546554468001,21930.494861923005,0.0
335012.02908761695,3957225.878295721,-42500.0,-5560.9435159670247,9930.2576804164801,-1593.4036685039234,-6894.1537765006196,7761.5592414711509,-6870.3707155684533,13992.263493803634,8354.4522176815262,-5129.8147270695517,5129.8147270695517,-8354.4522176815262,25333.667398960584,0.0
340012.02908761695,3957225.878295721,-42500.0,-3574.8437157468256,9707.11028517468,-5920.620041425369,-6346.8257300653768,11741.868826245212,-9492.374159956431,15807.873424733612,5523.1450892880539,-2126.8920435824339,2126.8920435824339,-5523.1450892880539,29047.954174314797,0.0
345012.02908761695,3957225.878295721,-42500.0,-1669.4474709477965,8124.7496959068712,-9899.0672621937265,-4804.7970191937484,15282.968582130399,-11809.806553519931,17516.087044656786,1719.2100725938258,928.29970123494604,-928.29970123494604,-1719.2100725938258,32482.341457062848,0.0
350012.02908761695,3957225.878295721,-42500.0,-353.03923763198623,5420.5450071298728,-12886.477247009479,-2463.172872556419,17884.588894295877,-13524.950410459536,18825.894212157535,-2434.3434745752634,3400.6882254192683,-3400.6882254192683,2434.3434745752634,35091.610481812793,0.0
355012.02908761695,3957225.878295721,-42500.0,51.006708181416897,2108.8715004562223,-14460.689611247057,296.65512268933895,19226.98897254718,-14447.40871742612,19527.754553446634,-6219.8381643616922,4819.3733011908007,-4819.3733011908007,6219.8381643616922,36510.739828228478,0.0
360012.02908761695,3957225.878295721,-42500.0,-494.92540582395679,-1199.6356715147683,-14532.37713434163,3031.5760033250781,19249.35659704432,-14538.134449665511,19541.308733505804,-9055.6918224012716,5021.1291785843268,-5021.1291785843268,9055.6918224012716,36614.653171080703,0.0
365012.02908761695,3957225.878295721,-42500.0,-1775.5012123308081,-3990.2354864127947,-13318.239959306155,5366.9567318237268,18127.275919309406,-13896.580501886361,18910.308026282026,-10643.38438240156,4149.9194244893233,-4149.9194244893233,10643.38438240156,35499.548412805452,0.0
370012.02908761695,3957225.878295721,-42500.0,-3442.3422786804081,-5957.7828393511372,-11217.944826462748,7074.0752990079118,16180.979813361168,-12708.97950960597,17764.388844766861,-10982.803500640664,2546.1361368526068,-2546.1361368526068,10982.803500640664,33412.009049747408,0.0
375012.02908761695,3957225.878295721,-42500.0,-5142.536788452283,-7020.6444559731044,-8673.13950599907,8081.0812313798924,13770.033887730615,-11188.690696413778,16272.193784250907,-10290.551122584677,606.35598846461471,-606.35598846461471,10290.551122584677,30664.246808841355,0.0
380012.02908761695,3957225.878295721,-42500.0,-6604.1406178385787,-7267.3043263266509,-6064.322589377467,8438.6071744590772,11214.369283671249,-9530.673546745069,14602.617989306811,-8886.4017325208788,-1323.8832869629164,1323.8832869629164,8886.4017325208788,27564.350866004763,0.0
385012.02908761695,3957225.878295721,-42500.0,-7667.9834663507409,-6880.6013419012233,-3661.7974312389324,8269.3239437598295,8754.0273561586528,-7887.064421765057,12900.452549216592,-7096.9438998454552,-3003.2261105325852,3003.2261105325852,7096.9438998454552,24373.086937711625,0.0
390012.02908761695,3957225.878295721,-42500.0,-8279.8347406196572,-6070.9811716265895,-1620.4907244971937,7722.187429643528,6541.2019130220342,-6360.6614711473467,11274.861277278005,-5196.0859112205681,-4302.0122144711795,4302.0122144711795,5196.0859112205681,21285.642917010926,0.0
395012.02908761695,3957225.878295721,-42500.0,-8462.8375171666994,-5031.7624629644924,0.01495587246011354,6940.3833409251274,4651.8383580319005,-5009.6720768962987,9796.0249996589755,-3380.8866359182848,-5182.9201781962056,5182.9201781962056,3380.8866359182848,18431.008040477242,0.0
400012.02908761695,3957225.878295721,-42500.0,-8285.8887405156893,-3916.6747526600511,1206.5371110842759,6043.7493324648722,3105.2433511038398,-3857.5686661201757,8497.1665620402218,-1772.0095646208879,-5671.7681248034587,5671.7681248034587,1772.0095646208879,15881.121415698994,0.0
405012.02908761695,3957225.878295721,-42500.0,-7836.8446196808027,-2834.0587156076572,2044.718197514107,5122.5041850728358,1884.1001580999684,-2903.863187431753,7382.4529419210576,-427.20235846468859,-5829.4542486673126,5829.4542486673126,427.20235846468859,13663.796603737774,0.0
410012.02908761695,3957225.878295721,-42500.0,-7203.81684678888,-1850.993378824799,2577.5643232497155,4238.1604613517111,951.03867751090604,-2133.5155234690492,6438.7751067328654,641.02237310346891,-5730.2054471661049,5730.2054471661049,-641.02237310346891,11775.6863351875,0.0
415012.02908761695,3957225.878295721,-42500.0,-6464.3466301778662,-1001.8408505558348,2871.0573051576739,3428.0714104917224,260.59242870465812,-1524.1135756650747,5645.7386929569657,1448.7585057530705,-5447.2507245325414,5447.2507245325414,-1448.7585057530705,10193.448850498035,0.0
420012.02908761695,3957225.878295721,-42500.0,-5680.6948620302865,-297.60834792350948,2985.8576580931185,2711.157662302945,-233.1331480220463,-1050.8083865968645,4981.3018638174044,2027.4772663588931,-5044.9117637024983,5044.9117637024983,-2027.4772663588931,8882.5514379528959,0.0
425012.02908761695,3957225.878295721,-42500.0,-4899.1569345798816,265.79190183603436,2973.4508767391567,2093.3765510436756,-572.15958440917609,-689.36806071342414,4424.3557504184319,2414.6892717362189,-4575.3472258481634,4575.3472258481634,-2414.6892717362189,7803.7792940141198,0.0
430012.02908761695,3957225.878295721,-42500.0,-4151.6291127097666,701.10155745932605,2875.1404812336341,1572.2862060346631,-792.67039426700626,-417.84302608422257,3955.881458984868,2648.0193569512762,-4078.2313208163155,4078.2313208163155,-2648.0193569512762,6917.8071603489516,0.0
260012.02908761695,3962225.878295721,-42500.0,2910.1066682434607,-3602.1889831088347,3173.3687673781192,2853.2100955035617,-2633.8348391587333,1706.8684081701629,4738.4877584858004,-1778.0325680414346,1663.1005875793846,-1663.1005875793846,1778.0325680414346,9273.3399652278604,0.0
265012.02908761695,3962225.878295721,-42500.0,2583.7963515849797,-3799.013727959551,3681.6482057979865,2936.1747707450577,-2973.3096743290002,1889.505968002557,5082.6876829023122,-1627.5180712576835,1282.0916051772301,-1282.0916051772301,1627.5180712576835,9906.1667582694245,0.0
270012.02908761695,3962225.878295721,-42500.0,2137.6746994825144,-3944.8135882895531,4254.6188367896275,2968.157649592044,-3335.2629412626156,2074.6110974024114,5436.0456534211644,-1381.8022969280687,782.2838594532609,-782.2838594532609,1381.8022969280687,10540.655127681752,0.0
275012.02908761695,3962225.878295721,-42500.0,1554.675471606595,-4011.7013774169436,4889.0998604450779,2929.0434699819343,-3709.4263191377668,2253.1781018796196,5792.925847457358,-1016.3511950573072,147.58820591820063,-147.58820591820063,1016.3511950573072,11161.355175179364,0.0
280012.02908761695,3962225.878295721,-42500.0,821.25772543502399,-3964.3392519488198,5574.3831293727471,2794.776344060575,-4078.6204782494747,2411.8407797616928,6146.3674825775779,-504.80628860938845,-634.1372513810287,634.1372513810287,504.80628860938845,11749.367276838886,0.0
285012.02908761695,3962225.878295721,-42500.0,-68.749539105814677,-3759.8420436585493,6288.3804857809446,2537.9496739566994,-4416.2168147224957,2531.6261091905949,6488.6191684609503,178.48092062829687,-1566.9495261556792,1566.9495261556792,-178.48092062829687,12283.559933590577,0.0
290012.02908761695,3962225.878295721,-42500.0,-1108.7813708510737,-3349.104907217727,6992.7329507752356,2129.4755119873735,-4683.2378280966796,2586.673870617894,6812.4601075526671,1053.9210169008329,-2640.9711929281693,2640.9711929281693,-1053.9210169008329,12743.77490197411,0.0
295012.02908761695,3962225.878295721,-42500.0,-2272.6644411550719,-2680.6139638614118,7627.1859018421528,1541.9372488617323,-4825.4802039694741,2543.1820708013938,7113.8226792426058,2129.4235864751536,-3824.7689031543896,3824.7689031543896,-2129.4235864751536,13117.500425080359,0.0
300012.02908761695,3962225.878295721,-42500.0,-3506.8438325636662,-1708.1198895805439,8104.1914924147268,755.33115306375089,-4771.4955457006454,2359.0526214721294,7396.3160453972014,3389.8181678100182,-5056.5063425342441,5056.5063425342441,-3389.8181678100182,13412.004210360275,0.0
305012.02908761695,3962225.878295721,-42500.0,-4723.4211423009338,-403.61249553298256,8305.8187994215095,-234.19198633160025,-4432.9421402997414,1985.0176946796269,7677.9431295061549,4783.0850473323098,-6235.6049123616776,6235.6049123616776,-4783.0850473323098,13673.498480779082,0.0
310012.02908761695,3962225.878295721,-42500.0,-5797.4306336218078,1223.675229818881,8086.6182432053747,-1402.5547890852952,-3709.6647616014061,1368.3734455023782,7998.8652854997144,6205.2117405259232,-7218.5594040539945,7218.5594040539945,-6205.2117405259232,14010.840381003845,0.0
315012.02908761695,3962225.878295721,-42500.0,-6573.7608516858254,3103.7428656954053,7287.6527057289786,-2684.3678291516349,-2502.5201856154399,460.67513396422942,8425.6005810715815,7488.5288986051455,-7824.9187336652867,7824.9187336652867,-7488.5288986051455,14608.895310717084,0.0
320012.02908761695,3962225.878295721,-42500.0,-6890.1051865899835,5083.7555455098382,5767.0900673317828,-3961.9698866076997,-736.5723544298836,-769.56709519410606,9042.5908291305441,8402.4485845835679,-7860.9645238379617,7860.9645238379617,-8402.4485845835679,15698.71576049648,0.0
325012.02908761695,3962225.878295721,-42500.0,-6619.6596315821644,6919.5928593349026,3449.0871536349191,-5064.2710077922229,1605.5786272519504,-2319.6527159253369,9923.5753348629423,8678.4950059252114,-7166.4387941239729,7166.4387941239729,-8678.4950059252114,17461.114145836171,0.0
330012.02908761695,3962225.878295721,-42500.0,-5728.0411210208194,8297.5363453053651,382.73973200603217,-5784.6805687372826,4447.0537696905903,-4134.5857539759609,11090.440852339038,8068.6310044647353,-5680.2059195887041,5680.2059195887041,-8068.6310044647353,19909.979001418385,0.0
335012.02908761695,3962225.878295721,-42500.0,-4323.6590015261781,8897.9779781132293,-3211.9571030261013,-5923.8477791580945,7592.0192647813665,-6095.9799060185387,12483.833814001453,6431.8097160191737,-3503.6965604516517,3503.6965604516517,-6431.8097160191737,22848.66557138976,0.0
340012.02908761695,3962225.878295721,-42500.0,-2668.8275695092111,8493.2829467754218,-6944.2547465496054,-5350.8505569170648,10733.439367503079,-8028.0196320618033,13963.153097725371,3819.6393340523141,-925.46779031842061,925.46779031842061,-3819.6393340523141,25923.154020589747,0.0
345012.02908761695,3962225.878295721,-42500.0,-1126.5932626920712,7043.011071902909,-10321.816314862797,-4059.8600210186041,13505.623921182136,-9726.269513108713,15334.966358123851,513.71907567734752,1625.5029096572412,-1625.5029096572412,-513.71907567734752,28720.996759182548,0.0
350012.02908761695,3962225.878295721,-42500.0,-52.243006771147719,4734.7368192549311,-12876.303126057641,-2191.6877169890845,15571.072799007145,-11003.584978134384,16402.175552417186,-3021.878746890683,3695.5942101831024,-3695.5942101831024,3021.878746890683,30870.476977435173,0.0
355012.02908761695,3962225.878295721,-42500.0,322.0095461141143,1939.9704960174506,-14293.41796219089,-3.2214069855231982,16707.246110350352,-11735.524710980959,17016.912532804934,-6264.5847174135615,4943.1578383585729,-4943.1578383585729,6264.5847174135615,32116.281559859235,0.0
360012.02908761695,3962225.878295721,-42500.0,-48.3742715456589,-896.75440295579062,-14487.261738292425,2203.331860226248,16855.067390526299,-11885.913992464719,17112.584469507961,-8777.9203496444843,5230.1537639263843,-5230.1537639263843,8777.9203496444843,32356.519025727939,0.0
365012.02908761695,3962225.878295721,-42500.0,-1031.6063222707714,-3380.8104711973201,-13591.98416652778,4158.0930812968118,16112.526195498234,-11504.116357642122,16705.631298517845,-10311.462185043312,4631.8073556254294,-4631.8073556254294,10311.462185043312,31636.959853246426,0.0
370012.02908761695,3962225.878295721,-42500.0,-2387.5072098927444,-5250.683117016607,-11889.560635487647,5676.8207592199133,14685.756209834679,-10700.147934029817,15875.542446184634,-10824.388516073042,3376.1920897931013,-3376.1920897931013,10824.388516073042,30113.187586004751,0.0
375012.02908761695,3962225.878295721,-42500.0,-3850.7738240124654,-6401.8467631190269,-9716.342205099987,6677.7424825523112,12825.147574143435,-9611.4665172229361,14736.603024833068,-10444.316323056966,1755.2540452324738,-1755.2540452324738,10444.316323056966,27999.67190245739,0.0
380012.02908761695,3962225.878295721,-42500.0,-5195.8705301538894,-6863.0074765966247,-7385.1082431072209,7168.4846948532067,10770.599274360053,-8373.7090902957007,13411.786826152482,-9395.8999241423808,46.524900552425606,-46.524900552425606,9395.8999241423808,25522.851235229075,0.0
385012.02908761695,3962225.878295721,-42500.0,-6270.215156996951,-6749.4184981078924,-5139.2404994901326,7217.752114222063,8717.4503523978183,-7101.5309259065907,12014.004209741703,-7931.270105172428,-1534.8413930310116,1534.8413930310116,7931.270105172428,22887.638487293098,0.0
390012.02908761695,3962225.878295721,-42500.0,-6998.9616313195356,-6214.9382280417904,-3138.0249864514476,6925.003445432797,6803.2525834401322,-5880.0416144737901,10635.266417155748,-6280.0247883003485,-2852.7926985298532,2852.7926985298532,6280.0247883003485,20259.192020394497,0.0
395012.02908761695,3962225.878295721,-42500.0,-7371.9303327578573,-5415.0086005642852,-1463.4466250634412,6395.9488788836852,5109.6747062381755,-4764.305759257305,9341.6559419863679,-4622.6571687769983,-3844.81836373032,3844.81836373032,4622.6571687769983,17757.267406874555,0.0
400012.02908761695,3962225.878295721,-42500.0,-7423.3174352693886,-4484.0726757417769,-137.63714842329207,5726.5535895071916,3672.6307365173402,-3783.5823751331841,8172.184326986634,-3083.1778446100725,-4504.9967259226514,4504.9967259226514,3083.1778446100725,15458.864236355679,0.0
405012.02908761695,3962225.878295721,-42500.0,-7211.6328299044562,-3525.6886980818599,857.25656320385258,4994.9503439553037,2495.1175790479247,-2947.5084032911432,7141.9509737894732,-1733.9830714869531,-4864.2140965146091,4864.2140965146091,1733.9830714869531,13405.217238447431,0.0
410012.02908761695,3962225.878295721,-42500.0,-6803.7195990314267,-2611.522962609462,1561.5796011596212,4259.2188503425314,1559.3063027301193,-2252.350022514896,6249.4663901697531,-606.56791097036285,-4972.6641107655196,4972.6641107655196,606.56791097036285,11610.207926122612,0.0
415012.02908761695,3962225.878295721,-42500.0,-6263.9667043788932,-1785.3626719256911,2024.9993667008946,3558.7769816261102,836.25505276189017,-1686.3238524772628,5484.4600396334008,296.44856431617745,-4886.7642566882205,4886.7642566882205,-296.44856431617745,10068.418658743101,0.0
420012.02908761695,3962225.878295721,-42500.0,-5648.237304326406,-1069.1844480176981,2297.7893176334687,2917.5426216439196,292.86085879014337,-1233.6438693662506,4833.0423313360479,990.55327609677261,-4660.6905098175739,4660.6905098175739,-990.55327609677261,8761.9878315582646,0.0
425012.02908761695,3962225.878295721,-42500.0,-5001.3566162716997,-469.38079403765613,2425.8172939371934,2347.5935972226216,-103.67665456564775,-877.31233417960937,4280.3429349067483,1500.9062510356714,-4341.7533153593458,4341.7533153593458,-1500.9062510356714,7665.9929601680205,0.0
260012.02908761695,3967225.878295721,-42500.0,2157.1757025364004,-3311.6827330718966,3332.5441974142473,2360.5494487056126,-2501.5574983521728,1472.2248401123238,4321.5390674225873,-1336.7036981786043,1003.1168582916582,-1003.1168582916582,1336.7036981786043,8428.9617909051085,0.0
265012.02908761695,3967225.878295721,-42500.0,1787.2750492647206,-3424.3956509026348,3811.1133782526404,2376.6682464341789,-2786.7490902364489,1608.2247073469157,4606.7538310169184,-1124.1436074847277,586.24041166158281,-586.24041166158281,1124.1436074847277,8939.4280359541081,0.0
270012.02908761695,3967225.878295721,-42500.0,1311.6967614693733,-3473.6581790813539,4335.5014305675295,2338.9071848718399,-3080.0946682537474,1739.2329157292972,4895.0476505447814,-817.93867651206551,65.436037788756778,-65.436037788756778,817.93867651206551,9439.5290883839607,0.0
275012.02908761695,3967225.878295721,-42500.0,720.78409099463227,-3433.2696259409468,4896.7784101129901,2230.3410761987452,-3369.177933419247,1856.2255683050855,5181.6199645198731,-399.14310220638743,-567.66973245932104,567.66973245932104,399.14310220638743,9915.942895441045,0.0
280012.02908761695,3967225.878295721,-42500.0,9.9862612050653663,-3271.8715651631587,5477.8841918120897,2031.8708970232155,-3635.2703555355861,1946.6199482811442,5461.2404336911914,150.5054629873049,-1315.7559825828453,1315.7559825828453,-150.5054629873049,10354.01578153781,0.0
285012.02908761695,3967225.878295721,-42500.0,-816.71195937241532,-2953.8401240715921,6050.4571610070789,1723.2742783457825,-3851.5440294461778,1993.5183818780508,5729.1148513292992,845.63214037443549,-2172.0483527274887,2172.0483527274887,-845.63214037443549,10739.869210629497,0.0
290012.02908761695,3967225.878295721,-42500.0,-1742.47943334208,-2441.6659973640308,6571.2456491031817,1285.2229081293824,-3981.3100667824415,1975.0851517697297,5982.5122184016054,1692.6483384285284,-3115.5226936322724,3115.5226936322724,-1692.6483384285284,11064.564297634372,0.0
295012.02908761695,3967225.878295721,-42500.0,-2732.7793924880493,-1700.5751952085147,6978.6424302577116,702.63167762557293,-3976.7255365112464,1864.3029987743678,6223.462958149039,2683.2446594225844,-4105.3768649408703,4105.3768649408703,-2683.2446594225844,11331.401231136322,0.0
300012.02908761695,3967225.878295721,-42500.0,-3730.8422446316345,-706.17331347385846,7190.4458032690918,-30.348712908557825,-3778.7361130460195,1629.4912562081922,6462.6821592513606,3785.9991134563061,-5075.6665227358571,5075.6665227358571,-3785.9991134563061,11567.25148361482,0.0
305012.02908761695,3967225.878295721,-42500.0,-4655.1675172725982,544.41166812500819,7104.7220972648411,-903.63889232523934,-3319.4152729827124,1236.1168872098172,6724.2155142290721,4936.938806681278,-5931.9154298215262,5931.9154298215262,-4936.938806681278,11837.051009263965,0.0
310012.02908761695,3967225.878295721,-42500.0,-5401.7213689237469,2018.3705798753595,6606.4589165966227,-1883.3930414318488,-2528.1998881512832,650.53089883584107,7048.7516558049792,6031.2869835199363,-6552.6598644162987,6552.6598644162987,-6031.2869835199363,12255.120006734336,0.0
315012.02908761695,3967225.878295721,-42500.0,-5854.1794853418742,3632.455296595389,5583.0486330504073,-2904.664365292248,-1343.4901605113375,-153.82366262159746,7491.3145434242197,6920.5692238565143,-6799.8283364811932,6799.8283364811932,-6920.5692238565143,12977.607281073291,0.0
320012.02908761695,3967225.878295721,-42500.0,-5904.9899585628245,5242.9167774381167,3950.5693180427138,-3867.7109774686533,269.82627027192177,-1187.6677478764032,8108.5355206470585,7421.0647016504727,-6541.5455178283728,6541.5455178283728,-7421.0647016504727,14158.172236887094,0.0
325012.02908761695,3967225.878295721,-42500.0,-5486.9285479246682,6648.2951564322721,1689.1643993470932,-4642.3855451843374,2298.723974357049,-2435.6516412082915,8936.0252581944733,7339.643035988629,-5687.8932870120934,5687.8932870120934,-7339.643035988629,15875.057981036376,0.0
330012.02908761695,3967225.878295721,-42500.0,-4608.5187351181376,7613.5679636201467,-1120.7940667993673,-5084.8315901528267,4661.865016549219,-3847.3752870431604,9966.0124353976607,6518.8991095808533,-4233.3345480640792,4233.3345480640792,-6518.8991095808533,18076.328403157007,0.0
335012.02908761695,3967225.878295721,-42500.0,-3379.0825463937263,7918.7151380672731,-4277.3866122981854,-5067.3318400292774,7200.2999108106178,-5334.0305568500862,11137.916140598552,4893.8388418650966,-2290.5189122420379,2290.5189122420379,-4893.8388418650966,20580.507642750978,0.0
340012.02908761695,3967225.878295721,-42500.0,-2005.8806871284028,7422.4234124606728,-7468.5438427530989,-4515.2938349799588,9688.9718526759316,-6775.1180367445386,12345.031473511413,2540.1115152917459,-94.942909851145032,94.942909851145032,-2540.1115152917459,23121.480194282813,0.0
345012.02908761695,3967225.878295721,-42500.0,-753.42687542465501,6117.6920887001379,-10324.8825339878,-3438.041096282393,11872.958090718916,-8036.817350162708,13452.67958179171,-312.24006525001562,2033.6688422739835,-2033.6688422739835,312.24006525001562,25408.426593276225,0.0
350012.02908761695,3967225.878295721,-42500.0,126.19495315012519,4151.7467944567488,-12502.728591410152,-1938.280430970746,13520.636483013199,-8998.1656579453302,14325.19226986112,-3315.9656440499102,3767.5514529220736,-3767.5514529220736,3315.9656440499102,27183.035960789934,0.0
355012.02908761695,3967225.878295721,-42500.0,464.52448359374256,1795.9285531971325,-13766.971021669116,-192.84619914899423,14475.294779525435,-9576.3253284294133,14856.888426235975,-6086.9489477623629,4856.5252339452163,-4856.5252339452163,6086.9489477623629,28263.898249033336,0.0
360012.02908761695,3967225.878295721,-42500.0,218.61127929353427,-623.87022124467626,-14040.500006435561,1588.9122621438203,14685.553182979635,-9741.7254408670651,14993.949407471511,-8296.4964096092026,5187.3332076881943,-5187.3332076881943,8296.4964096092026,28569.966714388956,0.0
365012.02908761695,3967225.878295721,-42500.0,-531.31427292634396,-2806.6253198380841,-13403.942621894681,3212.347354254433,14205.115321143099,-9518.5306333645349,14738.676573180004,-9739.2995524026683,4795.2354035603894,-4795.2354035603894,9739.2995524026683,28119.928696784606,0.0
370012.02908761695,3967225.878295721,-42500.0,-1620.4658899399165,-4535.5045347068453,-12053.605907724228,4533.3897602391471,13166.552739133194,-8972.4533120698379,14139.251268849755,-10356.627545057483,3831.3371127201581,-3831.3371127201581,10356.627545057483,27011.838532515125,0.0
375012.02908761695,3967225.878295721,-42500.0,-2852.7387374054933,-5702.2683835166017,-10240.649916306631,5474.4146025980472,11742.820052194766,-8192.1958800489065,13272.696435999289,-10217.330692057185,2506.9100428947886,-2506.9100428947886,10217.330692057185,25392.524633504174,0.0
380012.02908761695,3967225.878295721,-42500.0,-4047.6162927461537,-6299.5123739319952,-8214.5762312547904,6021.2148829750176,10110.514602612093,-7271.131885098428,12227.560015277248,-9474.3127969067646,1038.3975771844871,-1038.3975771844871,9474.3127969067646,23426.619871559116,0.0
385012.02908761695,3967225.878295721,-42500.0,-5069.3607764444569,-6393.5215835387471,-6184.5922439908118,6207.9920243753295,8423.5308800053845,-6293.5238510160498,11090.138681144497,-8316.3220408463203,-391.77456260945564,391.77456260945564,8316.3220408463203,21271.895975160365,0.0
390012.02908761695,3967225.878295721,-42500.0,-5837.1987234139579,-6091.5781758585154,-4301.6941590994438,6098.2012316383943,6799.4175189355219,-5326.6803611896357,9935.3826207975144,-6928.6935219822662,-1654.3337034318779,1654.3337034318779,6928.6935219822662,19063.496126962516,0.0
395012.02908761695,3967225.878295721,-42500.0,-6321.2823964431109,-5513.3581346912415,-2657.4224811972858,5766.989224667198,5316.478196520844,-4418.4154685900457,8821.7087046022552,-5468.5249316239533,-2675.4955663247347,2675.4955663247347,5468.5249316239533,16906.614188573654,0.0
400012.02908761695,3967225.878295721,-42500.0,-6530.9440101601976,-4770.8209221580546,-1292.7780972914309,5288.1185015839192,4017.8907393724453,-3598.2105380523058,7788.4880926743144,-4053.695540346167,-3428.7481776043805,3428.7481776043805,4053.695540346167,14875.560154122844,0.0
405012.02908761695,3967225.878295721,-42500.0,-6500.7696129387859,-3957.0048780660572,-211.3511138394789,4725.9803707376959,2919.2241253936181,-2880.3983034928629,6856.4134581686403,-2762.1363856691855,-3922.0890027053033,3922.0890027053033,2762.1363856691855,13016.827028104206,0.0
410012.02908761695,3967225.878295721,-42500.0,-6278.0250055660035,-3141.9914496833808,607.46231559180649,4131.9569726230784,2016.6719011111954,-2268.035193367683,6031.4797340788691,-1637.1562228247528,-4185.0018485159308,4185.0018485159308,1637.1562228247528,11354.102900914975,0.0
415012.02908761695,3967225.878295721,-42500.0,-5913.0746979907944,-2373.6286506874812,1197.3863453981239,3543.8740346623495,1294.4067246087043,-1756.5938175754625,5310.680343131171,-695.32152970200286,-4257.5441885295986,4257.5441885295986,695.32152970200286,9893.7570680665904,0.0
420012.02908761695,3967225.878295721,-42500.0,-5453.0907205233443,-1680.8247723027357,1597.0988183504412,2987.3069632435922,730.37381967430497,-1337.044917822192,4686.4663699141183,65.450019417799922,-4182.394249761207,4182.394249761207,-65.450019417799922,8629.9458107880091,0.0
425012.02908761695,3967225.878295721,-42500.0,-4938.6018123021067,-1077.7820146168065,1844.8677080686389,2477.7481531586491,300.40730168558048,-998.18083766855307,4149.2470264302001,658.87427746498179,-3999.7711067526161,3999.7711067526161,-658.87427746498179,7548.9028472706204,0.0
265012.02908761695,3972225.878295721,-42500.0,1113.6216811130996,-3011.0836502597303,3841.8876726249719,1883.1538854961707,-2566.7643056004104,1353.8871326194796,4161.0646345225259,-659.12058040368561,9.5311763606157456,-9.5311763606157456,659.12058040368561,8028.0241445092388,0.0
270012.02908761695,3972225.878295721,-42500.0,633.95352469009163,-2976.4467136672524,4303.919935181284,1795.2712413428776,-2794.6966376728069,1441.0602085492762,4394.973829913044,-314.28488023969999,-506.70179154722632,506.70179154722632,314.28488023969999,8416.3952932093762,0.0
275012.02908761695,3972225.878295721,-42500.0,61.527126612945985,-2847.8741782845682,4779.8779320387166,1640.7319665095231,-3005.7936659350603,1509.8365602447579,4624.6151137965071,131.24021031018322,-1111.413456075607,1111.413456075607,-131.24021031018322,8777.1496174014865,0.0
280012.02908761695,3972225.878295721,-42500.0,-601.296586335347,-2599.2035249918981,5248.6361210611867,1405.2466601701005,-3181.3416780169578,1549.0024814841966,4846.752211965133,688.11288540067449,-1799.9446387888795,1799.9446387888795,-688.11288540067449,9100.6005270104815,0.0
285012.02908761695,3972225.878295721,-42500.0,-1343.5805896585614,-2202.8014985886093,5678.778011410308,1074.9773100999776,-3296.1090830755329,1544.1972547712435,5059.5270554485023,1361.5053224624871,-2558.0437197932929,2558.0437197932929,-1361.5053224624871,9380.3255198217321,0.0
290012.02908761695,3972225.878295721,-42500.0,-2142.6900947777799,-1632.4172233959364,6026.319885738144,638.54232881868029,-3317.4943512319378,1477.7329171910751,5264.1195207328083,2146.9978222065315,-3358.3197299544777,3358.3197299544777,-2146.9978222065315,9617.6810266854518,0.0
295012.02908761695,3972225.878295721,-42500.0,-2961.2931603464349,-867.8185947623781,6233.1089184984403,89.962113114474391,-3205.3400463143544,1328.8187767387772,5467.120195558593,3025.3252598618678,-4156.7217315226217,4156.7217315226217,-3025.3252598618678,9828.6976365400624,0.0
300012.02908761695,3972225.878295721,-42500.0,-3745.365383239156,98.485572689825915,6226.8991076258189,-567.40436133033836,-2913.0149175649526,1074.4584688800455,5683.3854476752222,3956.37928289817,-4889.9858850319752,4889.9858850319752,-3956.37928289817,10053.064799862448,0.0
305012.02908761695,3972225.878295721,-42500.0,-4424.5765335653123,1252.5702349166618,5924.5445709500145,-1316.1561022528977,-2390.5420509793357,691.33773461656995,5938.4106920244658,4873.5457788518697,-5475.5766700313898,5475.5766700313898,-4873.5457788518697,10362.40036105394,0.0
310012.02908761695,3972225.878295721,-42500.0,-4916.8527899652145,2549.4804114043732,5240.0167974037222,-2120.0946953077819,-1590.5906451731494,158.99806967880488,6268.1313171863349,5680.4143146324504,-5816.1907869492361,5816.1907869492361,-5680.4143146324504,10860.266939398287,0.0
315012.02908761695,3972225.878295721,-42500.0,-5138.8583243000239,3905.0603126559313,4098.6668433423065,-2920.8184725007809,-477.84723413978497,-535.57994108026026,6713.380829703362,6252.9068924252597,-5810.9833710804533,5810.9833710804533,-6252.9068924252597,11663.026489700664,0.0
320012.02908761695,3972225.878295721,-42500.0,-5023.0988220798181,5193.1882142428767,2457.792338308624,-3637.7871007864001,958.60215121496617,-1392.272419030086,7307.9027764978036,6450.3536007451876,-5374.7080901967256,5374.7080901967256,-6450.3536007451876,12858.836125004478,0.0
325012.02908761695,3972225.878295721,-42500.0,-4539.8280536062803,6253.3330040633509,330.74408569788676,-4174.277533940337,2691.8489440146845,-2391.9626119617383,8063.4875219449914,6137.9929642128627,-4463.3047873630294,4463.3047873630294,-6137.9929642128627,14463.710358096523,0.0
330012.02908761695,3972225.878295721,-42500.0,-3718.1557158935916,6912.2569935414795,-2192.0995673280813,-4430.8579396185678,4646.6832212663076,-3492.3409041509503,8959.5389185833337,5219.8170764667293,-3100.178296353638,3100.178296353638,-5219.8170764667293,16402.610309636857,0.0
335012.02908761695,3972225.878295721,-42500.0,-2657.3404554703802,7019.3171978710252,-4935.3293384134467,-4325.5822230952836,6697.4636668603489,-4627.6742119929768,9942.0669364471814,3674.7575588062682,-1393.102091309335,1393.102091309335,-3674.7575588062682,18522.838207355264,0.0
340012.02908761695,3972225.878295721,-42500.0,-1519.1614177352337,6487.6218930775849,-7652.7277285002292,-3816.4127205048408,8679.015280239757,-5714.4669529727971,10930.871468827614,1583.334541712285,469.37935758915421,-469.37935758915421,-1583.334541712285,20625.898522839314,0.0
345012.02908761695,3972225.878295721,-42500.0,-497.94723834840482,5326.762093313856,-10066.323831591759,-2918.2320133722192,10411.331814037783,-6663.2077051634669,11830.994193381663,-869.36577804080889,2247.8217028940312,-2247.8217028940312,869.36577804080889,22504.036108791024,0.0
350012.02908761695,3972225.878295721,-42500.0,224.88027961675013,3652.2123137851909,-11921.764699773934,-1706.7777319583251,11732.798147908734,-7393.7939662743074,12547.645508966743,-3421.6684201851581,3702.5705630022717,-3702.5705630022717,3421.6684201851581,23974.460211116872,0.0
355012.02908761695,3972225.878295721,-42500.0,525.83267433067783,1664.5565347121942,-13042.034922289251,-306.20029772100435,12531.72141002364,-7850.1303662961,13004.439232290393,-5788.2786938279942,4648.6099100454676,-4648.6099100454676,5788.2786938279942,24906.334057464497,0.0
360012.02908761695,3972225.878295721,-42500.0,366.88742655127703,-395.14118460989272,-13360.674401158487,1136.2157366365973,12765.714272121881,-8009.2890526566061,13158.448117267426,-7720.3395189065759,4994.5752514427204,-4994.5752514427204,7720.3395189065759,25235.957611046382,0.0
365012.02908761695,3972225.878295721,-42500.0,-203.37572452223779,-2297.3272129089919,-12924.571737374827,2479.3721553086439,12463.445648816702,-7882.7398908363857,13005.079257723424,-9051.8432600122178,4753.268496076309,-4753.268496076309,9051.8432600122178,24967.94331395016,0.0
370012.02908761695,3972225.878295721,-42500.0,-1071.9052400934665,-3865.7675547878484,-11869.502975124062,3612.3396126074017,11710.46467782045,-7510.2603194960666,12573.094639552037,-9719.4429149585849,4024.1168498201391,-4024.1168498201391,9719.4429149585849,24164.150770473138,0.0
375012.02908761695,3972225.878295721,-42500.0,-2095.0828379590421,-4998.806606143231,-10380.847230671214,4467.2712665584186,10625.978180351509,-6949.4433366690419,11914.289965037206,-9754.9934461182984,2958.4994895882123,-2958.4994895882123,9754.9934461182984,22925.195682593665,0.0
380012.02908761695,3972225.878295721,-42500.0,-3131.6975355579802,-5669.4682378389562,-8653.6520997172047,5020.6108765682702,9338.6102606737895,-6264.3418423175081,11092.058616164997,-9259.6513107322298,1721.979553519966,-1721.979553519966,9259.6513107322298,21370.172176595592,0.0
385012.02908761695,3972225.878295721,-42500.0,-4066.5100365124181,-5910.6233292181078,-6862.0092328948967,5285.6627459086139,7967.0387413471899,-5515.9856626437231,10171.524609550141,-8371.3983691153226,464.0905363858169,-464.0905363858169,8371.3983691153226,19619.021451852019,0.0
390012.02908761695,3972225.878295721,-42500.0,-4821.6987042864184,-5793.6054115263978,-5141.5679114812247,5300.9407302874006,6608.0577816295681,-4756.1039032595545,9212.3718318405627,-7235.6331730258189,-699.62720455017006,699.62720455017006,7235.6331730258189,17779.88730425934,0.0
395012.02908761695,3972225.878295721,-42500.0,-5357.8176347464878,-5407.1994647535175,-3584.1568635048579,5118.1354458034511,5331.8421055316512,-4024.1530025950105,8264.2167657864302,-5984.0195210305828,-1693.720112363219,1693.720112363219,5984.0195210305828,15941.895603631192,0.0
400012.02908761695,3972225.878295721,-42500.0,-5667.9123246313857,-4841.0701875968225,-2240.9964725567729,4792.1256912861081,4182.6270784617318,-3346.9862957362625,7363.7659195163469,-4722.7103821909577,-2480.2281182691086,2480.2281182691086,4722.7103821909577,14172.551891889587,0.0
405012.02908761695,3972225.878295721,-42500.0,-5768.5343018080412,-4174.9877267946367,-1130.5563748247082,4374.0226614492549,3182.6130337848858,-2740.2366510294946,6533.740801695968,-3528.4902744973115,-3051.2579270663773,3051.2579270663773,3528.4902744973115,12518.431040109373,0.0
410012.02908761695,3972225.878295721,-42500.0,-5690.4881740116061,-3473.4054580609995,-247.86743276900015,3907.2092964880612,2337.2029395338677,-2210.5462141232965,5784.528136867857,-2450.3536162299124,-3419.9586661903313,3419.9586661903313,2450.3536162299124,11007.822442137967,0.0
415012.02908761695,3972225.878295721,-42500.0,-5470.9751694387596,-2784.0823949591322,426.78765848424257,3425.785705805094,1640.2485869771945,-1757.9866963833613,5118.0166878180144,-1514.0509334979185,-3612.0455006793909,3612.0455006793909,1514.0509334979185,9654.2310989473117,0.0
420012.02908761695,3972225.878295721,-42500.0,-5147.8070856374243,-2139.2848313682339,920.82120037979928,2954.6705756603787,1078.5763773914543,-1378.2761582858675,4531.2766768164056,-727.70196610149242,-3658.9580531214801,3658.9580531214801,727.70196610149242,8459.9979362971917,0.0
270012.02908761695,3977225.878295721,-42500.0,94.711841675340679,-2482.1114251771091,4179.9015332899198,1335.5890028736712,-2497.1019392092339,1180.8194418062244,3938.7159500439534,116.9505405354484,-943.80036825383877,943.80036825383877,-116.9505405354484,7481.4456211804536,0.0
275012.02908761695,3977225.878295721,-42500.0,-441.00457756815803,-2285.8250377276836,4566.1546918860049,1154.1425428300859,-2639.9303431397493,1213.0666842488783,4123.3992900246067,566.78069307146461,-1501.818542258115,1501.818542258115,-566.78069307146461,7752.6909795640559,0.0
280012.02908761695,3977225.878295721,-42500.0,-1040.6572896749942,-1976.0331658825066,4923.3876023546018,902.5068440173817,-2739.4958684777366,1215.2912463833147,4302.0101810436763,1106.848292332927,-2115.6010819668736,2115.6010819668736,-1106.848292332927,7992.2929624135468,0.0
285012.02908761695,3977225.878295721,-42500.0,-1689.2061030460038,-1532.8146837218646,5219.7755815752917,572.08692600505674,-2773.2339014285494,1175.719696216212,4475.2601529352387,1734.9420300808229,-2766.4757399109199,2766.4757399109199,-1734.9420300808229,8200.6706805922113,0.0
290012.02908761695,3977225.878295721,-42500.0,-2361.7206319639322,-939.7851061311793,5413.6043423175452,157.50408580230825,-2713.4171100248172,1080.4845253223198,4647.327507858251,2439.1157968928483,-3424.5295284139793,3424.5295284139793,-2439.1157968928483,8387.6158150968367,0.0
295012.02908761695,3977225.878295721,-42500.0,-3021.8680635967853,-188.25328596023539,5453.0617296311702,-341.02567812671907,-2527.6438768319485,914.07050110655189,4827.6553613407914,3193.8056797994677,-4046.7398744212678,4046.7398744212678,-3193.8056797994677,8577.9606271916782,0.0
300012.02908761695,3977225.878295721,-42500.0,-3621.6470298980189,717.361203873617,5277.7637687354199,-914.80759426345617,-2180.4409767713955,660.2922075576131,5032.5980001040843,3955.9733051070298,-4576.4063483035998,4576.4063483035998,-3955.9733051070298,8817.323208365302,0.0
305012.02908761695,3977225.878295721,-42500.0,-4103.3544509799058,1753.2859657990384,4822.9860389390751,-1543.6009664041358,-1636.4409943140904,303.96731284690179,5285.8624773120873,4662.3079961300518,-4945.0113097456124,4945.0113097456124,-4662.3079961300518,9174.2437948307252,0.0
310012.02908761695,3977225.878295721,-42500.0,-4404.834384527674,2870.4335290065005,4027.523559151196,-2193.0228315615182,-865.49740715653923,-166.6125882409959,5616.1952889126678,5229.0758245190846,-5077.7770586100469,5077.7770586100469,-5229.0758245190846,9732.5460128283648,0.0
315012.02908761695,3977225.878295721,-42500.0,-4468.7190822940684,3990.6670145854005,2845.5914228350348,-2813.4562509678572,150.2450858213551,-756.47693722753615,6051.1862085703797,5556.6047638045475,-4903.902718473526,4903.902718473526,-5556.6047638045475,10569.672976941034,0.0
320012.02908761695,3977225.878295721,-42500.0,-4255.3603346214004,5007.9647695399544,1261.9734911134738,-3341.7701505422283,1407.9881857963544,-1460.3880483653622,6608.111968211143,5540.2274224598823,-4371.429155666754,4371.429155666754,-5540.2274224598823,11726.924417708025,0.0
325012.02908761695,3977225.878295721,-42500.0,-3757.4036232544704,5797.1911940204373,-692.27603138680956,-3707.0518946035822,2876.2646060009779,-2259.6067960061355,7285.3759320630716,5088.2707260544703,-3464.7562305907959,3464.7562305907959,-5088.2707260544703,13187.688835693352,0.0
330012.02908761695,3977225.878295721,-42500.0,-3011.873628267886,6231.8353784353694,-2928.3807330972686,-3840.7731012583499,4489.8871375965646,-3120.1106938372459,8058.5367168530593,4145.1090556324143,-2220.3671792704831,2220.3671792704831,-4145.1090556324143,14875.043310012461,0.0
335012.02908761695,3977225.878295721,-42500.0,-2104.3109064425148,6209.0289586714343,-5298.5630378382466,-3690.2538888047893,6150.868610439743,-3993.4670891168294,8882.2544420940885,2713.897034378957,-734.45473697795114,734.45473697795114,-2713.897034378957,16665.752719498523,0.0
340012.02908761695,3977225.878295721,-42500.0,-1160.3657668512574,5676.1227397071316,-7609.5445429624333,-3232.3571027723528,7737.4335104758529,-4821.1603907776034,9696.2736728511572,870.96659643383759,843.43822493084417,-843.43822493084417,-870.96659643383759,18411.608907093858,0.0
345012.02908761695,3977225.878295721,-42500.0,-324.0792345536766,4650.1236743902627,-9650.9977071213216,-2483.0271656620926,9120.842165229591,-5542.1746907448187,10432.735320982716,-1235.7745815303847,2332.8276855830359,-2332.8276855830359,1235.7745815303847,19962.156325622454,0.0
350012.02908761695,3977225.878295721,-42500.0,272.24258253000437,3221.8132994180014,-11232.904260932139,-1498.6947999724284,10186.573810018095,-6102.3512130812051,11024.493808427194,-3407.5427623853066,3556.4451905541155,-3556.4451905541155,3407.5427623853066,21185.857814657771,0.0
355012.02908761695,3977225.878295721,-42500.0,537.14318104134759,1541.2410921052965,-12221.011837497324,-368.05322316866284,10854.077408406345,-6463.1037891092064,11415.786893147988,-5430.2165605028376,4376.103252923901,-4376.103252923901,5430.2165605028376,21987.027814308971,0.0
360012.02908761695,3977225.878295721,-42500.0,438.37104588114124,-211.53496346477678,-12559.406766188416,803.75043230767085,11089.316909053678,-6607.0736540386488,11572.591913827537,-7114.1530670351458,4718.738619606851,-4718.738619606851,7114.1530670351458,22315.835816694271,0.0
365012.02908761695,3977225.878295721,-42500.0,5.0875343475746728,-1860.9909683237454,-12274.105826469809,1913.7067771935103,10906.903246429025,-6539.3378778660499,11487.324387958863,-8326.1333649888238,4585.0323564779865,-4585.0323564779865,8326.1333649888238,22169.937456317264,0.0
370012.02908761695,3977225.878295721,-42500.0,-684.93247225658354,-3265.5159024936011,-11458.793787029679,2877.0050136890145,10362.344574911078,-6284.3031354772866,11176.730217493869,-9005.220631119515,4040.086607942399,-4040.086607942399,9005.220631119515,21588.399839284295,0.0
375012.02908761695,3977225.878295721,-42500.0,-1526.9385092442274,-4334.6300843936915,-10249.479329865238,3636.8908621646351,9537.9380225597488,-5879.6819001386511,10675.611803333992,-9160.9963000936896,3191.8175132995184,-3191.8175132995184,9160.9963000936896,20640.418503210287,0.0
380012.02908761695,3977225.878295721,-42500.0,-2412.038492346639,-5032.4565134476097,-8796.6794751167727,4167.3178206507082,8526.8857756315574,-5369.4531039226713,10029.251537239359,-8858.4764947149833,2165.3293570147612,-2165.3293570147612,8858.4764947149833,19412.050982770608,0.0
385012.02908761695,3977225.878295721,-42500.0,-3245.3192634191314,-5370.2646810192718,-7242.0576181866509,4469.6409355127635,7419.4748325228165,-4797.4845495584232,9286.429082167635,-8196.6583628944572,1080.4267701584222,-1080.4267701584222,8196.6583628944572,17993.822687274533,0.0
390012.02908761695,3977225.878295721,-42500.0,-3956.5082674487148,-5392.9700044608298,-5703.0725765287661,4565.7591960078025,6293.4523345671196,-4202.8305178329192,8493.9640370616962,-7287.181886182334,36.303189838902199,-36.303189838902199,7287.181886182334,16471.017523607039,0.0
395012.02908761695,3977225.878295721,-42500.0,-4503.2935510108318,-5164.2749107427453,-4266.0176203101355,4490.137635450692,5209.0404373663569,-3617.0208363172937,7692.8896551904918,-6237.3277816067957,-895.7664849255998,895.7664849255998,6237.3277816067957,14917.339201756917,0.0
400012.02908761695,3977225.878295721,-42500.0,-4869.1321780009266,-4753.7252949613567,-2985.7963409516165,4282.5187270696661,4207.8788805991881,-3063.1364843691431,6915.8108472428366,-5139.0336855881742,-1673.0823838420761,1673.0823838420761,5139.0336855881742,13391.774505774387,0.0
405012.02908761695,3977225.878295721,-42500.0,-5057.908669490319,-4227.2689897538194,-1890.0043445295255,3982.2995821960149,3314.657932260232,-2556.1938560655535,6185.255660902405,-4063.6689731817992,-2277.8149644238897,2277.8149644238897,4063.6689731817992,11937.981926963745,0.0
410012.02908761695,3977225.878295721,-42500.0,-5087.5160743185406,-3641.5600179535304,-985.03892974693065,3624.8484120589928,2540.2055746883193,-2104.3160587674342,5513.8304335943367,-3061.2742162586123,-2711.1900022446775,2711.1900022446775,3061.2742162586123,10585.399396449731,0.0
415012.02908761695,3977225.878295721,-42500.0,-4983.8003489546982,-3041.4440504530248,-262.52426616088894,3239.5698845318743,1885.0294005653309,-1710.2354375330035,4906.51451935162,-2162.6640338943771,-2987.2952782157072,2987.2952782157072,2162.6640338943771,9351.3027823334305,0.0
275012.02908761695,3982225.878295721,-42500.0,-808.82736187632702,-1767.0155404259831,4282.8204022716136,760.66247207391086,-2286.5359446393404,962.74548558089532,3676.9378595531734,908.54403830162164,-1761.5006524857254,1761.5006524857254,-908.54403830162164,6843.2971737451535,0.0
280012.02908761695,3982225.878295721,-42500.0,-1338.2345351877211,-1419.4186758865201,4535.680814766054,507.9822017359607,-2324.8458327724147,939.52417948514221,3823.4628318016312,1414.7785813062364,-2293.9852450046933,2293.9852450046933,-1414.7785813062364,7024.5864466008634,0.0
285012.02908761695,3982225.878295721,-42500.0,-1892.2747537836794,-955.49446298013299,4712.9150883598986,191.72158650682405,-2296.7151417408318,878.18554237725346,3969.2093397747067,1983.0721969928445,-2837.8400140840013,2837.8400140840013,-1983.0721969928445,7188.7724077589601,0.0
290012.02908761695,3982225.878295721,-42500.0,-2446.190155487714,-366.85723929014989,4776.9315184822926,-189.26326192256022,-2179.3662335161644,768.14361859932944,4120.336225940835,2596.8944153059983,-3363.3883559321621,3363.3883559321621,-2596.8944153059983,7351.7365544203676,0.0
295012.02908761695,3982225.878295721,-42500.0,-2966.8912826853916,346.71102572558607,4683.5666577892362,-630.90220879390358,-1947.4868253922882,598.11941621691562,4287.5690913572853,3228.0237789684852,-3831.2367721814544,3831.2367721814544,-3228.0237789684852,7543.0561959630668,0.0
300012.02908761695,3982225.878295721,-42500.0,-3413.7289877194812,1173.1852605212341,4384.3495296121864,-1121.9261133638113,-1574.9500893565285,357.04232898513527,4486.7587046892013,3834.3827061667953,-4192.9436017105581,4192.9436017105581,-3834.3827061667953,7808.3687807848382,0.0
305012.02908761695,3982225.878295721,-42500.0,-3741.1178136881013,2084.117052695829,3830.9024588506563,-1642.0139647746896,-1037.6608302486841,35.410881287973133,4738.0027993252243,4359.1881362081276,-4393.7596829749,4393.7596829749,-4359.1881362081276,8206.7770408965971,0.0
310012.02908761695,3982225.878295721,-42500.0,-3903.5383213933183,3031.3257458584658,2981.8681491795069,-2160.5885918162671,-317.62526694397911,-372.88469473609206,5062.5043412205832,4732.5362948980528,-4378.1215754507411,4378.1215754507411,-4732.5362948980528,8799.9003359398012,0.0
315012.02908761695,3982225.878295721,-42500.0,-3863.0402763885913,3945.8911866089093,1812.2353957594626,-2636.9584409465388,591.95228107622791,-868.40092490634424,5477.1818319674803,4876.5950876280313,-4098.178567771336,4098.178567771336,-4876.5950876280313,9633.4447981354115,0.0
320012.02908761695,3982225.878295721,-42500.0,-3598.5754211845983,4741.1143910136898,324.02809815596135,-3022.5533954163589,1681.2071818331497,-1443.9453203073374,5988.5478156708541,4715.1826902579114,-3524.7819194447975,3524.7819194447975,-4715.1826902579114,10719.087950015779,0.0
325012.02908761695,3982225.878295721,-42500.0,-3115.3851141726514,5320.7957429230592,-1443.8531598482627,-3265.7822785984254,2918.9986247406659,-2082.8528364876402,6588.3277801008226,4187.4562998657293,-2659.1025749633959,2659.1025749633959,-4187.4562998657293,12025.992428229276,0.0
330012.02908761695,3982225.878295721,-42500.0,-2451.6032560717663,5593.0203868636145,-3409.8883653825164,-3319.4356923357363,4250.7838624958376,-2758.382712668471,7252.5883657727227,3263.7356334020633,-1541.7170689950954,1541.7170689950954,-3263.7356334020633,13484.343633557241,0.0
335012.02908761695,3982225.878295721,-42500.0,-1678.8650635774527,5487.6590678815874,-5451.7519674913065,-3149.6137467039389,5600.6144584690255,-3434.8491991247233,7944.3425547846955,1959.6259511442263,-255.33365471416721,255.33365471416721,-1959.6259511442263,14996.568929557083,0.0
340012.02908761695,3982225.878295721,-42500.0,-894.67455355296579,4973.5848497854795,-7417.8662249045419,-2744.1655785292883,6878.1609078825968,-4070.7933448669132,8618.1324574354858,343.52956851061236,1081.893116610009,-1081.893116610009,-343.52956851061236,16451.431362540479,0.0
345012.02908761695,3982225.878295721,-42500.0,-206.75720233646609,4070.3095797279384,-9148.0242650305245,-2118.1021574402839,7990.2225762714897,-4623.9348228268282,9224.8067508194799,-1466.6058639380335,2332.9398873792916,-2332.9398873792916,1466.6058639380335,17738.513212127717,0.0
350012.02908761695,3982225.878295721,-42500.0,287.21541004435522,2849.4754722735056,-10498.917986677932,-1313.8704504065265,8854.4964372419709,-5056.9964769745338,9716.1923937246574,-3318.5170933073782,3365.2372591580138,-3365.2372591580138,3318.5170933073782,18761.703323139904,0.0
355012.02908761695,3982225.878295721,-42500.0,518.83239809862448,1424.5991835041443,-11367.940803982996,-395.80881943417171,9412.2275471675039,-5343.0532071722773,10051.219662445006,-5049.8672997617914,4074.5698443244864,-4074.5698443244864,5049.8672997617914,19450.107964870793,0.0
360012.02908761695,3982225.878295721,-42500.0,461.35442148176372,-68.502394668539893,-11708.716620890073,559.99498160069481,9636.4617620695353,-5469.0939262384454,10202.992141095896,-6515.114908831325,4402.7243863399435,-4402.7243863399435,6515.114908831325,19764.764502124672,0.0
365012.02908761695,3982225.878295721,-42500.0,132.01705262860051,-1495.0119396098141,-11534.545693321219,1477.72891806605,9533.9788546879172,-5437.0004690823043,10162.984126980969,-7607.7089930784732,4344.2354310608644,-4344.2354310608644,7607.7089930784732,19700.198955377968,0.0
370012.02908761695,3982225.878295721,-42500.0,-415.44205485577646,-2741.8034305650776,-10910.063145840999,2292.6821382156681,9141.0177284023994,-5261.9365530103842,9940.5182381145714,-8272.3758792970639,3941.5208787732449,-3941.5208787732449,8272.3758792970639,19281.071158923558,0.0
375012.02908761695,3982225.878295721,-42500.0,-1104.6704333986197,-3730.8715770571557,-9934.8349001498373,2958.540159479674,8514.6187940354521,-4968.829671113217,9558.9553954633629,-8505.9569656254025,3271.3640743652072,-3271.3640743652072,8505.9569656254025,18555.205656419461,0.0
380012.02908761695,3982225.878295721,-42500.0,-1852.4046800923604,-4423.8666154322827,-8724.1172516376664,3450.2382111014367,7722.2226431233594,-4587.9839819711169,9050.6378590198456,-8348.8275531042218,2427.6165971866717,-2427.6165971866717,8348.8275531042218,17584.882694717238,0.0
385012.02908761695,3982225.878295721,-42500.0,-2582.0110882700014,-4818.8616489368369,-7391.4519104283363,3762.7983637404382,6831.9656722991576,-4150.8355299148589,8451.9607943872761,-7870.9154607468372,1504.813141457666,-1504.813141457666,7870.9154607468372,16438.195309516403,0.0
390012.02908761695,3982225.878295721,-42500.0,-3232.5662532898618,-4942.1127248776666,-6035.9781864670822,3907.425982936044,5905.2704330484803,-3686.5542740911756,7799.2970959758932,-7156.5519875496866,585.820463794033,-585.820463794033,7156.5519875496866,15181.782925926449,0.0
395012.02908761695,3982225.878295721,-42500.0,-3762.9769891476435,-4837.8559103286952,-4735.3633504825475,3906.3527617067316,4992.3431742760968,-3219.8194896063251,7125.9688131270177,-6291.325093903346,-265.29866423642625,265.29866423642625,6291.325093903346,13875.608472526186,0.0
400012.02908761695,3982225.878295721,-42500.0,-4151.9239222090491,-4558.5804973574368,-3543.7506661384764,3787.6871722137234,4130.4004007851754,-2769.7595401626199,6460.0178048240859,-5352.6043550721042,-1005.5773442072978,1005.5773442072978,5352.6043550721042,12569.88348730737,0.0
405012.02908761695,3982225.878295721,-42500.0,-4395.0230345508216,-4157.2389313397462,-2493.3398592836861,3581.0862033837029,3343.9838978001476,-2349.8360049935309,5822.4995432424093,-4404.0617520803198,-1611.8396598204265,1611.8396598204265,4404.0617520803198,11303.849690780378,0.0
410012.02908761695,3982225.878295721,-42500.0,-4500.6232561983161,-3681.9298451951031,-1598.0743169499697,3314.6118753570909,2646.6002531304002,-1968.3735726989039,5226.7909992008344,-3493.6389038058796,-2077.265738015958,2077.265738015958,3493.6389038058796,10105.956494996468,0.0
275012.02908761695,3987225.878295721,-42500.0,-1064.8681282772106,-1302.7632259642553,3954.3605435057843,448.56453996833932,-1955.5643640647399,754.42056809383848,3282.4444194286662,1163.4936627307416,-1914.1232700368787,1914.1232700368787,-1163.4936627307416,6044.7451797111253,0.0
280012.02908761695,3987225.878295721,-42500.0,-1522.9210365075244,-936.76982937987816,4113.8900500971758,205.10539082455048,-1946.3408831849415,714.68266921365966,3405.8969837596314,1625.1476872359824,-2365.1354749144903,2365.1354749144903,-1625.1476872359824,6187.9808094811033,0.0
285012.02908761695,3987225.878295721,-42500.0,-1987.2940903526103,-472.33881894824162,4189.4297126004503,-88.335083203769429,-1873.1285444555547,641.19240223345082,3532.9999016915694,2126.5211564316742,-2808.2576012453201,2808.2576012453201,-2126.5211564316742,6328.0309629275653,0.0
290012.02908761695,3987225.878295721,-42500.0,-2434.9475844008621,92.848117246800285,4148.4150466321962,-430.12073404042093,-1717.7415954271003,526.05061771551925,3670.9341781938883,2648.852982271992,-3215.8114610026378,3215.8114610026378,-2648.852982271992,6484.414498812861,0.0
295012.02908761695,3987225.878295721,-42500.0,-2837.1088862375168,753.2559943726385,3954.5195818131779,-814.06399650067726,-1460.9467967487146,361.25017847796926,3830.4541295014769,3163.8383920177771,-3553.3287460539564,3553.3287460539564,-3163.8383920177771,6687.8271851982418,0.0
300012.02908761695,3987225.878295721,-42500.0,-3160.5640065788962,1492.6097667938291,3570.1539982886411,-1228.139470184723,-1084.0737818211571,139.43764640826933,4025.6322356232454,3632.6801649931663,-3780.8773884985926,3780.8773884985926,-3632.6801649931663,6979.6471647691969,0.0
305012.02908761695,3987225.878295721,-42500.0,-3370.3689311337716,2281.3035900422542,2960.5382893459341,-1653.4680707702066,-571.38401158796296,-145.03835172461052,4272.2999326849385,4006.435273073087,-3856.0154837071723,3856.0154837071723,-4006.435273073087,7406.6336608652473,0.0
310012.02908761695,3987225.878295721,-42500.0,-3434.1776056020544,3074.8748138793562,2099.4168693477118,-2063.9455649355932,86.838147333756027,-494.8304310997251,4584.9612531482362,4228.3798578041205,-3738.6672854746289,3738.6672854746289,-4228.3798578041205,8010.1233561226627,0.0
315012.02908761695,3987225.878295721,-42500.0,-3328.0252047670774,3814.5198799219411,976.0558750898515,-2426.9563784621382,890.72968657636943,-908.17251578457501,4972.7334413478347,4239.0132712551349,-3397.8403236948725,3397.8403236948725,-4239.0132712551349,8812.9333629130761,0.0
320012.02908761695,3987225.878295721,-42500.0,-3042.8465758623975,4430.621653446352,-397.4592737388445,-2705.5703110265781,1827.3775047348699,-1377.5682933302517,5435.6505719564211,3983.9048156921408,-2819.4798908037801,2819.4798908037801,-3983.9048156921408,9809.964433142386,0.0
325012.02908761695,3987225.878295721,-42500.0,-2590.3539466107559,4849.8650479255784,-1980.2911119675932,-2862.4050067718017,2868.2732851756055,-1888.9192241085261,5962.726375011559,3423.7935965715992,-2013.9791177877401,2013.9791177877401,-3423.7935965715992,10966.353232046702,0.0
330012.02908761695,3987225.878295721,-42500.0,-2006.4066617628828,5005.6463855866568,-3700.3974790347588,-2864.9126831575909,3968.6971907112825,-2421.466008051872,6532.3854741847144,2545.2960816695404,-1021.206028710379,1021.206028710379,-2545.2960816695404,12222.23816910584,0.0
335012.02908761695,3987225.878295721,-42500.0,-1350.01994870608,4850.242894845318,-5457.5299826107157,-2691.2983115479933,5069.8984119729521,-2948.8503965491982,7114.8847905848088,1369.5941176720653,89.234765750961401,-89.234765750961401,-1369.5941176720653,13500.96749562574,0.0
340012.02908761695,3987225.878295721,-42500.0,-696.97444489559462,4366.0236458980498,-7132.6357338721591,-2335.7691753469708,6104.4137282831525,-3441.3962780909319,7675.7153969686078,-43.88080072234311,1224.0388997075663,-1224.0388997075663,43.88080072234311,14718.456417767276,0.0
345012.02908761695,3987225.878295721,-42500.0,-128.54220796573313,3572.4601182646447,-8602.8129007263906,-1811.6327327621905,7004.000428716332,-3869.3836145213209,8178.8112589948287,-1601.0193990943776,2278.404467308811,-2278.404467308811,1601.0193990943776,15792.649394156122,0.0
350012.02908761695,3987225.878295721,-42500.0,282.35769313432513,2526.3481179030582,-9758.976133238586,-1151.0958661679699,7708.7428968119266,-4206.7533625187234,8589.1965861734607,-3184.238349434941,3152.163057793457,-3152.163057793457,3184.238349434941,16652.338005650832,0.0
355012.02908761695,3987225.878295721,-42500.0,484.06193564274906,1314.4702604675178,-10522.095985766769,-401.46280432076753,8175.322990633279,-4434.4713231013629,8876.3793501172204,-4669.2758965821486,3765.9855712816529,-3765.9855712816529,4669.2758965821486,17244.363112947565,0.0
360012.02908761695,3987225.878295721,-42500.0,454.6704834743752,40.256732854186239,-10854.010881924603,381.51928086702367,8382.5289338623934,-4542.810981165645,9019.0985701175287,-5943.6227245880036,4073.5135209477721,-4073.5135209477721,5943.6227245880036,17538.189084971171,0.0
365012.02908761695,3987225.878295721,-42500.0,204.09044698514327,-1192.1658993116798,-10760.401634211412,1141.5826599972643,8332.8424408686642,-4532.0938370989152,9008.9266905784807,-6922.1029699113178,4066.5201477965647,-4066.5201477965647,6922.1029699113178,17527.232355103577,0.0
370012.02908761695,3987225.878295721,-42500.0,-230.36263221676677,-2292.6252019606436,-10285.901229999294,1829.3002532599462,8050.0604478151199,-4411.8420489534692,8850.6129079306193,-7556.2352050627633,3772.4600467293585,-3772.4600467293585,7556.2352050627633,17226.997061978502,0.0
375012.02908761695,3987225.878295721,-42500.0,-792.94610452587585,-3195.1703239068088,-9503.4159578315666,2407.405440664229,7573.925383376527,-4198.6892913761094,8559.7997507659784,-7836.0947744356054,3245.9649842165986,-3245.9649842165986,7836.0947744356054,16670.720697239612,0.0
380012.02908761695,3987225.878295721,-42500.0,-1420.2731838881903,-3862.577055198708,-8500.8420694269225,2853.3582803061931,6953.2901720684322,-3913.6238733214132,8159.612281192818,-7785.5806248435729,2557.1764175236913,-2557.1764175236913,7785.5806248435729,15903.619389666863,0.0
385012.02908761695,3987225.878295721,-42500.0,-2051.2622406355822,-4285.4194965151182,-7368.2800731174402,3159.2333493899082,6239.358477784177,-3579.1712450338591,7677.1658312860509,-7453.3926911436211,1779.9536122546083,-1779.9536122546083,7453.3926911436211,14976.87466154992,0.0
390012.02908761695,3987225.878295721,-42500.0,-2634.4910445988426,-4477.2254416675596,-6187.9311646464957,3329.5873806653922,5480.1364132120571,-3216.9890345156396,7140.549568143083,-6902.4352346253072,982.24159817340842,-982.24159817340842,6902.4352346253072,13942.279352137746,0.0
395012.02908761695,3987225.878295721,-42500.0,-3132.2831704822311,-4467.6376999722979,-5027.6520582288576,3378.1952644615399,4716.6633916874607,-2846.1374491635206,6576.4843135736774,-6199.9134652158164,219.74295681582862,-219.74295681582862,6199.9134652158164,12848.087971858014,0.0
400012.02908761695,3987225.878295721,-42500.0,-3521.7570205588981,-4295.3128325369717,-3938.1203220792263,3324.4973150818719,3981.0881992118052,-2482.0947107941338,6008.5449675318505,-5409.5550928236908,-467.00320807014668,467.00320807014668,5409.5550928236908,11736.281663316489,0.0
405012.02908761695,3987225.878295721,-42500.0,-3793.6004310860353,-4001.7556591464572,-2952.8819538838984,3190.3783146597448,3296.2892290925479,-2136.426349740635,5455.6596140613819,-4586.4929386091235,-1052.7413592664598,1052.7413592664598,4586.4929386091235,10641.149895929701,0.0
410012.02908761695,3987225.878295721,-42500.0,-3949.4946821497465,-3626.6962437980114,-2090.3232697580647,2997.626630656659,2676.5961690862246,-1816.9506759368151,4931.0513427044807,-3774.6912677895589,-1525.7190586028491,1525.7190586028491,3774.6912677895589,9588.9557183759043,0.0
285012.02908761695,3992225.878295721,-42500.0,-2003.3327858479072,-78.406604001680861,3672.5081483696522,-288.20117023079121,-1503.9499408357972,454.748979893181,3157.8883535855343,2186.2248289324075,-2708.0445594791559,2708.0445594791559,-2186.2248289324075,5599.8994612226606,0.0
290012.02908761695,3992225.878295721,-42500.0,-2358.8316690500519,451.02235394583374,3549.8999563842217,-589.3638998053143,-1325.8848013999884,340.94764813868511,3287.4350791469924,2621.2045481791279,-3014.0461053789118,3014.0461053789118,-2621.2045481791279,5759.8498921385963,0.0
295012.02908761695,3992225.878295721,-42500.0,-2662.8495530093605,1050.5062432694226,3283.7580489976949,-918.45503594539696,-1059.7882003432262,186.57250525517944,3441.7657025642643,3031.5604730609798,-3244.7065202626723,3244.7065202626723,-3031.5604730609798,5978.9443311285995,0.0
300012.02908761695,3992225.878295721,-42500.0,-2888.9977004792304,1701.9409164205099,2845.8393368242041,-1263.7956305808179,-692.72546140128588,-13.099375230109118,3632.5506347779919,3382.9279481014541,-3368.0194455358828,3368.0194455358828,-3382.9279481014541,6291.8432372116185,0.0
305012.02908761695,3992225.878295721,-42500.0,-3011.1664386454067,2376.7562835626054,2212.1641683159692,-1608.6553332952872,-214.9566992501862,-261.18102770702848,3871.4835875582985,3634.31253224487,-3351.9145056333095,3351.9145056333095,-3634.31253224487,6732.7829172178463,0.0
310012.02908761695,3992225.878295721,-42500.0,-3007.055331750742,3035.5071119693184,1367.5243335978487,-1931.3395903969945,377.79180633552329,-558.27680972911355,4167.7050461399822,3740.6504927271408,-3168.3178071910006,3168.3178071910006,-3740.6504927271408,7326.8270648742573,0.0
315012.02908761695,3992225.878295721,-42500.0,-2862.4748747133021,3629.1322068372756,310.56819862888875,-2206.099825311333,1081.9081999225216,-901.56876860901662,4525.0391441822103,3657.214372133104,-2798.2491093846129,2798.2491093846129,-3657.214372133104,8081.7895707447633,0.0
320012.02908761695,3992225.878295721,-42500.0,-2575.7850859405658,4102.4056290315593,-941.35749649636739,-2405.0613514476408,1883.7456080128293,-1284.0533173980732,4939.9600325094843,3345.7840902678513,-2237.2966480357723,2237.2966480357723,-3345.7840902678513,8984.2267981983096,0.0
325012.02908761695,3992225.878295721,-42500.0,-2161.470989423613,4399.7482185654762,-2348.796690966497,-2501.1850138392756,2758.305427881905,-1694.1377153413014,5400.9529005627128,2781.9524790954379,-1500.3594289164771,1500.3594289164771,-2781.9524790954379,10000.345690128212,0.0
330012.02908761695,3992225.878295721,-42500.0,-1651.6568871874401,4472.9561394398752,-3849.5457423448406,-2472.0051225478296,3669.3523280763256,-2115.8085590684568,5889.378755177846,1962.3005674305346,-624.24893079716321,624.24893079716321,-1962.3005674305346,11080.292224659479,0.0
335012.02908761695,3992225.878295721,-42500.0,-1094.5125136131835,4289.6493038224889,-5361.8866153242443,-2303.5615863966327,4571.4122387642637,-2529.5230952516608,6381.476160681671,909.68347426933951,333.18791084710807,-333.18791084710807,-909.68347426933951,12163.959103355091,0.0
340012.02908761695,3992225.878295721,-42500.0,-549.11279316179264,3840.6145939902594,-6792.0356603000864,-1993.6950374986943,5413.7419364444386,-2913.8360148003599,6850.8621194649741,-325.18168650044839,1298.1627221760123,-1298.1627221760123,325.18168650044839,13187.283401625207,0.0
345012.02908761695,3992225.878295721,-42500.0,-77.29145409355273,3144.0460698915426,-8045.0246235420309,-1553.8273066762836,6145.8424007514059,-3247.5898308070855,7270.7468921865493,-1667.0434606364217,2189.922677227642,-2189.922677227642,1667.0434606364217,14088.570670372295,0.0
350012.02908761695,3992225.878295721,-42500.0,265.94327072688912,2245.1894800016471,-9037.07953401343,-1008.5917235355148,6723.5810416373142,-3512.3172851658096,7615.4519607170387,-3024.3858552677834,2932.0488116940264,-2932.0488116940264,3024.3858552677834,14814.393922401619,0.0
355012.02908761695,3992225.878295721,-42500.0,441.21889599629748,1211.0353590003556,-9706.8641872538428,-393.18742913335666,7114.695415033374,-3694.4003716909288,7862.1682465836475,-4301.2294614927378,3463.6178702601551,-3463.6178702601551,4301.2294614927378,15324.444870671727,0.0
360012.02908761695,3992225.878295721,-42500.0,430.70785915883954,121.0736505652463,-10023.099218769465,251.07353576977994,7302.5259030028656,-3786.5585780175884,7994.0654439650461,-5409.9689266456171,3747.6560840817601,-3747.6560840817601,5409.9689266456171,15594.700152102101,0.0
365012.02908761695,3992225.878295721,-42500.0,239.82134124466742,-943.78160066537691,-9987.0036813573479,882.07520898712664,7287.2578095553617,-3788.3913772164533,8003.3013663905895,-6282.4253793350863,3775.0463743699647,-3775.0463743699647,6282.4253793350863,15618.493570877368,0.0
370012.02908761695,3992225.878295721,-42500.0,-105.39584506315251,-1911.639822481706,-9629.4283858293256,1461.9527039710933,7084.5947457177517,-3705.9291410867736,7891.8277318811915,-6876.9237367902952,3563.3776332624257,-3563.3776332624257,6876.9237367902952,15405.482961260903,0.0
375012.02908761695,3992225.878295721,-42500.0,-564.12396598562259,-2727.4043695368678,-9003.8548769683766,1960.9490070506852,6722.3891030456798,-3550.3729242062241,7670.0646830942778,-7180.4085875538112,3151.5620562394683,-3151.5620562394683,7180.4085875538112,14978.895674167523,0.0
380012.02908761695,3992225.878295721,-42500.0,-1088.1854486367522,-3356.7933784580459,-8177.2116322102402,2359.5499229471347,6236.1244320292353,-3336.3447377596567,7354.5727288738435,-7205.9559601547207,2591.947691730566,-2591.947691730566,7205.9559601547207,14371.69471649389,0.0
385012.02908761695,3992225.878295721,-42500.0,-1629.2878458337268,-3786.5911152092108,-7220.5554118383052,2648.8403517083789,5664.2217685014957,-3080.0158537492252,6965.5585538476744,-6986.9983757719956,1941.8873062915909,-1941.8873062915909,6986.9983757719956,13622.392721765556,0.0
390012.02908761695,3992225.878295721,-42500.0,-2144.8005656545824,-4021.9354316072468,-6201.2095453817783,2829.4077242541634,5043.9506173202217,-2797.4211765135001,6524.6425931507465,-6569.9845869386827,1256.3837335474873,-1256.3837335474873,6569.9845869386827,12771.136320407906,0.0
395012.02908761695,3992225.878295721,-42500.0,-2601.4235366768403,-4081.8325157153736,-5177.2349751948786,2909.3171348641849,4408.4108043479746,-2503.1582178520689,6053.0692980821932,-6007.0542535730965,582.77661444572459,-582.77661444572459,6007.0542535730965,11856.486817953091,0.0
400012.02908761695,3992225.878295721,-42500.0,-2976.7045498164371,-3994.0848751364088,-4194.4284191616653,2901.70401791533,3784.7343800713211,-2209.5529250232366,5570.330075545402,-5349.8566167835997,-42.234970330061969,42.234970330061969,5349.8566167835997,10913.11117223377,0.0
290012.02908761695,3997225.878295721,-42500.0,-2241.4034759798401,721.54818377338313,2994.928883998552,-687.03115118464723,-998.21256491330428,201.3491601605555,2959.2302809723778,2536.4734577958288,-2782.4265208222014,2782.4265208222014,-2536.4734577958288,5153.8692335322139,0.0
295012.02908761695,3997225.878295721,-42500.0,-2465.8478389860747,1257.6785580522242,2680.163892865578,-966.07896772061054,-733.82635197249169,60.088782224908243,3109.1164889932393,2855.4842777427689,-2927.6149377067272,2927.6149377067272,-2855.4842777427689,5387.3915950468299,0.0
300012.02908761695,3997225.878295721,-42500.0,-2616.7091180336715,1824.9523175824349,2213.4063948032067,-1251.6719491012693,-385.50241152546096,-116.90232776456016,3294.1799596564124,3109.0137690082256,-2971.9939066904426,2971.9939066904426,-3109.0137690082256,5713.3117817929842,0.0
305012.02908761695,3997225.878295721,-42500.0,-2674.9321154932722,2397.0614630199793,1578.9545249833443,-1529.4371174911837,52.314191039692709,-331.11060334442953,3522.5323038080337,3263.4517782636976,-2891.8872454365919,2891.8872454365919,-3263.4517782636976,6154.8480726955013,0.0
310012.02908761695,3997225.878295721,-42500.0,-2625.6612885798127,2939.9318389352288,769.40663381817376,-1781.6707167337531,580.45630471391314,-581.99401795414326,3799.3280905780284,3283.5813360748325,-2668.2522561289943,2668.2522561289943,-3283.5813360748325,6725.1848125213473,0.0
315012.02908761695,3997225.878295721,-42500.0,-2461.3578697653197,3413.2560879556322,-210.73669410899396,-1988.2501285793264,1193.4227325611766,-866.40520881883867,4125.0309164108949,3136.2563902727065,-2290.4452655205173,2290.4452655205173,-3136.2563902727065,7423.1176723223525,0.0
320012.02908761695,3997225.878295721,-42500.0,-2184.7582116780786,3773.5764248834876,-1341.947590301289,-2128.2266886234579,1878.0855982965766,-1178.1613428650739,4494.4104990724745,2795.1285003160851,-1759.9625077262585,1759.9625077262585,-2795.1285003160851,8231.9193769577978,0.0
325012.02908761695,3997225.878295721,-42500.0,-1810.9725524274704,3978.8880877896991,-2587.8425567801673,-2182.0500106709019,2613.0827752323771,-1507.8905402890648,4896.5304375760506,2245.8612877069913,-1093.3588002465704,1093.3588002465704,-2245.8612877069913,9121.0812844285847,0.0
330012.02908761695,3997225.878295721,-42500.0,-1367.971494588927,3994.3225314401816,-3895.4871782604823,-2134.1970377806633,3369.2486082230789,-1843.2744868705852,5315.6642409406622,1490.9028661875464,-323.43537208438624,323.43537208438624,-1490.9028661875464,10049.708935782992,0.0
335012.02908761695,3997225.878295721,-42500.0,-894.87945585042701,3798.0177415589001,-5198.4250035330433,-1975.7956050012165,4111.3090189063905,-2169.7570965709829,5732.8702386389987,552.65494898234306,502.0762553719988,-502.0762553719988,-552.65494898234306,10970.598431528844,0.0
340012.02908761695,3997225.878295721,-42500.0,-437.92960275248913,3385.9574527781651,-6422.4950103326801,-1706.7099563240351,4800.8253232569505,-2471.7023130831067,6127.8310899382068,-526.05929555914281,1324.6626680324241,-1324.6626680324241,526.05929555914281,11834.546055517299,0.0
345012.02908761695,3997225.878295721,-42500.0,-44.547911417251626,2774.5362867455183,-7493.7883295428082,-1336.5622787965854,5400.0600084207226,-2733.8760858787455,6480.4220055822989,-1684.8810113819313,2081.6497250577081,-2081.6497250577081,1684.8810113819313,12594.662043124807,0.0
350012.02908761695,3997225.878295721,-42500.0,243.36607843113589,1999.9797237903181,-8347.4241418516212,-884.33438796584926,5876.1535367776196,-2943.0299761015049,6771.5932306539053,-2852.0470624567456,2714.2084794300595,-2714.2084794300595,2852.0470624567456,13210.396517187004,0.0
355012.02908761695,3997225.878295721,-42500.0,395.54581800974501,1114.4650901720597,-8935.4445272696485,-376.50165905229829,6204.8476082079342,-3089.3128396517104,6984.1614603367216,-3952.7931464086942,3175.1557955365415,-3175.1557955365415,3952.7931464086942,13650.868013828565,0.0
360012.02908761695,3997225.878295721,-42500.0,397.5134586953364,179.61579193422219,-9232.2441918152817,155.99870914890778,6373.048497348731,-3167.2557891649062,7104.7686200594726,-4918.4197858704929,3434.9204937133495,-3434.9204937133495,4918.4197858704929,13897.085377867979,0.0
365012.02908761695,3997225.878295721,-42500.0,251.93734180892838,-741.29267378834572,-9236.5225597070148,681.38084108383191,6379.7776871156093,-3176.1641299942339,7126.3499672536809,-5694.2147965603881,3484.4900599923376,-3484.4900599923376,5694.2147965603881,13942.791029689946,0.0
370012.02908761695,3997225.878295721,-42500.0,-22.915547023245654,-1590.8425165704132,-8969.6123212924194,1170.5178714475501,6235.4338587306002,-3119.880123764121,7049.1696947207301,-6244.7909805772524,3334.951161888539,-3334.951161888539,6244.7909805772524,13793.895461075643,0.0
375012.02908761695,3997225.878295721,-42500.0,-397.03637349061967,-2323.3299216659284,-8470.8526045681538,1599.7355822623849,5959.6541477809287,-3006.0110742962697,6880.103670882987,-6556.1041164007665,3014.0615845645943,-3014.0615845645943,6556.1041164007665,13466.712868940971,0.0
380012.02908761695,3997225.878295721,-42500.0,-833.79586905883912,-2908.1653355220783,-7791.217782144543,1952.5192090551614,5578.3075843273582,-2844.8078082023844,6631.0309444690438,-6634.2545496049306,2560.8974245667787,-2560.8974245667787,6634.2545496049306,12985.385913428458,0.0
385012.02908761695,3997225.878295721,-42500.0,-1295.1934741022214,-3330.666317399402,-6986.5498590191391,2220.0377501436928,5120.2337287363898,-2647.9161997685492,6317.0304088485937,-6501.8200782719478,2019.8407080891438,-2019.8407080891438,6501.8200782719478,12378.960645036426,0.0
390012.02908761695,3997225.878295721,-42500.0,-1746.311553664427,-3590.651230883363,-6111.5301705380643,2400.639296446051,4614.2576391898792,-2427.2016393251874,5954.7223990223983,-6192.8051153045481,1435.0360033383877,-1435.0360033383877,6192.8051153045481,11678.534469992461,0.0
395012.02908761695,3997225.878295721,-42500.0,-2158.4298760856636,-3699.5592027946054,-5215.1085675256363,2498.6204825495156,4086.836396082319,-2193.7880601116335,5560.9031788397861,-5747.2880473404348,846.07860624419618,-846.07860624419618,5747.2880473404348,10914.791763181962,0.0
295012.02908761695,4002225.878295721,-42500.0,-2261.1168732100186,1392.5125540735094,2146.3450566134629,-973.84569127025986,-472.436535673013,-29.522773876571346,2822.2586956342893,2654.2811813973276,-2616.9212964675135,2616.9212964675135,-2654.2811813973276,4888.9728597203712,0.0
300012.02908761695,4002225.878295721,-42500.0,-2354.7239402717528,1881.9990558883508,1669.4007001037266,-1208.4936197904683,-147.96322868444216,-184.68920220848415,3000.0569497056031,2828.0010645526977,-2603.0680948568875,2603.0680948568875,-2828.0010645526977,5219.4780201867106,0.0
305012.02908761695,4002225.878295721,-42500.0,-2367.3230022092043,2363.5552548734559,1050.3501108213518,-1431.0436583727171,248.41533644286741,-368.37263482460219,3215.687155268728,2907.1570105178544,-2479.9616745042104,2479.9616745042104,-2907.1570105178544,5650.885052544626,0.0
310012.02908761695,4002225.878295721,-42500.0,-2289.4485255246573,2808.2888348989768,287.12063004867116,-1627.2297128606517,715.46212265628117,-579.44701715011183,3471.5142860585934,2864.5911224926276,-2235.1965340483102,2235.1965340483102,-2864.5911224926276,6188.3457347182248,0.0
315012.02908761695,4002225.878295721,-42500.0,-2117.9639522195948,3183.4362508976756,-612.3931008165182,-1781.4297819822186,1246.9344778396135,-814.82463289711961,3766.0163821044371,2676.0605201939989,-1863.7681800045136,1863.7681800045136,-2676.0605201939989,6825.7423897136041,0.0
320012.02908761695,4002225.878295721,-42500.0,-1857.9927172881328,3454.9794050177557,-1628.37448090421,-1877.9372089357732,1830.8352084815469,-1069.2249309272627,4093.3725565107416,2323.7932504982796,-1370.5838296140616,1370.5838296140616,-2323.7932504982796,7545.8749604346112,0.0
325012.02908761695,4002225.878295721,-42500.0,-1524.0897423105457,3591.2238128019735,-2728.2233320093142,-1902.6097477561791,2449.2015111668088,-1335.1487921818637,4443.7155913625957,1800.1762502047952,-772.20191994328729,772.20191994328729,-1800.1762502047952,8322.2201144634273,0.0
330012.02908761695,4002225.878295721,-42500.0,-1140.1856773838076,3566.9561915935947,-3867.2997446636014,-1844.7158235456154,3078.6369661208887,-1603.1244679193483,4803.9528875736942,1110.909225593814,-97.220840071820703,97.220840071820703,-1110.909225593814,9121.482999295642,0.0
335012.02908761695,4002225.878295721,-42500.0,-737.99119045446616,3367.5332902035175,-4991.5800526026205,-1698.6934485210977,3691.6928005184554,-1862.2553466711522,5158.9786930466689,276.86215408611804,615.12262304551064,-615.12262304551064,-276.86215408611804,9906.4694763765583,0.0
340012.02908761695,4002225.878295721,-42500.0,-353.85121909459912,2992.0894757853152,-6042.1653587595974,-1465.4798933312807,4259.0469505314641,-2101.0448165515245,5493.0351780725614,-666.02871816249024,1318.265312094728,-1318.265312094728,666.02871816249024,10639.086060392847,0.0
345012.02908761695,4002225.878295721,-42500.0,-24.423511796673235,2455.0820990736784,-6961.1348019554789,-1153.0932217750867,4752.238960935977,-2308.4095041861128,5790.8489114327567,-1669.1715478119265,1963.221253282208,-1963.221253282208,1669.1715478119265,11283.336643736015,0.0
350012.02908761695,4002225.878295721,-42500.0,218.08823217690994,1785.6605438131567,-7697.8372286963549,-776.26304114731715,5146.5582057338579,-2474.7388524477878,6038.1520972738899,-2675.8905756695021,2504.3179840185567,-2504.3179840185567,2675.8905756695021,11808.118515845235,0.0
355012.02908761695,4002225.878295721,-42500.0,350.2250373208534,1024.8034868107977,-8214.506035233946,-355.09922169450317,5423.6001979737548,-2592.8330890071143,6221.9116779981614,-3627.4822262667376,2904.7207243844732,-2904.7207243844732,3627.4822262667376,12189.543812263868,0.0
360012.02908761695,4002225.878295721,-42500.0,360.23040178488702,220.67657983153686,-8490.170774697619,87.004598774268047,5573.049586182341,-2658.5641818983572,6331.4864552215413,-4469.7006881244015,3140.6939935793048,-3140.6939935793048,4469.7006881244015,12412.518983574319,0.0
365012.02908761695,4002225.878295721,-42500.0,249.11896963179734,-576.92111484631459,-8522.1976008935035,525.86528154003497,5593.3999873136818,-2671.158300714214,6360.6265009285307,-5158.49471484063,3203.8239032917631,-3203.8239032917631,5158.49471484063,12471.400256573161,0.0
370012.02908761695,4002225.878295721,-42500.0,29.758213525685679,-1322.001007547037,-8325.3250216061533,938.96943791753802,5491.5477443653199,-2633.0716487675259,6308.6032931826085,-5664.0355537397718,3100.9163124424595,-3100.9163124424595,5664.0355537397718,12369.690953895102,0.0
375012.02908761695,4002225.878295721,-42500.0,-275.69334875171035,-1976.7967927612851,-7928.5826292347829,1307.5018274920378,5281.4200349545708,-2549.5116589343152,6179.8824434437201,-5972.4998859464094,2851.80235832772,-2851.80235832772,5972.4998859464094,12118.899983020296,0.0
380012.02908761695,4002225.878295721,-42500.0,-639.34034733966473,-2514.553513941833,-7370.8494014622083,1617.6794677496839,4981.9581427393123,-2427.7105314008031,5982.9965832108473,-6085.5955507026065,2485.687684207116,-2485.687684207116,6085.5955507026065,11736.795622631853,0.0
385012.02908761695,4002225.878295721,-42500.0,-1031.351475060809,-2920.5145132160055,-6695.9419833373058,1861.2988157106947,4614.8455084758943,-2276.0882032249478,5729.222871128567,-6018.2551459021179,2036.8640557452011,-2036.8640557452011,6018.2551459021179,11245.352080052879,0.0
390012.02908761695,4002225.878295721,-42500.0,-1423.3533308375679,-3191.2931003032563,-5948.0336437221904,2035.55751988215,4202.3383724566602,-2103.4331885956071,5431.3408703994583,-5795.1759498702104,1540.56450599553,-1540.56450599553,5795.1759498702104,10668.672747787687,0.0
305012.02908761695,4007225.878295721,-42500.0,-2090.2947044314351,2292.8933619226382,614.25672255957147,-1323.8440617402314,388.47866971284384,-382.97796745964314,2943.6134576880863,2573.3797249061604,-2116.1420833781344,2116.1420833781344,-2573.3797249061604,5205.2395892607383,0.0
310012.02908761695,4007225.878295721,-42500.0,-1995.6482100356629,2655.4081363043924,-96.727722923937378,-1475.7207808622761,799.32593688596262,-560.17463536395803,3178.064351754485,2486.5461636437703,-1863.5599114855561,1863.5599114855561,-2486.5461636437703,5704.7551797337192,0.0
315012.02908761695,4007225.878295721,-42500.0,-1825.147346452145,2950.989192300015,-916.09463639449154,-1589.8557726999461,1258.9942600392926,-754.96706406679243,3442.8286773748264,2273.5576573916819,-1507.3597070817564,1507.3597070817564,-2273.5576573916819,6281.8745446028333,0.0
320012.02908761695,4007225.878295721,-42500.0,-1585.0380151651229,3153.0955600162306,-1824.8379376769922,-1654.4841767921553,1756.8551252764717,-962.93722536534506,3732.1250093948711,1922.7674592155468,-1054.2291714228354,1054.2291714228354,-1922.7674592155468,6920.3541394840777,0.0
325012.02908761695,4007225.878295721,-42500.0,-1288.7274610732165,3237.8287011903053,-2794.2836756459833,-1659.3666441541031,2277.9569696962367,-1178.1203586556403,4037.3098856643528,1430.9705049432964,-519.83019004987841,519.83019004987841,-1430.9705049432964,7597.6193375343773,0.0
330012.02908761695,4007225.878295721,-42500.0,-956.46606505268437,3186.9676634044977,-3786.994141688228,-1597.0866193427134,2803.5533218369092,-1393.2254243496027,4347.5637679514712,805.47321028945419,71.244288379553723,-71.244288379553723,-805.47321028945419,8286.6439321530561,0.0
335012.02908761695,4007225.878295721,-42500.0,-613.9496993042618,2990.8266218154417,-4759.0115949361452,-1464.2359593263589,3312.2034130500379,-1600.0518961211192,4650.8166830382825,65.144473827405818,686.78885384838111,-686.78885384838111,-65.144473827405818,8957.9935168125685,0.0
340012.02908761695,4007225.878295721,-42500.0,-289.88695148987762,2650.3915813938734,-5663.3418393422699,-1262.2676323397263,3781.3863087103159,-1790.0789564128006,4934.7637359429127,-759.95755483608832,1289.6021676445114,-1289.6021676445114,759.95755483608832,9581.9471925117105,0.0
345012.02908761695,4007225.878295721,-42500.0,-12.822886141084043,2178.2422670634178,-6454.2872380527697,-997.82093229681664,4189.4529705102423,-1955.1653804343814,5187.7067828147447,-1630.5565671615632,1841.1358989654982,-1841.1358989654982,1630.5565671615632,10130.613701207751,0.0
350012.02908761695,4007225.878295721,-42500.0,192.28086502573558,1597.9511357033905,-7092.0055755044204,-682.40201806122241,4517.6481720546626,-2088.2680091375314,5398.8673572720563,-2501.5881197020844,2305.6485456369028,-2305.6485456369028,2501.5881197020844,10579.903446277807,0.0
355012.02908761695,4007225.878295721,-42500.0,307.09929867190834,941.95133328324994,-7546.550749524331,-331.42405910022228,4751.8899576106687,-2184.0739257124665,5558.2963415533613,-3326.613268118112,2654.16572441792,-2654.16572441792,3326.613268118112,10911.172144690399,0.0
360012.02908761695,4007225.878295721,-42500.0,322.0719617356595,248.18251947347937,-7800.7206590730957,37.263145574602021,4884.0242454320814,-2239.4501962936456,5657.4773669682263,-4062.5132349988003,2867.5581735369792,-2867.5581735369792,4062.5132349988003,11112.356646919585,0.0
365012.02908761695,4007225.878295721,-42500.0,237.23797945283815,-443.91376630438225,-7851.2636501903698,405.11740412604894,4912.3679349695167,-2253.6469498145429,5690.9346012911501,-4673.6846520786212,2938.2222307448665,-2938.2222307448665,4673.6846520786212,11178.481755078834,0.0
370012.02908761695,4007225.878295721,-42500.0,61.694150896932207,-1097.3740943142425,-7708.335362067287,754.64638499062301,4841.4906843698245,-2228.2348515417034,5657.3820221859214,-5135.0874999273146,2870.1538435471512,-2870.1538435471512,5135.0874999273146,11111.506508357779,0.0
375012.02908761695,4007225.878295721,-42500.0,-188.12106897417908,-1681.0419407853044,-7393.4305142736421,1070.8855409591197,4681.3258257608923,-2166.8041193495087,5559.6449547354414,-5433.7567510425333,2677.5379863655553,-2677.5379863655553,5433.7567510425333,10919.577608616191,0.0
380012.02908761695,4007225.878295721,-42500.0,-490.90976559787379,-2171.8172393077448,-6936.2690672989238,1342.4298276185837,4445.8070799429615,-2074.4897354227005,5403.8582016779274,-5568.7233839445162,2382.2445898320052,-2382.2445898320052,5568.7233839445162,10615.835615987697,0.0
320012.02908761695,4012225.878295721,-42500.0,-1356.8839506306842,2871.4222645174546,-1951.105855419901,-1456.6956484847858,1666.8204126605003,-862.5759070762175,3406.5663197150843,1583.0927359910615,-798.06457660196565,798.06457660196565,-1583.0927359910615,6350.3640640419899,0.0
325012.02908761695,4012225.878295721,-42500.0,-1095.0704997733835,2918.0121385221273,-2805.0913530620451,-1448.4275414911278,2106.8675543429163,-1037.3220599954907,3672.5729005075191,1125.9848689149942,-322.38732698221725,322.38732698221725,-1125.9848689149942,6941.2636790724337,0.0
330012.02908761695,4012225.878295721,-42500.0,-807.58426569917128,2850.0193651767963,-3671.1250804313067,-1385.3979210181219,2547.2118059166864,-1210.7881015995749,3940.4160504647471,560.67854428100577,195.09721742979411,-195.09721742979411,-560.67854428100577,7536.4796813300354,0.0
335012.02908761695,4012225.878295721,-42500.0,-515.26840477946257,2661.1610159182155,-4513.3746088678745,-1265.5966357027244,2971.0347858227287,-1376.7685869288912,4200.4237931160087,-96.084361217228718,727.95483125275928,-727.95483125275928,96.084361217228718,8112.6042702993827,0.0
340012.02908761695,4012225.878295721,-42500.0,-240.91284342589822,2353.4534537468135,-5294.1648768596933,-1090.6705032725586,3360.923889516318,-1528.8999032786207,4442.9258928301097,-819.19613070153321,1246.3358313292269,-1246.3358313292269,819.19613070153321,8646.2759405921661,0.0
345012.02908761695,4012225.878295721,-42500.0,-6.9031197035385672,1937.7514827712585,-5977.2077214440314,-866.09879388731042,3700.2775842495198,-1661.1481423603811,4658.8898486135304,-1576.7763609255512,1719.7065530553186,-1719.7065530553186,1576.7763609255512,9115.6954398519792,0.0
350012.02908761695,4012225.878295721,-42500.0,167.2580399713863,1433.2112355723661,-6530.9383045933828,-600.92694412192225,3974.7374431471139,-1768.3025012032815,4840.1122631550707,-2332.7614358582937,2119.8864701184079,-2119.8864701184079,2332.7614358582937,9502.0366488983764,0.0
355012.02908761695,4012225.878295721,-42500.0,267.14912065095484,865.68876815853889,-6931.4547009418166,-307.06738544713596,4173.442018294455,-1846.4068625664879,4978.9520451431572,-3050.1544287084848,2423.9197329076119,-2423.9197329076119,3050.1544287084848,9790.6251487974714,0.0
360012.02908761695,4012225.878295721,-42500.0,284.97746149431759,265.28792221152941,-7164.6119778959774,1.7444425286909118,4289.9199666382538,-1893.069366395647,5068.5544851490959,-3694.4614504531546,2616.3223957324444,-2616.3223957324444,3694.4614504531546,9971.765053747913,0.0
365012.02908761695,4012225.878295721,-42500.0,220.22820943333465,-336.55873681862772,-7226.9651069062174,311.18525056023287,4322.4992729501473,-1907.609437624383,5104.142063730088,-4236.7881060196742,2690.3572775380003,-2690.3572775380003,4236.7881060196742,10041.129770309424,0.0
335012.02908761695,3797225.878295721,-47500.0,206.45077245122474,-471.89139576350914,-6473.0537602398281,-453.21424940820538,-4530.4289272098304,-2300.9942863257997,5029.5319045510068,-3796.936289243431,2299.2600514194,-2299.2600514194,3796.936289243431,9849.5270758923434,0.0
340012.02908761695,3797225.878295721,-47500.0,293.75789343096665,98.507733869335112,-6465.0223034823475,-122.21214630241937,-4523.0426703989633,-2294.5926155433781,5013.2750893722041,-3330.193898178366,2281.6923335405372,-2281.6923335405372,3330.193898178366,9815.0007481673729,0.0
345012.02908761695,3797225.878295721,-47500.0,300.40937386503589,676.91833910588582,-6298.3446320404055,213.00780622570429,-4426.5599906880852,-2249.1418651864396,4942.5587060987182,-2762.857970463007,2152.4174507365565,-2152.4174507365565,2762.857970463007,9670.2625012211683,0.0
350012.02908761695,3797225.878295721,-47500.0,224.67549762808193,1233.0821126209651,-5973.012736822986,536.91969945021549,-4241.1371812205962,-2164.8207098030834,4820.6009559210142,-2119.8978893758308,1914.4049881736316,-1914.4049881736316,2119.8978893758308,9418.0537052984273,0.0
355012.02908761695,3797225.878295721,-47500.0,72.074404059079043,1737.1134042935519,-5499.2136333755361,834.20282017097134,-3972.1280844969297,-2043.9259364106817,4653.4023462317346,-1432.2907461428317,1579.2001318013172,-1579.2001318013172,1432.2907461428317,9066.511842240312,0.0
360012.02908761695,3797225.878295721,-47500.0,-144.97782016378144,2162.4055366730986,-4896.7990060102766,1091.125444797568,-3629.8164064352695,-1890.7589266713824,4448.8351802693214,-734.27247447169975,1166.0844836057952,-1166.0844836057952,734.27247447169975,8628.9208690068863,0.0
365012.02908761695,3797225.878295721,-47500.0,-408.45459378571462,2488.206773178737,-4193.6032159819288,1296.774431734812,-3228.5981009293409,-1711.2999187315036,4215.7590763500984,-60.134569607025014,700.22139049224279,-700.22139049224279,60.134569607025014,8123.0056356528794,0.0
370012.02908761695,3797225.878295721,-47500.0,-696.74785408060063,2701.465989667136,-3422.84144830181,1443.9514708799813,-2785.7230408359937,-1512.7127794725518,3963.6021814365249,558.95186659547926,210.06167090492642,-210.06167090492642,-558.95186659547926,7569.8408106902343,0.0
375012.02908761695,3797225.878295721,-47500.0,-987.09302799083525,2797.6752936069461,-2619.9944920687039,1529.6106171735305,-2319.7806684546022,-1302.7491801149263,3702.1336787627724,1097.5974139466889,-275.56582851196686,275.56582851196686,-1097.5974139466889,6992.4820142711815,0.0
380012.02908761695,3797225.878295721,-47500.0,-1257.9866393546545,2780.6461435249498,-1819.6540584469997,1554.8047175006877,-1849.1497899118081,-1089.1355901122879,3441.0515858335502,1537.9852848104874,-730.21992073040838,730.21992073040838,-1537.9852848104874,6414.4458834196621,0.0
385012.02908761695,3797225.878295721,-47500.0,-1491.2200665506343,2661.3440033497386,-1052.7797916453653,1524.1904576494617,-1390.6225379197881,-879.02177897357888,3189.3622767474853,1870.609185613579,-1132.0639717848289,1132.0639717848289,-1870.609185613579,5858.1415762549423,0.0
320012.02908761695,3802225.878295721,-47500.0,-557.58925590646732,-2149.5539410299252,-5955.4881086693076,-1534.4009967888339,-4530.3754099920006,-2446.9832776577773,5237.4189873164169,-4811.5508598528959,1796.6450287856508,-1796.6450287856508,4811.5508598528959,10247.25200876175,0.0
325012.02908761695,3802225.878295721,-47500.0,-249.67493871876684,-1716.8056193687012,-6412.2368903250745,-1261.4362185301848,-4800.459316377377,-2568.0706475323586,5407.2464203772943,-4732.6316945131284,2110.9415294303099,-2110.9415294303099,4732.6316945131284,10574.215282235331,0.0
330012.02908761695,3802225.878295721,-47500.0,13.23658548028904,-1189.8747670478965,-6748.1410125723114,-937.13383655602047,-4996.2737985199956,-2654.0088815979798,5522.9893795528697,-4506.0687715861368,2340.0130998913864,-2340.0130998913864,4506.0687715861368,10796.596344748907,0.0
335012.02908761695,3802225.878295721,-47500.0,209.19222417932161,-588.13293580871391,-6933.5503302705938,-572.42179297880625,-5101.9324986833954,-2698.087303872443,5577.6697332672411,-4129.4949099496325,2460.8297278329665,-2460.8297278329665,4129.4949099496325,10900.226744973135,0.0
340012.02908761695,3802225.878295721,-47500.0,320.18042637348867,60.817523074725806,-6945.4364308355962,-182.34427907767835,-5105.2789214782206,-2695.2614714235474,5567.1359300076911,-3611.3985307806647,2456.555116420001,-2456.555116420001,3611.3985307806647,10875.453824559574,0.0
345012.02908761695,3802225.878295721,-47500.0,334.73194029420029,722.93732365621304,-6770.5546251527549,214.8807280942477,-4999.4694988958299,-2642.7878345165577,5490.8566636106252,-2971.6366559508783,2319.2305652010141,-2319.2305652010141,2971.6366559508783,10718.447277805131,0.0
350012.02908761695,3802225.878295721,-47500.0,249.90926488334733,1360.681493411776,-6407.7792146164074,599.33854736645196,-4784.1209829799591,-2540.6734249251172,5352.3406787579961,-2240.4839534085677,2051.5814612184486,-2051.5814612184486,2240.4839534085677,10432.102406307113,0.0
355012.02908761695,3802225.878295721,-47500.0,72.236298545332062,1936.7164613851737,-5869.1110232899773,951.25729808818119,-4465.7894779790413,-2391.8517430597867,5158.8584672630077,-1456.1878100045294,1667.5039088633823,-1667.5039088633823,1456.1878100045294,10026.387448652073,0.0
360012.02908761695,3802225.878295721,-47500.0,-182.70649599092985,2417.8645817747979,-5179.053872717338,1252.9457959176018,-4057.6412783455753,-2202.0354074447473,4920.4051397873245,-661.29914196566506,1191.0101904097278,-1191.0101904097278,661.29914196566506,9518.0403861925079,0.0
365012.02908761695,3802225.878295721,-47500.0,-492.02596004170942,2778.6057003376977,-4372.3672975504032,1490.5179480702222,-3578.3216321909144,-1979.2494803814914,4648.4762727630923,101.65859030828113,653.72687303077032,-653.72687303077032,-101.65859030828113,8929.6128177857281,0.0
370012.02908761695,3802225.878295721,-47500.0,-828.31168074670245,3003.5410076422318,-3490.5286500181874,1655.1285571995811,-3050.1834219192133,-1733.1105661305705,4355.2897525152503,794.47265952672194,91.348853162806449,-91.348853162806449,-794.47265952672194,8287.9595417939054,0.0
375012.02908761695,3802225.878295721,-47500.0,-1162.9678240570111,3088.4256015044307,-2577.5067800287438,1743.5331914177207,-2497.1595935907608,-1473.9619890331282,4053.3194475021905,1386.7633291136372,-460.32135667273297,460.32135667273297,-1386.7633291136372,7622.3345919455105,0.0
380012.02908761695,3802225.878295721,-47500.0,-1469.4785065718224,3039.6942348435582,-1675.5451108677498,1757.932783665183,-1942.6136301049291,-1211.9944584954637,3754.6950405234084,1858.2352618685088,-969.069446295852,969.069446295852,-1858.2352618685088,6962.2747454516375,0.0
385012.02908761695,3802225.878295721,-47500.0,-1726.0630709377408,2872.6995575412438,-821.60262582840744,1705.1927634297167,-1407.4819664777501,-956.47464330397656,3470.375490545196,2199.4282531304784,-1409.1219854419746,1409.1219854419746,-2199.4282531304784,6335.4182605285778,0.0
390012.02908761695,3802225.878295721,-47500.0,-1917.3714735928356,2609.1064026371869,-44.886987616988947,1595.6347823163442,-908.92626588606663,-715.16937739789262,3209.2708496732985,2411.0629385640359,-1762.8212795547852,1762.8212795547852,-2411.0629385640359,5765.3520155404331,0.0
395012.02908761695,3802225.878295721,-47500.0,-2035.1054285599917,2273.9671673716989,634.34766052565521,1441.6394745325763,-459.59562970990982,-494.00791083087046,2977.5166219378802,2502.3140043012063,-2021.0570618795618,2021.0570618795618,-2502.3140043012063,5269.5836089472896,0.0
310012.02908761695,3807225.878295721,-47500.0,-1479.4784205651833,-3000.5372947248025,-4874.6915344066538,-2222.5662110695807,-4174.3020950623113,-2434.3677311125393,5197.4428733468358,-4820.9358015752678,879.47722456737074,-879.47722456737074,4820.9358015752678,10163.695232333266,0.0
315012.02908761695,3807225.878295721,-47500.0,-1103.9858811515628,-2789.255089142237,-5565.8926878276707,-2062.6148302216661,-4615.3365481251049,-2646.2903507070487,5498.0013689849839,-5057.8815057205102,1349.8588275982679,-1349.8588275982679,5057.8815057205102,10743.028560207942,0.0
320012.02908761695,3807225.878295721,-47500.0,-720.49781739883724,-2451.1038094342175,-6204.6883658651368,-1828.5830909941458,-5016.4992188325105,-2836.3308733468275,5760.3173117076258,-5163.1037259072355,1791.692829268625,-1791.692829268625,5163.1037259072355,11247.227885060658,0.0
325012.02908761695,3807225.878295721,-47500.0,-355.7048122410427,-1985.979361251208,-6750.9949910851346,-1521.6636940462026,-5354.5421831315762,-2993.9354729310689,5971.6105560109918,-5111.9257955552584,2172.3770474054895,-2172.3770474054895,5111.9257955552584,11652.460516683879,0.0
330012.02908761695,3807225.878295721,-47500.0,-38.645625342466325,-1404.1834192074916,-7163.7357913062233,-1148.6739642276452,-5606.1156082671087,-3108.6865285060658,6120.178711064329,-4887.4923395856622,2458.7109960336666,-2458.7109960336666,4887.4923395856622,11936.368302978794,0.0
335012.02908761695,3807225.878295721,-47500.0,202.40255606523746,-727.45818620887167,-7404.8958645768871,-722.47439371825442,-5749.9762810555658,-3171.2629049726961,6196.5387279407414,-4484.1750730369204,2620.6396182024132,-2620.6396182024132,4484.1750730369204,12080.078793412866,0.0
340012.02908761695,3807225.878295721,-47500.0,343.59850195097283,11.418719291181464,-7444.100779039828,-261.65072365870191,-5769.4186566972276,-3174.4722005079097,6194.6462657308866,-3910.1297492651906,2635.3798154156807,-2635.3798154156807,3910.1297492651906,12070.283934207695,0.0
345012.02908761695,3807225.878295721,-47500.0,369.18951354409614,770.75974593000001,-7263.0167725389119,210.65918005254059,-5654.565363742613,-3114.2024468986783,6113.0046832527778,-3188.3234327451737,2491.231802515701,-2491.231802515701,3188.3234327451737,11901.104919829608,0.0
350012.02908761695,3807225.878295721,-47500.0,274.41160053702652,1503.7598979741272,-6858.731478583406,668.75094268607586,-5404.0949714125854,-2990.1235865060703,5955.3523125223146,-2355.5372326564343,2190.2733155322771,-2190.2733155322771,2355.5372326564343,11575.44020506698,0.0
355012.02908761695,3807225.878295721,-47500.0,66.941605290794826,2163.4975822553579,-6245.3417843832603,1086.9145212403012,-5026.0295859239241,-2805.9890548376338,5730.5216137601665,-1459.2276229499741,1749.2393230552791,-1749.2393230552791,1459.2276229499741,11105.545226341574,0.0
360012.02908761695,3807225.878295721,-47500.0,-233.54992921713733,2708.3386870425516,-5453.2410804900055,1442.1793997269488,-4537.3387485000403,-2569.4466402155995,5451.2696121408399,-552.59074893784361,1198.2046593343925,-1198.2046593343925,552.59074893784361,10512.668458414724,0.0
365012.02908761695,3807225.878295721,-47500.0,-597.78041259221243,3106.746163290301,-4526.0944080502013,1716.7616147657413,-3962.3603140417908,-2291.3626561672449,5132.6126404827328,311.34921594127013,577.18053530875272,-577.18053530875272,-311.34921594127013,9825.7454222468587,0.0
370012.02908761695,3807225.878295721,-47500.0,-990.74921140386982,3340.5985576399244,-3515.9816398591452,1899.7851246006157,-3330.2779372013479,-1984.7594282879559,4790.5124560449049,1085.5716356749053,-68.782918679592058,68.782918679592058,-1085.5716356749053,9079.2812733723513,0.0
375012.02908761695,3807225.878295721,-47500.0,-1376.3612191919922,3406.440296252943,-2477.6099926373422,1987.9949986855181,-2672.0977147448812,-1663.5433837142737,4441.0128371314258,1733.7520868779097,-695.03975049654139,695.03975049654139,-1733.7520868779097,8310.6654885055323,0.0
380012.02908761695,3807225.878295721,-47500.0,-1721.8683614148456,3314.5824712541735,-1462.6435121077159,1985.4142035841091,-2017.6430358916523,-1341.2318075958774,4099.3442908348752,2233.0770314630108,-1262.3166522976846,1262.3166522976846,-2233.0770314630108,7557.1847318799928,0.0
385012.02908761695,3807225.878295721,-47500.0,-2001.3376353670221,3086.434607838813,-515.08067146240751,1902.109916281529,-1393.0361406064042,-1029.8673167258646,3778.8060788387024,2574.9038796220298,-1740.3779731284226,1740.3779731284226,-2574.9038796220298,6852.9417807099726,0.0
390012.02908761695,3807225.878295721,-47500.0,-2197.6728557043311,2750.7673171889851,331.72868511562996,1752.3919182321417,-818.97779202314177,-739.24963256010085,3489.6218987271109,2763.4772073591657,-2109.9476824901321,2109.9476824901321,-2763.4772073591657,6225.8253413826769,0.0
395012.02908761695,3807225.878295721,-47500.0,-2303.0961077648549,2339.6954872865281,1056.2612176717107,1552.8163292959014,-309.93404704883301,-476.53541546707589,3238.0625904112894,2813.2605114438129,-2362.8773492804239,2362.8773492804239,-2813.2605114438129,5694.7303253462014,0.0
400012.02908761695,3807225.878295721,-47500.0,-2318.3237677890788,1885.0600128771116,1648.3962180416611,1320.3258157521545,125.84281132892757,-246.18529706004955,3026.0907814633001,2745.587226649282,-2500.8943566665534,2500.8943566665534,-2745.587226649282,5267.5113647503176,0.0
405012.02908761695,3807225.878295721,-47500.0,-2250.8624423626547,1415.6478824151277,2107.8306415023812,1070.7552529187058,485.65634878702957,-50.18579954856542,2851.6796604589254,2585.2856596637503,-2533.4473735927459,2533.4473735927459,-2585.2856596637503,4940.4880837800865,0.0
305012.02908761695,3812225.878295721,-47500.0,-2178.8931272876243,-3374.6286330842418,-4072.5702409429668,-2664.9064253747292,-3969.4135577976458,-2498.5687555652971,5269.5745829480675,-4608.8832769000546,149.02205266743522,-149.02205266743522,4608.8832769000546,10286.938761226487,0.0
310012.02908761695,3812225.878295721,-47500.0,-1798.8734218184163,-3319.1619667778127,-4869.3153152113155,-2590.5160291744419,-4515.9113331239214,-2777.1140201989119,5655.4969565759593,-5030.7564346258878,677.98645248880439,-677.98645248880439,5030.7564346258878,11033.772294967413,0.0
315012.02908761695,3812225.878295721,-47500.0,-1374.0019798826861,-3127.8092021641519,-5661.8501217798366,-2431.1290620865848,-5048.7861690994323,-3044.5620064628583,6016.6339477293668,-5343.7419950073681,1219.9610009098697,-1219.9610009098697,5343.7419950073681,11728.80074403783,0.0
320012.02908761695,3812225.878295721,-47500.0,-929.74170270374202,-2786.7935443004512,-6408.1146430453982,-2180.3675898480064,-5541.6556466510965,-3288.1141751820596,6336.9336852136739,-5510.9443650992398,1740.7292112945768,-1740.7292112945768,5510.9443650992398,12342.809729974859,0.0
325012.02908761695,3812225.878295721,-47500.0,-498.24716724584317,-2292.2341482344355,-7059.6373170735405,-1837.6600671295034,-5964.9706766934769,-3493.7528182440788,6600.0407182167773,-5499.4346659042567,2200.4524991074727,-2200.4524991074727,5499.4346659042567,12845.498619773689,0.0
330012.02908761695,3812225.878295721,-47500.0,-115.80465983357743,-1653.1967754486286,-7565.2271629355018,-1409.7528416729392,-6288.2310568769217,-3647.2896029900967,6790.5700712592579,-5285.0677955537967,2557.1712430721191,-2557.1712430721191,5285.0677955537967,13207.751343867625,0.0
335012.02908761695,3812225.878295721,-47500.0,181.13295500743027,-893.5815738024553,-7876.1432545380258,-911.55754140547845,-6482.9421562508733,-3735.7091482075393,6895.6219818022601,-4857.2953436387979,2771.6549911223606,-2771.6549911223606,4857.2953436387979,13404.333845011699,0.0
340012.02908761695,3812225.878295721,-47500.0,360.90494953329903,-52.114033689896559,-7952.254714221719,-365.98456001208871,-6526.0434547528157,-3748.689024227876,6906.4674010506133,-4223.0522077502828,2813.0385729706099,-2813.0385729706099,4223.0522077502828,13416.832211784051,0.0
345012.02908761695,3812225.878295721,-47500.0,401.7918514224059,820.08967408367585,-7768.1784453875489,197.48224737383242,-6403.2377115200188,-3680.0356254884996,6820.1087699830759,-3408.6378919975723,2664.2521066837126,-2664.2521066837126,3408.6378919975723,13236.32575393763,0.0
350012.02908761695,3812225.878295721,-47500.0,296.27439372187854,1664.4158596379611,-7318.2105041604591,745.45305720275337,-6111.62223837701,-3528.7943724645479,6640.3767922705583,-2458.7986696418047,2326.062338569388,-2326.062338569388,2458.7986696418047,12865.431332428781,0.0
355012.02908761695,3812225.878295721,-47500.0,53.312512459519866,2421.5224917833375,-6618.8227164011569,1244.2283341685957,-5660.9842010517041,-3299.7687720789922,6378.0186298412436,-1432.7056489805909,1818.6086081518811,-1818.6086081518811,1432.7056489805909,12319.260659636826,0.0
360012.02908761695,3812225.878295721,-47500.0,-302.10284087966153,3038.8150936671736,-5707.8960540909429,1663.7323452869696,-5073.34690385676,-3003.2840491541092,6049.4049010915996,-397.2684435305847,1179.7803830000867,-1179.7803830000867,397.2684435305847,11625.003528256324,0.0
365012.02908761695,3812225.878295721,-47500.0,-732.23287793460315,3477.1285099101447,-4640.6176819023867,1981.0321361387421,-4380.7433491255933,-2654.1977931585266,5674.2928683465907,581.01776276397345,460.54427153904061,-460.54427153904061,-581.01776276397345,10820.125337170322,0.0
370012.02908761695,3812225.878295721,-47500.0,-1192.0781093772887,3715.2379254612433,-3482.7426670188634,2182.7628553933664,-3621.577782928649,-2270.3107215677969,5273.7172316211618,1444.0923329782463,-281.89539236612393,281.89539236612393,-1444.0923329782463,9949.3556043799763,0.0
375012.02908761695,3812225.878295721,-47500.0,-1635.861993315684,3751.3428081807274,-2302.5962727771284,2266.025263883103,-2836.2793993496698,-1870.4708359983993,4868.4744546347019,2148.6199464350302,-991.64986082901248,991.64986082901248,-2148.6199464350302,9060.845806405483,0.0
380012.02908761695,3812225.878295721,-47500.0,-2023.1154491826355,3601.453309149309,-1163.3987208724407,2237.705541498322,-2063.0613296982692,-1472.7090049945818,4477.7526666560407,2669.4774877437085,-1620.8664564143082,1620.8664564143082,-2669.4774877437085,8201.884461201309,0.0
385012.02908761695,3812225.878295721,-47500.0,-2323.1973738646125,3295.3373267095326,-117.27331648453551,2112.5177256440857,-1334.4992211155134,-1092.7047993861258,4117.598143753592,3000.117065357188,-2134.4134817972144,2134.4134817972144,-3000.117065357188,7414.4751653556496,0.0
390012.02908761695,3812225.878295721,-47500.0,-2517.6220343606451,2871.1446217224197,798.27982238176969,1910.3043726498836,-675.364636392541,-742.77036730713724,3799.4337212480159,3150.2421796165199,-2511.9720914760073,2511.9720914760073,-3150.2421796165199,6731.0195740813824,0.0
395012.02908761695,3812225.878295721,-47500.0,-2600.1797308855917,2369.8995569667745,1561.3312982692746,1653.1808526236216,-101.81409355004406,-431.40732261327054,3529.0614016483114,3141.7297166228545,-2747.6567188997797,2747.6567188997797,-3141.7297166228545,6170.5565682216329,0.0
400012.02908761695,3812225.878295721,-47500.0,-2575.3115628402452,1830.8091137115509,2164.3248710401676,1363.0081679552816,378.24547902514229,-163.37454938186266,3306.5308346665697,3003.8759746313485,-2847.7761765640366,2847.7761765640366,-3003.8759746313485,5736.5545316453045,0.0
405012.02908761695,3812225.878295721,-47500.0,-2455.4407428436589,1287.9244576697945,2611.4678370808897,1059.4927480312638,763.96458723220212,59.868013351043487,3127.0282011923659,2768.8932386922907,-2827.5638781844336,2827.5638781844336,-2768.8932386922907,5417.5870759406971,0.0
410012.02908761695,3812225.878295721,-47500.0,-2257.9651871816068,768.28364116561204,2915.4863764655738,759.01292911080805,1059.9230063525772,239.49824537004696,2982.5737010097973,2468.2641362549361,-2707.6634528216396,2707.6634528216396,-2468.2641362549361,5191.4169603063856,0.0
415012.02908761695,3812225.878295721,-47500.0,-2002.4582854789428,291.35893524751094,3094.3838653827556,474.11891078283622,1274.4062237493411,378.59740505573808,2863.992264851689,2130.2133134948776,-2510.9521200705453,2510.9521200705453,-2130.2133134948776,5031.1759149016425,0.0
300012.02908761695,3817225.878295721,-47500.0,-2927.3528880247964,-3527.1367666293763,-3044.2454802940892,-3025.1167251314919,-3578.4488888049923,-2472.1319964065347,5227.3421881789727,-4087.1549759720083,-721.77788692020658,721.77788692020658,4087.1549759720083,10171.827080287776,0.0
305012.02908761695,3817225.878295721,-47500.0,-2597.5886733456423,-3650.0869749621265,-3883.499881360915,-3062.5389010773242,-4205.6794283400959,-2813.4578621761812,5688.6305853098584,-4671.91063359901,-192.19698375247845,192.19698375247845,4671.91063359901,11072.155852872231,0.0
310012.02908761695,3817225.878295721,-47500.0,-2185.5401938023997,-3646.4362533179678,-4772.7664109613661,-3013.4747017948343,-4853.3577990980439,-3159.7145022568143,6144.990377136427,-5189.0317631664402,396.82922176959573,-396.82922176959573,5189.0317631664402,11954.922539811621,0.0
315012.02908761695,3817225.878295721,-47500.0,-1709.3367323890559,-3488.5135077175646,-5675.224961490755,-2862.7765818188309,-5495.8208108895615,-3497.3758228926463,6578.7705176091795,-5593.8460306452998,1016.2859436108506,-1016.2859436108506,5593.8460306452998,12788.353215396002,0.0
320012.02908761695,3817225.878295721,-47500.0,-1197.6209491969321,-3155.2878217769289,-6542.4257860081871,-2599.7818516754614,-6100.809447859252,-3809.9802622450925,6970.0619878579855,-5839.6896386942899,1626.5843840460975,-1626.5843840460975,5839.6896386942899,13536.34211052353,0.0
325012.02908761695,3817225.878295721,-47500.0,-688.70003556680138,-2637.1210236621846,-7316.2658044685759,-2220.9073002909945,-6630.9205450006511,-4078.929356184698,7297.9693920248546,-5883.006544556737,2179.4823228465548,-2179.4823228465548,5883.006544556737,14160.407709015921,0.0
330012.02908761695,3817225.878295721,-47500.0,-227.69845622694694,-1940.2975860168913,-7933.2289531804681,-1732.0186189661079,-7046.3265395418784,-4284.8508607633175,7542.245816492381,-5689.7180124516026,2622.1755477655342,-2622.1755477655342,5689.7180124516026,14622.559866554633,0.0
335012.02908761695,3817225.878295721,-47500.0,138.41161847192259,-1090.2623303945556,-8330.9107592446526,-1150.0079614451461,-7308.7240320449064,-4409.4862013295542,7685.3344465858263,-5241.9998147003789,2903.508734005869,-2903.508734005869,5241.9998147003789,14888.958830334615,0.0
340012.02908761695,3817225.878295721,-47500.0,367.47173955665716,-132.3896382635954,-8456.221259891623,-502.97932256124648,-7386.121541880806,-4437.9045378319361,7714.6707016842711,-4544.1128955057738,2981.6294553141529,-2981.6294553141529,4544.1128955057738,14933.986548719378,0.0
345012.02908761695,3817225.878295721,-47500.0,429.41566035316657,870.63722664842589,-8274.0100192936079,171.39963369429984,-7257.7531250040538,-4360.7197855802242,7624.9506747481792,-3625.7176100062825,2831.7601669658297,-2831.7601669658297,3625.7176100062825,14744.203288665274,0.0
350012.02908761695,3817225.878295721,-47500.0,312.56867041468212,1845.1050483218237,-7774.2740016840398,829.47657440438093,-6918.0971807815722,-4175.8548310118913,7419.8281774630068,-2541.2700770047886,2452.2827545148775,-2452.2827545148775,2541.2700770047886,14321.429157676492,0.0
355012.02908761695,3817225.878295721,-47500.0,27.248705710719129,2715.482413603333,-6976.1015953720689,1426.704495282853,-6379.0272711967191,-3889.4446783600815,7112.3928388451923,-1364.9058431475096,1867.37615046782,-1867.37615046782,1364.9058431475096,13684.348170822073,0.0
360012.02908761695,3817225.878295721,-47500.0,-394.59012390318452,3414.8645274195264,-5926.9224010759772,1923.3474260950934,-5669.3245488936518,-3515.551835176454,6723.7657907020875,-181.30820536982424,1125.0571957948387,-1125.0571957948387,181.30820536982424,12868.034928672412,0.0
365012.02908761695,3817225.878295721,-47500.0,-903.92220465719265,3894.3708297056114,-4696.9198812157665,2289.6159634658375,-4831.5254553364393,-3074.7093713668155,6280.1433632853732,925.64875825772879,290.71319893051606,-290.71319893051606,-925.64875825772879,11921.479293814493,0.0
370012.02908761695,3817225.878295721,-47500.0,-1442.479810326844,4129.3370912944447,-3369.5721612008042,2509.1268242570327,-3916.5923132495868,-2591.4999951439527,5809.5026955397007,1884.0520691879726,-562.5657301439735,562.5657301439735,-1884.0520691879726,10903.218655544302,0.0
375012.02908761695,3817225.878295721,-47500.0,-1951.9485383654539,4121.0168155507345,-2030.4944196316833,2580.0095931127803,-2977.5868567567127,-2091.6892077053012,5339.0208479865005,2642.4337620439455,-1364.5775676377225,1364.5775676377225,-2642.4337620439455,9875.752052806818,0.0
380012.02908761695,3817225.878295721,-47500.0,-2382.3595571272713,3893.7703044278896,-756.99118904451086,2513.6244392609383,-2063.6300843530225,-1599.4626650027958,4892.928764403523,3174.0171398011007,-2057.1479117775461,2057.1479117775461,-3174.0171398011007,8899.2823543674749,0.0
385012.02908761695,3817225.878295721,-47500.0,-2697.9468206157594,3488.8861294770459,389.67810201433372,2331.4397585438019,-1215.2504114416688,-1135.2489933619886,4490.3773739405024,3476.3988322017799,-2600.0600889377361,2600.0600889377361,-3476.3988322017799,8025.256469935227,0.0
390012.02908761695,3817225.878295721,-47500.0,-2879.6666488718874,2956.8331655396551,1368.3062190183432,2060.9676375847707,-461.72055001930272,-714.39944447117296,4143.5571919622007,3567.5271370766363,-2973.1117737083355,2973.1117737083355,-3567.5271370766363,7290.1691840251178,0.0
395012.02908761695,3817225.878295721,-47500.0,-2924.5582795191031,2349.7398953690954,2158.074530057258,1731.6811186347977,179.57599414132125,-346.76278842001994,3856.7124069213451,3479.5278144101012,-3174.7003227697669,3174.7003227697669,-3479.5278144101012,6710.6580722062163,0.0
400012.02908761695,3817225.878295721,-47500.0,-2842.8181644434408,1715.4022887772046,2756.0634631201488,1371.6145888525273,702.13705030712526,-37.007914514614335,3626.5860427893649,3252.0207402542596,-3218.0333784634663,3218.0333784634663,-3252.0207402542596,6281.8334321793418,0.0
405012.02908761695,3817225.878295721,-47500.0,-2653.72386880564,1093.4263628230594,3173.1321772697061,1005.0127969050001,1108.2969429427146,214.55274916689444,3444.3320588083429,2926.2096387479123,-3126.269518679439,3126.269518679439,-2926.2096387479123,5980.6428856293751,0.0
410012.02908761695,3817225.878295721,-47500.0,-2381.4324706523312,513.49013620691437,3429.3047597563354,651.08009048779354,1406.7535564763043,410.89903951957285,3298.2820638746207,2540.4637224873686,-2927.7058508891614,2927.7058508891614,-2540.4637224873686,5773.7229476627526,0.0
415012.02908761695,3817225.878295721,-47500.0,-2051.3614991851705,-4.6876898676035355,3549.5030276066705,323.66470972062825,1610.146261558275,557.21221199846332,3176.615451515444,2127.5808429185308,-2651.7448637166217,2651.7448637166217,-2127.5808429185308,5626.3778487369773,0.0
420012.02908761695,3817225.878295721,-47500.0,-1687.5032615896491,-450.24395858925254,3560.1030287421349,31.611622591454861,1732.9860962576809,659.90183450715938,3069.2076864527926,1713.5516217544703,-2325.9711377908388,2325.9711377908388,-1713.5516217544703,5509.1109895817799,0.0
290012.02908761695,3822225.878295721,-47500.0,-3752.5756941938566,-3043.8527980699682,-1175.178923176961,-3032.2744078785231,-2414.0367656798276,-1984.0061204502977,4585.0673443774476,-2589.7907908288671,-2005.6334891299891,2005.6334891299891,2589.7907908288671,8835.9725715325949,0.0
295012.02908761695,3822225.878295721,-47500.0,-3639.7542125430987,-3404.7004243776969,-1867.948699189707,-3250.4668535124474,-3012.7593882796946,-2343.0371271068639,5071.8845799280325,-3264.7696562211886,-1651.5182589720098,1651.5182589720098,3264.7696562211886,9809.4829694128621,0.0
300012.02908761695,3822225.878295721,-47500.0,-3419.7678302781455,-3703.1877307110931,-2672.6971544501703,-3415.2400161252358,-3681.0647199347295,-2734.7325652811196,5588.4912095474301,-3961.2185063872812,-1190.8253424925649,1190.8253424925649,3961.2185063872812,10830.453442840035,0.0
305012.02908761695,3822225.878295721,-47500.0,-3088.2921980778915,-3904.1085957394521,-3577.7870548898027,-3504.34842439766,-4407.1679401274023,-3151.3903305403087,6124.0543850123313,-4644.4658008425849,-628.91270741695962,628.91270741695962,4644.4658008425849,11876.432694880494,0.0
310012.02908761695,3822225.878295721,-47500.0,-2650.4816055932611,-3969.4826190059184,-4558.9562834345015,-3494.6902010390172,-5170.951610821784,-3581.0719496698603,6662.5045936882625,-5269.6521226866353,17.433672291844232,-17.433672291844232,5269.6521226866353,12917.331115722089,0.0
315012.02908761695,3822225.878295721,-47500.0,-2123.6722779944912,-3862.3000243649408,-5577.112455982332,-3364.6879227018449,-5942.921808812619,-4007.2379539949316,7182.9995051624192,-5783.3192945313649,717.8134860283626,-717.8134860283626,5783.3192945313649,13915.448433252395,0.0
320012.02908761695,3822225.878295721,-47500.0,-1539.0811411778695,-3551.7951463927693,-6577.5426430502457,-3097.464562156596,-6684.123630159811,-4408.8845065548221,7661.0321276274444,-6127.1457603767358,1427.4326864084328,-1427.4326864084328,6127.1457603767358,14826.449488142163,0.0
325012.02908761695,3822225.878295721,-47500.0,-941.61429129594262,-3019.85705374384,-7491.4508624722539,-2684.5451143633431,-7347.521803521734,-4761.4053069831143,8069.9867686278412,-6244.1003535772261,2088.6232668333678,-2088.6232668333678,6244.1003535772261,15601.581422145056,0.0
330012.02908761695,3822225.878295721,-47500.0,-386.95535422168859,-2267.6322786641626,-8240.5858246155003,-2129.5128941557036,-7881.2242548459417,-5038.3204203667401,8383.226487187012,-6086.7403187211448,2635.3882134532187,-2635.3882134532187,6086.7403187211448,16191.251877171551,0.0
335012.02908761695,3822225.878295721,-47500.0,64.49763498510417,-1320.8365694128706,-8745.2794341266508,-1450.7896403105653,-8233.6567849382991,-5213.8867542156368,8576.8168298189903,-5626.6464105518953,3001.1866860303944,-3001.1866860303944,5626.6464105518953,16549.913463240257,0.0
340012.02908761695,3822225.878295721,-47500.0,356.50560903142161,-231.95902882215574,-8935.3222108717928,-682.55869838170565,-8360.2699203510656,-5266.3562148409092,8632.731171041878,-4863.1381601406183,3129.2711541073832,-3129.2711541073832,4863.1381601406183,16641.79644537529,0.0
345012.02908761695,3822225.878295721,-47500.0,447.28533181352191,922.25383267324491,-8762.0246259764554,126.99260812459599,-8230.766425917267,-5181.3871896006276,8542.1236005365972,-3828.8771070798207,2983.7995792387123,-2983.7995792387123,3828.8771070798207,16446.693892347819,0.0
350012.02908761695,3822225.878295721,-47500.0,318.88911716346104,2048.7549888084659,-8208.8472514962614,920.43295992174319,-7835.3414987177348,-4954.91778300036,8307.9907213026927,-2590.0732801448758,2559.0563932942841,-2559.0563932942841,2590.0732801448758,15964.748748664366,0.0
355012.02908761695,3822225.878295721,-47500.0,-17.065750755196788,3050.7791550895372,-7297.5855594185832,1638.3425490614441,-7188.2179816336884,-4594.7182595110216,7946.2357527891409,-1240.0284705264744,1883.9137079044895,-1883.9137079044895,1240.0284705264744,15219.029993600498,0.0
360012.02908761695,3822225.878295721,-47500.0,-519.45322672858299,3842.6042956884598,-6087.9155990942199,2227.7080525919678,-6327.3100680154439,-4120.139846172654,7484.3004818133322,113.38385472563857,1019.5954388243009,-1019.5954388243009,-113.38385472563857,14255.239748308319,0.0
365012.02908761695,3822225.878295721,-47500.0,-1124.0496161859799,4362.9213256187231,-4669.6340171831498,2649.5299018332908,-5309.6242282738112,-3559.8876102146965,6957.192739777779,1363.7546394456281,50.609349565109483,-50.609349565109483,-1363.7546394456281,13138.097586862517,0.0
370012.02908761695,3822225.878295721,-47500.0,-1754.8495448741273,4583.4319223933253,-3149.2818975505452,2883.8279769089631,-4203.3857394396073,-2948.2951673662569,6402.4851311939119,2421.7995538825262,-929.07087526977648,929.07087526977648,-2421.7995538825262,11944.993337766953,0.0
375012.02908761695,3822225.878295721,-47500.0,-2337.2669364984822,4510.6784024740109,-1634.4131937992684,2930.9582072461626,-3078.694220800629,-2320.9096769970233,5855.9890133812751,3226.8706364874297,-1831.023769270927,1831.023769270927,-3226.8706364874297,10757.697499352951,0.0
380012.02908761695,3822225.878295721,-47500.0,-2809.7807156393837,4181.224059766756,-219.30504892738475,2809.2545275440484,-1998.8392583210573,-1710.3456037743674,5348.3194242680529,3751.9704334767266,-2584.8628689076568,2584.8628689076568,-3751.9704334767266,9653.0292601818728,0.0
385012.02908761695,3822225.878295721,-47500.0,-3131.4405073237376,3652.1984494458939,1024.9351868872197,2550.01560578097,-1013.9917076694018,-1143.1897357135756,4901.8908096038049,4002.0548308045195,-3145.6147883154886,3145.6147883154886,-4002.0548308045195,8693.2513895763241,0.0
390012.02908761695,3822225.878295721,-47500.0,-3284.2656814775373,2990.1220930118907,2054.6144135397935,2191.359083764778,-158.06766070377154,-638.33864193531087,4528.6372484857002,4007.2681068859697,-3495.287278692213,3495.287278692213,-4007.2681068859697,7917.1897675060573,0.0
395012.02908761695,3822225.878295721,-47500.0,-3271.1545807574907,2260.7155207825958,2852.5054347368414,1772.4033248364042,551.37078590187764,-206.74020325436689,4229.4011578229838,3813.6843344978179,-3639.6063386229425,3639.6063386229425,-3813.6843344978179,7334.3840596210757,0.0
400012.02908761695,3822225.878295721,-47500.0,-3110.8971724352864,1521.427310114927,3423.2773127184232,1328.7690981561796,1110.9647823467758,147.78361043963562,3995.6310042036339,3474.0347945748499,-3601.8418750355704,3601.8418750355704,-3474.0347945748499,6925.7116018333782,0.0
405012.02908761695,3822225.878295721,-47500.0,-2832.0945229955432,817.25174418051233,3787.2084158472567,889.79959860073325,1528.1854562269186,427.07796676423101,3812.9884848385891,3040.1328242616369,-3415.7392374915348,3415.7392374915348,-3040.1328242616369,6651.9854372582768,0.0
410012.02908761695,3822225.878295721,-47500.0,-2467.4318131794762,179.50132670635423,3973.7989545655823,477.40891629196835,1817.6626913804459,636.97760105204281,3665.4981714877558,2557.7550499628528,-3119.092179804848,3119.092179804848,-2557.7550499628528,6467.0477930607494,0.0
415012.02908761695,3822225.878295721,-47500.0,-2049.1577067354251,-373.2831557969908,4016.327200817122,106.18559580216262,1997.8636315238712,785.71890859902601,3538.802807251107,2063.9570352484211,-2748.8043757062628,2748.8043757062628,-2063.9570352484211,6329.1354558741386,0.0
420012.02908761695,3822225.878295721,-47500.0,-1606.0638405601744,-833.19400459182577,3947.8128930900275,-215.70834482441654,2088.4582106592588,882.61912733475037,3421.8665250041945,1586.346956633598,-2337.6764217576219,2337.6764217576219,-1586.346956633598,6206.8068574269591,0.0
425012.02908761695,3822225.878295721,-47500.0,-1161.8655856402092,-1200.3554525931818,3798.4165722517769,-485.25640411882125,2108.4623400974779,937.08943463911862,3307.3072383424587,1143.6805487624847,-1912.7472381097432,1912.7472381097432,-1143.6805487624847,6079.8374497597815,0.0
290012.02908761695,3827225.878295721,-47500.0,-4215.476860203652,-2989.0630642320907,-651.66172310652121,-3296.945915928281,-2308.1683256641641,-2109.7224852523191,4818.0690257711085,-2197.7774457882274,-2532.7246526662661,2532.7246526662661,2197.7774457882274,9220.9779679221228,0.0
295012.02908761695,3827225.878295721,-47500.0,-4156.566906015124,-3430.7054752805038,-1344.5741155555843,-3588.1383915748634,-2967.60333371254,-2530.9554444998216,5362.8504498977982,-2931.2655180276342,-2208.4519242887845,2208.4519242887845,2931.2655180276342,10311.748083228244,0.0
300012.02908761695,3827225.878295721,-47500.0,-3973.7826252657055,-3819.655710655793,-2173.6341032949927,-3827.1019931439041,-3718.9905767797832,-2998.5681924938567,5949.9346275278021,-3709.1396801786595,-1756.1918189503413,1756.1918189503413,3709.1396801786595,11473.367336724912,0.0
305012.02908761695,3827225.878295721,-47500.0,-3656.4137592989987,-4114.6413771772177,-3132.0116563878141,-3985.9760288468765,-4552.2119398095556,-3504.8547159769078,6568.7310238527689,-4495.1241980284512,-1175.8335569069602,1175.8335569069602,4495.1241980284512,12682.319431354559,0.0
310012.02908761695,3827225.878295721,-47500.0,-3204.2952779949824,-4268.8080759570757,-4198.2985446079747,-4034.3787532819129,-5446.7487392404264,-4036.477010493998,7201.8498510673471,-5239.2705362159777,-480.48332962981067,480.48332962981067,5239.2705362159777,13905.085256751956,0.0
315012.02908761695,3827225.878295721,-47500.0,-2631.9397770678247,-4233.7979924931324,-5332.8554620073492,-3942.2197095042934,-6369.6930586554035,-4573.637362743214,7825.1352363448659,-5878.8706906374264,299.87443920276792,-299.87443920276792,5878.8706906374264,15097.6212566413,0.0
320012.02908761695,3827225.878295721,-47500.0,-1971.781542713059,-3966.1267550069738,-6475.5723044867145,-3683.8032660419954,-7274.8304918456988,-5089.8605624639576,8408.7392689763092,-6342.1372162533407,1116.1406101560119,-1116.1406101560119,6342.1372162533407,16206.003590951384,0.0
325012.02908761695,3827225.878295721,-47500.0,-1275.2464037480438,-3435.6113198893077,-7546.3876153591382,-3242.9992950689239,-8103.6062928714991,-5552.7732712346196,8918.9343785451947,-6555.3224345425015,1900.6357247790193,-1900.6357247790193,6555.3224345425015,17168.756120717488,0.0
330012.02908761695,3827225.878295721,-47500.0,-610.2471014946999,-2634.7897855278716,-8449.9081631609533,-2618.7857401634278,-8788.7142887603532,-5926.1950861125733,9320.7294927090898,-6453.2879943156076,2571.7221904674789,-2571.7221904674789,6453.2879943156076,17921.197576192095,0.0
335012.02908761695,3827225.878295721,-47500.0,-54.092787122416667,-1587.3478075647054,-9084.9947959481742,-1829.9722070282269,-9260.7221539716447,-6173.688592551629,9581.4785606881487,-5992.4650990443624,3043.2636467872162,-3043.2636467872162,5992.4650990443624,18401.88882488968,0.0
340012.02908761695,3827225.878295721,-47500.0,318.15790515070063,-352.81510682638316,-9358.9709746878325,-917.54156383006398,-9457.383266917459,-6263.3313934390071,9675.3406397650833,-5163.748115032131,3238.4111869045241,-3238.4111869045241,5163.748115032131,18560.664923857606,0.0
345012.02908761695,3827225.878295721,-47500.0,448.23549822273515,975.21077640125361,-9204.4488196687034,56.888699782718902,-9334.307683679539,-6173.0172956631077,9588.0585834911399,-4001.7692197406896,3105.4665998668497,-3105.4665998668497,4001.7692197406896,18367.176076947264,0.0
350012.02908761695,3827225.878295721,-47500.0,308.70347035125258,2278.9366955975297,-8595.0100361549539,1017.2993449974159,-8874.688927473866,-5895.1677795598944,9321.094999425266,-2586.7809514371702,2631.894684020147,-2631.894684020147,2586.7809514371702,17818.313679718864,0.0
355012.02908761695,3827225.878295721,-47500.0,-87.848284901620843,3433.6085061946856,-7555.0382884603905,1883.6766752750923,-8095.2665459494192,-5439.5092231266499,8893.7440624772098,-1036.7112544946815,1851.8683802735775,-1851.8683802735775,1036.7112544946815,16942.581539095165,0.0
360012.02908761695,3827225.878295721,-47500.0,-688.14472235437665,4328.5668059439495,-6159.8838868980138,2584.5319825628521,-7046.3273949891782,-4832.9240119908081,8341.8634583144394,510.15706523687879,843.89837671131374,-843.89837671131374,-510.15706523687879,15800.033273270732,0.0
365012.02908761695,3827225.878295721,-47500.0,-1407.3034741474305,4886.5485447685096,-4525.136677814482,3068.376817444464,-5805.0438926109628,-4116.0736321795366,7712.6558181243454,1918.0472331754513,-281.95651195047697,281.95651195047697,-1918.0472331754513,14477.16508240367,0.0
370012.02908761695,3827225.878295721,-47500.0,-2145.431683839623,5075.7558141644795,-2787.4362139617742,3311.080587067428,-4463.6037052962165,-3337.5182973555138,7057.0962090474432,3075.9653830106495,-1404.1248533283701,1404.1248533283701,-3075.9653830106495,13077.417353425941,0.0
375012.02908761695,3827225.878295721,-47500.0,-2806.8149578553739,4911.5576286029582,-1082.0758735364211,3317.3161076033775,-3115.2030119748988,-2546.7848735905709,6422.7508159209774,3913.377625566754,-2411.054832170124,2411.054832170124,-3913.377625566754,11708.598524686053,0.0
380012.02908761695,3827225.878295721,-47500.0,-3316.1602671882652,4448.3057572121506,476.59535588375883,3116.2827790125057,-1841.4616880577528,-1788.0666501731919,5848.1956992564101,4405.8077404433789,-3218.3081979425433,3218.3081979425433,-4405.8077404433789,10468.679501789889,0.0
385012.02908761695,3827225.878295721,-47500.0,-3628.0185351506584,3764.8112092717338,1807.6184425565855,2753.5955802898961,-703.92657409278706,-1095.8303744111608,5358.7570132124565,4570.5126126196838,-3777.4623270533689,3777.4623270533689,-4570.5126126196838,9431.2716365648103,0.0
390012.02908761695,3827225.878295721,-47500.0,-3728.3675842219236,2948.2478523100772,2867.3043341046432,2281.9626637367342,259.32765570760682,-492.8458227293421,4964.0330638284286,4455.3281846286245,-4076.2818389380932,4076.2818389380932,-4455.3281846286245,8633.1546140993669,0.0
395012.02908761695,3827225.878295721,-47500.0,-3629.9002011565776,2080.5278668079745,3645.8610967385139,1752.9571139222332,1032.5783126127021,9.5801141443788183,4658.5164422198723,4124.9453468849524,-4132.2812594814686,4132.2812594814686,-4124.9453468849524,8068.8008938982412,0.0
400012.02908761695,3827225.878295721,-47500.0,-3363.8472065468309,1229.3299917828365,4159.5857083979681,1211.2253037666142,1618.343777908083,409.84223658431063,4425.7355369558754,3648.2812699902966,-3982.9676502243551,3982.9676502243551,-3648.2812699902966,7696.9956552973963,0.0
405012.02908761695,3827225.878295721,-47500.0,-2971.1354809460136,444.07253815262067,4441.5770836779457,691.44964174697031,2031.9921807566741,713.53638317973252,4244.4063711729123,3089.1069662482987,-3675.8103587497499,3675.8103587497499,-3089.1069662482987,7458.1892329774846,0.0
410012.02908761695,3827225.878295721,-47500.0,-2494.8269788634548,-244.14288143086117,4533.1728156422614,217.65216472046643,2296.4308571125512,930.87293738888445,4094.0572649680716,2500.5292989372365,-3259.9380731046595,3259.9380731046595,-2500.5292989372365,7293.42864494489,0.0
415012.02908761695,3827225.878295721,-47500.0,-1974.7425726725889,-820.07757241552565,4477.2874916126757,-195.90114410480925,2437.6910513880698,1074.4229014171701,3958.4158561906643,1922.846005343029,-2780.400459252618,2780.400459252618,-1922.846005343029,7156.2924174594827,0.0
420012.02908761695,3827225.878295721,-47500.0,-1444.3527796531293,-1280.7576552211076,4313.9631012189475,-542.94114265905534,2481.7183275876432,1157.3857922509039,3826.4348069571693,1383.808962914632,-2274.9629428730141,2274.9629428730141,-1383.808962914632,7016.2501511716173,0.0
425012.02908761695,3827225.878295721,-47500.0,-929.54029780435712,-1631.7326342104586,4077.8973851632963,-823.16855141831707,2452.337040739209,1192.4043947510957,3691.7814021463205,900.28697190793832,-1772.9292042861782,1772.9292042861782,-900.28697190793832,6856.6697497628211,0.0
430012.02908761695,3827225.878295721,-47500.0,-448.67315455647554,-1883.7772440509013,3797.4764364929106,-1040.3369892078665,2370.1788230581628,1190.8559809385624,3551.6958798871697,480.51755516794088,-1295.345319338538,1295.345319338538,-480.51755516794088,6670.9933590346645,0.0
285012.02908761695,3832225.878295721,-47500.0,-4557.136480088323,-2306.6842440747582,484.81142269766622,-3139.3684864174256,-1521.7721348359678,-1783.0296099156403,4493.7421464098861,-985.13755696274347,-3250.2997696531529,3250.2997696531529,985.13755696274347,8462.0716519411671,0.0
290012.02908761695,3832225.878295721,-47500.0,-4688.8467770377811,-2833.2065868439936,-34.383980481423436,-3536.8827793995401,-2120.1816550606518,-2206.7249235793747,5036.7611148604692,-1670.7462936536631,-3112.3416713663319,3112.3416713663319,1670.7462936536631,9558.6253104050611,0.0
295012.02908761695,3832225.878295721,-47500.0,-4706.2074365359867,-3358.800600076474,-703.24494920708548,-3915.1454054174715,-2834.7879197050893,-2696.0394004143022,5640.6264255350197,-2449.2748501797141,-2842.1439183134098,2842.1439183134098,2449.2748501797141,10768.270040522279,0.0
300012.02908761695,3832225.878295721,-47500.0,-4584.1515236928417,-3847.3547189984843,-1532.7867486181535,-4246.5527533437526,-3667.9904235438089,-3249.7018297682189,6302.3433860557207,-3300.0376665392641,-2422.536136618176,2422.536136618176,3300.0376665392641,12078.41865849386,0.0
305012.02908761695,3832225.878295721,-47500.0,-4303.3352496372872,-4251.9531524457743,-2523.3247322925836,-4497.0410657911189,-4613.1690042244563,-3860.9394150617809,7012.5064447270115,-4187.0449644082992,-1845.4606884080886,1845.4606884080886,4187.0449644082992,13465.812969760182,0.0
310012.02908761695,3832225.878295721,-47500.0,-3855.4462629909226,-4516.313780098174,-3659.0535889607058,-4627.5030676303877,-5651.1236290070074,-4515.6780309561082,7753.1497424047429,-5056.6425238333577,-1117.4299237747371,1117.4299237747371,5056.6425238333577,14894.37343317595,0.0
315012.02908761695,3832225.878295721,-47500.0,-3249.1720034992118,-4578.8455108216931,-4902.5017715032382,-4596.8870287560148,-6746.6899458006765,-5190.9534314097464,8496.9937093627632,-5837.1680499177,-265.15273238321743,265.15273238321743,5837.1680499177,16313.757224302455,0.0
320012.02908761695,3832225.878295721,-47500.0,-2515.6909470272844,-4379.9855755321141,-6190.1419755555307,-4367.2892356117773,-7846.4072957245407,-5853.9972402904532,9208.227843805229,-6441.9955550244204,660.00957040076355,-660.00957040076355,6441.9955550244204,17659.281563958004,0.0
325012.02908761695,3832225.878295721,-47500.0,-1711.9082147990575,-3872.9140409813099,-7431.0326889483958,-3910.9798628105736,-8878.4656916651093,-6462.6230957920243,9844.4640697548639,-6777.2687226647677,1580.6836990650381,-1580.6836990650381,6777.2687226647677,18854.041634841924,0.0
330012.02908761695,3832225.878295721,-47500.0,-919.22075351675073,-3036.6445277909879,-8510.6608479044917,-3218.6209681583241,-9756.253992063057,-6967.5421692481668,10359.901156797079,-6754.9260526310663,2397.4123882761137,-2397.4123882761137,6754.9260526310663,19813.94341374221,0.0
335012.02908761695,3832225.878295721,-47500.0,-235.80410092000716,-1888.9904610147894,-9301.7858383488729,-2307.0614538692835,-10386.512827093682,-7317.0391314035887,10710.021609562627,-6310.1542453416596,2999.5836357236449,-2999.5836357236449,6310.1542453416596,20456.025166656505,0.0
340012.02908761695,3832225.878295721,-47500.0,238.31523797595361,-495.42363820305997,-9682.6207812362936,-1224.2819344136165,-10682.095369460936,-7463.9104454124008,10857.793940689664,-5420.238277804292,3283.4636992872697,-3283.4636992872697,5420.238277804292,20709.668773791673,0.0
345012.02908761695,3832225.878295721,-47500.0,421.66430349618486,1030.741324696809,-9560.1312621230136,-48.821007301575747,-10577.715360286044,-7373.7493675330588,10780.704533469048,-4119.6230592823322,3174.7139264897241,-3174.7139264897241,4119.6230592823322,20529.274503496374,0.0
350012.02908761695,3832225.878295721,-47500.0,272.42907503982292,2540.1522963998978,-8893.1474783878984,1118.1493276009376,-10045.190124617175,-7032.7635870882214,10477.193469278724,-2505.0193481552465,2649.7164320325087,-2649.7164320325087,2505.0193481552465,19905.847370749107,0.0
355012.02908761695,3832225.878295721,-47500.0,-196.67496961313969,3871.0012402136954,-7708.0101000679479,2167.8030979438186,-9103.5601034578085,-6452.8043517645528,9970.5145615753936,-725.99538903081475,1748.2967169342423,-1748.2967169342423,725.99538903081475,18874.424710988584,0.0
360012.02908761695,3832225.878295721,-47500.0,-916.19409302453539,4879.3663212568936,-6100.1653477671452,3002.6102454113156,-7820.0200637776024,-5671.6269437959845,9307.8694606048466,1039.082346344956,571.69227914984833,-571.69227914984833,-1039.082346344956,17514.721399673581,0.0
365012.02908761695,3832225.878295721,-47500.0,-1772.8971837112983,5467.4600784588529,-4219.2169028203934,3553.978259303,-6300.1361390990005,-4747.674348737698,8553.5037951172271,2616.0407737322084,-735.65500682496236,735.65500682496236,-2616.0407737322084,15943.754669332684,0.0
370012.02908761695,3832225.878295721,-47500.0,-2634.4915581004093,5600.7723853298494,-2241.0988520002788,3793.2553122130848,-4669.6638202743761,-3750.5945384066349,7777.2907782175453,3866.9641399533984,-2015.549912005682,2015.549912005682,-3866.9641399533984,14301.367157248545,0.0
375012.02908761695,3832225.878295721,-47500.0,-3377.8835731671534,5309.0660415557859,-335.90054556613865,3733.0514788150417,-3053.229663144883,-2750.1211050042111,7042.8632181558314,4711.5838728244416,-3127.265275952675,3127.265275952675,-4711.5838728244416,12730.683585028166,0.0
380012.02908761695,3832225.878295721,-47500.0,-3911.9104697551893,4672.5342224940468,1359.0245429277834,3419.5076544831149,-1555.9545616273131,-1806.3688723816713,6398.4173767423144,5132.8387456813471,-3970.9534495632852,3970.9534495632852,-5132.8387456813471,11355.95430476133,0.0
385012.02908761695,3832225.878295721,-47500.0,-4188.7265449903389,3799.4223415043962,2754.2630090380649,2919.0677782615057,-252.18502771590752,-963.64499651213032,5870.7070824382299,5167.7247448100325,-4497.7910560374467,4497.7910560374467,-5167.7247448100325,10260.362555677182,0.0
390012.02908761695,3832225.878295721,-47500.0,-4203.1584119065519,2802.963797092501,3810.5885933318568,2304.3287262600143,817.54540795684545,-248.4083102554541,5463.13282680884,4889.2081973965433,-4707.0352425379388,4707.0352425379388,-4889.2081973965433,9469.5604390358603,0.0
395012.02908761695,3832225.878295721,-47500.0,-3983.4412987718088,1783.5601014663455,4531.3095287476181,1642.5676575360944,1642.9142383818114,329.3297400151082,5159.4287166695676,4386.1867453176419,-4634.3029331942325,4634.3029331942325,-4386.1867453176419,8950.6229914873002,0.0
400012.02908761695,3832225.878295721,-47500.0,-3578.2512013446394,818.6737840047382,4949.6014939934867,988.62420047646526,2236.4440230324708,772.53846001801355,4932.129337730008,3746.7570120407031,-4336.5935985604337,4336.5935985604337,-3746.7570120407031,8631.2576289861263,0.0
405012.02908761695,3832225.878295721,-47500.0,-3044.2373873984743,-40.083409423772082,5115.2658564369904,382.08071199733604,2625.1468674534694,1093.0014005948888,4752.0235210669271,3047.2354270877217,-3878.4952889044266,3878.4952889044266,-3047.2354270877217,8429.3172879872709,0.0
410012.02908761695,3832225.878295721,-47500.0,-2436.4683865187235,-764.80301713383892,5083.7125458805504,-152.33431381609765,2843.0826488200551,1307.431544894037,4594.7680755558385,2346.9362038842601,-3321.9458000024924,3321.9458000024924,-2346.9362038842601,8275.7989411322997,0.0
415012.02908761695,3832225.878295721,-47500.0,-1802.501914912172,-1346.487130044959,4908.2717607058312,-602.4603829556853,2925.7342067924719,1434.3797399515327,4443.4849513947374,1687.3674477784798,-2720.0878929748023,2720.0878929748023,-1687.3674477784798,8123.892308002416,0.0
420012.02908761695,3832225.878295721,-47500.0,-1179.6703719045224,-1789.529107838619,4635.7370580901652,-965.6770757068748,2906.3379456345956,1492.0734186710638,4288.4246199920162,1094.1428870327147,-2114.61983311735,2114.61983311735,-1094.1428870327147,7947.649995961704,0.0
425012.02908761695,3832225.878295721,-47500.0,-594.69816163493931,-2106.6585642204655,4304.4525591256652,-1245.9008997020617,2813.8836350533434,1497.0992167015747,4125.3137258717088,580.14191971807429,-1535.6061718458827,1535.6061718458827,-580.14191971807429,7736.5318348786432,0.0
430012.02908761695,3832225.878295721,-47500.0,-64.729926021048499,-2314.9001963278783,3944.1131131966481,-1451.0186118251763,2672.3410781507532,1463.745476785929,3953.5082424102911,148.90487989692389,-1002.7301146666446,1002.7301146666446,-148.90487989692389,7489.7607369857569,0.0
435012.02908761695,3832225.878295721,-47500.0,400.97151802645675,-2432.6630480856934,3576.5520798121929,-1590.9049272241555,2500.6823125629517,1403.8063632493115,3774.4609841996576,-202.30987096255953,-527.19520105104448,527.19520105104448,202.30987096255953,7211.9433479522004,0.0
280012.02908761695,3837225.878295721,-47500.0,-4592.0092945167671,-1427.7521868423792,1432.7516366302286,-2778.4650568111165,-723.21608860623962,-1385.6133776441561,4138.3284326451303,247.2210946151381,-3705.0520752905804,3705.0520752905804,-247.2210946151381,7622.6706522561162,0.0
285012.02908761695,3837225.878295721,-47500.0,-4912.7484981261341,-1966.2040389032638,1120.8606791277423,-3244.8887515526462,-1215.7488362201921,-1782.4046766919812,4650.8177785989374,-312.71878592000417,-3772.9842945011605,3772.9842945011605,312.71878592000417,8656.5663303204456,0.0
290012.02908761695,3837225.878295721,-47500.0,-5149.7404736419976,-2550.9814208254552,670.04274004719537,-3728.5803924313041,-1834.0068426280668,-2258.2870766105207,5235.5072231528575,-994.69905415523522,-3728.5084540340968,3728.5084540340968,994.69905415523522,9834.7823875983195,0.0
295012.02908761695,3837225.878295721,-47500.0,-5269.3892420165657,-3158.1147087751747,55.810724500441552,-4207.5677538866694,-2592.4491469980362,-2819.3956416914875,5896.5766270792947,-1796.2961756859561,-3542.1812773155716,3542.1812773155716,1796.2961756859561,11158.308114490661,0.0
300012.02908761695,3837225.878295721,-47500.0,-5237.3995684569281,-3750.7589613808177,-741.75435507988914,-4650.9381498023467,-3500.0408640193023,-3467.8251249753425,6634.262270838396,-2702.1614789378664,-3187.2311683746075,3187.2311683746075,2702.1614789378664,12618.872938873827,0.0
305012.02908761695,3837225.878295721,-47500.0,-5023.3818694815864,-4277.6241243650147,-1732.6593887271902,-5018.2828117078507,-4556.143238337655,-4199.2611026463164,7441.754258562657,-3679.3089565743858,-2644.8769704930201,2644.8769704930201,3679.3089565743858,14195.60114813867,0.0
310012.02908761695,3837225.878295721,-47500.0,-4607.4279730719372,-4673.2729606341336,-2910.1028061336606,-5260.5562940440868,-5745.5272919057888,-5000.2431665118966,8301.8381453636266,-4672.8712694374854,-1911.3445578148715,1911.3445578148715,4672.8712694374854,15851.624562189416,0.0
315012.02908761695,3837225.878295721,-47500.0,-3988.2582295453549,-4861.5399644551117,-4242.6351780687246,-5323.1043609086391,-7033.0402286901099,-5845.3862377121513,9184.8490670837546,-5603.7349940701333,-1005.920667855969,1005.920667855969,5603.7349940701333,17531.178473776356,0.0
320012.02908761695,3837225.878295721,-47500.0,-3191.7815788256216,-4763.3821511126989,-5666.8151928277812,-5151.6226773081753,-8359.0492186140946,-6695.22579523074,10048.732924796928,-6370.0484169057036,21.448470407197874,-21.448470407197874,6370.0484169057036,19158.208665369584,0.0
325012.02908761695,3837225.878295721,-47500.0,-2277.7589251956988,-4309.9004026434632,-7082.7902425641005,-4701.3486942304735,-9637.3792186914852,-7495.6161133293508,10840.866326277926,-6854.7948569685432,1085.5948641622817,-1085.5948641622817,6854.7948569685432,20637.669201948589,0.0
330012.02908761695,3837225.878295721,-47500.0,-1341.280725753584,-3459.9451736002875,-8356.0776085330581,-3948.9180400862306,-10757.960191349217,-8179.8474356871393,11501.676004386412,-6941.0996333517214,2067.9953433615851,-2067.9953433615851,6941.0996333517214,21860.89794185547,0.0
335012.02908761695,3837225.878295721,-47500.0,-505.45246997087582,-2219.4467018148212,-9328.8355605237757,-2904.8680489198,-11596.239739390354,-8674.4878353343775,11970.592594733636,-6535.1036328258306,2828.3872578447663,-2828.3872578447663,6535.1036328258306,22716.021523719377,0.0
340012.02908761695,3837225.878295721,-47500.0,97.011051193890097,-656.94228396634674,-9842.3626634195753,-1623.175559282399,-12030.262160838982,-8909.3012179525795,12194.601001551009,-5593.0371786396927,3227.6283112840838,-3227.6283112840838,5593.0371786396927,23103.42282546591,0.0
345012.02908761695,3837225.878295721,-47500.0,352.07337965321375,1092.0600692547805,-9768.865790225098,-203.19884696514742,-11963.730921371623,-8830.1798490724941,12138.580063178277,-4145.2047788899681,3159.2770585834578,-3159.2770585834578,4145.2047788899681,22954.485079004196,0.0
350012.02908761695,3837225.878295721,-47500.0,196.12175925013912,2838.2854919195179,-9045.4384642665264,1219.8352119941626,-11350.038398469127,-8412.3074667861511,11795.422647122365,-2307.0211181779155,2582.0283522307823,-2582.0283522307823,2307.0211181779155,22249.896052714972,0.0
355012.02908761695,3837225.878295721,-47500.0,-359.80575055965897,4370.7830835711011,-7698.9342789519933,2496.3912123998684,-10209.555006403383,-7669.4007270731299,11192.852098807007,-268.62436417567346,1541.1214058925639,-1541.1214058925639,268.62436417567346,21032.334893850362,0.0
360012.02908761695,3837225.878295721,-47500.0,-1224.6217827073544,5501.0189877678295,-5850.4578197080637,3491.7256086792227,-8632.6792591338508,-6655.0849009113281,10393.484686985026,1738.6232167642179,167.72990175575671,-167.72990175575671,-1738.6232167642179,19408.69349526396,0.0
365012.02908761695,3837225.878295721,-47500.0,-2245.8234599181542,6104.8167261049966,-3694.4880677044057,4113.5810018215952,-6765.3760591628561,-5454.7418080596453,9485.6664145475952,3490.2979654034471,-1347.1485586911569,1347.1485586911569,-3490.2979654034471,17539.3582291366,0.0
370012.02908761695,3837225.878295721,-47500.0,-3246.8875145781285,6146.9691568397448,-1458.0850168820898,4328.9445470536775,-4780.813256749334,-4169.8166741168343,8566.1531271652093,4815.5931618541781,-2796.5975170953629,2796.5975170953629,-4815.5931618541781,15615.570719721232,0.0
375012.02908761695,3837225.878295721,-47500.0,-4069.4681092775154,5680.3404185206919,645.67822041073373,4164.6132611958046,-2846.4447278085977,-2899.5907671398527,7720.5356522257571,5626.4739384953718,-4003.5638763137681,4003.5638763137681,-5626.4739384953718,13828.327103170697,0.0
380012.02908761695,3837225.878295721,-47500.0,-4605.1998180729925,4822.4406492457183,2454.488035675407,3693.1609749107861,-1096.9909486097893,-1725.9935357739987,7007.8759332483878,5921.6322393796463,-4852.7696346967414,4852.7696346967414,-5921.6322393796463,12332.842600921733,0.0
385012.02908761695,3837225.878295721,-47500.0,-4808.4802049737218,3720.9309336654987,3874.3827094944054,3011.2194652423964,380.03323942856338,-705.07349657637974,6452.5604887969293,5768.7119267495455,-5300.9869364095521,5300.9869364095521,-5768.7119267495455,11214.825986467442,0.0
390012.02908761695,3837225.878295721,-47500.0,-4690.8791894644992,2520.9245105118034,4877.9346711459648,2218.0665043104755,1545.5184019975457,134.38235591541178,6045.1100765248448,5275.460181895829,-5367.853027644469,5367.853027644469,-5275.460181895829,10472.05031177276,0.0
395012.02908761695,3837225.878295721,-47500.0,-4304.2546676860547,1342.5201778056398,5489.4453145113193,1400.0407259568979,2400.4420199942642,786.93713522588143,5752.5108791221191,4561.10872156811,-5115.6471960191639,5115.6471960191639,-4561.10872156811,10027.411296357124,0.0
400012.02908761695,3837225.878295721,-47500.0,-3720.8543950123922,270.68140298977249,5765.3140756966268,622.49325305262551,2973.2832647466107,1264.0286922141388,5533.4433972085062,3735.1000359693994,-4627.0162807805782,4627.0162807805782,-3735.1000359693994,9769.9820782384541,0.0
405012.02908761695,3837225.878295721,-47500.0,-3016.4367540760968,-644.85680160624213,5775.9527722805742,-71.779748884828464,3307.5121884652413,1587.2272346646214,5351.0145100112031,2885.3558715669355,-3986.7972671518241,3986.7972671518241,-2885.3558715669355,9597.1098346464223,0.0
410012.02908761695,3837225.878295721,-47500.0,-2258.9571075126414,-1383.7554099750459,5592.3898971807876,-659.95812994685389,3451.5915708987345,1782.5978857995481,5178.8621303627178,2074.6543547615329,-3270.2445099629886,3270.2445099629886,-2074.6543547615329,9435.9732026793044,0.0
415012.02908761695,3837225.878295721,-47500.0,-1502.8208490471809,-1947.0053555244949,5278.1483401709402,-1134.7182758060799,3452.2371546765053,1876.6650028900415,5001.5881454695336,1342.3492289930459,-2537.3369497380158,2537.3369497380158,-1342.3492289930459,9245.2879191099018,0.0
420012.02908761695,3837225.878295721,-47500.0,-787.37309165348597,-2349.0933857450259,4885.4931578801843,-1499.4622315629558,3350.6277156545625,1893.91527306535,4812.3928385029221,708.73285401691578,-1831.557715766721,1831.557715766721,-708.73285401691578,9007.7814656904211,0.0
425012.02908761695,3837225.878295721,-47500.0,-138.02021824456205,-2611.6151535570716,4454.6809058237432,-1764.1452972220864,3180.8261185648071,1855.5218614219775,4610.1436736213245,180.10603065939642,-1181.3620347524416,1181.3620347524416,-180.10603065939642,8721.3853313501095,0.0
430012.02908761695,3837225.878295721,-47500.0,431.36614630824312,-2758.6694799983015,4014.9423111558272,-1942.046853259696,2969.6338663135271,1778.9184548932712,4396.9156472240502,-246.56251978357329,-602.89161045898436,602.89161045898436,246.56251978357329,8392.2848354881626,0.0
435012.02908761695,3837225.878295721,-47500.0,915.68454384356608,-2813.8803516913349,3586.2579830079931,-2047.4982420274048,2737.246613178289,1677.899600265107,4176.2591088035524,-579.87090546211869,-102.98026584981281,102.98026584981281,579.87090546211869,8030.2836263660874,0.0
275012.02908761695,3842225.878295721,-47500.0,-4289.3442983393288,-453.65521471803163,2115.5524178030796,-2242.339590506931,17.515490029652689,-948.66081813894277,3798.3442517194017,1370.3613573418256,-3835.1590051888829,3835.1590051888829,-1370.3613573418256,6818.2641092501535,0.0
280012.02908761695,3842225.878295721,-47500.0,-4764.9310503185498,-932.07462116699492,2010.7166497355481,-2729.3073584334797,-339.73248217818923,-1291.6780780776819,4257.4371252112205,990.63349225205047,-4093.2090326187667,4093.2090326187667,-990.63349225205047,7729.1169740383421,0.0
285012.02908761695,3842225.878295721,-47500.0,-5201.5174086140833,-1489.5684093259699,1797.3845776313931,-3266.360999553377,-816.24599664922766,-1718.9448981116841,4791.473697789289,484.0577553145456,-4277.4945514775673,4277.4945514775673,-484.0577553145456,8797.8016515781983,0.0
290012.02908761695,3842225.878295721,-47500.0,-5565.1666725653467,-2117.42925476544,1445.0909397297257,-3841.137302566096,-1435.1786886545085,-2243.3215108382151,5410.2604989075189,-162.71213898990572,-4354.3676968779328,4354.3676968779328,162.71213898990572,10039.129325831787,0.0
295012.02908761695,3842225.878295721,-47500.0,-5815.5326409909176,-2795.6098653277018,921.81086105371151,-4432.1421312540851,-2218.7312844823214,-2876.0818464475528,6122.3346480625942,-955.35755701898097,-4286.4551853201719,4286.4551853201719,955.35755701898097,11461.864570757009,0.0
300012.02908761695,3842225.878295721,-47500.0,-5908.2537842488064,-3489.0534723785695,197.59295887985655,-5006.4529268471451,-3184.7358874517113,-3624.657350155569,6932.7657187401783,-1886.6456503292986,-4036.0751822377333,4036.0751822377333,1886.6456503292986,13065.018577050636,0.0
305012.02908761695,3842225.878295721,-47500.0,-5799.6739004219544,-4144.4757196513856,-749.63568342944359,-5517.9771720625677,-4341.655854425424,-4489.5020971007552,7839.3615363876042,-2930.1050099674785,-3571.0034738402983,3571.0034738402983,2930.1050099674785,14833.313801408463,0.0
310012.02908761695,3842225.878295721,-47500.0,-5454.4434757886029,-4688.8273841985156,-1925.8358510000655,-5907.1541406037613,-5681.9586170350103,-5460.1232992758378,8827.7922802379362,-4033.43400527412,-2872.9141533398988,2872.9141533398988,4033.43400527412,16732.119528459523,0.0
315012.02908761695,3842225.878295721,-47500.0,-4856.0318820329467,-5031.1950727673757,-3310.5140133666746,-6103.2905622329399,-7174.2817102352874,-6510.5956572914356,9867.6451873130627,-5113.2584835382777,-1948.177643884145,1948.177643884145,5113.2584835382777,18702.501369163565,0.0
320012.02908761695,3842225.878295721,-47500.0,-4019.1409432320029,-5070.2554145015001,-4845.6450984423755,-6030.8840907375643,-8755.5966759623479,-7595.3217965019876,10911.040053909199,-6053.8422512186044,-839.5473285161961,839.5473285161961,6053.8422512186044,20657.565887292032,0.0
325012.02908761695,3842225.878295721,-47500.0,-3001.3994280073734,-4709.1479456087482,-6426.7614474498077,-5621.031087082386,-10325.680307967352,-8646.4210056097836,11893.819361475445,-6713.1601583458505,364.37481119027734,-364.37481119027734,6713.1601583458505,22481.9560336451,0.0
330012.02908761695,3842225.878295721,-47500.0,-1909.7514255891247,-3878.1524044162006,-7900.7562716918601,-4827.9106475394146,-11747.262749401763,-9574.6657569273848,12739.28607174086,-6939.6431520924689,1526.7782408229091,-1526.7782408229091,6939.6431520924689,24036.709842587225,0.0
335012.02908761695,3842225.878295721,-47500.0,-895.60553443540584,-2562.491462213487,-9075.8795520018703,-3648.2370729905469,-12855.719927231186,-10276.10489178106,13365.450979769643,-6601.031980063115,2473.1465863954004,-2473.1465863954004,6601.031980063115,25171.654480330613,0.0
340012.02908761695,3842225.878295721,-47500.0,-133.54188829716915,-828.06947559266018,-9748.1740381440031,-2138.5889977026495,-13481.04560222669,-10645.784199148853,13696.591324948315,-5622.3004223112512,3018.8371201347813,-3018.8371201347813,5622.3004223112512,25746.27360125132,0.0
345012.02908761695,3842225.878295721,-47500.0,217.06720535510624,1166.2097783052941,-9743.7898896179504,-422.89596411127451,-13481.170305479729,-10597.821997558993,13678.422996115494,-4023.0362351026934,3012.4924157155237,-3012.4924157155237,4023.0362351026934,25657.30800056905,0.0
350012.02908761695,3842225.878295721,-47500.0,59.626676695166111,3181.3377150697729,-8968.4154721149534,1317.6928412996315,-12779.80989818908,-10087.758323907781,13294.072691920956,-1938.8850835022504,2385.0734185107267,-2385.0734185107267,1938.8850835022504,24867.775197051189,0.0
355012.02908761695,3842225.878295721,-47500.0,-600.00855473375282,4941.3072412382726,-7446.6506695935504,2875.6230637814647,-11396.156938795886,-9129.7954142978742,12575.957053806374,388.32619338221883,1185.7766189118952,-1185.7766189118952,-388.32619338221883,23428.779927001931,0.0
360012.02908761695,3842225.878295721,-47500.0,-1641.7595453373031,6197.5923421694015,-5332.090951472358,4062.2384228682108,-9452.5398253253679,-7800.9824549109126,11607.84649690066,2657.1652255733907,-414.82121457536027,414.82121457536027,-2657.1652255733907,21485.165160553337,0.0
365012.02908761695,3842225.878295721,-47500.0,-2858.2304524159017,6792.2508020262248,-2878.1566376783421,4752.2137850692689,-7152.9069971630079,-6228.31087813459,10512.570650746698,4577.6481452573735,-2162.4083494986262,2162.4083494986262,-4577.6481452573735,19259.738893916361,0.0
370012.02908761695,3842225.878295721,-47500.0,-4012.2380155587348,6693.6491437338618,-377.78440523560045,4909.6129119659035,-4737.8300804503451,-4562.0644616682639,9425.4650982709827,5939.9087353624327,-3785.3122637500023,3785.3122637500023,-5939.9087353624327,17017.011955876995,0.0
375012.02908761695,3842225.878295721,-47500.0,-4900.6451109882255,5991.1877257197957,1904.3415433329362,4586.1508230274967,-2432.8730358856396,-2945.1358558689467,8461.8105662081507,6653.6014913785639,-5062.3036338530164,5062.3036338530164,-6653.6014913785639,15012.08141012399,0.0
380012.02908761695,3842225.878295721,-47500.0,-5398.618448397373,4855.719196268984,3781.4924443121854,3895.6226173334499,-408.84874877311728,-1489.0133881998622,7691.1130862085511,6746.8367598279183,-5865.5683979137393,5865.5683979137393,-6746.8367598279183,13432.496606999754,0.0
385012.02908761695,3842225.878295721,-47500.0,-5471.7641347252184,3486.5029705121706,5163.2070531561694,2978.0220455300305,1235.673322332106,-262.52408624535406,7127.1742220445603,6333.3249614681527,-6168.2219174052816,6168.2219174052816,-6333.3249614681527,12348.777133916608,0.0
390012.02908761695,3842225.878295721,-47500.0,-5160.6148496358473,2065.7738219264638,6045.0821250545505,1967.487389455071,2470.5731835395227,707.01247675559591,6737.0185603143018,5567.3117758817425,-6023.4541740433815,6023.4541740433815,-5567.3117758817425,11703.517473340391,0.0
395012.02908761695,3842225.878295721,-47500.0,-4551.3956854662465,732.08198063742793,6482.5899970419132,972.03986534528792,3317.3415356349724,1424.7785408384382,6463.9153708235744,4603.9549863114817,-5531.0731238749677,5531.0731238749677,-4603.9549863114817,11356.899169511626,0.0
400012.02908761695,3842225.878295721,-47500.0,-3746.7327026264825,-427.31059153636284,6562.1670431407492,66.011179978838868,3828.5079369661548,1916.8445075841164,6251.4535981024264,3574.0943070599615,-4805.7499820690127,4805.7499820690127,-3574.0943070599615,11157.846819374518,0.0
405012.02908761695,3842225.878295721,-47500.0,-2844.0378785625508,-1371.0177852599329,6377.8406363351405,-708.32850566594016,4069.6956216889553,2219.6428964044339,6057.4938489601891,2573.730860139508,-3954.45444487031,3954.45444487031,-2573.730860139508,10991.759725686794,0.0
410012.02908761695,3842225.878295721,-47500.0,-1923.4580399888675,-2092.107428202356,6016.2422079310645,-1334.3668486927904,4106.9641807751068,2372.1775506608569,5857.0242180650657,1664.1294679012103,-3064.4103945238098,3064.4103945238098,-1664.1294679012103,10791.620623012084,0.0
415012.02908761695,3842225.878295721,-47500.0,-1043.7001225650806,-2605.8706050897049,5549.2301775720443,-1813.4634939498583,3999.470523108314,2411.1448640668282,5638.907874543901,877.59443748090541,-2199.368589891792,2199.368589891792,-877.59443748090541,10528.535481642,0.0
420012.02908761695,3842225.878295721,-47500.0,-242.90845373715328,-2939.5351551729559,5031.8940500161507,-2157.9993244007583,3796.2367337610162,2368.4139566248273,5401.1090261031086,225.09642905237638,-1401.0323870492066,1401.0323870492066,-225.09642905237638,10197.845863234126,0.0
425012.02908761695,3842225.878295721,-47500.0,457.93017591056076,-3124.8162725740658,4503.6919097253167,-2385.9779100621722,3535.5884344796741,2270.1344528960981,5146.6232567872548,-296.49584712823668,-692.94388474687526,692.94388474687526,296.49584712823668,9807.8430013263005,0.0
430012.02908761695,3842225.878295721,-47500.0,1050.8102807661189,-3193.1505431564324,3991.0152430981088,-2517.2710770138278,3246.0655002882854,2136.8302670772246,4880.6627182902002,-698.57130762245049,-85.019066083496114,85.019066083496114,698.57130762245049,9372.3283752769985,0.0
435012.02908761695,3842225.878295721,-47500.0,1536.7469554005529,-3173.0328258433383,3510.1110108090038,-2571.2563982123966,2947.9741958496747,1984.0051952097815,4608.9465004017002,-996.52362662368387,422.25237464801063,-422.25237464801063,996.52362662368387,8906.2757766756677,0.0
440012.02908761695,3842225.878295721,-47500.0,1922.4844031344028,-3088.819828585853,3069.788114373393,-2565.5030248734306,2655.0783064617153,1822.9539482008793,4336.7790968562422,-1206.9183885296961,834.36950187025957,-834.36950187025957,1206.9183885296961,8423.572124119255,0.0
275012.02908761695,3847225.878295721,-47500.0,-4238.6700085006169,141.17318561837217,2572.8507582777474,-2038.840504229936,430.00263385253601,-775.88320332520448,3911.9629553231944,2099.2896700496603,-4030.1138714315275,4030.1138714315275,-2099.2896700496603,6919.9690451193765,0.0
280012.02908761695,3847225.878295721,-47500.0,-4818.8430794471524,-313.27319842186932,2576.7934581183399,-2569.1117231058192,118.2878003536014,-1125.411486041191,4374.9820419453035,1812.1353623050704,-4405.1245568762042,4405.1245568762042,-1812.1353623050704,7820.4220173105896,0.0
285012.02908761695,3847225.878295721,-47500.0,-5381.5670878577566,-864.87848031975022,2484.5032801473744,-3170.9435357241268,-319.5946898396781,-1572.7170508890747,4919.8642517600056,1392.8805613023158,-4724.1255461021983,4724.1255461021983,-1392.8805613023158,8895.88863471681,0.0
290012.02908761695,3847225.878295721,-47500.0,-5890.6444925158112,-1511.5042486362286,2261.6272848575541,-3835.7999282224864,-913.54734854885328,-2136.3578196168387,5560.8059446619427,820.44697833781311,-4949.7090786734534,4949.7090786734534,-820.44697833781311,10170.838858714398,0.0
295012.02908761695,3847225.878295721,-47500.0,-6300.1046623901329,-2239.5758738450641,1869.3744991584576,-4544.8724908066788,-1694.7561192369303,-2834.528572146291,6311.9645188215418,79.526085656139003,-5037.3376636205712,5037.3376636205712,-79.526085656139003,11664.902435276172,0.0
300012.02908761695,3847225.878295721,-47500.0,-6555.6537970447316,-3019.0778738978734,1267.6135713408933,-5265.5128892106013,-2692.1994034597451,-3682.5032323495329,7185.1877127205416,-833.48625457475646,-4938.0618172231589,4938.0618172231589,833.48625457475646,13388.288385626149,0.0
305012.02908761695,3847225.878295721,-47500.0,-6598.8819413453748,-3798.3518892002144,420.61550553628291,-5947.8149360981361,-3926.9748526385947,-4688.7373468637761,8185.6101724007667,-1902.6410734579695,-4604.1403730899983,4604.1403730899983,1902.6410734579695,15335.875420693252,0.0
310012.02908761695,3847225.878295721,-47500.0,-6375.3165400066573,-4500.0019539068298,-693.83254525067287,-6522.3822342663543,-5404.0243220941047,-5849.4437708465048,9305.0307647732916,-3083.2256075458972,-3998.4236328385741,3998.4236328385741,3083.2256075458972,17480.073347592708,0.0
315012.02908761695,3847225.878295721,-47500.0,-5847.0495991385578,-5020.1175850964428,-2071.7371447458813,-6900.9304236792605,-7101.3315776658092,-7141.779735852715,10515.253096969769,-4292.8117729585829,-3107.8049024165357,3107.8049024165357,4292.8117729585829,19763.029004564378,0.0
320012.02908761695,3847225.878295721,-47500.0,-5009.5685424609892,-5233.9191346898024,-3667.6081754730362,-6981.9520715715535,-8957.6770027066996,-8516.4206013255462,11764.249620046834,-5405.6866937119821,-1959.7416124550916,1959.7416124550916,5405.6866937119821,22089.580123539221,0.0
325012.02908761695,3847225.878295721,-47500.0,-3910.2091609652894,-5011.2405594366692,-5379.598292563227,-6663.7626592450442,-10861.648708275914,-9891.2615553964188,12975.819906237324,-6255.4130354798208,-638.52142276968152,638.52142276968152,6255.4130354798208,24323.3351113071,0.0
330012.02908761695,3847225.878295721,-47500.0,-2662.4980778068466,-4244.135919417954,-7040.8648058342706,-5866.3135774394559,-12646.727252619305,-11149.270726578214,14052.77423475123,-6651.194650652641,705.09922413769345,-705.09922413769345,6651.194650652641,26289.452388434827,0.0
335012.02908761695,3847225.878295721,-47500.0,-1447.3533989778139,-2885.1270233022169,-8425.4298575210905,-4560.3189924579056,-14098.989295239144,-12144.517309493373,14885.156892901156,-6412.3424111166223,1859.9697639659512,-1859.9697639659512,6412.3424111166223,27788.183429923083,0.0
340012.02908761695,3847225.878295721,-47500.0,-491.11151945267278,-987.72790492750039,-9276.8174727906371,-2797.234138563867,-14983.61170745384,-12720.082639544868,15365.379990836394,-5419.5801973301723,2585.2318249452373,-2585.2318249452373,5419.5801973301723,28622.062373301771,0.0
345012.02908761695,3847225.878295721,-47500.0,-15.275363554263013,1267.2929454186847,-9362.3814516916736,-727.8550741741841,-15091.824590247512,-12738.716319970339,15410.262122982393,-3671.7160168170522,2668.0808161616642,-2668.0808161616642,3671.7160168170522,28636.059631388787,0.0
350012.02908761695,3847225.878295721,-47500.0,-165.99723158629868,3580.5885379182032,-8543.8287177130824,1405.443452544142,-14300.058732122012,-12120.885316145497,14986.237261609647,-1324.5657784210489,1996.9062033958867,-1996.9062033958867,1324.5657784210489,27763.538457323073,0.0
355012.02908761695,3847225.878295721,-47500.0,-949.02868973240538,5590.7247374660174,-6838.8780802101337,3311.9380159028442,-12620.99121977106,-10877.340493866892,14129.972936537673,1315.0026548048645,621.17223388299215,-621.17223388299215,-1315.0026548048645,26063.94267061447,0.0
360012.02908761695,3847225.878295721,-47500.0,-2205.4687343217124,6968.6940064715573,-4441.6054245589639,4723.8957660495253,-10220.809105187112,-9120.013677184872,12954.540136249121,3853.4089989660279,-1236.9584918270612,1236.9584918270612,-3853.4089989660279,23735.581935320133,0.0
365012.02908761695,3847225.878295721,-47500.0,-3650.6371691971235,7513.9158486500701,-1681.8900591561189,5469.4216441077915,-7387.1577529354718,-7041.43620737941,11632.714431463599,5916.0211815314724,-3236.9878894173871,3236.9878894173871,-5916.0211815314724,21092.176786973334,0.0
370012.02908761695,3847225.878295721,-47500.0,-4964.028013348795,7206.5245586323108,1064.2255980256712,5513.8379942274905,-4456.5972687269541,-4868.1991359243248,10355.482800924894,7248.97342958631,-5021.7184453728269,5021.7184453728269,-7248.97342958631,18503.089973556725,0.0
375012.02908761695,3847225.878295721,-47500.0,-5887.0425290726835,6192.8377152813591,3473.1837687822194,4952.159811077322,-1732.5723057243752,-2807.9726622305589,9277.2208577634356,7771.390069923802,-6318.4550072525271,6318.4550072525271,-7771.390069923802,16306.578872402159,0.0
380012.02908761695,3847225.878295721,-47500.0,-6283.6323884422891,4718.5922329655332,5339.5318049826392,3962.1784903950988,572.69796128779558,-1011.2426977596566,8472.8100777913023,7562.2524935495749,-6995.3889705399361,6995.3889705399361,-7562.2524935495749,14713.600846429576,0.0
385012.02908761695,3847225.878295721,-47500.0,-6146.5911761112484,3048.1330056713459,6590.6300021493353,2745.1154164924901,2356.7128302675551,442.076122284088,7929.4813047233838,6801.939097395164,-7059.9593090118751,7059.9593090118751,-6801.939097395164,13742.948517936986,0.0
390012.02908761695,3847225.878295721,-47500.0,-5563.2996041557581,1403.3815343528238,7260.8200847726357,1478.6183466143157,3611.6483063277851,1534.6174874012481,7575.7404370091035,5703.6973178472335,-6617.2218154249304,6617.2218154249304,-5703.6973178472335,13244.369400386046,0.0
395012.02908761695,3847225.878295721,-47500.0,-4667.5794451510255,-64.344710744958775,7448.4556415845482,292.61282928041487,4392.9501834505581,2292.6692380741229,7325.5157574396135,4461.5928595758287,-5817.0287216329634,5817.0287216329634,-4461.5928595758287,13002.925523465861,0.0
400012.02908761695,3847225.878295721,-47500.0,-3598.6807178277222,-1274.8180689244975,7275.7456572362771,-734.54636916914046,4787.2885025069982,2766.2012137656675,7109.8674717700615,3223.8287134294551,-4811.1078789924568,4811.1078789924568,-3223.8287134294551,12837.405621439979,0.0
405012.02908761695,3847225.878295721,-47500.0,-2475.9422163587565,-2204.1420563755614,6860.8803292174889,-1567.8983740022238,4888.2858953030136,3013.2029115131727,6886.8908779776702,2087.1659608760424,-3727.6296363445213,3727.6296363445213,-2087.1659608760424,12636.908444191105,0.0
410012.02908761695,3847225.878295721,-47500.0,-1388.3297347178195,-2865.7217977860914,6303.379968482318,-2203.4097668946556,4781.8851651237355,3089.7033849756554,6637.7679134737864,1103.7272607248665,-2661.4794095083457,2661.4794095083457,-1103.7272607248665,12352.038424815866,0.0
415012.02908761695,3847225.878295721,-47500.0,-394.029469440848,-3293.3891355683495,5679.3195345636504,-2656.0530916777652,4539.6063236635837,3044.6069875715411,6358.7804548294025,292.47163580828578,-1674.7523353199538,1674.7523353199538,-292.47163580828578,11973.007821780569,0.0
420012.02908761695,3847225.878295721,-47500.0,474.79288624016243,-3529.0518262270043,5042.387999243535,-2950.4827709552792,4216.9791530142102,2917.8277113212062,6054.3257063961528,-349.37396204152049,-802.27153259323666,802.27153259323666,349.37396204152049,11510.862521875746,0.0
425012.02908761695,3847225.878295721,-47500.0,1205.5464051852932,-3614.8741153002502,4427.6127057072499,-3114.6464989996111,3854.7926816548947,2740.3542573415502,5732.1973206248904,-837.03989517373088,-58.567972839895504,58.567972839895504,837.03989517373088,10985.234937633595,0.0
430012.02908761695,3847225.878295721,-47500.0,1799.0286253659594,-3589.0089846148671,3855.7518140789989,-3175.8736210464353,3481.529089376304,2535.2652717637729,5400.8289106971706,-1191.5769284543308,555.60610242004987,-555.60610242004987,1191.5769284543308,10417.414762670109,0.0
435012.02908761695,3847225.878295721,-47500.0,2264.3301663617144,-3483.7549159876858,3337.3509514443645,-3158.7788163979544,3116.0433384926782,2319.094675499945,5067.8926441618478,-1435.5517778479618,1048.0038617104544,-1048.0038617104544,1435.5517778479618,9826.9060918970172,0.0
440012.02908761695,3847225.878295721,-47500.0,2615.0279952874848,-3325.1874471763299,2876.0545152279083,-3084.369615599428,2770.01047386853,2103.2121468169757,4739.7148562840966,-1590.5245649123096,1430.9948238505178,-1430.9948238505178,1590.5245649123096,9230.0154033530434,0.0
445012.02908761695,3847225.878295721,-47500.0,2866.5381714575969,-3133.5873200192837,2471.1183416399858,-2969.8842440046978,2449.960607315792,1895.05953696956,4421.1466964064248,-1675.7550153628899,1718.8886072746454,-1718.8886072746454,1675.7550153628899,8639.5400537225087,0.0
270012.02908761695,3852225.878295721,-47500.0,-3385.165823765476,1127.3671348335024,2801.0374845092829,-1243.907596132389,1036.7618892164617,-276.73450344906513,3657.3933323492747,2912.6155683898041,-3602.4447032212374,3602.4447032212374,-2912.6155683898041,6354.6425914600504,0.0
275012.02908761695,3852225.878295721,-47500.0,-4030.3997913444709,825.47236995832998,2971.7454021142053,-1711.0798052756277,888.33188837188425,-530.04788382656659,4046.3936167244815,2848.006762298075,-4099.993522677064,4099.993522677064,-2848.006762298075,7068.7711332702956,0.0
280012.02908761695,3852225.878295721,-47500.0,-4711.0892571426439,423.53884489871353,3094.6397529975106,-2268.8819304968479,643.12211062018639,-871.00364484695592,4504.2774061808468,2681.7403242279556,-4596.0296085765931,4596.0296085765931,-2681.7403242279556,7932.4299224582555,0.0
285012.02908761695,3852225.878295721,-47500.0,-5402.9126576973094,-90.075610507929852,3141.3880300847604,-2921.5394636484971,270.18691656032547,-1321.9551828333106,5047.2185039292945,2386.2052580420268,-5062.0814602124647,5062.0814602124647,-2386.2052580420268,8979.9711951110658,0.0
290012.02908761695,3852225.878295721,-47500.0,-6069.9047046719661,-721.23721636130711,3075.9308553652495,-3666.5364485556847,-266.96209846164356,-1908.1981275642777,5694.0711796974119,1932.9236113564448,-5459.3680643055031,5459.3680643055031,-1932.9236113564448,10247.372832118057,0.0
295012.02908761695,3852225.878295721,-47500.0,-6662.8264224173536,-1465.3288362115204,2854.7389470435064,-4490.6240119048043,-1009.0823041365567,-2656.6880223256053,6465.6484462199232,1296.3329122499999,-5738.2905739373582,5738.2905739373582,-1296.3329122499999,11768.514369869354,0.0
300012.02908761695,3852225.878295721,-47500.0,-7119.0670033571914,-2301.0488627117165,2428.8682109552642,-5364.8371800842515,-1998.0759074317505,-3593.4474417446563,7382.6523999232913,459.94122399830667,-5839.8212001876755,5839.8212001876755,-459.94122399830667,13569.690729457505,0.0
305012.02908761695,3852225.878295721,-47500.0,-7365.461099118902,-3183.091195920319,1748.9362705373114,-6238.9339085315523,-3271.1017906619491,-4739.0919756572566,8460.9064746633649,-574.68294864815198,-5700.1167272993935,5700.1167272993935,574.68294864815198,15662.110354558543,0.0
310012.02908761695,3852225.878295721,-47500.0,-7325.7784027521066,-4034.9086277424781,774.28501773996709,-7036.326476767752,-4850.9803914471095,-6101.9130847975493,9702.9067693196193,-1776.1826431207414,-5259.8940938417236,5259.8940938417236,1776.1826431207414,18032.266997779479,0.0
315012.02908761695,3852225.878295721,-47500.0,-6934.6280381955767,-4744.0276702531464,-512.69041143984418,-7651.5380046098426,-6732.3118153631058,-7668.2193650076661,11087.558006341911,-3070.2373255339121,-4479.8363626278278,4479.8363626278278,3070.2373255339121,20630.513350743691,0.0
320012.02908761695,3852225.878295721,-47500.0,-6158.5901174611536,-5163.9645417521024,-2087.1840292287802,-7953.3926362330249,-8863.8125379949579,-9390.3661627136134,12562.372110585493,-4328.2431690186131,-3362.0472892233483,3362.0472892233483,4328.2431690186131,23359.13241921099,0.0
325012.02908761695,3852225.878295721,-47500.0,-5022.9028867672778,-5128.1443108861358,-3860.1862357549126,-7798.1173013333218,-11129.594897469526,-11174.393486217434,14040.251284020109,-5363.876100593463,-1974.7854766179209,1974.7854766179209,5363.876100593463,26062.891770780454,0.0
330012.02908761695,3852225.878295721,-47500.0,-3637.393208286649,-4481.0073239874846,-5660.8034246125817,-7056.2289703004726,-13335.514847666447,-12871.457138071661,15400.904114393104,-5946.0612072197346,-473.06834436860709,473.06834436860709,5946.0612072197346,28527.093731801062,0.0
335012.02908761695,3852225.878295721,-47500.0,-2209.2103891416455,-3127.7438810731373,-7233.9846417400277,-5654.0275432369608,-15210.678473744334,-14279.944993600584,16499.072531566006,-5837.0675920596341,897.77990419409889,-897.77990419409889,5837.0675920596341,30490.079048128599,0.0
340012.02908761695,3852225.878295721,-47500.0,-1025.1594910327437,-1094.6993838498124,-8267.6323824367664,-3622.9895563699088,-16436.12901367513,-15166.526641271601,17183.423483197636,-4858.7211925392812,1831.6690406953883,-1831.6690406953883,4858.7211925392812,31676.891913345917,0.0
345012.02908761695,3852225.878295721,-47500.0,-389.57456547671478,1421.8028123514896,-8458.5823634363933,-1139.0311506081075,-16708.308277663942,-15311.407020887968,17327.857273014055,-2975.1769870198896,2034.7696587814173,-2034.7696587814173,2975.1769870198896,31856.318530716882,0.0
350012.02908761695,3852225.878295721,-47500.0,-521.94559306078168,4052.3500893191522,-7610.0415961686504,1475.7169849181116,-15829.841320478963,-14572.683439747094,16871.055498337693,-359.67523936281168,1332.0500621954311,-1332.0500621954311,359.67523936281168,30913.117515163911,0.0
355012.02908761695,3852225.878295721,-47500.0,-1450.803336319374,6325.3730806399262,-5726.0756661514952,3811.2815215522219,-13796.707912111198,-12948.245405673253,15852.160109753491,2600.8350171759275,-234.18513119912063,234.18513119912063,-2600.8350171759275,28913.154681964152,0.0
360012.02908761695,3852225.878295721,-47500.0,-2965.5400820952727,7805.0877273888991,-3049.8052586484159,5482.9063645080887,-10834.81463681877,-10602.22161129547,14425.160791061386,5393.3095857968256,-2375.0712862357159,2375.0712862357159,-5393.3095857968256,26130.577751483728,0.0
365012.02908761695,3852225.878295721,-47500.0,-4672.2381540888809,8238.5574954655967,-7.6985988152595723,6252.9037384153298,-7352.5630056273867,-7832.173060007176,12835.976743535239,7536.3181086873774,-4633.360655614224,4633.360655614224,-7536.3181086873774,23012.631570339847,0.0
370012.02908761695,3852225.878295721,-47500.0,-6136.4397936011901,7632.4853571224057,2923.5821539862141,6097.6925594681707,-3822.3669183026368,-4985.5974829690194,11355.863930207312,8731.4578744631817,-6540.6643492020448,6540.6643492020448,-8731.4578744631817,20077.930857685857,0.0
375012.02908761695,3852225.878295721,-47500.0,-7034.1278451746512,6219.9939744081066,5359.6370084568516,5186.7428692102103,-649.22172364599351,-2366.2267744401934,10187.437154020592,8929.793465102086,-7769.0045359366504,7769.0045359366504,-8929.793465102086,17764.520423047383,0.0
380012.02908761695,3852225.878295721,-47500.0,-7232.1096330704813,4348.7431980236124,7091.1630579890771,3796.0710327677675,1912.6494082178956,-173.17305917641852,9394.8660263320126,8292.9812319859939,-8201.1167330118715,8201.1167330118715,-8292.9812319859939,16273.214311276306,0.0
385012.02908761695,3852225.878295721,-47500.0,-6776.8755312908061,2360.1905701187798,8085.9202125337915,2210.6601827544655,3772.9204041136459,1510.8973825918781,8910.8571385142204,7092.9787524024541,-7906.7320354738968,7906.7320354738968,-7092.9787524024541,15507.667143852093,0.0
390012.02908761695,3852225.878295721,-47500.0,-5827.0574105131363,512.29824170339998,8436.5151638086809,658.32031542116647,4967.3941578456579,2695.4351349062276,8608.5206165340715,5612.1049715327863,-7066.1057517755289,7066.1057517755289,-5612.1049715327863,15186.629328808,0.0
395012.02908761695,3852225.878295721,-47500.0,-4578.2007071439484,-1043.4936852366825,8294.8997559714171,-714.28809114676596,5603.2895951274686,3444.9031103569123,8372.8887208774795,4080.0890243401027,-5890.9831295150689,5890.9831295150689,-4080.0890243401027,15026.393826750476,0.0
400012.02908761695,3852225.878295721,-47500.0,-3209.4472317446398,-2248.2219174165211,7820.9118592458963,-1835.259573533622,5812.2764787960641,3846.1085938214933,8131.3163490838306,2651.9868315131284,-4571.0866337728621,4571.0866337728621,-2651.9868315131284,14840.488112452611,0.0
405012.02908761695,3852225.878295721,-47500.0,-1858.0307414032475,-3106.7547618937569,7152.907740285923,-2687.6699709257691,5720.3813733573861,3986.544590611416,7850.8801864366178,1413.3235255277621,-3249.9832600151376,3249.9832600151376,-1413.3235255277621,14542.549247070068,0.0
410012.02908761695,3852225.878295721,-47500.0,-614.50390019436372,-3659.7485585495333,6396.7560056256943,-3288.5205623816851,5433.4495023076424,3943.1340591268217,7524.6898773629719,397.00034602320807,-2021.899663548588,2021.899663548588,-397.00034602320807,14112.637826827142,0.0
415012.02908761695,3852225.878295721,-47500.0,470.9464577131555,-3962.6226800625423,5626.0398984369531,-3671.9675590192687,5033.0983652081477,3778.1591255298813,7159.3801625861515,-398.33816464890418,-939.27150627304195,939.27150627304195,398.33816464890418,13565.288936123361,0.0
420012.02908761695,3852225.878295721,-47500.0,1378.3459982389486,-4072.3413745056214,4887.4110382328472,-3878.0136693729082,4578.3235843763659,3539.2429122713461,6766.8808981961156,-993.23200985789549,-23.679050115612142,23.679050115612142,993.23200985789549,12928.738860103536,0.0
425012.02908761695,3852225.878295721,-47500.0,2107.9850308856007,-4040.3897632544249,4207.2856032612299,-3945.8334398257612,4109.4180959741188,3261.1903837825862,6359.8656230834649,-1416.8023601968773,723.78635844534142,-723.78635844534142,1416.8023601968773,12233.602290652467,0.0
430012.02908761695,3852225.878295721,-47500.0,2672.3375874004855,-3909.8705281667653,3597.9884826472735,-3910.3729138393783,3652.3158265984835,2968.4100628772117,5949.5869484639088,-1700.0994016754973,1314.2618883248417,-1314.2618883248417,1700.0994016754973,11507.51810979394,0.0
435012.02908761695,3852225.878295721,-47500.0,3090.1746162568602,-3715.0157540026671,3062.6691331157472,-3801.0273726727346,3222.5000160292866,2677.2905290363492,5545.0870850439787,-1872.3799555312191,1765.1801371679132,-1765.1801371679132,1872.3799555312191,10773.153935853459,0.0
440012.02908761695,3852225.878295721,-47500.0,3382.6153711063439,-3481.9288750916476,2598.9136540042246,-3641.5104951313729,2828.1670053103189,2398.2590421130903,5153.1126270915356,-1959.3364991297253,2096.3373645944216,-2096.3373645944216,1959.3364991297253,10047.913812347819,0.0
445012.02908761695,3852225.878295721,-47500.0,3570.6685806153041,-3229.8291013148582,2201.2468730503797,-3450.3323965623058,2472.6351892960065,2137.4492787745939,4778.351681826809,-1982.5138646428836,2327.4731463253943,-2327.4731463253943,1982.5138646428836,9344.4258842432355,0.0
270012.02908761695,3857225.878295721,-47500.0,-2927.7273319481337,1793.9859595000869,3010.7054123087501,-783.99221651037499,1444.9759384764682,19.301558735096613,3838.8329607797409,3509.8024841373704,-3421.387868876755,3421.387868876755,-3509.8024841373704,6649.224354878128,0.0
275012.02908761695,3857225.878295721,-47500.0,-3629.8077494864206,1577.8179532484567,3277.7907247836906,-1238.6330820145629,1375.6489625896397,-201.26777532851546,4220.0207652457111,3575.1432228620306,-4004.3253835488749,4004.3253835488749,-3575.1432228620306,7316.7766101510897,0.0
280012.02908761695,3857225.878295721,-47500.0,-4397.0194439558154,1259.8129183593044,3521.8035494191849,-1799.9828061935766,1218.0098278313012,-513.4782246824559,4665.8843680846912,3554.7161333251456,-4615.743096762817,4615.743096762817,-3554.7161333251456,8122.094458755806,0.0
285012.02908761695,3857225.878295721,-47500.0,-5210.1135667425233,821.9199946722116,3717.2509297827564,-2479.2876153373686,938.19516228808629,-944.70375802723333,5194.4024893633441,3417.8974740040758,-5231.0725518814288,5231.0725518814288,-3417.8974740040758,9106.0737291048226,0.0
290012.02908761695,3857225.878295721,-47500.0,-6036.6916158995709,249.59732806538662,3829.4248300481827,-3282.2916151570325,494.21936499036224,-1527.6104183210075,5828.3300748822421,3130.3553564930671,-5813.5592585660934,5813.5592585660934,-3130.3553564930671,10316.245265276055,0.0
295012.02908761695,3857225.878295721,-47500.0,-6827.9607157929686,-463.36371000529124,3813.4617309269888,-4204.6187475852967,-163.7182214334581,-2299.4660429654891,6595.2711777148943,2657.0768077417924,-6312.1886862772808,6312.1886862772808,-2657.0768077417924,11803.32563386603,0.0
300012.02908761695,3857225.878295721,-47500.0,-7516.5009160063373,-1307.8343192256132,3614.9052114454043,-5225.4222415439172,-1091.0376772015088,-3299.9650812653454,7526.3538158143474,1968.102290485489,-6661.1159933126128,6661.1159933126128,-1968.102290485489,13615.024724861412,0.0
305012.02908761695,3857225.878295721,-47500.0,-8016.6882200992186,-2250.1346455445332,3173.1335070428768,-6299.4112359400051,-2343.4067131743818,-4566.6622487704817,8651.7054318311602,1047.920342429938,-6782.2455850625374,6782.2455850625374,-1047.920342429938,15786.745786026911,0.0
310012.02908761695,3857225.878295721,-47500.0,-8230.1877325151399,-3221.432527619982,2429.4459741761088,-7348.0950264532585,-3966.5908887791779,-6126.8895803958558,9990.4675734165539,-90.898693864999586,-6593.1986752059947,6593.1986752059947,90.898693864999586,18328.916497714967,0.0
315012.02908761695,3857225.878295721,-47500.0,-8059.5039708656395,-4108.1412651107712,1341.7031266107451,-8252.4064804572972,-5979.9663913353124,-7985.0598338657928,11536.025895647766,-1390.4107671892652,-6023.1547483448248,6023.1547483448248,1390.4107671892652,21210.975421063118,0.0
320012.02908761695,3857225.878295721,-47500.0,-7432.2737460241324,-4748.0426551084884,-93.365018532287962,-8850.8389291199419,-8353.0522251367747,-10104.90448993123,13242.179781447639,-2729.3001027469381,-5038.2775946348529,5038.2775946348529,2729.3001027469381,24342.985649566661,0.0
325012.02908761695,3857225.878295721,-47500.0,-6336.6358316758397,-4939.5684347131646,-1811.5620961384136,-8949.5222415757653,-10976.963233967861,-12388.012254637732,15014.945014752888,-3910.9625870058362,-3675.5647297820205,3675.5647297820205,3910.9625870058362,27557.927951507765,0.0
330012.02908761695,3857225.878295721,-47500.0,-4862.2624951937496,-4473.2972009775085,-3652.7052600982156,-8352.0896063821128,-13637.616661394904,-14653.721397614709,16710.392999329317,-4669.1424753927522,-2077.9472855226213,2077.9472855226213,4669.1424753927522,30601.244364138707,0.0
335012.02908761695,3857225.878295721,-47500.0,-3231.832800691207,-3192.1807778209331,-5345.8820050468939,-6915.0275212450806,-16004.610232164718,-16630.884199109885,18141.013140013591,-4705.6034234021918,-514.28037567415367,514.28037567415367,4705.6034234021918,33138.241439945035,0.0
340012.02908761695,3857225.878295721,-47500.0,-1796.5559233730353,-1075.9925508229624,-6529.1477093935991,-4624.572325913331,-17656.284539960961,-17977.4697815771,19097.485859877957,-3770.3322193021986,641.0996167632502,-641.0996167632502,3770.3322193021986,34792.358026632377,0.0
345012.02908761695,3857225.878295721,-47500.0,-966.27379452403841,1676.5598193268488,-6823.4742100311923,-1671.6222317674756,-18160.173748364152,-18343.560543735224,19391.653053667145,-1776.5916344447819,993.68723132515743,-993.68723132515743,1776.5916344447819,35223.371405314792,0.0
350012.02908761695,3857225.878295721,-47500.0,-1065.9873466564256,4620.3182129343331,-5960.8376207576575,1522.0880259466765,-17207.842082863968,-17477.945386604188,18917.534820567813,1091.1614996827304,278.1289249471244,-278.1289249471244,-1091.1614996827304,34238.86115351037,0.0
355012.02908761695,3857225.878295721,-47500.0,-2165.2727519902428,7146.5828236941779,-3923.661572982629,4377.1547515327902,-14761.01204774369,-15345.290761258764,17712.642414271868,4350.7645850017207,-1483.3627303374412,1483.3627303374412,-4350.7645850017207,31905.971682237199,0.0
360012.02908761695,3857225.878295721,-47500.0,-3985.4712819945344,8681.6204381612915,-1011.8280334039601,6335.3659590974221,-11125.385287736719,-12187.654523983936,15988.560132617977,7338.7954022961312,-3917.6407018041423,3917.6407018041423,-7338.7954022961312,28606.878720546261,0.0
365012.02908761695,3857225.878295721,-47500.0,-5978.6537227168938,8911.767863260673,2232.3454563506834,7066.6907428564127,-6881.6219766928161,-8472.8974570572736,14099.221209487114,9445.1777452177666,-6411.6469978069472,6411.6469978069472,-9445.1777452177666,24985.302263166013,0.0
370012.02908761695,3857225.878295721,-47500.0,-7556.7886567444266,7895.4617649569755,5219.774759487831,6579.5668164862809,-2690.4955666580408,-4741.3132135768055,12430.143480326788,10336.956299287249,-8356.9381709871559,8356.9381709871559,-10336.956299287249,21766.918046883507,0.0
375012.02908761695,3857225.878295721,-47500.0,-8325.7388680144577,5993.8611482945962,7515.7740714043966,5169.5462760255496,917.59177403494698,-1436.8474974098747,11234.10388507949,10036.053830636616,-9375.6735202206492,9375.6735202206492,-10036.053830636616,19487.369222817797,0.0
380012.02908761695,3857225.878295721,-47500.0,-8184.8559502940489,3686.2190052224269,8936.1864557890749,3259.8690765932411,3657.2646553096852,1187.8164609484922,10525.44148265788,8829.8827256328022,-9399.6715627029062,9399.6715627029062,-8829.8827256328022,18255.924641553032,0.0
385012.02908761695,3857225.878295721,-47500.0,-7274.9724058473612,1395.789486964708,9520.0985234149211,1243.8880049723261,5480.5738615766386,3069.580649945462,10141.067149290226,7106.7411466514659,-8600.673562239539,8600.673562239539,-7106.7411466514659,17774.791410269849,0.0
390012.02908761695,3857225.878295721,-47500.0,-5855.6227046242238,-598.33153654836531,9437.7610604989604,-601.04566917419027,6497.4196818999671,4275.1824785576364,9889.1184231038369,5219.2337734922394,-7259.591432595983,7259.591432595983,-5219.2337734922394,17617.992685638899,0.0
395012.02908761695,3857225.878295721,-47500.0,-4195.1917017262549,-2166.1722534506116,8899.3528032398026,-2126.4737152400176,6886.9619744675892,4932.7638630908641,9639.1122407975017,3418.5103472840769,-5656.5229680408338,5656.5229680408338,-3418.5103472840769,17469.789981448776,0.0
400012.02908761695,3857225.878295721,-47500.0,-2509.2238753400634,-3288.4441580535004,8096.3900489223743,-3285.0234284760268,6834.4247522636697,5182.0899815203438,9331.0508543116975,1847.6044683611865,-4012.1617276214356,4012.1617276214356,-1847.6044683611865,17175.798875770852,0.0
405012.02908761695,3857225.878295721,-47500.0,-942.20889922516619,-4010.1946010164993,7176.7826357963659,-4092.6573246832172,6498.5195315394531,5147.9099305628042,8951.875921803965,564.4560684116118,-2472.7691996670283,2472.7691996670283,-564.4560684116118,16695.769827464665,0.0
410012.02908761695,3857225.878295721,-47500.0,425.53923251060201,-4404.1668866801356,6241.904456391122,-4597.1243692169273,6001.0321196301511,4930.2360552059781,8511.9857070727339,-428.38702148021264,-1119.2048728321761,1119.2048728321761,428.38702148021264,16048.342928045558,0.0
415012.02908761695,3857225.878295721,-47500.0,1561.7024472262792,-4547.7027364567439,5353.9980907899071,-4856.9021280582456,5428.4078362422824,4603.9465798324727,8030.2105097860867,-1158.6938555221816,15.774063110690804,-15.774063110690804,1158.6938555221816,15274.678285702041,0.0
420012.02908761695,3857225.878295721,-47500.0,2465.4524082619409,-4510.7578467149651,4546.4151966681429,-4929.268754764621,4838.1414889510261,4222.3583356006829,7526.0268654876318,-1667.1614755039936,930.57125133466207,-930.57125133466207,1667.1614755039936,14419.354643438546,0.0
425012.02908761695,3857225.878295721,-47500.0,3154.2181893129787,-4351.1855307602955,3833.0273292941665,-4864.6392828500439,4266.0147119997873,3821.8171489112424,7016.2093406668791,-1996.9047951342814,1641.4514096067455,-1641.4514096067455,1996.9047951342814,13521.927937198672,0.0
430012.02908761695,3857225.878295721,-47500.0,3654.3436921942857,-4114.067596757287,3215.5537913737062,-4704.6150476922639,3732.4490550253558,3425.9747211688386,6513.7950310267242,-2187.8892862880862,2173.2966185368318,-2173.2966185368318,2187.8892862880862,12614.074505246277,0.0
435012.02908761695,3857225.878295721,-47500.0,3995.0936213600507,-3833.0141284941392,2688.7867694630781,-4482.0523701321772,3247.5255179779642,3049.3528348218838,6028.198489690757,-2274.5232647397361,2553.7467047759028,-2553.7467047759028,2274.5232647397361,11719.516790394779,0.0
440012.02908761695,3857225.878295721,-47500.0,4205.1041293405378,-3532.138003478181,2244.0392179784549,-4222.0166287551574,2814.6488313103769,2700.0885383833961,5565.7185382060052,-2285.0499825892243,2809.7833112415924,-2809.7833112415924,2285.0499825892243,10854.972512503713,0.0
445012.02908761695,3857225.878295721,-47500.0,4310.5038724280939,-3228.1025786200116,1871.31190878192,-3943.0664383619446,2433.1332111535571,2381.9920652460087,5130.1765399102533,-2241.8814997048084,2965.9511336324585,-2965.9511336324585,2241.8814997048084,10031.474167839198,0.0
265012.02908761695,3862225.878295721,-47500.0,-1641.2415921380973,2503.6623662949969,2770.2054586852341,121.58164819986285,1775.6092509163682,486.68949172230577,3744.871605704825,3783.1577434286382,-2479.2734376060225,2479.2734376060225,-3783.1577434286382,6550.5257144894749,0.0
270012.02908761695,3862225.878295721,-47500.0,-2275.0825913159429,2470.5706457767619,3104.7540206806752,-192.33271655008227,1845.0769485725714,385.03111142592581,4077.4941607191695,4024.6282281476929,-3057.0654259316766,3057.0654259316766,-4024.6282281476929,7095.2752025949912,0.0
275012.02908761695,3862225.878295721,-47500.0,-3007.0005496778303,2363.2831066620538,3456.621616937106,-605.63826788952667,1866.9689124719857,217.46007135140582,4453.9927324974715,4228.8264078735256,-3704.3718489296389,3704.3718489296389,-4228.8264078735256,7723.1014291910378,0.0
280012.02908761695,3862225.878295721,-47500.0,-3834.9292760968569,2160.2162884400773,3813.2961251491652,-1137.7553594966992,1815.4003302720869,-40.752300414434387,4886.6854470381431,4371.4295991554854,-4413.0861930173296,4413.0861930173296,-4371.4295991554854,8464.1898654861288,0.0
285012.02908761695,3862225.878295721,-47500.0,-4747.5011040926365,1838.011512133852,4154.7944634534069,-1807.7978479282169,1655.6110489768939,-421.41856679571373,5392.9959400261378,4421.5204851457993,-5165.6505253457608,5165.6505253457608,-4421.5204851457993,9360.352186988106,0.0
290012.02908761695,3862225.878295721,-47500.0,-5719.7668898008815,1373.9656094440084,4451.3757305487461,-2631.6193481624014,1342.3175053668526,-964.4300934751567,5997.1073431337281,4341.8056041025211,-5931.4792945095505,5931.4792945095505,-4341.8056041025211,10466.289505410801,0.0
295012.02908761695,3862225.878295721,-47500.0,-6708.2841911764908,750.44916491101787,4661.4053873157418,-3616.9647820542623,818.73373103775361,-1718.0966725423123,6731.4883341821878,4090.453653705677,-6663.2166580990088,6663.2166580990088,-4090.453653705677,11848.321774635286,0.0
300012.02908761695,3862225.878295721,-47500.0,-7646.3597749519195,-37.935095548054704,4730.1838057201712,-4756.1065759480089,17.256284672080042,-2738.0344358256784,7637.3358222563147,3625.6975800547216,-7293.7588890335164,7293.7588890335164,-3625.6975800547216,13579.000184439348,0.0
305012.02908761695,3862225.878295721,-47500.0,-8441.1259029343873,-973.89232930647427,4591.1720917359635,-6015.5518651693874,-1136.5906519555301,-4083.3381025637359,8761.6244732277246,2914.6278127496489,-7735.8013343472476,7735.8013343472476,-2914.6278127496489,15726.430707194544,0.0
310012.02908761695,3862225.878295721,-47500.0,-8975.3686261676794,-2003.8388543021281,4171.8036534081857,-7323.0943858708633,-2714.6546872062318,-5808.2085123518036,10146.793719344592,1947.5638385516695,-7886.7245659033933,7886.7245659033933,-1947.5638385516695,18337.860761537071,0.0
315012.02908761695,3862225.878295721,-47500.0,-9118.3834380618191,-3023.0186775475172,3406.6500637714425,-8554.0139854667414,-4768.3113670829589,-7946.7307783666347,11811.036487515641,758.48663540717553,-7642.595462186765,7642.595462186765,-758.48663540717553,21417.609969538276,0.0
320012.02908761695,3862225.878295721,-47500.0,-8750.934498019009,-3864.1807438478204,2260.5411997677825,-9521.0452779724274,-7299.8668437526348,-10488.668721717228,13725.524774452213,-550.42743255003597,-6925.207977497299,6925.207977497299,550.42743255003597,24900.162474914872,0.0
325012.02908761695,3862225.878295721,-47500.0,-7807.9875733046802,-4298.9035190531795,762.13337722903395,-9976.8147466498012,-10223.204691938556,-13345.877258371529,15797.949533268862,-1786.8864306364831,-5723.8471626352166,5723.8471626352166,1786.8864306364831,28621.137889112601,0.0
330012.02908761695,3862225.878295721,-47500.0,-6336.8656039932066,-4064.8360527177474,-956.99622558781186,-9641.8222707175155,-13319.778227095194,-16313.886635719062,17864.254167271494,-2662.9131618646265,-4146.8064727468045,4146.8064727468045,2662.9131618646265,32293.519097432294,0.0
335012.02908761695,3862225.878295721,-47500.0,-4555.1228294480488,-2932.4752854579742,-2632.3036000431412,-8272.0626648738053,-16206.916294840443,-19042.713127310173,19690.310149288147,-2826.3891327841966,-2464.8237594345655,2464.8237594345655,2826.3891327841966,35503.749479432496,0.0
340012.02908761695,3862225.878295721,-47500.0,-2872.2258330334457,-814.5917728916661,-3871.964632022542,-5770.7901388509681,-18349.285602056611,-21044.088534874219,20994.057682976734,-1950.7607558766854,-1111.3334055782811,1111.3334055782811,1950.7607558766854,37749.629635199293,0.0
345012.02908761695,3862225.878295721,-47500.0,-1822.9173892643123,2108.1302482330684,-4230.9770458126932,-2319.5563272158315,-19151.377684226089,-21770.561927317987,21501.334069566641,115.04606481657635,-594.43642797271673,594.43642797271673,-115.04606481657635,38541.816531895995,0.0
350012.02908761695,3862225.878295721,-47500.0,-1876.8144832094717,5317.7351315047936,-3367.8717315922577,1544.2045590500147,-18147.836488898942,-20785.272036027971,21037.511046926182,3183.9598418885694,-1299.3879065485939,1299.3879065485939,-3183.9598418885694,37570.998891237279,0.0
355012.02908761695,3862225.878295721,-47500.0,-3171.8222643547165,8045.0357553791609,-1238.3195163676912,5006.1306277200883,-15239.732321868923,-17979.397870203356,19631.12281291993,6666.4780940115725,-3243.4710850879455,3243.4710850879455,-6666.4780940115725,34896.036631003786,0.0
360012.02908761695,3862225.878295721,-47500.0,-5341.5447582488714,9547.4669364382389,1796.8098215381356,7253.8627382735431,-10835.843627445354,-13709.801169621947,17575.558709014789,9720.2176362298032,-5951.1033998734856,5951.1033998734856,-9720.2176362298032,31052.920521133572,0.0
365012.02908761695,3862225.878295721,-47500.0,-7623.8843766044456,9448.8654767744683,5069.8766660174042,7830.9064924286013,-5755.1154107473376,-8720.6397258061133,15384.448135779579,11593.772896799193,-8607.7621576956044,8607.7621576956044,-11593.772896799193,26970.9643519704,0.0
370012.02908761695,3862225.878295721,-47500.0,-9230.5503239329446,7899.0533604495104,7886.0355197281278,6819.1556424602841,-907.79356480540412,-3857.3776718750169,13598.950192809396,11950.378823016215,-10438.877212631849,10438.877212631849,-11950.378823016215,23643.988132533104,0.0
375012.02908761695,3862225.878295721,-47500.0,-9707.1237783991146,5437.7708035868372,9794.3979618112335,4721.9810340196273,3036.6065835773829,239.65173200392621,12496.854390888959,10943.158830207383,-11041.155380193773,11041.155380193773,-10943.158830207383,21645.617145310443,0.0
380012.02908761695,3862225.878295721,-47500.0,-9039.6691585606732,2699.2166820919165,10682.099426138362,2173.6463720562824,5794.2322195528459,3275.6831040063689,11964.174284086039,9034.7026837324611,-10452.012120032903,10452.012120032903,-9034.7026837324611,20844.338293247929,0.0
385012.02908761695,3862225.878295721,-47500.0,-7519.1628440494924,176.01180003508983,10693.245748188008,-305.59973731213699,7407.4945240359575,5255.1441744903959,11700.203322971594,6743.3080822875991,-8994.212086922711,8994.212086922711,-6743.3080822875991,20669.056269231216,0.0
390012.02908761695,3862225.878295721,-47500.0,-5535.2094818726464,-1862.5974067783113,10085.768097141572,-2405.603400314737,8096.7465560001792,6351.4201300923169,11464.158283113446,4474.7603257601259,-7069.1777324898194,7069.1777324898194,-4474.7603257601259,20592.878240592963,0.0
395012.02908761695,3862225.878295721,-47500.0,-3430.1554195005278,-3337.8580674098412,9119.0711027892721,-4005.6205138734949,8129.4608972471606,6789.8306768140028,11141.305260214187,2472.3231146222934,-5019.1380502477532,5019.1380502477532,-2472.3231146222934,20334.737803004093,0.0
400012.02908761695,3862225.878295721,-47500.0,-1441.1891402211916,-4289.0565338339402,7998.7841564128075,-5109.152567080605,7745.2154065584036,6779.4080639256917,10705.807993139162,840.35956664663809,-3076.8617527510473,3076.8617527510473,-840.35956664663809,19812.938170266883,0.0
405012.02908761695,3862225.878295721,-47500.0,298.60657637968836,-4809.0837214569801,6864.5809948732485,-5782.4148713185814,7128.2539931215642,6486.6180416985399,10174.571806017324,-408.66697586758312,-1371.0838166963149,1371.0838166963149,408.66697586758312,19049.934905401871,0.0
410012.02908761695,3862225.878295721,-47500.0,1735.0043094977091,-5002.776772579613,5799.3578460266208,-6112.7458658355654,6406.9727826894723,6032.8420329637538,9578.3694593966811,-1311.7580187756298,46.606754066242047,-46.606754066242047,1311.7580187756298,18106.646843089766,0.0
415012.02908761695,3862225.878295721,-47500.0,2864.4644205705636,-4965.5823057402449,4844.70172956633,-6185.8869297831607,5664.1959172510806,5501.51269212637,8947.9536451044369,-1926.0773908984343,1173.4400520711883,-1173.4400520711883,1926.0773908984343,17049.027608926444,0.0
420012.02908761695,3862225.878295721,-47500.0,3711.6399962301948,-4775.4639068234319,4015.2955184802095,-6075.9951834532058,4949.4101223202751,4947.3099068223637,8308.7728556439997,-2311.8779784554667,2033.3826333578022,-2033.3826333578022,2311.8779784554667,15934.307938314894,0.0
425012.02908761695,3862225.878295721,-47500.0,4314.0488861512931,-4491.9199379061656,3309.8961066150414,-5842.7860308132576,4289.3459113148638,4404.3431114432933,7679.8193019798073,-2524.0154802954598,2662.330610915194,-2662.330610915194,2524.0154802954598,14807.06216915062,0.0
430012.02908761695,3862225.878295721,-47500.0,4712.7299189077785,-4158.1819739346292,2718.8402113603242,-5532.1599920564058,3696.0199874690024,3892.5575611501572,7074.2313403853223,-2608.6714896290841,3099.2045048570835,-3099.2045048570835,2608.6714896290841,13699.651506562119,0.0
435012.02908761695,3862225.878295721,-47500.0,4947.0521007616317,-3804.3666941030656,2228.7663895363658,-5178.1521809878013,3172.3788286782724,3422.3984499820963,6500.3799186714996,-2602.848744202443,3381.0907206429488,-3381.0907206429488,2602.848744202443,12634.103129433124,0.0
440012.02908761695,3862225.878295721,-47500.0,5052.2113747335361,-3450.5986494876743,1825.407531632477,-4805.2265310473213,2716.1072124711131,2998.1282693503699,5963.0205898419972,-2535.1907439845054,3540.9542041746363,-3540.9542041746363,2535.1907439845054,11624.354240974741,0.0
445012.02908761695,3862225.878295721,-47500.0,5058.3128175299298,-3109.6772617889951,1495.1092043483068,-4430.4187892033115,2322.0967449707123,2620.1239066402077,5464.2872108787451,-2427.2892013314668,3606.8511276950003,-3606.8511276950003,2427.2892013314668,10678.292534713824,0.0
450012.02908761695,3862225.878295721,-47500.0,4990.3271455976983,-2789.1889741464365,1225.5582121342611,-4065.1519555027735,1983.9886613809861,2286.4359879699,5004.4764605781929,-2295.053613121861,3601.9547368543112,-3601.9547368543112,2295.053613121861,9799.4248185755623,0.0
265012.02908761695,3867225.878295721,-47500.0,-809.93677697849557,3036.5962381270815,2686.2236713474808,771.53998526300347,2060.8650582708133,854.98039615553739,4039.9053960225747,4058.0444517916103,-1902.9461971057569,1902.9461971057569,-4058.0444517916103,7166.8916452944804,0.0
270012.02908761695,3867225.878295721,-47500.0,-1417.0917711404666,3113.9360160874744,3063.0818968068074,533.31877305295586,2209.6194410637067,820.18355637583716,4385.7343536893641,4408.8417157948506,-2489.0822425649158,2489.0822425649158,-4408.8417157948506,7722.972774567259,0.0
275012.02908761695,3867225.878295721,-47500.0,-2142.5682941985478,3132.845130870398,3478.7106805987478,195.58932266215916,2329.1818113182471,728.39039148863753,4768.0430024156267,4749.5563123172024,-3168.8563771516565,3168.8563771516565,-4749.5563123172024,8338.8792119838563,0.0
280012.02908761695,3867225.878295721,-47500.0,-2993.0081050453045,3070.686555026638,3927.3152424675059,-266.30224537190537,2396.2064439034139,553.73615932359655,5195.7091219515405,5059.8065215601709,-3942.7142851239332,3942.7142851239332,-5059.8065215601709,9036.1035491711009,0.0
285012.02908761695,3867225.878295721,-47500.0,-3967.3686643892252,2900.9359222444677,4396.7454285916683,-879.28030584640499,2377.6690502686915,261.4331493834294,5682.5102406117658,5311.7160019173434,-4802.9607521008993,4802.9607521008993,-5311.7160019173434,9848.6856013906508,0.0
290012.02908761695,3867225.878295721,-47500.0,-5052.0237551633491,2594.6910988654581,4865.786584894573,-1670.1940251327808,2228.2622668976069,-194.30653272565357,6249.7502257491342,5469.0753287734287,-5729.4775396198393,5729.4775396198393,-5469.0753287734287,10827.918940745691,0.0
295012.02908761695,3867225.878295721,-47500.0,-6214.4333090080663,2124.1448582392868,5301.091354610151,-2661.3257890809064,1887.9837600580111,-872.07871000754767,6929.6491857405836,5487.7253838720844,-6684.5163715122326,6684.5163715122326,-5487.7253838720844,12045.971601794492,0.0
300012.02908761695,3867225.878295721,-47500.0,-7395.8261259115698,1469.0865323600128,5654.3637867948346,-3862.7098400962768,1280.8686438824509,-1843.9894685813047,7768.82120313001,5318.4083150793749,-7607.218227362252,7607.218227362252,-5318.4083150793749,13595.437667782286,0.0
305012.02908761695,3867225.878295721,-47500.0,-8504.3051228580916,627.57788807836823,5861.0964724301202,-5260.1402356784929,316.62633873950887,-3193.7048298162226,8829.3486470370372,4913.8805829378234,-8409.4456470232417,8409.4456470232417,-4913.8805829378234,15581.010146127914,0.0
310012.02908761695,3867225.878295721,-47500.0,-9411.4615627797612,-368.50419111484689,5843.1789493243232,-6798.1896326979049,-1101.9497870259049,-5009.2814095532576,10181.50266087857,4242.4593785182678,-8976.0077190464453,8976.0077190464453,-4242.4593785182678,18100.44155291107,0.0
315012.02908761695,3867225.878295721,-47500.0,-9957.8157453511576,-1433.917992467467,5518.7756668635757,-8359.0302461990159,-3061.7283874272316,-7366.9448529770762,11880.803846850673,3309.7518133511271,-9174.1336539254262,9174.1336539254262,-3309.7518133511271,21214.398602638379,0.0
320012.02908761695,3867225.878295721,-47500.0,-9974.741112203219,-2410.7621410048155,4823.4627517954705,-9741.3063538305414,-5607.5228217418953,-10301.107634118511,13932.798724019402,2188.1436949745539,-8878.5208172109342,8878.5208172109342,-2188.1436949745539,24907.235863517493,0.0
325012.02908761695,3867225.878295721,-47500.0,-9330.9829546091842,-3059.3540088917812,3745.2703057233075,-10649.363485974527,-8692.925342982704,-13756.727014231778,16262.33477857756,1048.362955297272,-8017.4812996141536,8017.4812996141536,-1048.362955297272,29042.286099394452,0.0
330012.02908761695,3867225.878295721,-47500.0,-8006.9942816442544,-3076.2782855753139,2371.0988557880332,-10711.618068928019,-12117.185271222148,-17525.516612185973,18695.443194553813,178.3483318471408,-6639.6332452110137,6639.6332452110137,-178.3483318471408,33319.310943195735,0.0
335012.02908761695,3867225.878295721,-47500.0,-6184.710251242529,-2161.1884768703749,930.94467523587389,-9553.9535778125992,-15465.959937223517,-21181.420808793795,20953.036128782682,-36.783079316342537,-4985.1694350507514,4985.1694350507514,36.783079316342537,37251.56820964146,0.0
340012.02908761695,3867225.878295721,-47500.0,-4310.1974217159359,-146.79963956919624,-190.12294220104562,-6949.1215137216295,-18096.669686576253,-24055.760022407241,22669.075235154818,793.58688111517586,-3519.4356962916036,3519.4356962916036,-793.58688111517586,40194.767392838883,0.0
345012.02908761695,3867225.878295721,-47500.0,-3049.6045730108144,2827.30969643446,-516.53565947798779,-3026.4204270908758,-19230.843837940836,-25320.01691578703,23458.006489947507,2885.0022840557353,-2859.2545425751682,2859.2545425751682,-2885.0022840557353,41469.687237258324,0.0
350012.02908761695,3867225.878295721,-47500.0,-3055.5435103401701,6186.0553703115356,343.64220848511258,1557.8120139275748,-18203.815000619248,-24239.227454474207,23046.683430451951,6053.3439240459356,-3532.1167086274545,3532.1167086274545,-6053.3439240459356,40602.081530473806,0.0
355012.02908761695,3867225.878295721,-47500.0,-4569.1757557387409,8991.896404894238,2454.0324494027441,5678.515888131169,-14825.024424215266,-20560.002707628595,21444.926854139758,9597.2622800039571,-5618.1926716975431,5618.1926716975431,-9597.2622800039571,37629.538737986441,0.0
360012.02908761695,3867225.878295721,-47500.0,-7114.4101570758912,10316.629210238338,5395.9646674711039,8163.395001571831,-9629.3101199213543,-14803.574244315154,19064.113761454864,12483.029916394909,-8524.9126951534163,8524.9126951534163,-12483.029916394909,33304.946422813991,0.0
365012.02908761695,3867225.878295721,-47500.0,-9641.1403655205522,9736.7378283350736,8394.5289795202461,8392.5876301459793,-3744.4192788639439,-8154.1593238102341,16650.061913928017,13832.532667703548,-11192.501243650131,11192.501243650131,-13832.532667703548,28956.149297885488,0.0
370012.02908761695,3867225.878295721,-47500.0,-11116.542769312893,7548.4008148341882,10695.929276475525,6597.1263798694108,1618.4627667373329,-1925.3570883546056,14928.556299822068,13369.593113658468,-12670.647429076229,12670.647429076229,-13369.593113658468,25867.719447578307,0.0
375012.02908761695,3867225.878295721,-47500.0,-11065.759260398921,4517.3576644648074,11901.809551252152,3606.5963717950608,5667.7721471433588,2990.2811735077867,14106.192000679548,11457.283200858847,-12586.659650522261,12586.659650522261,-11457.283200858847,24471.647068014845,0.0
380012.02908761695,3867225.878295721,-47500.0,-9647.220176200959,1431.572509585174,12027.87003971961,334.72229666438523,8185.7391140226564,6305.9208931263665,13825.011876275707,8771.5499264428163,-11162.485495691295,11162.485495691295,-8771.5499264428163,24208.051657825556,0.0
385012.02908761695,3867225.878295721,-47500.0,-7365.9768577663972,-1187.6941796740552,11343.680531993414,-2575.6575780874437,9366.0015996835882,8180.2260355713297,13648.025252896939,5944.8210389630885,-8918.5297124439567,8918.5297124439567,-5944.8210389630885,24252.245676736289,0.0
390012.02908761695,3867225.878295721,-47500.0,-4757.8577009484643,-3127.8608206021372,10181.238331518551,-4825.1253257999415,9569.1023129362457,8961.6706206959498,13344.46873524293,3392.0162433100277,-6377.528741690182,6377.528741690182,-3392.0162433100277,24090.327870599951,0.0
395012.02908761695,3867225.878295721,-47500.0,-2221.4387353287038,-4392.3742907739497,8819.6881704271636,-6366.5585430244,9152.0613365377412,9007.8237981769216,12858.960233659795,1305.3918923442995,-3917.4436744480035,3917.4436744480035,-1305.3918923442995,23553.722563624367,0.0
400012.02908761695,3867225.878295721,-47500.0,13.240790885970966,-5090.9719428615153,7449.2930175140336,-7285.6452941254229,8395.3372104117188,8606.6473262841337,12219.05065536923,-277.93705299709654,-1751.3886949460275,1751.3886949460275,277.93705299709654,22664.540971568629,0.0
405012.02908761695,3867225.878295721,-47500.0,1849.9079327468626,-5363.2447683021019,6179.4440383457077,-7714.3636527399431,7491.8802012674887,7962.7798067879648,11476.622044972348,-1404.4896059979933,34.55820046436645,-34.55820046436645,1404.4896059979933,21514.144087908826,0.0
410012.02908761695,3867225.878295721,-47500.0,3277.5670576230118,-5338.9783030760746,5060.9934475332602,-7784.1822633481033,6562.2409684110826,7210.8574708431443,10681.678072397744,-2153.9450994105441,1433.7313509167493,-1433.7313509167493,2153.9450994105441,20201.985479465606,0.0
415012.02908761695,3867225.878295721,-47500.0,4330.8351460230679,-5123.2704645739259,4107.9781501498965,-7606.7507525835745,5675.1661469449209,6434.556549719111,9873.7192583968135,-2610.5078089478038,2481.0986283680022,-2481.0986283680022,2610.5078089478038,18812.186002662431,0.0
420012.02908761695,3867225.878295721,-47500.0,5063.7022087066625,-4794.649451225142,3313.8967266464242,-7269.3592531656359,4865.3922421050747,5683.0663800432085,9080.8036102759233,-2849.536687348706,3228.706776300311,-3228.706776300311,2849.536687348706,17408.10342822973,0.0
425012.02908761695,3867225.878295721,-47500.0,5534.3471355659613,-4408.5942526957442,2662.3702058263007,-6836.8444543196911,4146.6711722254422,4983.1707917772783,8321.2902759218414,-2932.9714199596269,3731.6900482143897,-3731.6900482143897,2932.9714199596269,16033.969024150505,0.0
430012.02908761695,3867225.878295721,-47500.0,5797.3829164437075,-4002.5305429153377,2133.514247232556,-6355.6196314353647,3520.5473671432396,4347.5085099819435,7606.1652410048227,-2909.161284260847,4041.2593799033352,-4041.2593799033352,2909.161284260847,14718.666252071936,0.0
435012.02908761695,3867225.878295721,-47500.0,5900.5024191383955,-3600.5456663325585,1707.4246420959958,-5857.8345690896176,2981.9505307882937,3780.0104230989027,6941.1061227528417,-2814.5283583552646,4201.7835266335242,-4201.7835266335242,2814.5283583552646,13479.523411134134,0.0
440012.02908761695,3867225.878295721,-47500.0,5883.5789777049131,-3217.2758247971083,1365.8929723663141,-5365.0110429248143,2522.6449678423228,3279.4531128561484,6328.1519544370421,-2675.7810129679233,4250.1129178594656,-4250.1129178594656,2675.7810129679233,12325.590045063433,0.0
445012.02908761695,3867225.878295721,-47500.0,5778.9679892341082,-2860.8617033717451,1093.0836554281766,-4890.9320791517612,2133.2594956940961,2841.7315563514758,5766.9240852567154,-2512.0501620523464,4215.9845572112808,-4215.9845572112808,2512.0501620523464,11260.148611848952,0.0
450012.02908761695,3867225.878295721,-47500.0,5612.3543092665441,-2535.1113183738794,875.65161598356951,-4443.8660924572796,1804.4353038016675,2461.3065856108924,5255.5125429091222,-2336.7292145232732,4122.895480773318,-4122.895480773318,2336.7292145232732,10282.608810585996,0.0
260012.02908761695,3872225.878295721,-47500.0,612.45961475562046,3272.7596839593107,2141.1090199777341,1582.826369919859,2063.4830781766359,1195.708534489602,4048.825514243862,3757.6423004562453,-694.51030617508741,694.51030617508741,-3757.6423004562453,7362.6176209798004,0.0
265012.02908761695,3872225.878295721,-47500.0,184.43941676971403,3483.0822286135235,2482.0084874770896,1518.2837092793161,2283.3709947996017,1269.7375272562051,4394.6298653816684,4172.5026082194527,-1152.2871059026586,1152.2871059026586,-4172.5026082194527,7931.9379253282777,0.0
270012.02908761695,3872225.878295721,-47500.0,-358.50109419277436,3672.559825543653,2875.3869391755788,1385.2945269297998,2506.9926661584236,1319.3080555999154,4769.1225981096768,4614.6518971853047,-1710.2510811946886,1710.2510811946886,-4614.6518971853047,8539.4657270717798,0.0
275012.02908761695,3872225.878295721,-47500.0,-1033.9760612704792,3824.9892640072571,3325.183974084583,1160.6452881145219,2722.4025713576125,1327.0754846054062,5175.0271089850639,5075.5908099934813,-2380.9093544724246,2380.9093544724246,-5075.5908099934813,9189.7762443547836,0.0
280012.02908761695,3872225.878295721,-47500.0,-1857.8202870690911,3919.1223564209263,3832.8687753280542,815.94150239545729,2910.7835443477707,1268.065251832599,5616.7262339497929,5541.2332021930952,-3174.1040024088898,3174.1040024088898,-5541.2332021930952,9892.4458060984252,0.0
285012.02908761695,3872225.878295721,-47500.0,-2840.8591249591236,3928.242123104862,4395.5204533825363,317.73719853366509,3043.723634322781,1106.9887941462382,6101.8745570332139,5990.132684334073,-4093.9780919730902,4093.9780919730902,-5990.132684334073,10666.370354324838,0.0
290012.02908761695,3872225.878295721,-47500.0,-3983.9194861774813,3820.5850326110917,5003.1311297496104,-371.16172670485469,3079.8674095955444,794.99327787502227,6644.1961673785781,6391.7564639536477,-5134.5029732623634,5134.5029732623634,-6391.7564639536477,11546.315339467958,0.0
295012.02908761695,3872225.878295721,-47500.0,-5270.6606311944261,3561.4439737132734,5635.1090740251293,-1288.2578470534436,2961.1930171801982,266.07990597296561,7268.0205203505684,6705.4162995572806,-6273.3500991563469,6273.3500991563469,-6705.4162995572806,12591.479581584777,0.0
300012.02908761695,3872225.878295721,-47500.0,-6658.1324602221221,3118.2210886886005,6256.2856359944935,-2464.343159219964,2609.6818067768972,-566.0844210509,8014.8860144158061,6881.0316631386577,-7464.2870701364645,7464.2870701364645,-6881.0316631386577,13893.889877433163,0.0
305012.02908761695,3872225.878295721,-47500.0,-8065.8929120525572,2470.0801281677082,6813.3934767918508,-3911.0026894716129,1926.0722207336767,-1809.3360737003056,8950.9831535039739,6863.6732043736683,-8629.2085439457369,8629.2085439457369,-6863.6732043736683,15580.935213753135,0.0
310012.02908761695,3872225.878295721,-47500.0,-9366.4006192810848,1623.8261838318581,7234.1219420217976,-5600.662008406217,793.8800964050946,-3588.9965405365951,10169.179891937874,6604.6488360198864,-9652.6450379611833,9652.6450379611833,-6604.6488360198864,17803.124346248082,0.0
315012.02908761695,3872225.878295721,-47500.0,-10382.541804036067,636.46207041457933,7432.3827843486315,-7438.2776846665456,-906.1733495499218,-6033.2305766629224,11771.1676646786,6082.1273370975159,-10384.222005430007,10384.222005430007,-6082.1273370975159,20699.469118252251,0.0
320012.02908761695,3872225.878295721,-47500.0,-10902.229236190009,-358.56939588134412,7324.7635815256117,-9227.36303273265,-3264.3992590063253,-9239.7653749225883,13820.004093462401,5332.7071885681835,-10657.516178659365,10657.516178659365,-5332.7071885681835,24340.760991044604,0.0
325012.02908761695,3872225.878295721,-47500.0,-10723.212304197214,-1131.2494024602624,6862.7659991100836,-10640.928718148974,-6286.4177285214773,-13214.737319762642,16284.110745583803,4490.0125925399825,-10335.139351673528,10335.139351673528,-4490.0125925399825,28659.634432625859,0.0
330012.02908761695,3872225.878295721,-47500.0,-9738.9305758423307,-1360.6084282573872,6080.7836725037505,-11221.068624211401,-9812.7827422797291,-17778.666251747331,19000.688655602247,3815.6984553096509,-9385.5572370935843,9385.5572370935843,-3815.6984553096509,33380.384272762116,0.0
335012.02908761695,3872225.878295721,-47500.0,-8060.5797709512653,-694.88729148352877,5148.235744698587,-10446.715615213714,-13429.98177708907,-22451.742693746506,21658.126113881161,3692.9539806320718,-7981.0867320164652,7981.0867320164652,-3692.9539806320718,37968.566364529135,0.0
340012.02908761695,3872225.878295721,-47500.0,-6132.0437729476389,1107.1496109321658,4395.501035030301,-7914.8795328343558,-16420.324937398706,-26369.909304901772,23805.387099108717,4539.9185917625327,-6572.9888974391997,6572.9888974391997,-4539.9185917625327,41640.724599471076,0.0
345012.02908761695,3872225.878295721,-47500.0,-4732.3287301081136,3960.6933405937916,4263.8142763125843,-3644.9410929512478,-17838.173542691773,-28343.071131102861,24926.912727377108,6609.8786504026339,-5852.4641935617165,5852.4641935617165,-6609.8786504026339,43500.835955079143,0.0
350012.02908761695,3872225.878295721,-47500.0,-4717.2601913463013,7261.0235768498324,5132.437928848246,1608.0859215309511,-16809.110860753935,-27200.143590212425,24623.230759557278,9713.300245963439,-6486.5840749777954,6486.5840749777954,-9713.300245963439,42866.187703917305,0.0
355012.02908761695,3872225.878295721,-47500.0,-6463.6498510292613,9927.1915817126992,7049.9907862089922,6340.9280453727488,-13033.515180127381,-22438.188752599981,22881.078718730088,13045.599963539356,-8636.0316385165243,8636.0316385165243,-13045.599963539356,39743.749342925898,0.0
360012.02908761695,3872225.878295721,-47500.0,-9363.993409557017,10869.115934302414,9555.4694400047993,8906.7234834628707,-7187.7663500722574,-14803.041900445656,20286.906999258266,15410.341134623302,-11587.298879729233,11587.298879729233,-15410.341134623302,35182.770888387116,0.0
365012.02908761695,3872225.878295721,-47500.0,-12006.455442695882,9663.0099951797365,11838.578704077898,8499.1880277319033,-749.85900006489146,-6144.9399969643946,17896.953081348456,15872.257767188623,-14013.685585711673,14013.685585711673,-15872.257767188623,31011.154836268746,0.0
370012.02908761695,3872225.878295721,-47500.0,-13095.548526177612,6809.9779218696576,13197.91850957926,5620.432032713953,4770.5936031275342,1553.9343825566293,16561.419943340807,14319.072801017055,-14818.727111167524,14818.727111167524,-14319.072801017055,28686.911978684202,0.0
375012.02908761695,3872225.878295721,-47500.0,-12223.560389707513,3314.7379934275941,13389.065338457876,1569.8434490625923,8535.3507454118535,7129.0756962518144,16209.274687587122,11395.648041762945,-13755.453360537658,13755.453360537658,-11395.648041762945,28173.95289170674,0.0
380012.02908761695,3872225.878295721,-47500.0,-9832.3473406886169,68.444955925617592,12599.466630681305,-2416.2493398424799,10484.286794589279,10417.804363501135,16169.109579862528,7983.7871216593285,-11315.882143462231,11315.882143462231,-7983.7871216593285,28395.368138041165,0.0
385012.02908761695,3872225.878295721,-47500.0,-6691.4125970419545,-2450.6528535862449,11205.540705007004,-5622.3952793657445,11010.975595935426,11859.898664301121,15965.712526715251,4766.7502868150623,-8238.351805688837,8238.351805688837,-4766.7502868150623,28443.206054459726,0.0
390012.02908761695,3872225.878295721,-47500.0,-3468.4683623232536,-4136.4408222466154,9564.4026168904238,-7834.7016225503357,10615.376001695446,12051.723741312442,15466.299644350349,2100.3955494392112,-5134.406310108322,5134.406310108322,-2100.3955494392112,27964.193662225069,0.0
395012.02908761695,3872225.878295721,-47500.0,-576.34168502291686,-5092.1076295134581,7926.388483143568,-9134.7835147813785,9717.3281926048676,11504.151976832014,14711.214942176139,81.495510838467226,-2369.9384779940729,2369.9384779940729,-81.495510838467226,26961.425426849375,0.0
400012.02908761695,3872225.878295721,-47500.0,1801.8821509264944,-5493.3856067695142,6432.1984431788678,-9717.4813010455,8607.3205852994106,10577.187371288945,13789.04506446193,-1338.6704370791513,-99.689774326133147,99.689774326133147,1338.6704370791513,25571.30148628218,0.0
405012.02908761695,3872225.878295721,-47500.0,3633.2417172700216,-5513.0448747927267,5142.0254463388519,-9787.4064224805697,7462.3874305547024,9497.6615879209676,12783.386417263751,-2267.2197402056859,1656.0203288161858,-1656.0203288161858,2267.2197402056859,23946.656359105804,0.0
410012.02908761695,3872225.878295721,-47500.0,4963.5204288043642,-5291.4988429077994,4066.8644420505861,-9516.7721168773478,6378.9300677465599,8397.7948791473591,11757.412922960164,-2820.1993915405824,2945.6265995900208,-2945.6265995900208,2820.1993915405824,22213.882522416585,0.0
415012.02908761695,3872225.878295721,-47500.0,5870.1683509551121,-4931.9110032445278,3191.9181365050963,-9036.1457708877897,5402.1934085417106,7349.2746975340606,10753.599847804715,-3100.3954893495074,3843.9519528125829,-3843.9519528125829,3100.3954893495074,20464.611092455649,0.0
420012.02908761695,3872225.878295721,-47500.0,6436.2593893299882,-4505.2367834197394,2491.3878786598038,-8438.7446826066025,4547.4149744160186,6387.212166507079,9798.0110788829934,-3190.4628032249111,4429.1764089503913,-4429.1764089503913,3190.4628032249111,18759.973123677442,0.0
425012.02908761695,3872225.878295721,-47500.0,6738.1684425991671,-4057.7846374152132,1936.8143054853144,-7788.4523655228977,3813.4659942291019,5525.3939561239467,8905.0106633946361,-3153.2384540902258,4772.1867174765421,-4772.1867174765421,3153.2384540902258,17137.831006735159,0.0
430012.02908761695,3872225.878295721,-47500.0,6840.9675078605633,-3618.2264801875131,1501.2684947883326,-7127.5460301081494,3191.0924704101958,4765.5499853393349,8081.0966355606051,-3034.7532039772568,4932.8065688609049,-4932.8065688609049,3034.7532039772568,15619.451905560614,0.0
435012.02908761695,3872225.878295721,-47500.0,6797.7013051032591,-3203.1627703790496,1161.1364432992571,-6482.9505621600847,2667.6771203351645,4102.8906322989988,7327.7081508641877,-2867.8035813891056,4959.4353878270695,-4959.4353878270695,2867.8035813891056,14214.766817854668,0.0
440012.02908761695,3872225.878295721,-47500.0,6650.3775594153585,-2821.1997383417583,896.59707625779379,-5870.9133095865345,2229.8516834415927,3529.3764374466987,6643.1467602394359,-2675.1975385583519,4890.1589754159404,-4890.1589754159404,2675.1975385583519,12926.18161931589,0.0
445012.02908761695,3872225.878295721,-47500.0,6431.5832054280427,-2475.8230942340892,691.46564137133146,-5300.4002411770725,1864.8555558410078,3035.6532330368627,6023.8830433665307,-2472.4172188065359,4754.3597144312907,-4754.3597144312907,2472.4172188065359,11751.303740863792,0.0
450012.02908761695,3872225.878295721,-47500.0,6166.1685897593225,-2167.3509000778781,532.76178077353768,-4775.4928392230931,1561.1577321945583,2612.1649845950305,5465.4016324701925,-2269.6729846218968,4574.3417439261848,-4574.3417439261848,2269.6729846218968,10684.799087093144,0.0
260012.02908761695,3877225.878295721,-47500.0,1642.4507769914187,3506.8789714550717,1842.8500174206629,2291.1898001885388,2152.042543097506,1564.8678504064817,4412.8865701484519,3640.529258315235,143.14823318578078,-143.14823318578078,-3640.529258315235,8160.8112531959741,0.0
265012.02908761695,3877225.878295721,-47500.0,1317.1875451740268,3798.7977789745428,2164.5254089940363,2343.3628963538918,2418.0074849746707,1720.8794561599052,4803.0667435174937,4096.8648580334284,-241.76294478471618,241.76294478471618,-4096.8648580334284,8823.0271706366675,0.0
270012.02908761695,3877225.878295721,-47500.0,876.9541378107408,4090.673618924699,2545.298305118878,2343.7969593925504,2703.9952564342652,1870.7819295606041,5224.0359274351777,4600.9546528189467,-731.62069104503189,731.62069104503189,-4600.9546528189467,9525.1653377408929,0.0
275012.02908761695,3877225.878295721,-47500.0,298.3277439453696,4370.1898910634336,2993.8406442111404,2269.4842304721815,3003.0072697477685,2000.6603138717721,5676.2272611312255,5150.8025115139226,-1345.2813642861624,1345.2813642861624,-5150.8025115139226,10265.309524158103,0.0
280012.02908761695,3877225.878295721,-47500.0,-443.10861979521798,4619.9026967951986,3518.3311588755159,2090.692052562214,3302.2928069315462,2088.9937419489843,6160.0393297230748,5740.2007854628282,-2101.6372468153459,2101.6372468153459,-5740.2007854628282,11042.312818361397,0.0
285012.02908761695,3877225.878295721,-47500.0,-1370.2532060149667,4816.1803875013047,4125.0682063892236,1770.0920170340075,3580.5792646311425,2103.4077038494574,6676.6414510563754,6356.8234882003453,-3017.2141187038646,3017.2141187038646,-6356.8234882003453,11858.503101024908,0.0
290012.02908761695,3877225.878295721,-47500.0,-2500.0488483548993,4928.5798410600974,4816.246809386621,1262.6926378933827,3804.3783820067142,1996.3805652882522,7229.8214890042036,6979.9812484865224,-4102.1409180717974,4102.1409180717974,-6979.9812484865224,12724.960239305519,0.0
295012.02908761695,3877225.878295721,-47500.0,-3836.3253626903006,4920.4004903300065,5586.6702316027558,517.57369985888579,3923.3835884978907,1699.8755733066523,7829.7828939403435,7578.4109831546502,-5353.9186973129144,5353.9186973129144,-7578.4109831546502,13670.70797919183,0.0
300012.02908761695,3877225.878295721,-47500.0,-5359.1854628707624,4751.7064909160681,6419.342450381203,-516.87086480170251,3865.4059888398247,1119.3184061390753,8500.3064970777486,8109.0154717129844,-6748.5794333906106,6748.5794333906106,-8109.0154717129844,14756.666090365681,0.0
305012.02908761695,3877225.878295721,-47500.0,-7010.8633336533776,4386.7806973151473,7280.4073405139916,-1881.5678793229804,3532.2284635405931,128.33536128004255,9290.7210271884323,8518.3657114643283,-8229.5514237886418,8229.5514237886418,-8518.3657114643283,16092.317919136105,0.0
310012.02908761695,3877225.878295721,-47500.0,-8679.838674203269,3808.4594868833774,8114.9947176217938,-3585.8602628677604,2799.4779679986891,-1432.3521020502019,10290.963640269649,8749.9728088464763,-9696.2989379041828,9696.2989379041828,-8749.9728088464763,17845.774399783517,0.0
315012.02908761695,3877225.878295721,-47500.0,-10188.767517282658,3041.2676688723932,8847.3319703729467,-5573.8445165385174,1526.297307793684,-3745.0783440702025,11635.137430655595,8761.3134122015108,-10998.055479735085,10998.055479735085,-8761.3134122015108,20227.985843782284,0.0
320012.02908761695,3877225.878295721,-47500.0,-11297.767735591027,2182.1533427168383,9390.5487164242986,-7677.8933431720934,-416.28021322320109,-6982.876569345538,13461.167200807453,8553.8840683732233,-11942.594782646236,11942.594782646236,-8553.8840683732233,23431.010975638939,0.0
325012.02908761695,3877225.878295721,-47500.0,-11741.127524491934,1430.0298224594319,9672.2479398506694,-9568.4134097360602,-3087.8640666016931,-11238.59232234742,15821.737980117538,8214.5583428504851,-12334.031546040123,12334.031546040123,-8214.5583428504851,27521.400588240158,0.0
330012.02908761695,3877225.878295721,-47500.0,-11317.077593480453,1092.7865236345017,9677.8363852123548,-10726.845310456991,-6386.6732451142707,-16400.656826858707,18605.919098378872,7954.473308333525,-12052.047875074704,12052.047875074704,-7954.473308333525,32318.809740228648,0.0
335012.02908761695,3877225.878295721,-47500.0,-10036.230500808069,1537.2536878342564,9501.3626757254915,-10494.645258296758,-9935.8125991096185,-21978.810604461763,21501.512601826984,8113.0658117618705,-11169.490980520977,11169.490980520977,-8113.0658117618705,37300.607745932146,0.0
340012.02908761695,3877225.878295721,-47500.0,-8290.4663149430271,3046.128269117562,9373.9030607568347,-8271.8500317290946,-12999.099377154151,-26935.823565028739,23992.181597731542,9078.4108226506378,-10067.490428071689,10067.490428071689,-9078.4108226506378,41582.144305233604,0.0
345012.02908761695,3877225.878295721,-47500.0,-6919.7950427965952,5578.6096311521096,9621.557654191558,-3914.936608048878,-14532.908588373642,-29681.998140120191,25435.493596033706,11082.156134964043,-9444.7475031042632,9444.7475031042632,-11082.156134964043,44059.176192739033,0.0
350012.02908761695,3877225.878295721,-47500.0,-6959.9112295830419,8530.3990122866253,10510.709354747694,1769.6804110177343,-13513.537638185513,-28494.870363570706,25301.09946813601,13897.977324347696,-10061.748391901645,10061.748391901645,-13897.977324347696,43826.381045290218,0.0
355012.02908761695,3877225.878295721,-47500.0,-8929.8662373189673,10750.489731479209,12008.966628850449,6878.278802590833,-9563.0190924835388,-22511.076764580172,23581.981778217909,16646.85613931029,-12154.824787463765,12154.824787463765,-16646.85613931029,40868.862808766738,0.0
360012.02908761695,3877225.878295721,-47500.0,-12075.088343102252,11084.451476500719,13646.441213944734,9217.5435377544036,-3493.9740822986091,-12761.532594178856,21123.40818185205,18069.684345248887,-14905.915855788826,14905.915855788826,-18069.684345248887,36603.726168744404,0.0
365012.02908761695,3877225.878295721,-47500.0,-14586.13835009926,9196.1682792402007,14721.282485460957,7818.6588336093746,2921.4722804822818,-2002.6072826331151,19245.6406505618,17318.885000080943,-16755.019235209369,16755.019235209369,-17318.885000080943,33334.473767456744,0.0
370012.02908761695,3877225.878295721,-47500.0,-14952.283249874756,5815.8995084839589,14758.82938236619,3609.7723039729708,7999.5638621785647,6951.6400825857245,18655.525920166947,14559.956117380583,-16550.186814668545,16550.186814668545,-14559.956117380583,32315.424080065404,0.0
375012.02908761695,3877225.878295721,-47500.0,-12969.428318784392,2118.0029201290163,13765.78108061061,-1525.9989438074479,10997.062100798206,12738.768011009486,18832.053590873136,10725.762119526549,-14286.867427377965,14286.867427377965,-10725.762119526549,32735.587973761794,0.0
380012.02908761695,3877225.878295721,-47500.0,-9463.1357999923312,-1015.1554783558786,12088.20642271617,-6060.642268976796,12085.68970215045,15504.680839152801,18895.103768875917,6815.2270537001332,-10778.787595589993,10778.787595589993,-6815.2270537001332,33184.932140738914,0.0
385012.02908761695,3877225.878295721,-47500.0,-5469.4036731771275,-3228.7504980707563,10134.830919713073,-9312.1686145944059,11847.327217957127,16101.119869524604,18494.250800254853,3457.8501715984976,-6949.4701546109,6949.4701546109,-3457.8501715984976,32934.625280527362,0.0
390012.02908761695,3877225.878295721,-47500.0,-1732.1421427346609,-4547.9906411437187,8211.5546188228745,-11241.760291333854,10865.917049663223,15412.803971190202,17662.269485990691,884.44713840081431,-3432.3618454005032,3432.3618454005032,-884.44713840081431,31901.893005506652,0.0
395012.02908761695,3877225.878295721,-47500.0,1380.7629822910012,-5163.267878898474,6489.2747833018338,-12103.598251933223,9566.7870122002641,14090.324098403951,16545.903991263378,-925.94730337918816,-524.95687032206376,524.95687032206376,925.94730337918816,30277.754413905175,0.0
400012.02908761695,3877225.878295721,-47500.0,3772.1988651100864,-5290.7412452208064,5034.882222428937,-12210.826074842063,8209.1467561637419,12535.49494888498,15287.115742547785,-2103.5081259488852,1708.2708309316556,-1708.2708309316556,2103.5081259488852,28298.116189014869,0.0
405012.02908761695,3877225.878295721,-47500.0,5490.8012596588742,-5112.2109726749404,3852.6506177140841,-11833.00803182303,6929.9816536335829,10969.195912375937,13990.381357696278,-2801.3658984223694,3324.5331202868638,-3324.5331202868638,2801.3658984223694,26157.390135559628,0.0
410012.02908761695,3877225.878295721,-47500.0,6643.779941857656,-4761.0037211678628,2915.9685863593118,-11170.549393619676,5789.8291684071164,9500.5897098033074,12722.752911070915,-3156.5118676958637,4427.4534140474243,-4427.4534140474243,3156.5118676958637,23992.06000760847,0.0
415012.02908761695,3877225.878295721,-47500.0,7349.1511994786688,-4327.1698951131248,2186.8947921251788,-10361.127841974923,4806.1642934648689,8175.8882239119812,11522.875098905926,-3277.7616015572421,5126.6800351421043,-5126.6800351421043,3277.7616015572421,21889.037618143531,0.0
420012.02908761695,3877225.878295721,-47500.0,7714.243616946248,-3867.9036660612774,1626.5693708836275,-9494.6601112687404,3974.3682683043394,7007.909926031939,10410.239105692523,-3246.096527552224,5520.1943045366706,-5520.1943045366706,3246.096527552224,19899.078199289703,0.0
425012.02908761695,3877225.878295721,-47500.0,7828.4977090997108,-3417.4476986117847,1199.9769385256479,-8627.5083421654272,3279.8369220256886,5992.6813666282878,9392.2866461639333,-3119.3657725871235,5688.7825672700965,-5688.7825672700965,3119.3657725871235,18048.526258342463,0.0
430012.02908761695,3877225.878295721,-47500.0,7762.9805332482565,-2994.8092140036642,877.58628499715951,-7793.4168796917002,2704.5371644840479,5118.3935874708004,8469.2495612550829,-2937.6936965849154,5696.1345864813911,-5696.1345864813911,2937.6936965849154,16347.957695419635,0.0
435012.02908761695,3877225.878295721,-47500.0,7572.5499394718427,-2609.2684553144918,635.44615680359186,-7011.2531485371628,2230.3545388220218,4370.1534674074692,7637.2780858130263,-2728.2284229166044,5591.0934038838377,-5591.0934038838377,2728.2284229166044,14798.131545458242,0.0
440012.02908761695,3877225.878295721,-47500.0,7298.7205935349975,-2264.106351658952,454.60080423071366,-6290.2578271345974,1840.6401803575791,3732.4560395039011,6890.3747633581079,-2508.8763808530871,5410.4100038951383,-5410.4100038951383,2508.8763808530871,13393.905661999341,0.0
445012.02908761695,3877225.878295721,-47500.0,6972.4183638114555,-1959.056202372464,320.28852362666811,-5633.5510036630603,1520.8032080525088,3190.4412215739276,6221.5713696234297,-2291.0885471061101,5181.3233191614945,-5181.3233191614945,2291.0885471061101,12126.784448070272,0.0
450012.02908761695,3877225.878295721,-47500.0,6616.3665815048489,-1691.8826420197609,221.1396984636097,-5040.4743368284671,1258.4165806456431,2730.5015264577833,5623.649744450493,-2081.8822429404154,4923.7594529672051,-4923.7594529672051,2081.8822429404154,10986.594903008649,0.0
255012.02908761695,3882225.878295721,-47500.0,2854.5954800135887,3261.5968311141164,1242.5075766258035,2833.578455585196,1887.1152482674302,1721.68406847601,4395.0899028121839,2942.1005305791246,1278.8588428723092,-1278.8588428723092,-2942.1005305791246,8291.0262954167902,0.0
260012.02908761695,3882225.878295721,-47500.0,2742.6899850090576,3590.2544443167603,1473.6652562148456,3032.9993396270424,2148.1759422808987,1947.4017547871736,4805.361145312685,3349.2481759071097,1078.5001102039353,-1078.5001102039353,-3349.2481759071097,9019.1286854704722,0.0
265012.02908761695,3882225.878295721,-47500.0,2546.9641499973272,3942.5729100350645,1753.8506019816045,3218.5760298428113,2442.1285117987454,2193.7041642681243,5252.437964992615,3813.5415617853296,796.90168569955472,-796.90168569955472,-3813.5415617853296,9801.7835047400422,0.0
270012.02908761695,3882225.878295721,-47500.0,2244.095180028391,4314.4399537800482,2093.3498663781129,3375.7639216884932,2769.5215112149913,2456.3787050658598,5737.1265719439643,4340.4447121756566,413.8140515778689,-413.8140515778689,-4340.4447121756566,10636.778643162792,0.0
275012.02908761695,3882225.878295721,-47500.0,1806.5645372087154,4698.499075678611,2504.0389641109418,3484.1285279426074,3128.4264319020572,2726.8782769643794,6259.1768801795424,4934.2686328442142,-94.306470340487522,94.306470340487522,-4934.2686328442142,11519.455020406063,0.0
280012.02908761695,3882225.878295721,-47500.0,1203.0543528777114,5082.9212917938312,2999.1547188574982,3515.6416908834158,3512.7772751398766,2989.9375106735934,6816.9713827843834,5597.0257828175399,-753.81105601519039,753.81105601519039,-5597.0257828175399,12442.499550997391,0.0
285012.02908761695,3882225.878295721,-47500.0,399.88033553625075,5449.9756082464764,3592.6319032818146,3432.8481030455223,3909.9047837310723,3220.0949014623257,7407.3505130210633,6326.7604764048519,-1592.4520330291348,1592.4520330291348,-6326.7604764048519,13396.459802320453,0.0
290012.02908761695,3882225.878295721,-47500.0,-635.76426710936857,5774.6150356871176,4297.7184644397485,3187.3043524294726,4297.0018286702589,3376.7521312488038,8025.9129135314397,7115.2761335583145,-2636.420346551477,2636.420346551477,-7115.2761335583145,14371.909999412535,0.0
295012.02908761695,3882225.878295721,-47500.0,-1929.6585039180338,6023.6095663454371,5124.4971739613693,2719.1567972473963,4636.3031655087025,3397.4135323284245,8668.5153116849979,7945.3464938878769,-3904.9630358991235,3904.9630358991235,-7945.3464938878769,15364.888290222934,0.0
300012.02908761695,3882225.878295721,-47500.0,-3490.128135645602,6156.3254005538402,6075.9281595393495,1959.5945561895842,4869.0338529672972,3189.0423241726062,9335.4872994254474,8787.9083330389658,-5401.5722298440169,5401.5722298440169,-8787.9083330389658,16388.1347999301,0.0
305012.02908761695,3882225.878295721,-47500.0,-5292.1668315591833,6129.1253250831942,7142.289795999317,839.24151200541644,4908.965837177966,2618.3897513013499,10041.435025403902,9600.5940060278572,-7101.0535581630093,7101.0535581630093,-9600.5940060278572,17490.983157436691,0.0
310012.02908761695,3882225.878295721,-47500.0,-7256.3585596585417,5906.3618987003838,8294.7356309650932,-692.77452270230106,4638.1508153756831,1504.3556738855712,10834.717421317371,10330.374888535518,-8933.1953395623914,8933.1953395623914,-10330.374888535518,18787.773242089497,0.0
315012.02908761695,3882225.878295721,-47500.0,-9226.8111764562473,5481.2799839753034,9480.46832413841,-2633.2046759405853,3910.5741298182447,-380.13734938481565,11825.691288728945,10924.778040089464,-10767.228912033295,10767.228912033295,-10924.778040089464,20482.702596120514,0.0
320012.02908761695,3882225.878295721,-47500.0,-10960.015328427737,4907.8837743920021,10624.735917393004,-4868.556280006439,2573.9691270777471,-3282.0464477100836,13193.336194912743,11356.671552172207,-12407.451943794291,12407.451943794291,-11356.671552172207,22855.460736962301,0.0
325012.02908761695,3882225.878295721,-47500.0,-12147.015202575212,4336.9070991553854,11646.780653739492,-7104.0484216869972,523.65419600127416,-7394.4872158336293,15102.914298775831,11663.523146567612,-13617.67875998751,13617.67875998751,-11663.523146567612,26159.166757427331,0.0
330012.02908761695,3882225.878295721,-47500.0,-12497.937565046868,4033.6366935324249,12493.7288920274,-8805.8365769134689,-2201.2723584268688,-12708.50576974353,17557.952517023223,11988.857752441203,-14194.289036074912,14194.289036074912,-11988.857752441203,30428.045122564177,0.0
335012.02908761695,3882225.878295721,-47500.0,-11906.198208742509,4337.8037501028894,13182.811633194082,-9220.8860113804549,-5289.7194147033488,-18780.650126700224,20313.263133764907,12591.234323127024,-14093.072326357291,14093.072326357291,-12591.234323127024,35279.695731898952,0.0
340012.02908761695,3882225.878295721,-47500.0,-10661.55036686476,5523.7643927148729,13820.285732948385,-7574.9714404081096,-8054.0871649106421,-24470.278916421605,22854.621767460616,13767.845052955205,-13573.741895595564,13573.741895595564,-13767.845052955205,39829.458550401243,0.0
345012.02908761695,3882225.878295721,-47500.0,-9582.2443611419385,7558.6375505536625,14553.724306877317,-3541.7840711948838,-9468.1571966786578,-27840.390345616404,24472.72169467216,15654.591392334452,-13256.415438221367,13256.415438221367,-15654.591392334452,42831.677855732705,0.0
350012.02908761695,3882225.878295721,-47500.0,-9797.783684297845,9861.3700617039449,15441.467217253394,2087.2867315509047,-8504.382161632273,-26612.254993177263,24583.889079812478,17945.986349070256,-13904.205524554316,13904.205524554316,-17945.986349070256,43196.233581694782,0.0
355012.02908761695,3882225.878295721,-47500.0,-11925.103464136007,11331.139804953898,16303.498099242923,7081.6602393502708,-4806.5962072944794,-19517.7200550665,23330.365531098083,19748.53488335773,-15792.453402052226,15792.453402052226,-19748.53488335773,40911.792259258153,0.0
360012.02908761695,3882225.878295721,-47500.0,-15070.832146459456,10927.337317854173,16715.994104477406,8760.471384320681,726.69857041571424,-7898.323406557718,21734.372349219542,19919.341009082436,-18047.960105675858,18047.960105675858,-19919.341009082436,37734.571247999826,0.0
365012.02908761695,3882225.878295721,-47500.0,-17094.553653880255,8504.6528698641469,16265.636256924958,6090.7846284597608,6257.5901572494122,4485.3986873679851,20841.822833196646,17884.682315448954,-18996.090907855621,18996.090907855621,-17884.682315448954,36117.003513237272,0.0
370012.02908761695,3882225.878295721,-47500.0,-16413.094774873494,4952.4260695516841,14868.286190279227,532.52885386028129,10205.839570657739,14012.276350842261,21125.337743804092,14127.940485222951,-17570.998682814316,17570.998682814316,-14127.940485222951,36597.652860868038,0.0
375012.02908761695,3882225.878295721,-47500.0,-13160.739979591903,1437.64525711532,12805.830056032508,-5467.4269872489667,12071.270239373525,19309.715146066403,21696.226893452687,9749.239048902682,-14088.487174017644,14088.487174017644,-9749.239048902682,37662.611555598967,0.0
380012.02908761695,3882225.878295721,-47500.0,-8567.8237632109103,-1305.2751313235694,10495.479353361308,-10223.543677598727,12232.362657147651,21000.904624375591,21659.779599760121,5706.867604007246,-9652.7871293849439,9652.7871293849439,-5706.867604007246,37968.505977528555,0.0
385012.02908761695,3882225.878295721,-47500.0,-3866.2441191807852,-3085.4809951452894,8274.7290665087585,-13213.838949878953,11349.235128574337,20397.948097415803,20911.19079555069,2482.5893782450244,-5285.0739762036665,5285.0739762036665,-2482.5893782450244,37153.141980869972,0.0
390012.02908761695,3882225.878295721,-47500.0,206.43199534358251,-4032.6583908549255,6331.9692950466024,-14633.967351919582,9983.9371142196724,18639.838134893929,19662.238366478952,161.70148188285953,-1565.356114679262,1565.356114679262,-161.70148188285953,35421.478732719435,0.0
395012.02908761695,3882225.878295721,-47500.0,3379.7335033761697,-4377.7494942250632,4732.4729211447584,-14916.586839313204,8499.0381176384162,16461.308127331537,18149.375295245303,-1374.7804307074721,1316.1212982394172,-1316.1212982394172,1374.7804307074721,33120.541125052332,0.0
400012.02908761695,3882225.878295721,-47500.0,5663.4408988660225,-4337.2091399748433,3467.7910195506356,-14475.4654620154,7088.8279427416555,14259.50791430282,16549.533736837042,-2308.0767370804015,3394.7928429147205,-3394.7928429147205,2308.0767370804015,30551.482701081473,0.0
405012.02908761695,3882225.878295721,-47500.0,7189.3532006270725,-4075.2973643943474,2495.3814882848969,-13623.249327732374,5838.4460877771671,12218.552201646546,14974.312294634907,-2810.5916765754182,4799.8310581756168,-4799.8310581756168,2810.5916765754182,27924.870663902639,0.0
410012.02908761695,3882225.878295721,-47500.0,8119.2443366576244,-3703.5133039638163,1762.6222381835501,-12570.375039017576,4771.8996359128587,10406.543725532174,13485.700912328293,-3021.1537226105675,5679.3554886528027,-5679.3554886528027,3021.1537226105675,25370.888385836155,0.0
415012.02908761695,3882225.878295721,-47500.0,8602.8001403502276,-3292.0622293363845,1218.9167807435788,-11448.822364808984,3882.8320300056653,8834.6147005652856,12113.183389971706,-3042.5281083586742,6167.1839315618872,-6167.1839315618872,3042.5281083586742,22962.054320995001,0.0
420012.02908761695,3882225.878295721,-47500.0,8763.5429930634436,-2882.3423656595387,820.62557882302315,-10336.994178257946,3151.9722131845647,7488.6175454127506,10866.736478683655,-2947.105909436892,6372.4114521873198,-6372.4114521873198,2947.105909436892,20733.48907847434,0.0
425012.02908761695,3882225.878295721,-47500.0,8697.6559861174974,-2496.9410281538317,532.2555068759201,-9278.824407782351,2556.2295438193614,6344.8395673667219,9745.4034112095251,-2784.2169954907031,6379.3301988300964,-6379.3301988300964,2784.2169954907031,18697.450117093456,0.0
430012.02908761695,3882225.878295721,-47500.0,8477.6319140048945,-2146.7083166555162,325.93868366007797,-8296.7973800057116,2073.0413741684197,5377.3461988835652,8742.5324429717093,-2586.6082888157416,6251.0920245594843,-6251.0920245594843,2586.6082888157416,16852.816015817396,0.0
435012.02908761695,3882225.878295721,-47500.0,8157.0140562584302,-1835.462255905195,180.28444747975922,-7400.344778565036,1682.2079566210923,4561.2203879795552,7848.8367375506905,-2375.4782157548352,6034.0979859647241,-6034.0979859647241,2375.4782157548352,15191.011091003837,0.0
440012.02908761695,3882225.878295721,-47500.0,7774.7803753574826,-1562.9953804936752,79.121160851423667,-6591.1227205816676,1366.4551472666894,3873.8559303202669,7054.1149812939657,-2164.146432694416,5761.9639256749879,-5761.9639256749879,2164.146432694416,13699.611525925491,0.0
445012.02908761695,3882225.878295721,-47500.0,7358.9327149077399,-1326.943383897044,10.351176043063838,-5866.2903263638927,1111.3950446512717,3295.3480029115922,6348.1789945685641,-1960.6371348253315,5458.7336551077615,-5458.7336551077615,1960.6371348253315,12364.497862684359,0.0
450012.02908761695,3882225.878295721,-47500.0,6929.3123496943817,-1123.923779354496,-35.005308665151048,-5220.5595035378401,905.238206329842,2808.4864993056626,5721.349379995394,-1769.4691159979168,5141.3782282107832,-5141.3782282107832,1769.4691159979168,11171.163462451648,0.0
455012.02908761695,3882225.878295721,-47500.0,6499.7280869584847,-950.20566222685659,-63.574395491089291,-4647.4538545149589,738.42087231420066,2398.5616977903042,5164.6814803244506,-1592.8744855908037,4821.6746648210537,-4821.6746648210537,1592.8744855908037,10105.456953049419,0.0
255012.02908761695,3887225.878295721,-47500.0,3843.9233757683851,3151.8220946299202,883.41904068568988,3459.8768754885082,1779.8308684875033,2028.5994703972051,4744.1611290121164,2511.9867878767645,2154.6974474482786,-2154.6974474482786,-2511.9867878767645,9050.0440771578687,0.0
260012.02908761695,3887225.878295721,-47500.0,3864.5631725512935,3499.5179770135574,1061.9299224811093,3778.2294742225304,2040.1854546329278,2328.7688823668555,5210.8849693429038,2886.5453309116883,2069.1157323905654,-2069.1157323905654,-2886.5453309116883,9897.5325841891208,0.0
265012.02908761695,3887225.878295721,-47500.0,3816.7096266321073,3882.170347273644,1283.1417028183491,4106.7662779339007,2338.7401039770252,2669.3522853330242,5724.2034320312214,3321.7055327841986,1914.5950978048427,-1914.5950978048427,-3321.7055327841986,10818.869208862458,0.0
270012.02908761695,3887225.878295721,-47500.0,3676.5996846795792,4299.6573052082786,1557.7340947423861,4435.425694466313,2679.0074885091317,3051.6760373709894,6286.2913806638117,3826.4171348327454,1669.9794580256514,-1669.9794580256514,-3826.4171348327454,11813.864617944364,0.0
275012.02908761695,3887225.878295721,-47500.0,3414.7150604623812,4749.7061962616926,1898.8425422809569,4748.6252377715409,3063.3183436162058,3474.2276435557533,6898.0910019345101,4410.0420725000668,1309.2484534135426,-1309.2484534135426,-4410.0420725000668,12879.085151902307,0.0
280012.02908761695,3887225.878295721,-47500.0,2995.2482817511946,5226.7807792306066,2322.356317519103,5023.1831982359954,3491.6371322632081,3930.563954644781,7558.6133575485328,5081.7134692491472,801.12671116613774,-801.12671116613774,-5081.7134692491472,14006.654677885135,0.0
285012.02908761695,3887225.878295721,-47500.0,2376.2343485154183,5720.6097419660164,2847.005556818408,5225.7306808229159,3959.677246486382,4406.0527331843396,8264.0315465265521,5849.2137416929963,109.28266812339143,-109.28266812339143,-5849.2137416929963,15183.025085464955,0.0
290012.02908761695,3887225.878295721,-47500.0,1511.0947817012093,6214.3902312364471,3493.9790909452722,5309.7817194730833,4455.9906091996318,4872.9095965607803,9006.6378030903088,6717.1640830127426,-806.25554837846357,806.25554837846357,-6717.1640830127426,16388.178046315112,0.0
295012.02908761695,3887225.878295721,-47500.0,352.81951999393874,6682.9137586133011,4285.6534110924513,5213.0249087593311,4957.6414760771668,5282.8397857854625,9773.9407769000645,7684.3395873590653,-1985.4587241364729,1985.4587241364729,-7684.3395873590653,17596.273852158782,0.0
300012.02908761695,3887225.878295721,-47500.0,-1137.3672762994026,7091.3352861080684,5242.8360916300508,4856.2777212307265,5424.1383294821417,5556.6304167051503,10548.726312105404,8740.1246664727278,-3460.9566103082875,3460.9566103082875,-8740.1246664727278,18779.850150986596,0.0
305012.02908761695,3887225.878295721,-47500.0,-2974.55831980632,7396.2037183584243,6379.8480792173941,4147.1520136422632,5789.7731062822777,5570.6420429540549,11312.180466023807,9860.7322597755974,-5245.257386485242,5245.257386485242,-9860.7322597755974,19921.410769152553,0.0
310012.02908761695,3887225.878295721,-47500.0,-5126.1811678393924,7551.7475657859923,7697.1379776273943,2993.9890099468321,5955.9389573696062,5142.1802411445742,12054.905760533042,11007.158204247655,-7311.4351214754251,7311.4351214754251,-11007.158204247655,21038.072524412964,0.0
315012.02908761695,3887225.878295721,-47500.0,-7481.061373606989,7525.7604973437556,9172.4933691399347,1338.4771860627543,5788.2445642330358,4020.7157636249985,12804.941484529467,12129.03693635641,-9569.1752678949197,9569.1752678949197,-12129.03693635641,22223.487346038721,0.0
320012.02908761695,3887225.878295721,-47500.0,-9821.7811803697077,7328.7493279227192,10754.846156850341,-784.17736999101976,5128.8967575455681,1901.5210770941333,13677.500679690633,13180.605991447408,-11845.198991539781,11845.198991539781,-13180.605991447408,23696.004623297777,0.0
325012.02908761695,3887225.878295721,-47500.0,-11825.405532897308,7052.9441335492793,12368.218121941181,-3157.1252771365093,3841.1747082990296,-1507.9184655097949,14889.190602091334,14152.993178476232,-13888.169840925477,13888.169840925477,-14152.993178476232,25798.504183075518,0.0
330012.02908761695,3887225.878295721,-47500.0,-13131.539900723146,6899.7712016273135,13932.613595523329,-5292.1336445820416,1901.9705950250288,-6328.3844288454166,16589.683402029681,15113.96022132793,-15426.059729929502,15426.059729929502,-15113.96022132793,28850.003895441489,0.0
335012.02908761695,3887225.878295721,-47500.0,-13508.781490708619,7150.3966657185465,15394.903344526007,-6412.4872480672602,-465.03757453272055,-12231.328877775622,18626.737055233571,16219.128348540242,-16291.476446341945,16291.476446341945,-16219.128348540242,32825.676990811859,0.0
340012.02908761695,3887225.878295721,-47500.0,-13096.000775355669,8031.2272714827059,16735.970437549691,-5632.4568626226455,-2679.440922081274,-18092.399688561694,20542.462781599053,17636.999110542471,-16583.208015709584,16583.208015709584,-17636.999110542471,37069.889309866638,0.0
345012.02908761695,3887225.878295721,-47500.0,-12586.220596202998,9483.7360802211897,17912.013535154074,-2458.8952423484889,-3849.0488714249245,-21794.681702869828,21772.447910460054,19360.874522316913,-16759.67907840099,16759.67907840099,-19360.874522316913,40350.80696968703,0.0
350012.02908761695,3887225.878295721,-47500.0,-13065.603113722978,10970.381837681389,18747.954207290302,2419.7196811343265,-3111.4146938954877,-20669.482504211133,22400.04129174212,20991.764891109069,-17481.032429366769,17481.032429366769,-20991.764891109069,41466.655655422888,0.0
355012.02908761695,3887225.878295721,-47500.0,-15168.073312101396,11571.472733594514,18908.643812710299,6655.0919887912278,-249.34801601901211,-13111.589024304269,22755.053351846458,21714.12639439986,-19016.290141925161,19016.290141925161,-21714.12639439986,40374.840673290215,0.0
360012.02908761695,3887225.878295721,-47500.0,-17938.598398327715,10547.82916293143,18074.403183755974,7321.9288725135257,3870.015314091328,-667.09983827408087,22455.061543225216,20693.240199775933,-20533.768194119762,20533.768194119762,-20693.240199775933,38894.415067981616,0.0
365012.02908761695,3887225.878295721,-47500.0,-19125.114533735505,7989.3618422083009,16217.079242726422,3444.1986243451029,7706.7808496454836,12169.196277412106,22385.016623264801,17738.942961115514,-20435.403580508762,20435.403580508762,-17738.942961115514,39085.234896463138,0.0
370012.02908761695,3887225.878295721,-47500.0,-17267.712008192037,4763.8643323530323,13669.993858130774,-3083.6520566922791,10103.782256430972,21282.266498175151,23408.808334757137,13537.763155297593,-17863.889562986384,17863.889562986384,-13537.763155297593,40662.805839451757,0.0
375012.02908761695,3887225.878295721,-47500.0,-12862.290034893287,1809.2706805036692,10914.326433740884,-9479.8712014440753,10845.099060881603,25463.698796581237,24171.561764594851,9137.409033221782,-13418.418270098733,13418.418270098733,-9137.409033221782,41895.338039865601,0.0
380012.02908761695,3887225.878295721,-47500.0,-7431.1514893846652,-377.44701121591953,8336.822814344956,-14081.94821659437,10359.215391025902,25794.825824681313,23905.301087239131,5317.6459732723815,-8370.4752642705771,8370.4752642705771,-5317.6459732723815,41784.67962818165,0.0
385012.02908761695,3887225.878295721,-47500.0,-2280.2000662188721,-1736.7738216569733,6142.3501190088218,-16587.813984570224,9210.4448878013609,23933.841322076543,22775.158423071884,2395.3273071695894,-3738.249523245323,3738.249523245323,-2395.3273071695894,40327.89347035074,0.0
390012.02908761695,3887225.878295721,-47500.0,1925.9075587748148,-2429.7925762146056,4386.702234449418,-17407.49611661139,7830.1319635552572,21163.587450752377,21135.598533696058,356.28874702963014,-6.8134424178059305,6.8134424178059305,-356.28874702963014,37940.89082443092,0.0
395012.02908761695,3887225.878295721,-47500.0,5030.4174397844181,-2665.4949600631476,3040.464947939879,-17107.735264282826,6471.8137037700189,18230.741468741606,19280.973043214886,-960.37716783754104,2740.0115420369061,-2740.0115420369061,960.37716783754104,35063.770600114913,0.0
400012.02908761695,3887225.878295721,-47500.0,7140.447511371598,-2621.7139458506026,2038.9996155244582,-16163.323001760151,5255.3313296983943,15489.90331730338,17403.680675135362,-1743.4070683262569,4619.0987954040538,-4619.0987954040538,1743.4070683262569,32024.478172421608,0.0
405012.02908761695,3887225.878295721,-47500.0,8453.6622995166617,-2425.8117297006793,1311.1664846936519,-14902.850757604036,4220.5883557565066,13071.998086738176,15612.172305729795,-2156.8886637154287,5810.6676741889041,-5810.6676741889041,2156.8886637154287,29029.457175433581,0.0
410012.02908761695,3887225.878295721,-47500.0,9170.0705006881217,-2160.3603860725202,792.5601113298585,-13530.746720094236,3366.4886252994634,10998.853503202492,13958.737753499439,-2326.3116702194648,6490.1244123636161,-6490.1244123636161,2326.3116702194648,26193.363751024932,0.0
415012.02908761695,3887225.878295721,-47500.0,9458.4850282848383,-1875.1128208520745,429.9748140117805,-12164.912254281557,2674.106591727842,9246.4219858068336,12462.165648141747,-2341.240592082198,6803.2103015996145,-6803.2103015996145,2341.240592082198,23571.175342052458,0.0
420012.02908761695,3887225.878295721,-47500.0,9449.9761198768629,-1597.968235566495,181.64642168589168,-10868.494007891062,2118.9198879047649,7775.4442045366068,11122.931379345571,-2262.9608693946889,6862.1709565050351,-6862.1709565050351,2262.9608693946889,21182.264670397049,0.0
425012.02908761695,3887225.878295721,-47500.0,9241.9425910585524,-1343.1210387861083,15.808515205802724,-9671.8332602182036,1676.6405351587246,6544.819590754023,9932.3784794733547,-2132.2073784132986,6749.9930841326932,-6749.9930841326932,2132.2073784132986,19026.044589241308,0.0
430012.02908761695,3887225.878295721,-47500.0,8904.9954113041531,-1116.5495804714649,-91.206435770066406,-8586.3047566334226,1325.6202812241936,5516.7274905644335,8877.9004031442128,-1975.4153793359214,6526.6030979458774,-6526.6030979458774,1975.4153793359214,17091.40747444057,0.0
435012.02908761695,3887225.878295721,-47500.0,8489.5414701511345,-919.53120628017234,-156.77665964822492,-7612.6568993872579,1047.5654432385581,4658.1520329273144,7945.7182024486956,-1809.3300692570497,6234.6297120491381,-6234.6297120491381,1809.3300692570497,15362.20617173571,0.0
440012.02908761695,3887225.878295721,-47500.0,8031.1248697464025,-750.80403797958365,-193.52484295066898,-6745.9115693702097,827.46945089433029,3940.9493609882793,7122.2727408097826,-1644.2357381338893,5904.0333952681885,-5904.0333952681885,1644.2357381338893,13820.323572845269,0.0
445012.02908761695,3887225.878295721,-47500.0,7554.5113098383154,-607.87332475671474,-210.53773418946076,-5978.2421123726654,653.24292449639211,3341.4185340255985,6394.8963637030638,-1486.1741550040085,5555.6264008513217,-5555.6264008513217,1486.1741550040085,12447.413808379697,0.0
450012.02908761695,3887225.878295721,-47500.0,7076.6830941163289,-487.76495821280497,-214.30593619961073,-5300.6307370232662,515.24950808774565,2839.7261698012976,5752.0714315339792,-1338.4313034687195,5203.6464967880756,-5203.6464967880756,1338.4313034687195,11225.817000225374,0.0
455012.02908761695,3887225.878295721,-47500.0,6609.0205798164625,-387.44984274120924,-209.42950696051821,-4703.8205209745101,405.85810658228746,2419.3386391137178,5183.4890286744649,-1202.5311089015381,4857.6244301943698,-4857.6244301943698,1202.5311089015381,10139.026392536218,0.0
250012.02908761695,3892225.878295721,-47500.0,4606.057126593616,2587.2439091802107,430.08140232988774,3657.6413226739737,1379.5381511332259,2000.1459313996086,4613.2805055747749,1692.325249680905,2949.8204676505397,-2949.8204676505397,-1692.325249680905,8903.55065803656,0.0
255012.02908761695,3892225.878295721,-47500.0,4794.801141332201,2886.8743440299054,524.03613114151619,4056.4328256308108,1584.8170374222427,2319.7492579697164,5085.5928053305825,1957.5811500251989,3024.1919765731732,-3024.1919765731732,-1957.5811500251989,9782.4310875807059,0.0
260012.02908761695,3892225.878295721,-47500.0,4950.9217235364331,3223.349459257056,643.63459734207856,4492.4072466770922,1823.2164388657989,2692.5173243004706,5611.3042102750824,2270.5658957140386,3061.9160714693926,-3061.9160714693926,-2270.5658957140386,10752.347882751857,0.0
265012.02908761695,3892225.878295721,-47500.0,5057.1899242392547,3600.0358020300778,796.37589278819701,4964.0864959024766,2099.5836631481275,3125.9465962105774,6195.3416532578476,2640.3784017908929,3047.388698583527,-3047.388698583527,-2640.3784017908929,11818.949215231836,0.0
270012.02908761695,3892225.878295721,-47500.0,5090.8878015998662,4019.820954880367,991.97672888826787,5466.9866366406432,2418.9617428873398,3627.4913986803972,6842.2771877951354,3077.6972111833852,2960.2444680273234,-2960.2444680273234,-3077.6972111833852,12986.112090173408,0.0
275012.02908761695,3892225.878295721,-47500.0,5022.4709044215797,4484.5776959481618,1242.9696626864813,5992.0520960046897,2786.2127021487968,4203.7027310330195,7555.7971408333988,3594.8692530782578,2774.2137900609437,-2774.2137900609437,-3594.8692530782578,14254.746423263769,0.0
280012.02908761695,3892225.878295721,-47500.0,4814.1644207111931,4994.3417803212587,1565.3863183724197,6523.4568686154807,3205.3300756985318,4858.7175348422525,8337.8874786938268,4205.8312246368569,2455.926177016514,-2455.926177016514,-4205.8312246368569,15621.156423529426,0.0
285012.02908761695,3892225.878295721,-47500.0,4418.7497762104495,5546.0918905353756,1979.4586584569884,7035.5778052884107,3678.2424338171468,5591.6789095940112,9187.6009693773703,4925.7074514856668,1963.879321073204,-1963.879321073204,-4925.7074514856668,17074.86142460004,0.0
290012.02908761695,3892225.878295721,-47500.0,3779.1328846076399,6132.0201474486921,2510.1670200919925,7489.0262405453395,4202.7964096734959,6392.4575930155934,10099.269731900071,5769.8275326696548,1248.0737814801864,-1248.0737814801864,-5769.8275326696548,18595.913760531366,0.0
295012.02908761695,3892225.878295721,-47500.0,2829.8296120692671,6737.2592082229548,3187.2830541449616,7825.8497886163495,4769.4599483852289,7234.7198487509295,11060.038562709376,6751.8006502967592,251.26382873517014,-251.26382873517014,-6751.8006502967592,20152.004665528071,0.0
300012.02908761695,3892225.878295721,-47500.0,1502.3974018649101,7337.3098226199836,4044.2705788257517,7964.7110251624899,5356.1453257767798,8065.0828704817177,12046.791178205489,7880.2322040887684,-1086.5022857438648,1086.5022857438648,-7880.2322040887684,21696.348433345698,0.0
305012.02908761695,3892225.878295721,-47500.0,-262.01414639774481,7896.1226002794074,5115.0403021239599,7798.4293026689029,5920.6136790210203,8787.1189374656278,13023.190843693978,9153.8801495193111,-2817.4863663424312,2817.4863663424312,-9153.8801495193111,23168.849711168707,0.0
310012.02908761695,3892225.878295721,-47500.0,-2489.0542403590557,8367.2349071480094,6427.3275411600898,7199.3267427166129,6390.7219884424039,9240.2329631156881,13939.382570886026,10555.960034293963,-4966.9366790596832,4966.9366790596832,-10555.960034293963,24505.95843594351,0.0
315012.02908761695,3892225.878295721,-47500.0,-5134.1069238717828,8702.5607203285563,7991.9812014259887,6042.5271809848455,6655.4254349626117,9177.9946510513801,14741.631466967188,12050.488125457012,-7503.2451100699636,7503.2451100699636,-12050.488125457012,25668.905139608662,0.0
320012.02908761695,3892225.878295721,-47500.0,-8037.2182349375435,8874.9665194905519,9789.7960211408044,4261.613178109923,6565.5712821830621,8261.5658428112674,15410.083948428188,13586.941572045391,-10302.556137887594,10302.556137887594,-13586.941572045391,26701.937292615359,0.0
325012.02908761695,3892225.878295721,-47500.0,-10893.797647392114,8916.6248370644498,11762.230032822743,1946.9114199816827,5963.03987899611,6103.4217751251672,16052.992660360596,15120.920283622234,-13127.133965562456,13127.133965562456,-15120.920283622234,27815.015838621159,0.0
330012.02908761695,3892225.878295721,-47500.0,-13289.302113028923,8956.7575082066905,13815.748775750317,-531.08500114756453,4761.7675117459294,2416.8881366040673,16979.409209956699,16648.637058543285,-15653.64494109535,15653.64494109535,-16648.637058543285,29414.130420282112,0.0
335012.02908761695,3892225.878295721,-47500.0,-14849.256628443647,9209.477827547249,15840.001553563918,-2452.1802125283302,3081.8753530757231,-2681.6515983163044,18356.563825100638,18222.467413135644,-17583.507676092675,17583.507676092675,-18222.467413135644,31897.386785329534,0.0
340012.02908761695,3892225.878295721,-47500.0,-15496.778324997405,9850.5152881105896,17709.925219078545,-2878.4827170980466,1366.153763601593,-8256.0583262655709,19764.868412271426,19883.62352409105,-18815.068291377149,18815.068291377149,-19883.62352409105,35160.017275590755,0.0
345012.02908761695,3892225.878295721,-47500.0,-15687.66339705596,10798.754144608556,19227.862122685463,-1141.0155263737693,323.50906283038114,-12252.010374398318,20632.435360547264,21491.008573195984,-19576.437852129638,19576.437852129638,-21491.008573195984,38275.305355866338,0.0
350012.02908761695,3892225.878295721,-47500.0,-16340.175580552552,11580.496684489262,20043.348640925746,2322.9167936254844,578.85885782287528,-11855.940107141072,21842.165968731417,22580.979321709558,-20353.211488088578,20353.211488088578,-22580.979321709558,40002.920930786837,0.0
355012.02908761695,3892225.878295721,-47500.0,-18079.653467247001,11521.605633631965,19724.530769678091,5361.1285843405831,2173.1904338235463,-5179.760225010561,22972.157447065794,22490.687709136753,-21411.171098660354,21411.171098660354,-22490.687709136753,40081.53201817027,0.0
360012.02908761695,3892225.878295721,-47500.0,-20083.669523767414,10253.017575494176,18066.588010781597,5112.2295793209914,4394.3660772272779,6380.3599129386475,22874.988307381835,20773.478088930573,-22106.863252373641,22106.863252373641,-20773.478088930573,39973.573861419049,0.0
365012.02908761695,3892225.878295721,-47500.0,-20299.526319084205,8045.242609556748,15345.115841817711,639.31992608243559,6262.8875335428411,18242.65323136605,22996.609198756152,17571.022387889378,-21107.807427388205,21107.807427388205,-17571.022387889378,41173.938088526644,0.0
370012.02908761695,3892225.878295721,-47500.0,-17502.996606116292,5565.1764254523969,12172.063522735327,-6099.8304874297946,7198.9576191665019,26225.998368074786,24613.098495327235,13569.43089448926,-17781.148824824708,17781.148824824708,-13569.43089448926,43071.869870525152,0.0
375012.02908761695,3892225.878295721,-47500.0,-12385.824713627924,3388.0799087491937,9124.3119032807244,-12342.376423052538,7194.957598030539,29230.419793880104,25470.023132615435,9583.9237970995764,-12843.225627797399,12843.225627797399,-9583.9237970995764,44115.404878218505,0.0
380012.02908761695,3892225.878295721,-47500.0,-6543.0534222715569,1771.486651691959,6530.9693533177442,-16550.384346767572,6554.5141037547546,28500.373375432016,25024.096030368837,6175.6555550694793,-7567.9717835046395,7567.9717835046395,-6175.6555550694793,43598.834841452823,0.0
385012.02908761695,3892225.878295721,-47500.0,-1241.9592228171696,715.82802367724935,4488.3006128984553,-18569.670294292122,5612.5279945022676,25788.993654272261,23647.28216104149,3555.6839689715493,-2907.2591774859106,2907.2591774859106,-3555.6839689715493,41703.123538859058,0.0
390012.02908761695,3892225.878295721,-47500.0,2937.899486499487,103.60037273743373,2958.6098472198382,-18916.981228263528,4609.2653281384528,22391.782342322938,21775.560511949909,1691.176420123933,735.06168492545066,-735.06168492545066,-1691.176420123933,38927.828172586778,0.0
395012.02908761695,3892225.878295721,-47500.0,5921.3336062188437,-202.65128050590579,1852.4953784840702,-18212.714481085961,3678.375871472902,19021.866096060457,19729.845437860069,442.11720539967564,3340.7811084063947,-3340.7811084063947,-442.11720539967564,35739.429199804952,0.0
400012.02908761695,3892225.878295721,-47500.0,7873.9504098650377,-317.33780035157145,1073.9513489924707,-16946.928258084867,2876.6291538639171,15987.258499276144,17705.776870389655,-349.71822813008339,5069.0206664991692,-5069.0206664991692,349.71822813008339,32464.726560212079,0.0
405012.02908761695,3892225.878295721,-47500.0,9028.2538072587668,-322.2397900434143,539.0112050990349,-15443.018387124062,2216.0858494831277,13376.534320859104,15806.151352918572,-821.02944451473468,6122.5296944595893,-6122.5296944595893,821.02944451473468,29298.352636357089,0.0
410012.02908761695,3892225.878295721,-47500.0,9601.6472276042114,-270.74573888592909,180.66506951175467,-13892.264652055093,1686.8593543871179,11178.855831284463,14075.276468756527,-1076.5166545874777,6686.0598547790687,-6686.0598547790687,1076.5166545874777,26340.89578232912,0.0
415012.02908761695,3892225.878295721,-47500.0,9769.5125428318097,-195.46414144693341,-52.019286397620064,-12398.216936867577,1270.5078565561798,9347.0052688374981,12524.389613456926,-1191.2736820255882,6907.1558208275783,-6907.1558208275783,1191.2736820255882,23634.632855259399,0.0
420012.02908761695,3892225.878295721,-47500.0,9663.5797516262519,-115.10296015434164,-196.65359589290517,-11011.340123312551,946.96810588118944,7826.0144910358158,11147.745293009073,-1217.0752024431322,6896.146664204739,-6896.146664204739,1217.0752024431322,21188.696309177147,0.0
425012.02908761695,3892225.878295721,-47500.0,9379.1185399857004,-39.594344492034871,-280.49904731074292,-9751.8054148018346,697.71792253387719,6564.3967427043626,9931.910242890126,-1188.7126676851599,6732.6522156733899,-6732.6522156733899,1188.7126676851599,18994.735984783514,0.0
430012.02908761695,3892225.878295721,-47500.0,8983.582156349732,26.429382955849363,-323.05205016100621,-8623.239574017518,506.92590916795297,5517.5485710531902,8860.7435798003444,-1129.1255794627668,6472.9752768772905,-6472.9752768772905,1129.1255794627668,17035.947926783425,0.0
435012.02908761695,3892225.878295721,-47500.0,8524.0963545279974,81.39603029494684,-338.10826787300596,-7620.6602568875624,361.6278678874491,4648.0479032849653,7917.9051711412903,-1053.190061767928,6156.419044912227,-6156.419044912227,1053.190061767928,15292.078871196416,0.0
440012.02908761695,3892225.878295721,-47500.0,8033.2292843089053,125.40571283110472,-335.33565741888231,-6734.935797039042,251.47552235913216,3924.8999713861358,7088.0133117699097,-970.37953038176329,5810.1335959564722,-5810.1335959564722,970.37953038176329,13742.103493800387,0.0
445012.02908761695,3892225.878295721,-47500.0,7533.2044134038169,159.39560554829404,-321.44357893328441,-5955.2510425913042,168.34108327135172,3322.5545747621359,6357.100645974022,-886.5848061685042,5452.6512533492751,-5452.6512533492751,886.5848061685042,12365.604587915097,0.0
450012.02908761695,3892225.878295721,-47500.0,7038.9205452988681,184.6528430251044,-301.03787418500286,-5270.4562097140342,105.90587360630589,2819.9810923174555,5712.7296085635471,-805.3423008073546,5096.4182955022807,-5096.4182955022807,805.3423008073546,11143.458336778409,0.0
455012.02908761695,3892225.878295721,-47500.0,6560.0998027723672,202.54179987915074,-277.23815068281363,-4669.7864186882161,59.290974752394149,2399.8756425652273,5143.9479322439183,-728.65504642640099,4749.5923731721095,-4749.5923731721095,728.65504642640099,10058.137411922509,0.0
250012.02908761695,3897225.878295721,-47500.0,5359.47711215251,2211.8695555705558,150.3976935535583,4108.0054045210745,1138.0331342597838,2210.9594381746278,4884.5166613260562,1117.6120972781152,3660.5818887093001,-3660.5818887093001,-1117.6120972781152,9478.2053979290467,0.0
255012.02908761695,3897225.878295721,-47500.0,5658.0286893748289,2471.6149371218389,196.27126414771089,4595.2518547555201,1305.7320057494942,2582.4317325643005,5403.9168755655783,1307.2002227867458,3839.256302804165,-3839.256302804165,-1307.2002227867458,10453.822005732121,0.0
260012.02908761695,3897225.878295721,-47500.0,5940.9520503896747,2765.5502868602775,258.77170490834044,5139.3972983050207,1500.7837787563537,3021.5679917822667,5986.5427888080694,1534.7884054137166,3997.5666088932294,-3997.5666088932294,-1534.7884054137166,11539.652717051895,0.0
265012.02908761695,3897225.878295721,-47500.0,6193.1376463152046,3097.863186251504,343.7788855153907,5743.6911325027459,1727.5109991705706,3540.3736335399158,6639.6327584009987,1808.9124646264613,4121.988473659665,-4121.988473659665,-1808.9124646264613,12745.520844488656,0.0
270012.02908761695,3897225.878295721,-47500.0,6393.7815852794774,3472.8851964504311,459.23077288126467,6409.4865905501765,1990.6593145984175,4152.3478658874592,7370.6324511717603,2140.125397704378,4194.0751516819491,-4194.0751516819491,-2140.125397704378,14080.36006321937,0.0
275012.02908761695,3897225.878295721,-47500.0,6514.6306006328905,3894.8373396944648,615.81903276462185,7134.8477858681299,2295.2532494928314,4872.1820404464688,8186.7732611824649,2541.4236455244773,4188.9409852350673,-4188.9409852350673,-2541.4236455244773,15551.113000299934,0.0
280012.02908761695,3897225.878295721,-47500.0,6517.8490934672982,4367.3728154593755,827.87725242820477,7912.4435519939216,2646.2830594310644,5715.0090820422938,9094.347115645649,3028.6754230700517,4073.4141282842793,-4073.4141282842793,-3028.6754230700517,17161.082759776607,0.0
285012.02908761695,3897225.878295721,-47500.0,6353.5812065126083,4892.7962118310443,1114.4715069078861,8726.3917570360445,3048.0955540779078,6694.8279493599148,10097.484679588952,3620.9549540253056,3803.9167232525997,-3803.9167232525997,-3620.9549540253056,18907.493541664866,0.0
290012.02908761695,3897225.878295721,-47500.0,5957.542792631416,5470.779188033629,1500.6332354340905,9547.6534212967563,3503.2520372280756,7821.4720490663703,11196.169133182606,4340.5676067822278,3324.3517201493032,-3324.3517201493032,-4340.5676067822278,20778.000289543477,0.0
295012.02908761695,3897225.878295721,-47500.0,5249.4894064498567,6096.3507759669728,2018.5351130126116,10327.55647314244,4010.4436031468094,9095.0209073625774,12383.084171836894,5212.3764780702877,2564.6999022968503,-2564.6999022968503,-5212.3764780702877,22745.870720528965,0.0
300012.02908761695,3897225.878295721,-47500.0,4134.4232104572393,6756.9987170489176,2708.1211557614906,10989.351185373747,4560.7822935165314,10495.87498950024,13638.812011091697,6261.796760113044,1441.8674311561804,-1441.8674311561804,-6261.796760113044,24763.815877832836,0.0
305012.02908761695,3897225.878295721,-47500.0,2510.1236376699253,7429.0914294373424,3616.2102457531146,11418.859984111315,5131.4863034416057,11967.922903480949,14924.998770047272,7510.6237722987426,-134.28201660216655,134.28201660216655,-7510.6237722987426,26757.316623409082,0.0
310012.02908761695,3897225.878295721,-47500.0,286.89159100572311,8074.9799548227656,4792.4001402443937,11458.303863416171,5676.0100870086917,13392.010426913332,16175.871881985253,8970.0805232100356,-2244.9553198164067,2244.9553198164067,-8970.0805232100356,28620.689713064708,0.0
315012.02908761695,3897225.878295721,-47500.0,-2573.1526464794711,8644.6237200454179,6279.581985562877,10913.597700413618,6111.1513809918115,14549.491814463488,17291.061310529229,10631.923502698603,-4930.7276953002029,4930.7276953002029,-10631.923502698603,30224.502508342703,0.0
320012.02908761695,3897225.878295721,-47500.0,-5994.0130404731999,9089.1874566310671,8097.6608441149183,9594.766553480149,6307.057978519706,15085.964706187186,18139.91031343193,12462.142277189418,-8141.8441428892402,8141.8441428892402,-12462.142277189418,31452.251514237851,0.0
325012.02908761695,3897225.878295721,-47500.0,-9716.3057641529849,9394.609633917773,10223.063928464644,7414.7939191714204,6098.0229497526152,14510.262881109806,18607.832115339173,14406.515933126839,-11682.910124637028,11682.910124637028,-14406.515933126839,32291.07945331974,0.0
330012.02908761695,3897225.878295721,-47500.0,-13273.349658325353,9628.6470247740563,12573.399106145143,4552.6167387576479,5345.9407389566695,12302.128881353567,18777.403056765957,16413.946827515676,-15192.354459259608,15192.354459259608,-16413.946827515676,32972.189662312026,0.0
335012.02908761695,3897225.878295721,-47500.0,-16097.418572770792,9953.6228944855757,15005.91006874724,1612.2180085506629,4075.8418036808976,8218.7542167115935,19304.943632163871,18454.444520413577,-18215.641421274653,18215.641421274653,-18454.444520413577,34018.207246401122,0.0
340012.02908761695,3897225.878295721,-47500.0,-17798.028874477521,10521.705015116735,17313.776344110862,-402.16844490786303,2616.3192760425227,2806.5276366957833,20657.061184264967,20464.057601870198,-20390.468590360731,20390.468590360731,-20464.057601870198,35875.658421926193,0.0
345012.02908761695,3897225.878295721,-47500.0,-18505.110153534417,11250.828012776172,19182.930200603874,-519.33043652375318,1547.3061640692663,-2121.1629090949637,22005.955606237294,22189.730072189865,-21661.407826050701,21661.407826050701,-22189.730072189865,38197.882434206062,0.0
350012.02908761695,3897225.878295721,-47500.0,-18968.036451494576,11710.5899566469,20151.463651323989,1294.085909573037,1313.6367191066547,-3662.9958662364616,22866.959691404285,23113.229258940344,-22350.42368296496,22350.42368296496,-23113.229258940344,39843.050455176679,0.0
355012.02908761695,3897225.878295721,-47500.0,-19939.30458106946,11406.305391690448,19751.197543141545,3320.517902759831,1790.6860663916593,520.94841720691352,23198.223207580239,22712.389211765119,-22823.212265756585,22823.212265756585,-22712.389211765119,40185.6789390669,0.0
360012.02908761695,3897225.878295721,-47500.0,-20983.68576808893,10262.316783240452,17861.037914801058,2864.2460784736604,2390.5206676699304,9660.879219629267,22436.497432748652,20878.777609672703,-22786.83985879011,22786.83985879011,-20878.777609672703,40191.083379486547,0.0
365012.02908761695,3897225.878295721,-47500.0,-20455.067502778878,8668.7506506754307,14896.66752646746,-1199.3163435091171,2653.7420873906271,19680.084442664098,21793.28492887687,17981.039423003305,-21268.85979333087,21268.85979333087,-17981.039423003305,41141.368087769559,0.0
370012.02908761695,3897225.878295721,-47500.0,-17297.355638906491,7066.0363047129085,11563.896831548984,-7296.2310684143104,2531.946080091343,26554.591114049883,24028.564044746738,14587.971991021699,-17758.112452900175,17758.112452900175,-14587.971991021699,42650.519868772571,0.0
375012.02908761695,3897225.878295721,-47500.0,-12118.12297868683,5681.6025752938476,8461.4783373772079,-12961.501841563815,2178.7821658259595,29021.61274109648,25032.559095242621,11226.193249427424,-12868.441637634814,12868.441637634814,-11226.193249427424,43410.173631029014,0.0
380012.02908761695,3897225.878295721,-47500.0,-6358.9032453428745,4570.9555560049212,5897.4317053255645,-16757.850540353655,1735.9047617206224,28079.552741343883,24617.996414112517,8259.262635998959,-7728.2673372836516,7728.2673372836516,-8259.262635998959,42759.01553733382,0.0
385012.02908761695,3897225.878295721,-47500.0,-1183.268466377597,3715.3640389141538,3933.9057141938924,-18515.258412439598,1288.526294100139,25309.936322721005,23256.726145204786,5853.3650146823675,-3202.4652380646912,3202.4652380646912,-5853.3650146823675,40833.100545746318,0.0
390012.02908761695,3897225.878295721,-47500.0,2876.7335696277669,3071.5005598251964,2503.1229739320711,-18707.525132236828,882.5234162018935,21921.355288806884,21402.730479504404,4017.8749779186837,336.78776868178898,-336.78776868178898,-4017.8749779186837,38085.507129305974,0.0
395012.02908761695,3897225.878295721,-47500.0,5762.6092981684051,2591.4607966220383,1495.6419721586265,-17919.032935364197,539.56734842704373,18588.11702593576,19379.213118758787,2676.3936487491369,2875.7170308125465,-2875.7170308125465,-2676.3936487491369,34953.144508296806,0.0
400012.02908761695,3897225.878295721,-47500.0,7643.3241049765584,2231.9459658670794,804.89625975151966,-16614.917985429056,265.6997913772596,15600.780996553292,17380.771482820866,1724.9099593130911,4568.4012806752153,-4568.4012806752153,-1724.9099593130911,31746.255635410806,0.0
405012.02908761695,3897225.878295721,-47500.0,8749.4137305593558,1958.0472223128818,342.95623046820754,-15101.877305178106,57.368631330196671,13039.508984561375,15508.560447848571,1064.3393110063448,5610.4750824889179,-5610.4750824889179,-1064.3393110063448,28650.475791674449,0.0
410012.02908761695,3897225.878295721,-47500.0,9294.3990323272592,1743.7247512430329,42.632072008500586,-13559.9543605985,-93.963176036157478,10889.204569970878,13805.399245079423,613.23503986629294,6180.0187393590932,-6180.0187393590932,-613.23503986629294,25761.573473226272,0.0
415012.02908761695,3897225.878295721,-47500.0,9449.3963672527207,1570.5971185814722,-145.38889973402067,-12085.144220134562,-198.59088997282737,9100.5761970405511,12281.414043395178,309.65691956946785,6419.0447238771139,-6419.0447238771139,-309.65691956946785,23119.374961632031,0.0
420012.02908761695,3897225.878295721,-47500.0,9342.1770006625393,1426.1914942563174,-256.47558579295588,-10722.879272256243,-266.62083258854443,7617.8111430100935,10930.120994320954,108.55045275939119,6433.5550822293444,-6433.5550822293444,-108.55045275939119,20731.901178837419,0.0
425012.02908761695,3897225.878295721,-47500.0,9064.6509522031683,1302.2741629550164,-315.63485123305009,-9490.0648553224219,-306.98313430407882,6389.2990044035796,9737.6730026094465,-22.01723099059609,6299.9228383148111,-6299.9228383148111,22.01723099059609,18590.48591885166,0.0
430012.02908761695,3897225.878295721,-47500.0,8681.5769029807998,1193.5004779384624,-340.36597269775973,-8388.2794207839343,-327.07425996814601,5370.7079609099328,8687.7518550633085,-104.34398234260607,6072.0983162503917,-6072.0983162503917,104.34398234260607,16678.452978316524,0.0
435012.02908761695,3897225.878295721,-47500.0,8238.0100437489618,1096.4208350294193,-342.81000968938105,-7411.324621084389,-332.75550265308976,4525.0838322371737,7764.0038505814819,-153.87443988213545,5787.7411012928524,-5787.7411012928524,153.87443988213545,14975.918492109799,0.0
440012.02908761695,3897225.878295721,-47500.0,7764.9746509200204,1008.7915922430242,-331.31786305553197,-6549.4004381728737,-328.52259863586391,3821.9697945267103,6951.1289384141573,-181.26236826635022,5472.8949030125423,-5472.8949030125423,181.26236826635022,13462.325953928334,0.0
445012.02908761695,3897225.878295721,-47500.0,7283.5845151179901,929.11955265969596,-311.57825678120201,-5791.3866048503405,-317.73737871618897,3236.3565472914693,6235.3021780943272,-193.84241007401351,5145.3903763934686,-5145.3903763934686,193.84241007401351,12117.769330202616,0.0
450012.02908761695,3897225.878295721,-47500.0,6807.9658479384452,856.36984569895935,-287.41950698616319,-5126.0547178888355,-302.85965871191206,2747.7182000544062,5604.2563683625349,-196.6581477845034,4817.2641882785429,-4817.2641882785429,196.6581477845034,10923.629129905814,0.0
455012.02908761695,3897225.878295721,-47500.0,6347.3193329359156,789.78429490606777,-261.37703231267614,-4542.6956792518713,-285.65403277599421,2339.2002457245894,5047.2157301470634,-193.17289550564738,4496.4676991235665,-4496.4676991235665,193.17289550564738,9862.8479001668748,0.0
250012.02908761695,3902225.878295721,-47500.0,5996.3862112862344,1726.7193294907713,-75.653524699079895,4488.6033150532667,837.63258959341692,2389.6036546581545,5122.571648885124,496.72345111290701,4282.2838143547278,-4282.2838143547278,-496.72345111290701,9973.4779849837923,0.0
255012.02908761695,3902225.878295721,-47500.0,6386.9452514933082,1923.5077075719864,-69.034016076932943,5049.9788777577132,952.84891693353848,2804.7431553163883,5683.1496391289766,598.77671453186781,4552.228864454738,-4552.228864454738,-598.77671453186781,11032.474181803194,0.0
260012.02908761695,3902225.878295721,-47500.0,6776.3149172731128,2146.333904094347,-53.450044856565356,5684.8291231739149,1085.3471054286556,3299.7644439460892,6315.6660779352133,725.65500113529174,4816.4676890168912,-4816.4676890168912,-725.65500113529174,12218.596449681138,0.0
265012.02908761695,3902225.878295721,-47500.0,7151.3634476273792,2398.8022640652916,-24.569668654395617,6400.4758331127814,1237.5436969302834,3890.5231429384648,7029.4933163287133,884.23684102350671,5063.6062532909755,-5063.6062532909755,-884.23684102350671,13545.593247812436,0.0
270012.02908761695,3902225.878295721,-47500.0,7493.2125323480541,2684.9399753357293,23.734650301047612,7203.373748990407,1412.029260047683,4595.7276041631494,7834.7887386304119,1083.4982529755553,5277.3571775151695,-5277.3571775151695,-1083.4982529755553,15027.301393294101,0.0
275012.02908761695,3902225.878295721,-47500.0,7775.1826315189219,3009.1721077417474,100.08871425772517,8097.9317516771189,1611.4881787485278,5437.1719845989346,8742.2300305324734,1335.1703795538378,5434.7725339401932,-5434.7725339401932,-1335.1703795538378,16676.763410999636,0.0
280012.02908761695,3902225.878295721,-47500.0,7960.1017005949689,3376.2115142880116,216.57225237694797,9084.5925382831574,1838.5457395280885,6439.744619835853,9762.4719724406968,1654.564547079699,5503.918875691028,-5503.918875691028,-1654.564547079699,18504.794859125093,0.0
285012.02908761695,3902225.878295721,-47500.0,7996.8693390136741,3790.7817631752259,389.9883825250688,10156.724462984228,2095.4850025929213,7630.914053823738,10905.107181409789,2061.5545575658293,5440.8953680373961,-5440.8953680373961,-2061.5545575658293,20517.679928159461,0.0
290012.02908761695,3902225.878295721,-47500.0,7816.3292861577265,4257.0199214967879,643.49165043413859,11295.676054251682,2383.707645435959,9039.130113184734,12176.791172949139,2581.6219613559228,5186.2238575716656,-5186.2238575716656,-2581.6219613559228,22713.553844009082,0.0
295012.02908761695,3902225.878295721,-47500.0,7326.9072527528479,4777.3120875195136,1008.542899667966,12463.052408257376,2702.6739766469063,10690.001200003091,13577.954997377608,3246.7056774882749,4660.9661577757215,-4660.9661577757215,-3246.7056774882749,25076.799638679375,0.0
300012.02908761695,3902225.878295721,-47500.0,6411.4661508763129,5350.2306769090019,1526.9606712177169,13589.114827363745,3047.7990734930172,12598.088561925106,15097.235359842565,4095.2962573476466,3763.724113269694,-3763.724113269694,-4095.2962573476466,27569.649064586465,0.0
305012.02908761695,3902225.878295721,-47500.0,4928.9221695925598,5967.3017106417492,2252.4094344730293,14556.644088953111,3406.3400492914716,14750.451456284689,16702.441241193621,5170.7539225149112,2371.3491649049092,-2371.3491649049092,-5170.7539225149112,30120.371748599908,0.0
310012.02908761695,3902225.878295721,-47500.0,2727.9220604011343,6608.974928772539,3249.8341372358195,15181.966211300631,3749.857674441274,17075.852130021249,18326.905973297547,6516.3794126684661,349.17279605255999,-349.17279605255999,-6516.3794126684661,32608.946198920516,0.0
315012.02908761695,3902225.878295721,-47500.0,-314.9672039043254,7242.1888537675532,4590.0788528957928,15201.757426805607,4022.150724540149,19392.529523077643,19851.331184720013,8165.9313899346016,-2419.3603206042644,2419.3603206042644,-8165.9313899346016,34855.989429038316,0.0
320012.02908761695,3902225.878295721,-47500.0,-4217.6558546214947,7826.1889975020549,6335.718904096163,14289.227618148292,4125.2586960220988,21333.976218930136,21085.750599886975,10130.48543143693,-5971.7923740665428,5971.7923740665428,-10130.48543143693,36632.645684170406,0.0
325012.02908761695,3902225.878295721,-47500.0,-8774.0410562030029,8337.6267377308723,8514.8943071952381,12144.65496651904,3918.0811106635374,22280.473436883847,21766.990695267756,12387.688445248186,-10172.656967813076,10172.656967813076,-12387.688445248186,37728.911102471335,0.0
330012.02908761695,3902225.878295721,-47500.0,-13444.357504096724,8817.9190475287942,11085.448088223346,8708.727482939019,3263.4062872859395,21390.403432725194,21608.837820125867,14881.988311710908,-14622.27967358456,14622.27967358456,-14881.988311710908,38123.803222890354,0.0
335012.02908761695,3902225.878295721,-47500.0,-17389.702230898834,9401.4139194908948,13899.264743641381,4469.0502136496107,2161.3392168308842,17904.108239351957,20564.914332061693,17524.205390881303,-18664.683152074904,18664.683152074904,-17524.205390881303,38202.575616812617,0.0
340012.02908761695,3902225.878295721,-47500.0,-19806.409848693795,10219.237308956644,16672.326320290718,625.14498760381571,911.46569897968084,11843.204941344806,20979.964163982499,20131.987086479035,-21601.272438150598,21601.272438150598,-20131.987086479035,38662.921805349171,0.0
345012.02908761695,3902225.878295721,-47500.0,-20508.310104574528,11147.387141211781,18959.884273894273,-1310.2187054012725,49.939134609817316,4842.9657762208426,22696.210842895729,22291.922293039883,-23081.795140918199,23081.795140918199,-22291.922293039883,39721.614937247694,0.0
350012.02908761695,3902225.878295721,-47500.0,-20276.944314514891,11696.176236454239,20199.858910546682,-679.43738940425419,-131.66450375809248,186.5260776506822,23385.241030018246,23372.756461893037,-23395.602670165212,23395.602670165212,-23372.756461893037,40505.158723691449,0.0
355012.02908761695,3902225.878295721,-47500.0,-20244.448442311856,11422.800251395194,19947.603772737653,1157.5565669409825,-15.913784731622542,962.21638133837882,23143.36458838034,22953.830409487407,-23197.030560276147,23197.030560276147,-22953.830409487407,40102.942316158886,0.0
360012.02908761695,3902225.878295721,-47500.0,-20480.683467348925,10470.37619929038,18192.947273583137,1468.979063196311,-259.29164467169409,7190.1019649744585,22026.415749666223,21239.967766908507,-22635.698971988859,22635.698971988859,-21239.967766908507,39073.700505656321,0.0
365012.02908761695,3902225.878295721,-47500.0,-19706.634333975177,9381.7726611277631,15400.270723382439,-1282.4158770142722,-1002.9688057753372,15408.864997995555,20202.33022946661,18809.64587565474,-21053.689565709752,21053.689565709752,-18809.64587565474,38791.766658234868,0.0
370012.02908761695,3902225.878295721,-47500.0,-16866.867254393517,8488.6303555491686,12223.314385076606,-6125.8169543451004,-1858.0588140975956,21746.933177290586,21783.102103214027,16120.951750850638,-17915.313601478356,17915.313601478356,-16120.951750850638,39409.216776423818,0.0
375012.02908761695,3902225.878295721,-47500.0,-12264.685802737862,7771.6818075951924,9203.5352318726746,-10997.407817958563,-2460.3025639498128,24579.600420686082,22893.53465393867,13427.986590387782,-13561.711925250505,13561.711925250505,-13427.986590387782,39869.662373979343,0.0
380012.02908761695,3902225.878295721,-47500.0,-7039.278450679255,7111.545933429772,6643.3560154258148,-14498.138282872076,-2724.014297474992,24393.457820921085,22714.923250608717,10904.992516955108,-8872.8648334534028,8872.8648334534028,-10904.992516955108,39366.480845453647,0.0
385012.02908761695,3902225.878295721,-47500.0,-2220.303873841493,6451.1778987168545,4631.7227967178242,-16299.098479120899,-2734.2663062063416,22417.533317165013,21630.48365759672,8680.6701435997311,-4617.0007528638434,4617.0007528638434,-8680.6701435997311,37807.641193885793,0.0
390012.02908761695,3902225.878295721,-47500.0,1662.0681245169287,5795.9159707168083,3129.4530848227323,-16703.529935833583,-2602.2573566585397,19707.650798616152,20042.801419405216,6818.5106820739929,-1179.8508153267217,1179.8508153267217,-6818.5106820739929,35488.496007510665,0.0
395012.02908761695,3902225.878295721,-47500.0,4501.1553648935605,5170.785329632603,2045.5961028430704,-16182.751123140419,-2406.7890136080123,16905.862788780309,18253.01744071806,5318.6669284782938,1373.5706734086407,-1373.5706734086407,-5318.6669284782938,32765.840388328736,0.0
400012.02908761695,3902225.878295721,-47500.0,6415.5074471408088,4595.5844761243279,1282.6455204995816,-15143.474604308532,-2191.5791790927087,14319.484741535542,16450.546030417157,4141.2815929460994,3148.4663006871601,-3148.4663006871601,-4141.2815929460994,29918.737773375426,0.0
405012.02908761695,3902225.878295721,-47500.0,7598.3069771084474,4079.231058353866,756.03600118870554,-13868.144568383897,-1977.7543545866515,12057.197693632514,14739.051458124746,3230.7473951176125,4305.6181709379398,-4305.6181709379398,-3230.7473951176125,27126.343898812687,0.0
410012.02908761695,3902225.878295721,-47500.0,8239.2320870913281,3622.256297372739,399.18949565442722,-12530.075534856012,-1774.654530388724,10130.080918383006,13166.499094658988,2531.4337934399964,5001.5161359800459,-5001.5161359800459,-2531.4337934399964,24488.460739611339,0.0
415012.02908761695,3902225.878295721,-47500.0,8495.4440660587152,3220.5984488316567,162.2945906626023,-11226.261099104924,-1586.1069598991392,8509.2026764609782,11748.446965508832,1995.0353254440602,5365.9860899852647,-5365.9860899852647,-1995.0353254440602,22052.369618753273,0.0
420012.02908761695,3902225.878295721,-47500.0,8487.0861544277686,2868.3810605692665,9.1379118414367451,-10005.957542452295,-1413.4576919411097,7153.6444067391021,10483.243690312331,1582.6108287711158,5498.741139203541,-5498.741139203541,-1582.6108287711158,19833.880101173792,0.0
425012.02908761695,3902225.878295721,-47500.0,8302.2141705212052,2559.4677341705933,-86.167109624230491,-8890.4992615317387,-1256.888732530186,6022.4624340841401,9361.0312372133831,1264.0294014505171,5473.3169413040223,-5473.3169413040223,-1264.0294014505171,17831.25475546037,0.0
430012.02908761695,3902225.878295721,-47500.0,8003.9018698516848,2288.1694269999643,-141.9307086322475,-7885.6306809075168,-1115.9732668056397,5078.9640217865472,8368.6879534563686,1016.4844618025845,5342.7607999378561,-5342.7607999378561,-1016.4844618025845,16033.610213628759,0.0
435012.02908761695,3902225.878295721,-47500.0,7636.7226171636721,2049.4774297685872,-171.00891883156436,-6988.7621338890103,-989.92575877542515,4291.7064573477146,7492.3773896668481,822.88923901253338,5144.8621624493026,-5144.8621624493026,-822.88923901253338,14425.745644835557,0.0
440012.02908761695,3902225.878295721,-47500.0,7231.8715144678645,1839.0781867176966,-182.37530806120893,-6193.120203356315,-877.74216248631546,3634.2608390381929,6718.782939551028,670.48014940420717,4906.3184410589456,-4906.3184410589456,-670.48014940420717,12990.85902471458,0.0
445012.02908761695,3902225.878295721,-47500.0,6810.96453829442,1653.2825434674396,-182.2572009799909,-5490.0765452064361,-778.29586186871359,3084.5949063518156,6035.6403921806414,549.70811824744533,4645.8469103541283,-4645.8469103541283,-549.70811824744533,11712.033814753839,0.0
450012.02908761695,3902225.878295721,-47500.0,6388.7806556738014,1488.9342308339637,-174.94799656490139,-4870.4410303448421,-690.41060926234604,2624.4080832214104,5431.9172585730403,453.39838255279574,4376.4443063116678,-4376.4443063116678,-453.39838255279574,10573.035416687906,0.0
250012.02908761695,3907225.878295721,-47500.0,6485.3277499701071,1155.6833381817867,-227.63672035163771,4782.3759119312363,491.26117888451779,2528.6604189223622,5315.5437816217964,-134.81207347495319,4781.1622830633514,-4781.1622830633514,134.81207347495319,10368.332739419899,0.0
255012.02908761695,3907225.878295721,-47500.0,6942.245805063254,1271.691596829321,-245.90209460597652,5398.4454359581014,542.52257083468305,2976.6731940818795,5907.9573517068166,-123.64353845978121,5120.864385483248,-5120.864385483248,123.64353845978121,11491.490071912254,0.0
260012.02908761695,3907225.878295721,-47500.0,7407.6548742106525,1401.320422260249,-259.80181190681475,6099.6838516492662,597.68960328792616,3513.4775495243584,6578.8059337472723,-101.99541316164095,5465.4912429221167,-5465.4912429221167,101.99541316164095,12754.501077575489,0.0
265012.02908761695,3907225.878295721,-47500.0,7869.5969290089852,1546.4645095679091,-265.89691200031035,6896.1678632144785,656.19485439158052,4157.6621676904379,7339.0197093007446,-65.094052396375901,5805.0948684711839,-5805.0948684711839,65.094052396375901,14174.065168898982,0.0
270012.02908761695,3907225.878295721,-47500.0,8310.2751547777279,1709.414100421445,-259.11047392172884,7797.7815662857074,717.00364555275189,4931.6208773457502,8200.7417070001229,-6.170969296045314,6124.8307966201683,-6124.8307966201683,6.170969296045314,15767.734390846474,0.0
275012.02908761695,3907225.878295721,-47500.0,8703.7818936139774,1892.9941169774543,-232.03057571684687,8813.1768833075021,778.44515369490557,5862.1680191714177,9177.1904408666815,84.357267915337616,6403.0105487232495,-6403.0105487232495,-84.357267915337616,17553.229226791009,0.0
280012.02908761695,3907225.878295721,-47500.0,9013.00409167422,2100.7456037465167,-173.93801851158318,9947.9720395259501,838.00692067479054,6981.0989970471956,10282.274326788145,220.02094070434259,6608.4331583842395,-6608.4331583842395,-220.02094070434259,19547.228840467258,0.0
285012.02908761695,3907225.878295721,-47500.0,9185.4645540346319,2337.1445380709852,-69.466138007183631,11201.664378330453,892.09449705530767,8325.4741516677987,11529.733525887954,419.83160861781425,6696.7751300299424,-6696.7751300299424,-419.83160861781425,21763.277789012845,0.0
290012.02908761695,3907225.878295721,-47500.0,9147.9285854372392,2607.8172333086977,103.21132004757649,12562.415173029334,935.74266561869013,9937.1309879390446,12931.431003087146,710.28444429657475,6605.8637489530283,-6605.8637489530283,-710.28444429657475,24208.256103098858,0.0
295012.02908761695,3907225.878295721,-47500.0,8799.8944907992664,2919.6486629050937,374.74771094111964,13998.349160634627,962.22378931287244,11860.294890676803,14494.113059910025,1127.8051281232038,6249.8730383054426,-6249.8730383054426,-1127.8051281232038,26876.485594651684,0.0
300012.02908761695,3907225.878295721,-47500.0,8007.0272589241031,3280.5948115927226,787.5357542253538,15443.410395172705,962.38401038997119,14134.862950645689,16213.519134238146,1721.3878788651314,5513.1983844245769,-5513.1983844245769,-1721.3878788651314,29740.099451327067,0.0
305012.02908761695,3907225.878295721,-47500.0,6597.8816222047117,3698.9433161263541,1398.8557297834811,16775.507991827071,923.30382719490285,16780.406063765167,18064.113532876996,2554.663385784424,4246.5398366343616,-4246.5398366343616,-2554.663385784424,32733.925863638415,0.0
310012.02908761695,3907225.878295721,-47500.0,4372.1988836548371,4181.9651750844478,2283.229328586378,17786.148470103115,825.54350757576901,19761.705819542651,19982.235642956955,3705.7304978096536,2271.5851615925021,-2271.5851615925021,-3705.7304978096536,35733.754709175773,0.0
315012.02908761695,3907225.878295721,-47500.0,1137.7313374624632,4734.9128422929098,3531.393631592287,18147.758377579892,638.23713984700271,22921.508409838923,21841.026161441288,5261.782225282539,-592.42085158192413,592.42085158192413,-5261.782225282539,38530.808428073418,0.0
320012.02908761695,3907225.878295721,-47500.0,-3197.4665005752672,5364.0324064328488,5240.5384864371645,17405.021981121474,313.45445223251863,25867.022425398944,23419.74068323047,7304.5004731865165,-4458.5620116891778,4458.5620116891778,-7304.5004731865165,40818.081835495526,0.0
325012.02908761695,3907225.878295721,-47500.0,-8455.274051093651,6090.8335345095447,7486.9813787354497,15056.436348489329,-210.02785759373222,27825.870848221643,24382.733253562314,9882.8736847319669,-9238.7885827551108,9238.7885827551108,-9882.8736847319669,42232.565932110359,0.0
330012.02908761695,3907225.878295721,-47500.0,-13981.593434866012,6979.4834141394258,10271.947684023275,10830.384086419046,-964.91576349629509,27587.986770414427,24309.450739194323,12972.431230585993,-14471.469801151416,14471.469801151416,-12972.431230585993,42530.919861906434,0.0
335012.02908761695,3907225.878295721,-47500.0,-18607.416701496561,8139.4602969241951,13441.75912150295,5185.2980381701218,-1842.712136107348,23826.48169930264,22874.451757819978,16415.281977759747,-19252.196662172122,19252.196662172122,-16415.281977759747,41921.534881008512,0.0
340012.02908761695,3907225.878295721,-47500.0,-21108.670625578285,9600.4539767322258,16612.977906491138,-294.93135137107458,-2476.8289374236883,16105.271550314115,21886.384255030516,19823.565811119122,-22514.782979797077,22514.782979797077,-19823.565811119122,41221.355641654642,0.0
345012.02908761695,3907225.878295721,-47500.0,-21161.746581348329,11049.18188567825,19180.018893461089,-3386.8474971074766,-2405.6131569441886,6204.8539276786732,23427.087747949503,22502.611646211342,-23708.558053102322,23708.558053102322,-22502.611646211342,41114.453400041864,0.0
350012.02908761695,3907225.878295721,-47500.0,-19900.767747917867,11817.592384230868,20512.265578219347,-2931.0404148434604,-1660.9141762353734,-1813.2924061852341,23651.83213101191,23672.458873999283,-23322.998234055347,23322.998234055347,-23672.458873999283,41017.260437630772,0.0
355012.02908761695,3907225.878295721,-47500.0,-18983.536388037286,11498.900172608599,20305.760638542386,-316.6765472169705,-1066.297935709855,-4093.7224049172873,22785.073018476971,23094.996655279934,-22457.294628345549,22457.294628345549,-23094.996655279934,39758.408400614127,0.0
360012.02908761695,3907225.878295721,-47500.0,-18836.123247192714,10496.113599136546,18752.917119651353,1438.4413817655297,-1460.7040196419862,-175.13695497269063,21624.317139556595,21360.267367506596,-21639.437077604271,21639.437077604271,-21360.267367506596,37454.41642394838,0.0
365012.02908761695,3907225.878295721,-47500.0,-18340.6141069111,9573.7847058305342,16335.916007825723,405.91932006227489,-2773.2316748883813,6842.0614663788192,20095.076566566553,19272.114873889735,-20376.387523981484,20376.387523981484,-19272.114873889735,35523.511875556193,0.0
370012.02908761695,3907225.878295721,-47500.0,-16331.703642999557,9074.0082839275146,13548.079005228234,-2966.1016532758485,-4249.1684137551547,13229.23245034024,19373.101023273164,17205.400066975635,-18008.149101304363,18008.149101304363,-17205.400066975635,34798.684761943608,0.0
375012.02908761695,3907225.878295721,-47500.0,-12749.315272225431,8837.8965192513842,10779.380315660901,-6993.1621653162856,-5263.5852965431559,17046.454889378489,19826.462568361647,15172.975531254662,-14543.61431010591,14543.61431010591,-15172.975531254662,34705.70581388197,0.0
380012.02908761695,3907225.878295721,-47500.0,-8382.5938621286041,8594.748821054407,8290.4055990115539,-10302.309212570752,-5653.9665418784225,18245.155955949613,19823.505358809616,13151.784110963679,-10568.642653894938,10568.642653894938,-13151.784110963679,34336.356435016532,0.0
385012.02908761695,3907225.878295721,-47500.0,-4107.4620113844558,8206.105483052037,6209.7517688181351,-12360.475829060939,-5556.5182891095064,17639.043282493323,19120.491473900383,11197.858007682127,-6735.0282091828894,6735.0282091828894,-11197.858007682127,33286.353432672149,0.0
390012.02908761695,3907225.878295721,-47500.0,-468.56405076821113,7668.8103808889473,4559.5086688828387,-13239.426994701591,-5175.4471936807304,16087.102112055491,17942.188887105513,9397.5064845289708,-3453.6354958888037,3453.6354958888037,-9397.5064845289708,31603.219841686161,0.0
395012.02908761695,3907225.878295721,-47500.0,2343.4544316273177,7039.2724934797334,3297.904171964622,-13248.672763522003,-4670.7754003820792,14189.106193746029,16525.430227337642,7811.8446252329195,-869.24008905201481,869.24008905201481,-7811.8446252329195,29506.081592567116,0.0
400012.02908761695,3907225.878295721,-47500.0,4360.5654152342659,6378.474871972815,2357.2791591378132,-12709.163380206663,-4139.4562253098011,12281.107812477101,15039.755240862767,6461.8551864706187,1045.0769157208292,-1045.0769157208292,-6461.8551864706187,27214.77322137561,0.0
405012.02908761695,3907225.878295721,-47500.0,5711.2882980263657,5730.8784840106046,1667.7433685579849,-11869.022802251078,-3631.1270558201859,10519.971173064341,13588.171450332477,5337.9567522664338,2392.8339827848531,-2392.8339827848531,-5337.9567522664338,24892.229196461634,0.0
410012.02908761695,3907225.878295721,-47500.0,6544.1654739938367,5122.554343815671,1168.141709117953,-10894.826277715521,-3167.2032494803134,8962.0718645009783,12225.389449179091,4414.4894985832279,3294.6478828452236,-3294.6478828452236,-4414.4894985832279,22641.854212978444,0.0
415012.02908761695,3907225.878295721,-47500.0,6992.9115025181964,4565.8085501846126,809.25079662934695,-9889.0345631999007,-2754.280553812057,7614.3763244086731,10975.564282152689,3660.6072268247112,3860.2747886329339,-3860.2747886329339,-3660.6072268247112,20521.789076107438,0.0
420012.02908761695,3907225.878295721,-47500.0,7165.6517907867201,4064.3130187476791,553.25910311208838,-8910.4683922756885,-2391.8570797952061,6462.4766611242485,9845.1887991218591,3046.4113648359453,4179.470188792352,-4179.470188792352,-3046.4113648359453,18560.084185053445,0.0
425012.02908761695,3907225.878295721,-47500.0,7145.1805517907223,3616.9268735047185,371.89860363093339,-7990.4033602736627,-2076.3461784526976,5484.4478254598089,8831.3226504284794,2545.6274906599429,4321.7410060092443,-4321.7410060092443,-2545.6274906599429,16766.231792039118,0.0
430012.02908761695,3907225.878295721,-47500.0,6993.0413446636185,3220.1091447020694,244.37103455591361,-7143.447284545191,-1803.0307215929622,4657.122669288713,7926.4174221843277,2136.3082180388742,4339.3478534869373,-4339.3478534869373,-2136.3082180388742,15138.801385274848,0.0
435012.02908761695,3907225.878295721,-47500.0,6754.2215377197981,2869.3230647435466,155.51744067152504,-6374.4274934319101,-1566.987453762235,3958.7125331811985,7121.0343915052026,1800.6131713900884,4270.9485719621207,-4270.9485719621207,-1800.6131713900884,13670.274350966352,0.0
440012.02908761695,3907225.878295721,-47500.0,6461.2506607858177,2559.79213104469,94.349489525241808,-5682.585502019977,-1363.5030208002563,3369.7329952407044,6405.2894529763817,1524.2357083468148,4144.8605971434881,-4144.8605971434881,-1524.2357083468148,12349.975192048638,0.0
445012.02908761695,3907225.878295721,-47500.0,6137.4354540216218,2286.8855849277943,52.92781676649922,-5064.0966592952027,-1188.2509740954729,2873.1953446254834,5769.5871052065168,1295.7690859299523,3981.6785595130445,-3981.6785595130445,-1295.7690859299523,11165.83117802583,0.0
450012.02908761695,3907225.878295721,-47500.0,5799.3110532336623,2046.3008920291179,25.527520226443663,-4513.5859320527879,-1037.3556993275542,2454.5010009579364,5204.9755087369904,1106.1305183377206,3796.280462674943,-3796.280462674943,-1106.1305183377206,10105.43704309603,0.0
250012.02908761695,3912225.878295721,-47500.0,6803.9526339107933,529.56451734398343,-291.48689703663126,4977.1122442406459,115.31811662537649,2622.7818358001778,5453.2228932474491,-740.39630698287328,5131.3635678922074,-5131.3635678922074,740.39630698287328,10646.894205692712,0.0
255012.02908761695,3912225.878295721,-47500.0,7296.1909552914303,554.38910707874322,-316.55989718276936,5624.8858223530506,95.830801863231031,3091.0522507997839,6065.5234509268594,-814.47038854650782,5512.9650225340592,-5512.9650225340592,814.47038854650782,11810.677703920901,0.0
260012.02908761695,3912225.878295721,-47500.0,7800.3620389088801,578.15985634805133,-337.67341401070939,6363.4514401741271,65.077181812127975,3653.0075569519713,6759.7595408302714,-891.07526609295746,5904.3187050727602,-5904.3187050727602,891.07526609295746,13121.467398641498,0.0
265012.02908761695,3912225.878295721,-47500.0,8304.4322745794452,600.51997171623498,-351.23905690841866,7203.871230432801,18.965980839736872,4328.5374884291468,7547.5685864603729,-967.22589220204236,6295.6898863569604,-6295.6898863569604,967.22589220204236,14597.416928358749,0.0
270012.02908761695,3912225.878295721,-47500.0,8790.2625965770385,621.34607137263811,-351.93347552594645,8157.1420441027003,-47.887707207635337,5141.7219749266314,8441.9626414148679,-1037.9834924167135,6672.2355411380349,-6672.2355411380349,1037.9834924167135,16257.857037450749,0.0
275012.02908761695,3912225.878295721,-47500.0,9231.1703239672588,641.02451703364761,-331.96529553061151,9233.1331724308438,-142.49251833500998,6121.5809593465938,9457.2326170147462,-1095.4751373426079,7011.8990855766688,-7011.8990855766688,1095.4751373426079,18122.681321091623,0.0
280012.02908761695,3912225.878295721,-47500.0,9588.569619860109,660.90500619883755,-280.05462447157606,10438.710896140055,-273.84275437951209,7302.8258875030742,10608.609489498307,-1127.4664421135953,7282.485709020546,-7282.485709020546,1127.4664421135953,20211.200712376463,0.0
285012.02908761695,3912225.878295721,-47500.0,9807.3896320916629,684.02682600336504,-180.0310490803916,11774.473445316284,-453.25802392458468,8726.4131325961916,11911.455141169026,-1115.3025718119043,7437.6378278019802,-7437.6378278019802,1115.3025718119043,22540.088650146226,0.0
290012.02908761695,3912225.878295721,-47500.0,9810.001269510085,716.23804318989414,-8.9393442484678012,13229.129420824689,-694.60352757812871,10439.415219059007,13379.581001423536,-1030.9976317157934,7411.4347970195895,-7411.4347970195895,1030.9976317157934,25119.791869607379,0.0
295012.02908761695,3912225.878295721,-47500.0,9488.6435726479649,767.86046252129017,265.4513472181128,14769.908288317161,-1014.2085194268576,12493.039176556231,15021.960991336442,-833.24771159547981,7111.5134583119625,-7111.5134583119625,833.24771159547981,27948.328113079289,0.0
300012.02908761695,3912225.878295721,-47500.0,8697.2852590403127,856.08006815680483,687.76317438253136,16326.540223413382,-1430.1551705192039,14936.12794460338,16836.593679101887,-462.26632867467106,6411.2997883332082,-6411.2997883332082,462.26632867467106,31000.776571520382,0.0
305012.02908761695,3912225.878295721,-47500.0,7246.3676367067665,1008.2265193361814,1318.5308641129529,17765.605404253041,-1960.3958343166742,17798.400718932713,18799.5159460004,166.19572365685144,5143.8508540012344,-5143.8508540012344,-166.19572365685144,34212.053496753484,0.0
310012.02908761695,3912225.878295721,-47500.0,4909.6821427183158,1266.0287705307642,2237.2199840052431,18853.048071629932,-2618.7618483252909,21052.062041102854,20846.270757228725,1166.0493229939498,3104.3344211993849,-3104.3344211993849,-1166.0493229939498,37450.672549037903,0.0
315012.02908761695,3912225.878295721,-47500.0,1463.821517311334,1690.6728721846125,3542.1807898519151,19209.971981287566,-3407.1835840238691,24532.374579095889,22843.489088746152,2680.9017878330624,77.159805964985026,-77.159805964985026,-2680.9017878330624,40484.612771318149,0.0
320012.02908761695,3912225.878295721,-47500.0,-3204.0332333688953,2367.6492693348259,5341.4183699574569,18291.222475812225,-4300.8656260006692,27794.455584231189,24553.133875659703,4869.2543258077558,-4083.0350602410954,4083.0350602410954,-4869.2543258077558,42954.057429747889,0.0
325012.02908761695,3912225.878295721,-47500.0,-8883.5574059695828,3407.2518006810737,7722.0374132302195,15471.527831820953,-5220.1652099647226,29914.182954672051,25609.529797508476,7857.7834349671639,-9282.8971027187908,9282.8971027187908,-7857.7834349671639,44400.83185450478,0.0
330012.02908761695,3912225.878295721,-47500.0,-14764.780764690442,4925.4589800461999,10681.208425613055,10391.429215829521,-5981.5925318282552,29374.516084001476,25577.915682782615,11642.047543270059,-14952.216235347136,14952.216235347136,-11642.047543270059,44459.779703414861,0.0
335012.02908761695,3912225.878295721,-47500.0,-19376.863368616017,6963.3788757778893,14014.590504958911,3635.0246156549679,-6242.7783805693225,24450.22794634461,24326.359859387703,15932.524678386255,-19931.354196484397,19931.354196484397,-15932.524678386255,43294.062185978481,0.0
340012.02908761695,3912225.878295721,-47500.0,-21244.756303195452,9296.708573782782,17222.202373925367,-2726.1599456321919,-5553.5987758790588,14559.84859181735,23438.998339852562,20017.239728173754,-22878.704398124737,22878.704398124737,-20017.239728173754,41934.377040366067,0.0
345012.02908761695,3912225.878295721,-47500.0,-20212.827121672144,11256.066220547276,19592.671462200287,-5884.0754548954355,-3728.2758832351387,1978.1631947733156,23917.160361785671,22855.22027084712,-23265.95081647125,23265.95081647125,-22855.22027084712,41463.943016367055,0.0
350012.02908761695,3912225.878295721,-47500.0,-17974.229939570447,11997.524791840506,20572.727252127395,-4593.5558152189233,-1406.1719899925365,-8423.0768021120057,23388.807517628487,23639.947951278871,-21997.811462781643,21997.811462781643,-23639.947951278871,41351.911338464226,0.0
355012.02908761695,3912225.878295721,-47500.0,-16582.966845291852,11304.885965514606,20143.250168135881,-645.06481066271067,74.518735635546449,-12472.463006797318,21591.991386435951,22516.90660208197,-20605.781929212422,20605.781929212422,-22516.90660208197,39992.678416832852,0.0
360012.02908761695,3912225.878295721,-47500.0,-16517.413025982107,9928.6194666247502,18730.131530122544,2653.5989305670109,-194.29828289235635,-9801.1807719616754,20574.088606035948,20509.976455976408,-19795.648619456544,19795.648619456544,-20509.976455976408,36982.927793267474,0.0
365012.02908761695,3912225.878295721,-47500.0,-16641.537884333913,8848.7560171427049,16780.770334590565,3227.0192997406734,-1901.5397378682337,-3369.6320682428254,19332.160837080737,18584.612914922393,-19082.783576415808,19082.783576415808,-18584.612914922393,33564.958122923046,0.0
370012.02908761695,3912225.878295721,-47500.0,-15687.40897589819,8450.7101648978314,14563.850882824259,1218.2984836925857,-4005.5709133265918,3329.3824195897496,17888.50979286668,17022.588855663835,-17667.440318381148,17667.440318381148,-17022.588855663835,31117.924662803609,0.0
375012.02908761695,3912225.878295721,-47500.0,-13304.464668724255,8511.4044918651834,12255.944863993727,-2004.8360243861628,-5648.3011365755838,8249.1251596726615,17127.531388867064,15634.826908096746,-15269.442727060346,15269.442727060346,-15634.826908096746,29867.59491441795,0.0
380012.02908761695,3912225.878295721,-47500.0,-9962.5982750752282,8646.7683970963681,10022.289754633906,-5138.7803815922271,-6521.9843433054502,10950.210915474556,16822.494413087414,14208.757657811717,-12191.201797909331,12191.201797909331,-14208.757657811717,29153.576618200648,0.0
385012.02908761695,3912225.878295721,-47500.0,-6369.4145456925926,8614.1969400120943,8001.6221682156092,-7494.733794647068,-6715.2637176448052,11868.847015186664,16329.330872416413,12690.62995624882,-8943.8635434191201,8943.8635434191201,-12690.62995624882,28345.523908029147,0.0
390012.02908761695,3912225.878295721,-47500.0,-3065.1013500341387,8350.7646977760669,6274.1073258239903,-8925.6955469342047,-6454.0246318458258,11648.597153524059,15520.800864408768,11141.234008875475,-5939.8938582908668,5939.8938582908668,-11141.234008875475,27193.246947990825,0.0
395012.02908761695,3912225.878295721,-47500.0,-321.1266275190369,7897.3085736707335,4859.2558493424931,-9567.5387117489354,-5947.6175338934254,10820.828935003456,14491.687451536369,9648.1693525603841,-3397.5782821444932,3397.5782821444932,-9648.1693525603841,25711.830878487246,0.0
400012.02908761695,3912225.878295721,-47500.0,1798.328236230682,7325.9012397045717,3735.126281590542,-9638.3459465633114,-5341.5809788678444,9735.0162206987006,13357.791998576027,8277.0127081358005,-1375.4572467192174,1375.4572467192174,-8277.0127081358005,24013.902802259861,0.0
405012.02908761695,3912225.878295721,-47500.0,3343.473515404402,6702.0133498685991,2859.9660155625402,-9339.1703195463524,-4722.2057408368673,8591.7598621320503,12205.978100078744,7060.6893033268789,160.67906301919629,-160.67906301919629,-7060.6893033268789,22217.668907064188,0.0
410012.02908761695,3912225.878295721,-47500.0,4409.555959368221,6072.7858171622875,2187.4060522941563,-8823.0491385910336,-4134.7115135384229,7494.4551832923471,11090.85265110306,6006.3309537153018,1284.233263887973,-1284.233263887973,-6006.3309537153018,20414.993286919605,0.0
415012.02908761695,3912225.878295721,-47500.0,5098.0585206350988,5467.6768240778001,1674.5431461649903,-8195.5905261871831,-3599.5385190287107,6490.0902599926749,10042.576851630571,5105.5399770529166,2076.3213880289782,-2076.3213880289782,-5105.5399770529166,18667.711867564994,0.0
420012.02908761695,3912225.878295721,-47500.0,5499.5439872503857,4902.8654288408225,1285.1036171824971,-7525.4335966576537,-3123.3708033777411,5595.2050366991562,9075.2080227148417,4342.5118974807056,2611.0400284761376,-2611.0400284761376,-4342.5118974807056,17013.255792973177,0.0
425012.02908761695,3912225.878295721,-47500.0,5688.4313329400475,4385.7055710538734,989.92886881160462,-6855.2349829105988,-2705.7431119049702,4810.7846301785958,8193.0155946315172,3699.1368634313158,2950.4136605363083,-2950.4136605363083,-3699.1368634313158,15471.641198925092,0.0
430012.02908761695,3912225.878295721,-47500.0,5723.2501465467703,3918.1132181545731,766.26072736252365,-6210.3092268734936,-2342.7453363505274,4130.331995315546,7394.6593830290303,3157.7279576282772,3144.0227412326585,-3144.0227412326585,-3157.7279576282772,14051.230433706725,0.0
435012.02908761695,3912225.878295721,-47500.0,5648.890129169924,3498.8577083275691,596.64466266783518,-5604.7053708911035,-2029.0287458007253,3544.1272829006562,6675.7794981962415,2702.262669869212,3230.4800678772526,-3230.4800678772526,-2702.262669869212,12752.901159007464,0.0
440012.02908761695,3912225.878295721,-47500.0,5499.2536533531602,3125.0220055678265,467.82850841636781,-5045.2861640385563,-1758.8671587874292,3041.4529808217571,6030.5573947696857,2318.7998939137628,3239.3967551471128,-3239.3967551471128,-2318.7998939137628,11572.927421950335,0.0
445012.02908761695,3912225.878295721,-47500.0,5299.6626079347134,2792.8897930169778,369.80692392987521,-4534.390224014398,-1526.6961101419613,2611.7284908974016,5452.6151786906248,1995.4780960495577,3193.2516620756182,-3193.2516620756182,-1995.4780960495577,10504.881100442599,0.0
450012.02908761695,3912225.878295721,-47500.0,5068.8554232062424,2498.4777616742922,295.0465447860044,-4071.5739178000599,-1327.374625548478,2245.0749610959278,4935.5391336025505,1722.336223015081,3108.9825097861999,-3108.9825097861999,-1722.336223015081,9540.9058865429579,0.0
250012.02908761695,3917225.878295721,-47500.0,6941.1428966466183,-116.84662474559909,-261.15174826721619,5066.5315995162846,-271.77367669605502,2669.1370630317792,5528.512462176348,-1286.0001548049379,5317.5018268385365,-5317.5018268385365,1286.0001548049379,10799.379926550329,0.0
255012.02908761695,3917225.878295721,-47500.0,7435.4853707777957,-185.01755403128885,-273.69673341798494,5721.459197578708,-363.44055773034961,3144.2023991718261,6147.2785766867219,-1431.484265069465,5709.8522193028166,-5709.8522193028166,1431.484265069465,11977.836366426382,0.0
260012.02908761695,3917225.878295721,-47500.0,7938.509948754966,-268.76827216400386,-278.21200860450466,6466.2974938402085,-481.56551689864585,3713.545527067336,6848.1085773141385,-1588.9426293703259,6110.1980757621786,-6110.1980757621786,1588.9426293703259,13304.169315911167,0.0
265012.02908761695,3917225.878295721,-47500.0,8436.7666508295188,-370.5101213867884,-269.84956357172103,7311.1895083892941,-633.64527774618682,4396.8166693963776,7642.3799640025982,-1756.1953911273818,6507.5885269265727,-6507.5885269265727,1756.1953911273818,14796.246013451038,0.0
270012.02908761695,3917225.878295721,-47500.0,8910.2473278373327,-492.48064084548992,-241.65925964262971,8265.7464617566111,-829.21246169136157,5217.6240911139275,8542.6961801356338,-1928.8806626885548,6885.4966107870368,-6885.4966107870368,1928.8806626885548,16472.899040664339,0.0
275012.02908761695,3917225.878295721,-47500.0,9329.8411105701362,-636.28731015463495,-183.76992208520616,9337.7808875265146,-1080.2828341726563,6204.1432331566393,9562.7249583880603,-2099.2549876309549,7219.5728897963254,-7219.5728897963254,2099.2549876309549,18353.206303782536,0.0
280012.02908761695,3917225.878295721,-47500.0,9653.867771188925,-802.11829157592001,-82.284620192310214,10531.138504427019,-1401.803072547011,7389.6455368118104,10716.763476098731,-2254.414115143908,7474.5539999428593,-7474.5539999428593,2254.414115143908,20455.18331413635,0.0
285012.02908761695,3917225.878295721,-47500.0,9823.4211318823418,-987.42561423853942,82.182543682816259,11842.026385115912,-1811.9900073187414,8812.7092779466147,12018.799194916115,-2373.6813012409366,7600.0619560844771,-7600.0619560844771,2373.6813012409366,22793.494696491383,0.0
290012.02908761695,3917225.878295721,-47500.0,9756.3187152314567,-1184.7811233813125,336.38684928828843,13252.820564889509,-2332.3295223499094,10516.545349468186,13480.645925680079,-2424.8285306747939,7525.0566890533346,-7525.0566890533346,2424.8285306747939,25375.509939713775,0.0
295012.02908761695,3917225.878295721,-47500.0,9339.7929277595831,-1378.4834922221862,716.76157896181371,14721.700114887624,-2986.7826325513897,12546.14072485798,15108.41655036962,-2358.7501987826245,7150.9368928612103,-7150.9368928612103,2358.7501987826245,28194.58100279557,0.0
300012.02908761695,3917225.878295721,-47500.0,8423.1577823414482,-1539.3418136982407,1271.9960795788234,16165.618446133891,-3799.3140630726134,14940.31422077935,16896.089548762655,-2102.300837244135,6344.1074299485335,-6344.1074299485335,2102.300837244135,31218.783163687505,0.0
305012.02908761695,3917225.878295721,-47500.0,6814.5056858121097,-1617.0234308681188,2065.3413553931291,17433.508694394703,-4788.1006903506141,17712.512206735173,18814.230217196586,-1549.5506836950012,4931.0156705437203,-4931.0156705437203,1549.5506836950012,34372.681405333969,0.0
310012.02908761695,3917225.878295721,-47500.0,4291.8597548234366,-1529.7514482804156,3175.1867968806123,18268.025932516124,-5953.4886168594803,20808.235056835743,20791.387741585866,-553.43814750756451,2703.7484672282462,-2703.7484672282462,553.43814750756451,37509.942872549604,0.0
315012.02908761695,3917225.878295721,-47500.0,651.26206891518927,-1152.9744355392454,4690.5277016036125,18262.691401904343,-7254.9757907141147,24018.663125485724,22686.540033609774,1075.7746040444674,-545.71594324743796,545.71594324743796,-1075.7746040444674,40378.629521308882,0.0
320012.02908761695,3917225.878295721,-47500.0,-4169.9067817968371,-314.1641820942076,6694.2871577812957,16848.901547892638,-8571.416464085507,26827.459650748115,24257.376047676997,3549.3813291179522,-4930.1272967619843,4930.1272967619843,-3549.3813291179522,42596.550603129202,0.0
325012.02908761695,3917225.878295721,-47500.0,-9858.9631621651479,1186.2541474466284,9222.2938566599951,13408.90446527468,-9643.5485622640153,28204.188348172538,25151.77768410643,7025.8353945495255,-10274.893538889857,10274.893538889857,-7025.8353945495255,43694.587028646638,0.0
330012.02908761695,3917225.878295721,-47500.0,-15444.081819640103,3487.7664497597325,12184.913554319784,7681.9435631827264,-10023.686483357291,26511.83272374489,25014.393437162842,11446.387789052069,-15859.458691604961,15859.458691604961,-11446.387789052069,43352.20373884798,0.0
335012.02908761695,3917225.878295721,-47500.0,-19303.322743489392,6475.6456855239767,15263.69928868343,515.84042538077256,-9124.3314899457419,20000.298179513255,23966.924340237194,16298.379148658016,-20341.174001358253,20341.174001358253,-16298.379148658016,41921.41469492847,0.0
340012.02908761695,3917225.878295721,-47500.0,-20026.523829636069,9544.1857404368711,17878.066902818078,-5644.4909830923352,-6528.640341190523,8357.0824835864369,23403.824960918599,20503.67376105057,-22331.568830544147,22331.568830544147,-20503.67376105057,40782.874334178829,0.0
345012.02908761695,3917225.878295721,-47500.0,-17884.0292227477,11638.266686569894,19395.051562056109,-7854.0500240673609,-2571.780714327183,-5592.070774337788,23672.931324656696,22797.453433702649,-21585.632969669881,21585.632969669881,-22797.453433702649,41156.256177259602,0.0
350012.02908761695,3917225.878295721,-47500.0,-15043.130137015882,11907.691682227376,19564.51906319226,-5232.7273169879554,1367.2704175711474,-16687.954394033892,23241.9150848852,22612.722151232607,-19475.805623010405,19475.805623010405,-22612.722151232607,42076.719040190466,0.0
355012.02908761695,3917225.878295721,-47500.0,-13626.2578965801,10516.579525367591,18721.548496960768,-13.987797448149848,3594.8832656143832,-21103.798582885327,21855.95278466439,20631.239141678827,-17776.584156324603,17776.584156324603,-20631.239141678827,41409.439870705042,0.0
360012.02908761695,3917225.878295721,-47500.0,-13933.427123375499,8567.6040309192613,17430.059214174013,4466.8717636575357,3360.3880723816483,-18848.076929109917,20834.42206065539,18223.143153375462,-17161.377392292303,17161.377392292303,-18223.143153375462,38417.568644259882,0.0
365012.02908761695,3917225.878295721,-47500.0,-14768.098609829269,7160.9182162967791,16013.960248787782,6252.2161038615277,1255.9190991546113,-12717.246974216014,19264.61196422495,16374.511531783372,-17071.348976134745,17071.348976134745,-16374.511531783372,34124.046804700876,0.0
370012.02908761695,3917225.878295721,-47500.0,-14837.881461650699,6688.8313185040197,14501.236817042087,5353.8307033341898,-1491.0994565880887,-5819.7474276950452,17321.753147481431,15242.070311280186,-16610.393550099412,16610.393550099412,-15242.070311280186,30073.385864258602,0.0
375012.02908761695,3917225.878295721,-47500.0,-13617.965740529376,6903.6675112685634,12850.442634130419,2873.375772079778,-3878.868021181222,-96.436809286867344,15684.35097129815,14481.318666889194,-15299.00842914882,15299.00842914882,-14481.318666889194,27173.56488579798,0.0
380012.02908761695,3917225.878295721,-47500.0,-11325.796831378018,7356.6200595681903,11100.102541168102,-14.201102589844552,-5464.0442133636298,3807.436843702907,14652.480403781685,13725.155092531373,-13203.796797063553,13203.796797063553,-13725.155092531373,25386.745895581458,0.0
385012.02908761695,3917225.878295721,-47500.0,-8496.7205704416665,7713.3018238764826,9357.4785501780298,-2554.5401477254736,-6241.3812163636285,6040.294595228982,13960.895230444959,12799.438385579488,-10682.042756581763,10682.042756581763,-12799.438385579488,24196.633906804604,0.0
390012.02908761695,3917225.878295721,-47500.0,-5630.436482754526,7829.4820375427989,7732.5064668708201,-4441.9073057051082,-6403.3774042595387,7039.0995188341203,13282.191923032478,11702.073804091853,-8109.4101259815816,8109.4101259815816,-11702.073804091853,23149.229252681998,0.0
395012.02908761695,3917225.878295721,-47500.0,-3047.9620949935011,7697.1502507448222,6296.9073813986097,-5659.2589766072024,-6171.3167963092919,7240.4700399814856,12510.977189061781,10509.978155197965,-5746.631812801711,5746.631812801711,-10509.978155197965,22025.208769737223,0.0
400012.02908761695,3917225.878295721,-47500.0,-894.84204834722129,7370.9776871401027,5078.5017102552702,-6319.0222292431317,-5722.9111959004758,6977.4245279262968,11661.725759016121,9309.0888172308387,-3723.5305619548312,3723.5305619548312,-9309.0888172308387,20776.642220276048,0.0
405012.02908761695,3917225.878295721,-47500.0,802.65176962170699,6919.2078334714324,4073.0762413894654,-6564.374527909582,-5178.9939974685767,6472.4753490874427,10777.448351407076,8163.8639455669527,-2073.8898292355893,2073.8898292355893,-8163.8639455669527,19433.608319009643,0.0
410012.02908761695,3917225.878295721,-47500.0,2081.9425110920438,6401.002385391861,3258.8539736606194,-6524.2104963797747,-4613.5531036281081,5863.0749484508142,9896.9080742415717,7112.1972696440307,-776.51642790936148,776.51642790936148,-7112.1972696440307,18047.19103154663,0.0
415012.02908761695,3917225.878295721,-47500.0,3006.0753834952461,5860.0468235272974,2607.3409440256232,-6299.5163682256953,-4068.1323872209409,5229.5698678515182,9047.3309698201083,6170.7072314926381,214.36572064239499,-214.36572064239499,-6170.7072314926381,16664.656306217687,0.0
420012.02908761695,3917225.878295721,-47500.0,3642.4328423775823,5325.5058376478564,2089.7456921390631,-5963.8870785198305,-3563.7612264446079,4616.5297421961095,8245.3111735306775,5341.9830802020879,951.04443837657391,-951.04443837657391,-5341.9830802020879,15321.887503502598,0.0
425012.02908761695,3917225.878295721,-47500.0,4052.7551179037541,4815.2547196779278,1680.0895201263838,-5568.6626303684861,-3109.2157458666998,4046.9028271127195,7499.5356482302795,4620.556264286547,1483.2210408281871,-1483.2210408281871,-4620.556264286547,14043.05532784519,0.0
430012.02908761695,3917225.878295721,-47500.0,4289.5551693321549,4339.1855537505444,1356.3158368793161,-5148.5610734273832,-2706.2829731130723,3530.849154066575,6813.3499688209358,3996.9879879292739,1854.2842180718189,-1854.2842180718189,-3996.9879879292739,12842.686683675476,0.0
435012.02908761695,3917225.878295721,-47500.0,4395.6793991454551,3901.857701602974,1100.3501385100863,-4726.3864643448951,-2352.9638119403426,3071.1009068077551,6186.6823479648174,3460.3706673201191,2100.3933131012823,-2100.3933131012823,-3460.3706673201191,11728.075910274474,0.0
440012.02908761695,3917225.878295721,-47500.0,4405.2120559098694,3504.4246302295628,897.69548077005027,-4316.6001369450241,-2045.377828133863,2666.2045831283417,5617.3845900774813,2999.7426403590334,2250.8602936822508,-2250.8602936822508,-2999.7426403590334,10701.402690926192,0.0
445012.02908761695,3917225.878295721,-47500.0,4344.8137924357998,3145.9582839114751,736.87488184248991,-3927.9038686737576,-1778.8703768590317,2312.4790648673925,5102.123282775995,2604.8166707124246,2329.0304156083021,-2329.0304156083021,-2604.8166707124246,9761.3858910745803,0.0
450012.02908761695,3917225.878295721,-47500.0,4235.0844873749793,2824.3357414273428,608.87327057699429,-3565.0772526042524,-1548.6434398582337,2005.2020423657129,4636.9679141896368,2266.3083915812426,2353.274155673093,-2353.274155673093,-2266.3083915812426,8904.5265385997336,0.0
250012.02908761695,3922225.878295721,-47500.0,6897.8181047286462,-748.19747786109485,-139.16086683439215,5050.7112186616541,-651.25862617296843,2667.5929009158972,5538.2035349070384,-1743.4585100014067,5335.9507811715894,-5335.9507811715894,1743.4585100014067,10822.510603000494,0.0
255012.02908761695,3922225.878295721,-47500.0,7362.3224687329712,-902.61766967034339,-121.20831431196864,5688.8266245018694,-811.1634791608368,3136.1894356810549,6149.7320162340347,-1940.2699836731831,5708.0699365791843,-5708.0699365791843,1940.2699836731831,11989.303415180004,0.0
260012.02908761695,3922225.878295721,-47500.0,7826.2176332626141,-1084.6689538742826,-87.302586667509516,6409.8485954536136,-1010.9984997325181,3695.528404052458,6840.1189250128091,-2153.418029248387,6080.2073968713121,-6080.2073968713121,2153.418029248387,13298.588429218717,0.0
265012.02908761695,3922225.878295721,-47500.0,8273.5900662042895,-1297.93469175426,-30.506051479201155,7221.3083707178566,-1260.9209259730019,4363.595491884169,7619.565384424167,-2380.1674467387984,6438.9847437556746,-6438.9847437556746,2380.1674467387984,14766.267335721994,0.0
270012.02908761695,3922225.878295721,-47500.0,8681.4556871526693,-1545.5751448610147,58.731229906770167,8129.2581217053876,-1573.5348728219581,5161.5584200165003,8499.0707730948907,-2615.0197536442274,6764.8335407912155,-6764.8335407912155,2615.0197536442274,16408.501027991166,0.0
275012.02908761695,3922225.878295721,-47500.0,9017.2195117155952,-1829.5930125194645,193.46657139049211,9136.6792145349791,-1964.30492242021,6114.0062996441793,9490.1169252937289,-2848.2303679857864,7029.6761673505498,-7029.6761673505498,2848.2303679857864,18240.736313463229,0.0
280012.02908761695,3922225.878295721,-47500.0,9235.3296562404939,-2149.5915773700208,391.40730417038401,10240.900271076525,-2451.870357235593,7248.9237540302574,10604.027032669144,-3063.6335740487189,7193.832097616285,-7193.832097616285,3063.6335740487189,20276.057385495773,0.0
285012.02908761695,3922225.878295721,-47500.0,9272.9804833877042,-2500.740370992401,676.31834870546277,11429.432041745233,-3058.0674324249062,8597.0750446709462,11850.763015074594,-3235.493127253304,7201.9813353880209,-7201.9813353880209,3235.493127253304,22522.457774231687,0.0
290012.02908761695,3922225.878295721,-47500.0,9044.8837958256172,-2870.5114532321977,1079.636299989997,12673.264481096878,-3807.2612116526534,10190.102069430364,13236.748003637978,-3324.0238286705849,6978.1326938813327,-6978.1326938813327,3324.0238286705849,24978.365822933676,0.0
295012.02908761695,3922225.878295721,-47500.0,8437.6319072334209,-3233.5800157567701,1642.0908103273698,13916.166386986621,-4724.2354986838991,12055.881146676418,14761.026433793819,-3269.2204221476145,6419.927777501096,-6419.927777501096,3269.2204221476145,27625.376934818833,0.0
300012.02908761695,3922225.878295721,-47500.0,7305.5260187541735,-3544.1228631974054,2414.7897168444683,15057.993797198176,-5829.211870125836,14208.107700312148,16408.67803287999,-2982.8536999955613,5393.686907687199,-5393.686907687199,2982.8536999955613,30416.685018759512,0.0
305012.02908761695,3922225.878295721,-47500.0,5472.8445356421671,-3724.8592712098143,3458.5575053895914,15930.040443132153,-7127.4049628493258,16624.058040477397,18139.965074393662,-2339.3727559796935,3734.1327749311577,-3734.1327749311577,2339.3727559796935,33259.444665370014,0.0
310012.02908761695,3922225.878295721,-47500.0,2753.9132754913007,-3653.2574409972813,4839.0414971713808,16263.057650279963,-8588.7230463268861,19199.472627963802,19873.70876744383,-1168.9862098609431,1258.091474215458,-1258.091474215458,1168.9862098609431,35990.437272815994,0.0
315012.02908761695,3922225.878295721,-47500.0,-986.91123503171298,-3149.1573022917419,6612.946239775506,15658.905887641147,-10111.292873416456,21663.773329978067,21465.431245372631,737.69664208844574,-2189.0543145907059,2189.0543145907059,-737.69664208844574,38350.223951807806,0.0
320012.02908761695,3922225.878295721,-47500.0,-5702.6041452656173,-1978.2094285722253,8798.0507668827431,13605.219600057388,-11463.667767554633,23442.005675592405,22689.467548514749,3591.9300840612868,-6624.4261131636576,6624.4261131636576,-3591.9300840612868,39979.423704096094,0.0
325012.02908761695,3922225.878295721,-47500.0,-10941.300952121626,94.48460225274701,11319.44459764559,9627.6232170777839,-12215.622286607171,23494.830464478,23260.725096819111,7498.3526321262634,-11733.783431216232,11733.783431216232,-7498.3526321262634,40504.054515405354,0.0
330012.02908761695,3922225.878295721,-47500.0,-15631.004034762036,3146.5681011192733,13937.259285828841,3716.4976314556361,-11718.468748064644,20319.112514341137,22998.134464253584,12243.10506045402,-16654.249295899812,16654.249295899812,-12243.10506045402,39834.882062546392,0.0
335012.02908761695,3922225.878295721,-47500.0,-18231.376296186529,6824.476168197838,16205.657590010238,-3003.2805931639082,-9287.1511905434927,12535.890879292583,22309.073377989269,17045.829539108683,-20015.388015473876,20015.388015473876,-17045.829539108683,38710.898331109587,0.0
340012.02908761695,3922225.878295721,-47500.0,-17700.246814545659,10151.541402702054,17578.218234406242,-8035.0630240694609,-4732.5446910203736,348.45288932226703,22387.397175698741,20583.613725984826,-20654.92397398335,20654.92397398335,-20583.613725984826,38776.723240118328,0.0
345012.02908761695,3922225.878295721,-47500.0,-14777.518783617677,11860.879944543956,17730.389198937864,-8820.7436059808915,1015.8156057727388,-13205.433125004256,23378.819309919312,21657.885803073386,-18760.860558886448,18760.860558886448,-21657.885803073386,40825.040542395385,0.0
350012.02908761695,3922225.878295721,-47500.0,-11782.871214948174,11315.058054498235,16872.017824700084,-5036.6737067447721,6033.1044250045452,-23455.31537188348,24393.708468110926,20169.392545121227,-16025.409532757132,16025.409532757132,-20169.392545121227,43141.767697133881,0.0
355012.02908761695,3922225.878295721,-47500.0,-10605.254369388433,9105.789872580528,15630.45312259903,932.79152660573595,8574.6936748401422,-27372.145142471283,24526.407041968552,17291.066212868089,-14219.451929039074,14219.451929039074,-17291.066212868089,43373.550214773146,0.0
360012.02908761695,3922225.878295721,-47500.0,-11325.223859364934,6570.6910228030092,14547.504063889219,6054.3554993475454,8184.6505721371332,-25258.653228013354,23217.136017267891,14538.799721513169,-13872.124947421657,13872.124947421657,-14538.799721513169,40798.130463387548,0.0
365012.02908761695,3922225.878295721,-47500.0,-12757.462515172008,4813.1177973297417,13745.188330216395,8629.4538082812633,5683.3619700632853,-19549.135506589239,20809.405127120648,12785.265412668065,-14356.079428612324,14356.079428612324,-12785.265412668065,36308.638084228398,0.0
370012.02908761695,3922225.878295721,-47500.0,-13668.022284163651,4190.6824258927991,13029.661264493916,8601.2811912656944,2366.4815955306026,-12840.583354127231,18066.162449205443,12048.145211606454,-14739.636377192914,14739.636377192914,-12048.145211606454,31349.522113437837,0.0
375012.02908761695,3922225.878295721,-47500.0,-13451.058971694856,4452.7056489558627,12177.635230812642,6827.3564712624566,-721.39670800185661,-6836.0336077889415,15619.740176054089,11878.377770889703,-14428.561141687871,14428.561141687871,-11878.377770889703,27054.268729243657,0.0
380012.02908761695,3922225.878295721,-47500.0,-12137.53799389855,5132.3778055670009,11103.689751440405,4308.8639445310791,-3051.4528611942978,-2246.5213598632863,13789.291760752025,11806.012015333517,-13311.981212232187,13311.981212232187,-11806.012015333517,23890.676673712438,0.0
385012.02908761695,3922225.878295721,-47500.0,-10098.587378491296,5838.2570569106574,9856.8229584971941,1782.3650261134076,-4523.2799922472377,879.77683691561197,12554.292276247979,11554.817985282056,-11597.74268059066,11597.74268059066,-11554.817985282056,21744.689400582116,0.0
390012.02908761695,3922225.878295721,-47500.0,-7760.8492077478668,6352.6858417505391,8544.646995332856,-359.40287854731974,-5266.8165005711899,2799.3726872633724,11670.922433010575,11046.465350897082,-9592.7756195050588,9592.7756195050588,-11046.465350897082,20245.327029689695,0.0
395012.02908761695,3922225.878295721,-47500.0,-5454.7012475301763,6606.662390395124,7269.6198603977464,-1985.1189345772661,-5482.8721053949548,3838.8888404415557,10920.320835040213,10320.644047534301,-7562.3108525253228,7562.3108525253228,-10320.644047534301,19051.935723272007,0.0
400012.02908761695,3922225.878295721,-47500.0,-3378.2644635812208,6618.3578485480857,6101.1743432819694,-3112.2000346896916,-5358.1893777554578,4285.8365711051993,10200.747003380216,9459.2555250893074,-5680.6465120386238,5680.6465120386238,-9459.2555250893074,17959.475416079797,0.0
405012.02908761695,3922225.878295721,-47500.0,-1620.0705228687539,6441.6888263336832,5073.7905015320803,-3821.4890295395139,-5036.0642442974195,4357.505328593501,9485.4356321490723,8542.2534980732416,-4036.6047779846012,4036.6047779846012,-8542.2534980732416,16879.258149994519,0.0
410012.02908761695,3922225.878295721,-47500.0,-196.78824653098883,6135.9990256480987,4195.8825249157589,-4208.1272108768799,-4615.3129004483408,4205.2880433116034,8777.5988077446527,7630.458364253851,-2658.2099801430322,2658.2099801430322,-7630.458364253851,15789.767440339705,0.0
415012.02908761695,3922225.878295721,-47500.0,914.35826651901755,5752.4939617143591,3460.0837267282377,-4358.9286346192039,-4159.2993067144225,3929.662898234305,8088.3262021133405,6763.4172834550445,-1537.3408534290011,1537.3408534290011,-6763.4172834550445,14699.329624232943,0.0
420012.02908761695,3922225.878295721,-47500.0,1753.6349839166451,5330.3619727346641,2851.2311706902251,-4344.8146535557889,-3706.2024390258662,3595.1192271647178,7428.1872328675263,5963.2502296409311,-647.83990134909027,647.83990134909027,-5963.2502296409311,13625.450615795013,0.0
425012.02908761695,3922225.878295721,-47500.0,2365.9429989521918,4897.3793736846837,2351.5100640771789,-4220.3555964710995,-3277.4444402751487,3241.8374713068938,6804.8199716100444,5239.7236913717006,43.148080479742475,-43.148080479742475,-5239.7236913717006,12585.394138159922,0.0
430012.02908761695,3922225.878295721,-47500.0,2794.1787531013997,4472.0530828734118,1943.3385376681651,-4026.0071438982641,-2883.7686034646968,2893.9665353889577,6222.7677537465561,4594.6302258651604,568.87399500202832,-568.87399500202832,-4594.6302258651604,11592.718883123582,0.0
435012.02908761695,3922225.878295721,-47500.0,3076.321179818955,4065.9432416641821,1610.7658281233093,-3790.9700090096621,-2529.3480435876809,2565.2388788936091,5684.0217693118411,4025.0200233621213,959.89396025538235,-959.89396025538235,-4025.0200233621213,10656.588898126043,0.0
440012.02908761695,3922225.878295721,-47500.0,3244.5491541599204,3685.6624176747173,1339.9941858764214,-3535.8444470607405,-2214.4700351367992,2262.7142015922354,5188.6900899100347,3525.3958526707265,1242.8343037844143,-1242.8343037844143,-3525.3958526707265,9782.224374165442,0.0
445012.02908761695,3922225.878295721,-47500.0,3325.3749692362139,3334.4228216696797,1119.4276086613042,-3274.8208852742364,-1937.2424854390606,1989.2502996264955,4735.5802032870306,3089.1120690341845,1440.1543306594317,-1440.1543306594317,-3089.1120690341845,8971.6899019701232,0.0
250012.02908761695,3927225.878295721,-47500.0,6686.3225015077451,-1331.9690922927882,63.960124636992028,4935.8093200849435,-1005.7302047388814,2620.6085990777642,5482.996150440802,-2092.9181135880253,5194.688382635064,-5194.688382635064,2092.9181135880253,10719.357623467331,0.0
255012.02908761695,3927225.878295721,-47500.0,7093.4476575249482,-1558.5356628506981,126.69054989457587,5535.7066820845375,-1225.2066733840916,3070.6453475845969,6074.3999867183147,-2317.4351905921903,5519.0567136998907,-5519.0567136998907,2317.4351905921903,11849.700260389889,0.0
260012.02908761695,3927225.878295721,-47500.0,7486.2232599348945,-1820.5107864552815,215.77976795820339,6206.4829249657778,-1494.9503606966082,3604.3417826281752,6738.5338862380941,-2557.0386950218708,5830.6417334273538,-5830.6417334273538,2557.0386950218708,13111.599889330424,0.0
265012.02908761695,3927225.878295721,-47500.0,7845.814076868739,-2121.3259998848548,340.54436344285085,6951.861310880101,-1826.5805153377003,4236.8988086092613,7483.6998380693822,-2807.0899012445916,6112.9894555674327,-6112.9894555674327,2807.0899012445916,14517.639223065404,0.0
270012.02908761695,3927225.878295721,-47500.0,8145.9599935978977,-2463.3428515001647,513.3436511779272,7772.896298036464,-2234.0936897615366,4985.5530843436181,8318.3883334208731,-3059.3334955087357,6342.9242317991011,-6342.9242317991011,3059.3334955087357,16079.623101132125,0.0
275012.02908761695,3927225.878295721,-47500.0,8350.620371396908,-2846.743524198243,750.44896659163908,8666.0536830228757,-2734.045192401888,5869.3218085487042,9250.7695664115781,-3300.1307967652051,6488.3110449100568,-6488.3110449100568,3300.1307967652051,17807.286943477742,0.0
280012.02908761695,3927225.878295721,-47500.0,8411.0549478368193,-3267.7480750743657,1073.0515824218924,9620.2671847552974,-3345.4571070710599,6908.2645199209637,10287.812521566306,-3507.9522399889556,6505.2332482297406,-6505.2332482297406,3507.9522399889556,19706.257777010036,0.0
285012.02908761695,3927225.878295721,-47500.0,8262.3900161872225,-3715.8178678087174,1508.3268317575901,10612.45205959019,-4089.1483728966577,8121.848086807202,11433.806445337352,-3649.8826262433486,6334.5878668204132,-6334.5878668204132,3649.8826262433486,21774.885054581973,0.0
290012.02908761695,3927225.878295721,-47500.0,7820.0145251498016,-4169.3615074615864,2090.3210405019809,11600.710097194175,-4985.9178367768855,9525.6252368011665,12687.919038471564,-3676.8887597374069,5898.3432965095053,-5898.3432965095053,3676.8887597374069,23999.362540534625,0.0
295012.02908761695,3927225.878295721,-47500.0,6976.837362538814,-4589.3390677867528,2860.1596998218547,12514.202447236123,-6052.5578448395108,11124.716089896527,14040.240949273282,-3517.7312953601418,5096.278277420819,-5096.278277420819,3517.7312953601418,26346.340731192846,0.0
300012.02908761695,3927225.878295721,-47500.0,5603.9825632259317,-4910.1720354913477,3864.5462101423645,13238.622871545707,-7293.8903167290355,12901.238964950959,15465.566082662768,-3071.910173124505,3805.3419773385699,-3805.3419773385699,3071.910173124505,28752.112715393665,0.0
305012.02908761695,3927225.878295721,-47500.0,3560.5934211580925,-5027.9268510695174,5150.6135888497902,13597.126013333062,-8687.7927229314046,14790.541395049217,16914.140997932151,-2203.4433085002333,1886.4721738481646,-1886.4721738481646,2203.4433085002333,31107.9239388569,0.0
310012.02908761695,3927225.878295721,-47500.0,723.88138423249086,-4787.8539765424057,6753.7653085489583,13330.466228824083,-10158.663250483667,16637.988826725257,18299.450188415583,-740.67552865057019,-791.36511773699681,791.36511773699681,740.67552865057019,33243.466110505397,0.0
315012.02908761695,3927225.878295721,-47500.0,-2942.2467022265332,-3979.1733612149551,8673.5070243880709,12091.312894741612,-11534.28868577556,18126.634634338385,19486.597930581018,1505.6479318431095,-4293.146721800983,4293.146721800983,-1505.6479318431095,34918.662767103269,0.0
320012.02908761695,3927225.878295721,-47500.0,-7260.2383137112429,-2357.7319584314318,10832.322781512345,9492.5820869328527,-12486.65502730817,18676.342567261469,20295.478794837676,4682.3172930906076,-8505.4803420677217,8505.4803420677217,-4682.3172930906076,35854.449178551535,0.0
325012.02908761695,3927225.878295721,-47500.0,-11664.706622947902,263.5431649712724,13020.59125002238,5286.1908912524968,-12481.633132001522,17362.90631052656,20559.555869768057,8759.2969731139037,-12971.414636191055,12971.414636191055,-8759.2969731139037,35872.333019056743,0.0
330012.02908761695,3927225.878295721,-47500.0,-15105.260252888454,3813.2361684870179,14858.270819295481,-253.70335144759505,-10822.698952815412,13024.895920013891,20328.310940038791,13316.78364614049,-16766.398119982929,16766.398119982929,-13316.78364614049,35234.186755832154,0.0
335012.02908761695,3927225.878295721,-47500.0,-16334.377619943478,7693.0549465136055,15853.557764528408,-5865.8592602593471,-6943.1165703251691,4851.8597591082544,20234.32901879053,17379.987117133714,-18679.997323081843,18679.997323081843,-17379.987117133714,35048.158293134045,0.0
340012.02908761695,3927225.878295721,-47500.0,-14807.37184245318,10724.022918389466,15644.716311710185,-9357.7406642934693,-997.99749093748142,-6508.877207140381,21240.479613395175,19632.193802325946,-17957.852622982344,17957.852622982344,-19632.193802325946,36799.34954097087,0.0
345012.02908761695,3927225.878295721,-47500.0,-11562.894401511339,11694.796770866071,14334.210091125045,-8857.2816269468349,5679.5253718181903,-18299.525787353592,23283.087228049426,19212.627589358945,-15181.129335507725,15181.129335507725,-19212.627589358945,40409.54867106142,0.0
350012.02908761695,3927225.878295721,-47500.0,-8733.7417611119636,10287.458597624005,12556.947570550918,-4485.1671664519372,11028.97607387461,-26869.59791976805,25191.153480188485,16507.483800722508,-12108.97895454106,12108.97895454106,-16507.483800722508,43715.994058277545,0.0
355012.02908761695,3927225.878295721,-47500.0,-7838.3385287103019,7386.162821236956,11082.983220046546,1590.3854256095694,13510.523500745005,-30063.6610796475,25745.349868297009,12955.393354535627,-10324.516116009007,10324.516116009007,-12955.393354535627,44624.777590855912,0.0
360012.02908761695,3927225.878295721,-47500.0,-8828.6255898928448,4388.5739044423362,10319.544960874797,6850.8074765860838,12926.303929529011,-28235.140933459079,24593.124488407422,10017.232212820914,-10210.005384475628,10210.005384475628,-10017.232212820914,42599.436271384242,0.0
365012.02908761695,3927225.878295721,-47500.0,-10634.567692799805,2325.0036256095264,10173.950319363699,9877.0641366335331,10177.129579058892,-23277.71330352555,22175.432403141327,8396.4100580286813,-11131.550846900793,11131.550846900793,-8396.4100580286813,38412.715197306985,0.0
370012.02908761695,3927225.878295721,-47500.0,-12139.347840729346,1512.844867739419,10276.914782030159,10537.642641951959,6508.1072182888738,-17220.766145127029,19213.830332687878,8001.3219939549435,-12181.41807202871,12181.41807202871,-8001.3219939549435,33305.769229796948,0.0
375012.02908761695,3927225.878295721,-47500.0,-12712.809510720046,1721.8401493027307,10273.842046426893,9452.3010925588605,2926.696513574002,-11477.983887684621,16338.360051663345,8333.6480961095895,-12713.639544814499,12713.639544814499,-8333.6480961095895,28357.631840098318,0.0
380012.02908761695,3927225.878295721,-47500.0,-12250.07088568817,2505.8966125164147,9978.5916515322515,7425.7075712413989,-3.124211092872585,-6745.1963249947848,13937.441492808062,8873.7820497390694,-12491.97015028824,12491.97015028824,-8873.7820497390694,24213.902303923227,0.0
385012.02908761695,3927225.878295721,-47500.0,-10974.268959597244,3455.1158362194719,9374.6284724201487,5120.0252284981107,-2103.6683259611714,-3196.1619635509846,12139.180853348267,9276.0665236305758,-11591.927735157697,11591.927735157697,-9276.0665236305758,21072.123440373005,0.0
390012.02908761695,3927225.878295721,-47500.0,-9219.6886408834216,4301.7473700465116,8543.9925758458867,2954.0889647201443,-3432.9249108354466,-721.75356545522982,10857.06007782059,9392.1542117450663,-10234.830878607387,10234.830878607387,-9392.1542117450663,18811.129623370831,0.0
395012.02908761695,3927225.878295721,-47500.0,-7291.4529438426935,4920.5598476009773,7596.3663053033933,1131.2438787895217,-4148.7609108145007,893.55841277009142,9908.9969926446756,9212.1635254270059,-8658.6981675806255,8658.6981675806255,-9212.1635254270059,17172.539717244435,0.0
400012.02908761695,3927225.878295721,-47500.0,-5408.7021100670881,5285.6066807966527,6627.0662545879277,-290.42826695718986,-4424.0452582525822,1873.1050034723876,9140.9121385247854,8795.1033967265212,-7052.9356838630601,7052.9356838630601,-8795.1033967265212,15906.75266356895,0.0
405012.02908761695,3927225.878295721,-47500.0,-3701.3904549850995,5424.3333029899695,5702.214682222173,-1332.6930320713266,-4407.334475619984,2406.3598028523788,8464.0309839020629,8219.450764139252,-5541.7537494992539,5541.7537494992539,-8219.450764139252,14838.116798508605,0.0
410012.02908761695,3927225.878295721,-47500.0,-2229.9220461678879,5384.7901973128892,4859.618366480363,-2051.9107039940877,-4211.735614381897,2639.0178916926561,7837.4696058242407,7557.1560982575356,-4192.4935687242814,4192.4935687242814,-7557.1560982575356,13866.674893424633,0.0
415012.02908761695,3927225.878295721,-47500.0,-1008.6956615971789,5217.0322566926397,4115.641795362485,-2512.9822454043124,-3917.1565191619416,2676.9661006855481,7245.8184734390161,6864.0577043065923,-3031.6807688654471,3031.6807688654471,-6864.0577043065923,12945.509799258913,0.0
420012.02908761695,3927225.878295721,-47500.0,-25.475237080861664,4964.635652580032,3472.6571271808034,-2776.6166725979715,-3577.0618665348998,2594.4428366743105,6685.0949589243683,6179.0189793244972,-2060.1722196022542,2060.1722196022542,-6179.0189793244972,12057.935862529492,0.0
425012.02908761695,3927225.878295721,-47500.0,745.15521812553732,4662.0871298313295,2925.0094644327401,-2894.3835958854424,-3225.5678429103432,2442.1563895107847,6155.5995899790978,5526.662948853027,-1264.5792138188226,1264.5792138188226,-5526.662948853027,11201.908964451321,0.0
430012.02908761695,3927225.878295721,-47500.0,1333.4171263508151,4335.0247057035922,2463.1212942164607,-2907.751460372438,-2883.3418191100964,2253.9541264566565,5658.648263362099,4920.9379552070859,-624.87020361532313,624.87020361532313,-4920.9379552070859,10381.090443220588,0.0
435012.02908761695,3927225.878295721,-47500.0,1769.5795789069766,4001.5961503153453,2076.0500833000988,-2848.903688482616,-2562.0333910740087,2051.8693480138086,5195.2443241347282,4368.3484991403466,-119.00359764885616,119.00359764885616,-4368.3484991403466,9600.3237141370428,0.0
440012.02908761695,3927225.878295721,-47500.0,2081.5306677251078,3674.066589464856,1752.9472368396421,-2742.1874987220399,-2267.42678897515,1849.7942918464357,4765.6650886101515,3870.4994430302186,274.47640631055151,-274.47640631055151,-3870.4994430302186,8863.6487724585058,0.0
445012.02908761695,3927225.878295721,-47500.0,2293.7454885271991,3360.2941390547389,1483.8065307363818,-2605.6426262260943,-2001.608339300117,1656.091166779908,4369.4434802031728,3425.9519027361084,575.13676741498011,-575.13676741498011,-3425.9519027361084,8173.6345339259578,0.0
250012.02908761695,3932225.878295721,-47500.0,6328.5480808177517,-1841.3279591758003,331.28626334498222,4733.1545693335001,-1320.5608995873754,2532.8732113169062,5367.0407160100713,-2324.1060844962112,4911.7827541800152,-4911.7827541800152,2324.1060844962112,10498.66690660158,0.0
255012.02908761695,3932225.878295721,-47500.0,6657.4855930331796,-2120.6791613895471,447.75864744338708,5277.5277510327351,-1587.3832097202753,2954.2104488860723,5927.1574910131994,-2552.1418732824286,5166.9353369593073,-5166.9353369593073,2552.1418732824286,11570.943014785864,0.0
260012.02908761695,3932225.878295721,-47500.0,6956.052140896717,-2437.9759675360019,601.68660813685369,5877.3164240540318,-1910.7895358157361,3449.4513617084672,6551.6450128988572,-2788.8797021232267,5393.7690109269233,-5393.7690109269233,2788.8797021232267,12759.508715889935,0.0
265012.02908761695,3932225.878295721,-47500.0,7202.7452685207336,-2795.0836274693665,804.42098930532768,6531.8962076254074,-2302.4687781368302,4030.3159160265454,7246.4745084846245,-3026.8046581914359,5572.8452754925902,-5572.8452754925902,3026.8046581914359,14072.782202056032,0.0
270012.02908761695,3932225.878295721,-47500.0,7368.6603208373972,-3191.8174469995897,1070.4793741580888,7236.8250357495199,-2775.924833507911,4709.2640568915449,8017.1436895461093,-3253.8717899911553,5677.8078626499773,-5677.8078626499773,3253.8717899911553,15517.261180036687,0.0
275012.02908761695,3932225.878295721,-47500.0,7415.545436734028,-3624.433926363271,1418.2136122855461,7981.7163833905279,-3346.2599780472042,5498.7481690757859,8867.9986353910481,-3451.5639218160932,5673.4524226585972,-5673.4524226585972,3451.5639218160932,17095.957188175136,0.0
280012.02908761695,3932225.878295721,-47500.0,7293.6418786442582,-4083.3374250944457,1870.4220355533369,8747.1608075018139,-4029.4691868383807,6409.8054354099604,9801.1721907665233,-3592.2694302892864,5513.5198107020815,-5513.5198107020815,3592.2694302892864,18806.076329988326,0.0
285012.02908761695,3932225.878295721,-47500.0,6939.5792311756541,-4549.6776979927226,2454.6939661166352,9500.317964410151,-4840.8437717661891,7449.5386427077783,10814.950376177909,-3635.8504853225108,5138.4276448566625,-5138.4276448566625,3635.8504853225108,20635.636527671617,0.0
290012.02908761695,3932225.878295721,-47500.0,6275.007139908198,-4990.437751190083,3203.0485639676076,10188.723439662479,-5791.791781792067,8616.701536938268,11901.307655287375,-3525.3852723160226,4473.52257422606,-4473.52257422606,3525.3852723160226,22558.640679188989,0.0
295012.02908761695,3932225.878295721,-47500.0,5207.4304936660674,-5351.6441570038169,4150.0679169143023,10731.881477451961,-6883.9261006094093,9894.0322317393966,13042.283003828237,-3182.4000822149715,3429.1441282135779,-3429.1441282135779,3182.4000822149715,24528.41474950569,0.0
300012.02908761695,3932225.878295721,-47500.0,3636.2446618836566,-5549.6688615155917,5328.0991633313652,11010.693936268224,-8098.5818766025986,11235.05091737542,14204.931447772173,-2502.7510065833931,1905.1942630486847,-1905.1942630486847,2502.7510065833931,26469.073559942459,0.0
305012.02908761695,3932225.878295721,-47500.0,1469.5422679383094,-5461.7614963027563,6757.2101372259694,10856.435680124629,-9379.0689382179517,12541.772933169756,15335.036274373553,-1356.1766703689905,-194.67530559074623,194.67530559074623,1356.1766703689905,28266.364295239193,0.0
310012.02908761695,3932225.878295721,-47500.0,-1339.1804024878411,-4920.0311047247269,8426.6024434328028,10045.501044467219,-10602.514018276082,13628.919259308763,16351.406195935104,403.73293387211243,-2930.6182259592379,2930.6182259592379,-403.73293387211243,29762.990669734871,0.0
315012.02908761695,3932225.878295721,-47500.0,-4723.0204610696528,-3719.8101528178308,10264.169633231653,8316.1280188217206,-11540.108439450072,14172.680542334097,17147.109049734863,2906.1879659288388,-6264.3263876007077,6264.3263876007077,-2906.1879659288388,30772.993796635717,0.0
320012.02908761695,3932225.878295721,-47500.0,-8398.7349028285007,-1664.802691532007,12095.103484983831,5440.2116180908542,-11814.4020045774,13656.105222054071,17614.809882508183,6186.7908646440937,-9960.4202478687585,9960.4202478687585,-6186.7908646440937,31149.12119374855,0.0
325012.02908761695,3932225.878295721,-47500.0,-11763.377568479005,1318.401372740326,13605.677023396631,1396.7964790379681,-10889.577676753963,11363.467713738743,17733.434597010346,10053.011310140639,-13476.487181606779,13476.487181606779,-10053.011310140639,30960.459892828207,0.0
330012.02908761695,3932225.878295721,-47500.0,-13913.777806662962,4983.8077494237705,14360.450556700371,-3342.7911971017147,-8178.2471033087331,6546.1917912908184,17760.020975070176,13923.912124469816,-15947.205402264512,15947.205402264512,-13923.912124469816,30793.529317586192,0.0
335012.02908761695,3932225.878295721,-47500.0,-13993.125589502384,8581.1354303898788,13949.412484322531,-7580.3531466120721,-3366.583145627254,-1096.3021971125122,18384.85470640791,16796.934431711754,-16457.742267722777,16457.742267722777,-16796.934431711754,31843.964459278544,0.0
340012.02908761695,3932225.878295721,-47500.0,-11888.918142830566,10953.071631346806,12280.480947016389,-9629.9512918239052,3098.9172579090309,-10733.596142334462,20199.107102344959,17592.101813204303,-14680.845883725746,14680.845883725746,-17592.101813204303,34992.831657768133,0.0
345012.02908761695,3932225.878295721,-47500.0,-8702.544473435526,11133.123206187674,9816.52185450447,-8301.4480453433571,9797.6723483903661,-20199.30649205075,22750.901210594133,15874.993842082145,-11419.962139226078,11419.962139226078,-15874.993842082145,39428.482334613109,0.0
350012.02908761695,3932225.878295721,-47500.0,-6188.194119492251,9080.0109712705489,7429.3251338087512,-3931.3783146599771,14890.961714692332,-26943.382602168462,24843.453518227667,12344.077624869389,-8280.3129355936053,8280.3129355936053,-12344.077624869389,43101.949895260957,0.0
355012.02908761695,3932225.878295721,-47500.0,-5498.6880542145127,5763.3286673944194,5889.6407268456896,1741.3724526591755,17150.054917956568,-29521.674023520391,25548.413179891042,8446.4594878549233,-6574.7929459563356,6574.7929459563356,-8446.4594878549233,44401.550726713271,0.0
360012.02908761695,3932225.878295721,-47500.0,-6561.8311870011439,2490.1484055317537,5458.9254234091941,6766.9431058200034,16507.865570136491,-28176.574673726565,24666.582787236883,5468.943015094138,-6589.0312199059272,6589.0312199059272,-5468.943015094138,42953.780362339116,0.0
365012.02908761695,3932225.878295721,-47500.0,-8496.7902256777215,187.81492999025363,5892.6661911678293,9980.6212053670661,13786.478039940919,-24225.053746166926,22561.93473113811,3966.6776681102274,-7756.0965648180427,7756.0965648180427,-3966.6776681102274,39368.782611342671,0.0
370012.02908761695,3932225.878295721,-47500.0,-10340.275600904855,-844.23301479764382,6714.6264024449492,11169.762417085662,10083.384415389593,-19151.691925545096,19813.782072121638,3800.5420109608044,-9246.6838810373465,9246.6838810373465,-3800.5420109608044,34644.501313127068,0.0
375012.02908761695,3932225.878295721,-47500.0,-11474.897275424059,-787.80451067078945,7489.0184091551573,10730.675564942178,6314.1735932006313,-14075.87557914508,16959.232215707274,4478.7458147611123,-10411.687473750006,10411.687473750006,-4478.7458147611123,29709.096015427651,0.0
380012.02908761695,3932225.878295721,-47500.0,-11699.590672740074,-37.475982484426446,7955.6385373835583,9268.9491652519664,3040.5114427381754,-9632.1815931690307,14376.121757672579,5478.1827151342304,-10932.77353359219,10932.77353359219,-5478.1827151342304,25208.042665126941,0.0
385012.02908761695,3932225.878295721,-47500.0,-11110.669914809623,1011.4397408838076,8035.5142090020481,7341.0008589436757,496.24743865941406,-6064.9922187846369,12259.321825208604,6417.306828026617,-10775.859927109948,10775.859927109948,-6417.306828026617,21468.778543737397,0.0
390012.02908761695,3932225.878295721,-47500.0,-9944.3527960464744,2067.7993760317527,7771.331357996075,5347.6310434620036,-1306.8075097497574,-3376.2246451699011,10638.815025684171,7093.4102107891631,-10073.142185159333,10073.142185159333,-7093.4102107891631,18557.181422837068,0.0
395012.02908761695,3932225.878295721,-47500.0,-8457.2245313239782,2964.1344143014157,7259.8344028305219,3526.2407026730625,-2471.6366535969128,-1449.6764178177596,9428.9087140411157,7445.8423445010303,-9014.5976203159153,9014.5976203159153,-7445.8423445010303,16370.155393850224,0.0
400012.02908761695,3932225.878295721,-47500.0,-6862.4020395662092,3632.2574561170941,6604.0525444879886,1987.0074223593879,-3139.6191553362805,-131.6521097281983,8504.751553290138,7499.3736859883802,-7779.5026167642218,7779.5026167642218,-7499.3736859883802,14731.094967088193,0.0
405012.02908761695,3932225.878295721,-47500.0,-5309.3360071642555,4067.5023876443192,5889.3006969269063,757.48704610878804,-3447.7758963309834,726.35991504085155,7761.1282907437144,7316.6873760683811,-6506.3805228584715,6506.3805228584715,-7316.6873760683811,13463.435155854875,0.0
410012.02908761695,3932225.878295721,-47500.0,-3888.0860652996694,4298.1822897026832,5176.1943069782074,-180.6293099768539,-3510.531369580513,1250.0729511981995,7128.8977633936129,6968.1668564926576,-5287.9115918936977,5287.9115918936977,-6968.1668564926576,12429.023619859759,0.0
415012.02908761695,3932225.878295721,-47500.0,-2643.040879286199,4364.9913146196795,4502.6100783411657,-866.51160344029392,-3415.6156445015386,1538.4649061146204,6568.1730415672164,6516.6303601535201,-4177.7781794497387,4177.7781794497387,-6516.6303601535201,11535.900602965698,0.0
420012.02908761695,3932225.878295721,-47500.0,-1587.5676214185601,4309.2909510430763,3888.8943500537175,-1345.3142607995767,-3226.563331013595,1666.0433003177527,6057.6297022140388,6011.7949091124146,-3200.9922632314347,3200.9922632314347,-6011.7949091124146,10729.913929871478,0.0
425012.02908761695,3932225.878295721,-47500.0,-716.05855942724304,4167.5549062117288,3343.2995887886968,-1660.3536288822208,-2987.4330072179246,1687.1987950655325,5586.4237914867663,5489.9414996912292,-2363.5499812331655,2363.5499812331655,-5489.9414996912292,9982.4087418183462,0.0
430012.02908761695,3932225.878295721,-47500.0,-12.60853331845318,3969.4732899722831,2866.4487336825227,-1849.6247157738064,-2727.6317750012772,1640.7178185433945,5149.17889694323,4975.8242337090596,-1659.9678399557895,1659.9678399557895,-4975.8242337090596,9279.8627248135454,0.0
435012.02908761695,3932225.878295721,-47500.0,543.25958329498053,3737.9491331605846,2454.5758084029198,-1944.7374084443443,-2466.0122898550089,1553.6994813891013,4743.1386587916495,4485.1879280884805,-1078.5898905340332,1078.5898905340332,-4485.1879280884805,8616.8033573444118,0.0
440012.02908761695,3932225.878295721,-47500.0,973.08396956832439,3489.938934013996,2101.7065414898098,-1971.0877881404053,-2214.0693374635175,1444.6997587298786,4366.6632937619952,4027.1593649928936,-605.0670553439295,605.0670553439295,-4027.1593649928936,7991.5471421941966,0.0
445012.02908761695,3932225.878295721,-47500.0,1297.4745487969446,3237.544752397725,1801.0294249276676,-1948.569485788357,-1978.3004781126883,1326.1386733754161,4018.4783493440036,3606.2194173480138,-224.49200191196633,224.49200191196633,-3606.2194173480138,7403.8389180805852,0.0
250012.02908761695,3937225.878295721,-47500.0,5853.1611259424062,-2257.0552293626351,641.77534913152181,4457.8750007999133,-1584.8997120509055,2410.752706308333,5197.2398668340165,-2436.3280902199222,4512.8461025136221,-4512.8461025136221,2436.3280902199222,10173.768424309974,0.0
255012.02908761695,3937225.878295721,-47500.0,6091.0874766115303,-2567.1415707749825,814.92586283652429,4934.4472284502572,-1884.7452168960972,2795.7040117830838,5717.2827098345479,-2645.8539310742026,4684.9237372866437,-4684.9237372866437,2645.8539310742026,11170.685175819042,0.0
260012.02908761695,3937225.878295721,-47500.0,6282.6373713482817,-2912.4282055876452,1035.5062636272414,5449.3208783569307,-2243.1965338504124,3243.1484419423282,6291.9612635868652,-2853.8490172242191,4812.7432425688485,-4812.7432425688485,2853.8490172242191,12265.809440594148,0.0
265012.02908761695,3937225.878295721,-47500.0,6404.5327278555787,-3292.053993221959,1316.0130833294213,5997.646164161607,-2670.6990429026932,3761.0810074662704,6924.8085255868773,-3049.5550563954675,4874.6753987665179,-4874.6753987665179,3049.5550563954675,13463.121863438564,0.0
270012.02908761695,3937225.878295721,-47500.0,6426.6285221310727,-3701.9867068043191,1671.7862214025006,6569.8940561971813,-3178.5734140890359,4357.0057412152019,7618.2990244415887,-3216.9702219027713,4842.492953410042,-4842.492953410042,3216.9702219027713,14763.663539993286,0.0
275012.02908761695,3937225.878295721,-47500.0,6310.5890548571506,-4133.1974267765163,2121.2861062818711,7149.7271174234857,-3778.3264468892639,5036.8030778569646,8373.078404743721,-3332.9363977420903,4679.9838755568016,-4679.9838755568016,3332.9363977420903,16163.833804071048,0.0
280012.02908761695,3937225.878295721,-47500.0,6008.7463405457202,-4569.0477417890061,2686.0648672202315,7711.1030050635491,-4480.2802393494967,5802.8533257898644,9186.8482776654018,-3364.7379413922008,4341.6695867691133,-4341.6695867691133,3364.7379413922008,17653.020725494789,0.0
285012.02908761695,3937225.878295721,-47500.0,5463.6050943302316,-4981.6607437830644,3390.0935271694684,8214.4326990320315,-5291.0748084885472,6650.9988363582133,10052.793766095745,-3267.261982477351,3772.0479387879268,-3772.0479387879268,3267.261982477351,19210.398008966913,0.0
290012.02908761695,3937225.878295721,-47500.0,4608.908313667881,-5327.0904943400255,4257.8480806310445,8601.6871832922025,-6209.3355136534119,7565.6856970274375,10957.434972358998,-2980.0107806825317,2906.2088279238133,-2906.2088279238133,2980.0107806825317,20800.770944964097,0.0
295012.02908761695,3937225.878295721,-47500.0,3373.929089808139,-5539.3431200430041,5310.1808377312755,8790.6443985927253,-7218.4573841296069,8512.28014583406,11877.869511606135,-2424.7715798967183,1673.3957115392186,-1673.3957115392186,2424.7715798967183,22369.627078794656,0.0
300012.02908761695,3937225.878295721,-47500.0,1693.8696719228176,-5523.9907744054108,6556.4769777943684,8669.2811568815177,-8275.0490012799346,9425.1124224502219,12778.664530150507,-1505.8005074390685,6.2846334268641613,-6.2846334268641613,1505.8005074390685,23838.311690965045,0.0
305012.02908761695,3937225.878295721,-47500.0,-469.15832709515792,-5153.7582999379611,7981.0809481051065,8093.2591014598338,-9291.3979145144222,10189.544844740796,13609.506495276251,-116.30236114914135,-2139.6049356558706,2139.6049356558706,116.30236114914135,25102.237610584601,0.0
310012.02908761695,3937225.878295721,-47500.0,-3088.9185633496918,-4271.8489546010615,9521.9968589448818,6893.4807609148447,-10111.169478194835,10617.191528829235,14306.797365661572,1841.909091065698,-4750.4846299381461,4750.4846299381461,-1841.909091065698,26039.577620086198,0.0
315012.02908761695,3937225.878295721,-47500.0,-6018.2007224554054,-2714.5766432619312,11042.02441109044,4907.5497385219778,-10481.566195967824,10417.850127330868,14806.935463918646,4415.1093727915977,-7698.3387909145222,7698.3387909145222,-4415.1093727915977,26546.956953034471,0.0
320012.02908761695,3937225.878295721,-47500.0,-8921.8059336701608,-371.55013912411454,12300.029037744936,2056.4638399281394,-10036.294883949342,9184.541093352389,15087.041358560346,7520.305731436657,-10670.800971498655,10670.800971498655,-7520.305731436657,26631.543285350705,0.0
325012.02908761695,3937225.878295721,-47500.0,-11242.808907792229,2700.2006941689251,12946.9892394489,-1516.3295791840903,-8325.5751766865651,6433.7269754192348,15254.725853399994,10838.952382859057,-13124.485962471266,13124.485962471266,-10838.952382859057,26584.413551738486,0.0
330012.02908761695,3937225.878295721,-47500.0,-12296.806323134897,6126.2299925558391,12594.101542436827,-5272.6368024898229,-4952.8852015636094,1769.9028937432672,15668.558167938436,13736.436023633589,-14351.322866643535,14351.322866643535,-13736.436023633589,27145.604308120812,0.0
335012.02908761695,3937225.878295721,-47500.0,-11591.800336158467,9136.8151953228207,10996.551612045179,-8216.6227430253093,144.71337513780747,-4786.7984649891177,16871.984289195665,15339.136164341144,-13764.734788560578,13764.734788560578,-15339.136164341144,29255.317233885125,0.0
340012.02908761695,3937225.878295721,-47500.0,-9288.9450204574423,10753.819320322451,8304.6207467012773,-9177.2574986282871,6381.4018243222017,-12450.80303014651,19042.095382945856,14899.461109728572,-11361.439397377044,11361.439397377044,-14899.461109728572,33119.875944179701,0.0
345012.02908761695,3937225.878295721,-47500.0,-6384.2229677336436,10303.983501450424,5170.4327768765406,-7475.034087386437,12490.781215129853,-19684.263144886798,21577.464566529077,12328.786566526984,-7986.4246138464096,7986.4246138464096,-12328.786566526984,37660.08499242676,0.0
350012.02908761695,3937225.878295721,-47500.0,-4220.3343098664318,7912.757552215422,2501.2649598647113,-3487.0128890984197,17015.606545791878,-24826.535374533145,23547.052182420975,8426.3038327983159,-4976.1321833806405,4976.1321833806405,-8426.3038327983159,41245.698155792532,0.0
355012.02908761695,3937225.878295721,-47500.0,-3649.3459055177527,4476.7938469633536,985.69966860657678,1503.7342339553866,19030.41177229715,-26935.083492773967,24306.237804284556,4477.4729198188506,-3368.3267702272778,3368.3267702272778,-4477.4729198188506,42720.230493925148,0.0
360012.02908761695,3937225.878295721,-47500.0,-4630.057343009651,1123.957080221114,788.91941267834454,6060.8534787271174,18497.566022947765,-26117.043533486696,23715.181016421186,1556.6542723298385,-3398.2044882120622,3398.2044882120622,-1556.6542723298385,41808.669948835886,0.0
365012.02908761695,3937225.878295721,-47500.0,-6493.4798839722935,-1331.566377401896,1608.9875763061677,9248.2281461827588,16066.605238152735,-23205.37163809083,22029.752747911403,117.47393522127732,-4614.3005980676235,4614.3005980676235,-117.47393522127732,38944.327626798542,0.0
370012.02908761695,3937225.878295721,-47500.0,-8448.0865061126333,-2588.6321486816255,2938.9188973377913,10794.350978125756,12631.251215872406,-19221.989686468016,19682.278601027989,33.215438447496126,-6307.7405240966209,6307.7405240966209,-33.215438447496126,34881.59952875918,0.0
375012.02908761695,3937225.878295721,-47500.0,-9920.3047848089973,-2759.3955489764653,4309.308395210056,10906.937894721192,8979.5527690952222,-15012.31224962027,17102.196955225019,865.66866454674937,-7867.7551719927942,7867.7551719927942,-865.66866454674937,30372.545262335942,0.0
380012.02908761695,3937225.878295721,-47500.0,-10649.603326523311,-2164.7364647711197,5411.4687069514484,10007.877068945858,5641.181008178125,-11120.821467387921,14621.659302008373,2125.5469636189982,-8932.7886349349319,8932.7886349349319,-2125.5469636189982,25995.15688686772,0.0
385012.02908761695,3937225.878295721,-47500.0,-10630.923810411097,-1159.7259762790334,6111.7077709230098,8535.8251089152054,2883.6045427233689,-7816.9507055974818,12447.572282316291,3425.2611816560407,-9384.9556392271716,9384.9556392271716,-3425.2611816560407,22106.157316363217,0.0
390012.02908761695,3937225.878295721,-47500.0,-10007.63282798894,-34.207932649125247,6406.8499587664428,6844.8580481845829,778.0774354176508,-5175.9137503292304,10667.180455375692,4526.7526104868784,-9273.6622664750175,9273.6622664750175,-4526.7526104868784,18863.895512467858,0.0
395012.02908761695,3937225.878295721,-47500.0,-8976.1171828431088,1019.7926594781925,6365.9312509689316,5175.8092843831773,-721.6235839800861,-3159.9534932452721,9270.2190015708475,5324.9024918126852,-8730.8534715639489,8730.8534715639489,-5324.9024918126852,16279.542482072678,0.0
400012.02908761695,3937225.878295721,-47500.0,-7724.0759177296304,1900.2007796551493,6083.0340700583301,3667.6129824644272,-1715.6935613291503,-1679.1060643978051,8187.8977092981204,5806.3141461573814,-7907.6551648056011,7907.6551648056011,-5806.3141461573814,14273.459295851851,0.0
405012.02908761695,3937225.878295721,-47500.0,-6401.2936192163897,2570.8306652209963,5648.4596123895526,2383.4873205973122,-2317.2221521680926,-629.13356291532216,7336.9648235833365,6008.4300260420541,-6938.3905431664234,6938.3905431664234,-6008.4300260420541,12725.579838418234,0.0
410012.02908761695,3937225.878295721,-47500.0,-5112.6794456934904,3036.2185353051927,5135.5938076898965,1337.5442014777279,-2630.3542568565854,88.393192583177665,6646.8723242575434,5989.3059099911752,-5926.2409094569011,5926.2409094569011,-5989.3059099911752,11513.274106946803,0.0
415012.02908761695,3937225.878295721,-47500.0,-3923.0568089145422,3321.8626756835788,4597.8438297807597,515.89348937515854,-2741.4224762476665,557.55586202490838,6066.9937466201445,5809.220917784327,-4942.0322651566312,4942.0322651566312,-5809.220917784327,10533.362568392506,0.0
420012.02908761695,3937225.878295721,-47500.0,-2866.2690740914218,3461.0967481406396,4070.6630688616997,-108.82173385756306,-2717.4377398817201,846.04170796746814,5564.001626791327,5521.4627046922787,-4029.1733682983804,4029.1733682983804,-5521.4627046922787,9709.620648072716,0.0
425012.02908761695,3937225.878295721,-47500.0,-1954.4915667478479,3487.4767319526609,3575.4008616328142,-568.40722252793762,-2608.0578182073682,1006.247804923727,5116.9699264577412,5168.9710995828427,-3210.3911113224717,3210.3911113224717,-5168.9710995828427,8990.8707360049339,0.0
430012.02908761695,3937225.878295721,-47500.0,-1186.0017517953086,3430.9953228828831,3123.2516515958469,-894.05036661270901,-2448.7676982623479,1077.6099187330751,4713.0672404748202,4784.1880747957966,-2494.0755076480718,2494.0755076480718,-4784.1880747957966,8345.1591360274851,0.0
435012.02908761695,3937225.878295721,-47500.0,-550.97912662029512,3316.6484671906492,2718.5755745098218,-1113.8196876212448,-2264.1239964870952,1089.1649929856535,4344.4412928064994,4390.3682940898416,-1879.3991927521934,1879.3991927521934,-4390.3682940898416,7753.6150425933401,0.0
440012.02908761695,3937225.878295721,-47500.0,-35.524079441505023,3164.2987213895703,2361.4201269412283,-1251.7007387859726,-2070.5784818126176,1061.8970033274193,4006.1679414319451,4003.3579839575818,-1360.0979439254465,1360.0979439254465,-4003.3579839575818,7205.5344434777116,0.0
250012.02908761695,3942225.878295721,-47500.0,5292.4173790896766,-2568.3746673961991,972.81291519058834,4127.2967568503864,-1792.1472289068606,2261.6374030265565,4982.4550075937323,-2437.3417706873543,4027.9326144580609,-4027.9326144580609,2437.3417706873543,9761.2291847937959,0.0
255012.02908761695,3942225.878295721,-47500.0,5434.6194749620327,-2887.0381238740206,1199.7650722882845,4529.0953959918033,-2110.1071129509842,2605.169479811675,5456.3771793482128,-2610.5563802019487,4111.0823940615674,-4111.0823940615674,2610.5563802019487,10670.436219117812,0.0
260012.02908761695,3942225.878295721,-47500.0,5516.4647747685658,-3233.6409012980102,1481.5162976321767,4952.1255195122985,-2484.6913846970442,2999.141047236827,5974.7151210692264,-2769.903854250249,4135.7538448454316,-4135.7538448454316,2769.903854250249,11658.536450674099,0.0
265012.02908761695,3942225.878295721,-47500.0,5514.2027483274242,-3603.9310765910059,1830.5036632943225,5387.9722623211774,-2924.0834557333942,3447.9802810854285,6538.7529376590883,-2901.6675867381173,4079.4132757406223,-4079.4132757406223,2901.6675867381173,12725.331331738225,0.0
270012.02908761695,3942225.878295721,-47500.0,5398.266562998534,-3989.4651603567522,2261.2281820633648,5823.1165935427134,-3436.2183725034042,3954.6183643751351,7148.3056084117179,-2986.584507159258,3913.8075402655218,-3913.8075402655218,2986.584507159258,13866.964253608925,0.0
275012.02908761695,3942225.878295721,-47500.0,5132.6991828876144,-4375.6480632408529,2790.0136780308439,6237.0210616076274,-4027.6581331838374,4519.1384380772761,7800.958447769437,-2998.2062984179397,3604.2906391272677,-3604.2906391272677,2998.2062984179397,15074.266997146808,0.0
280012.02908761695,3942225.878295721,-47500.0,4675.1290969056208,-4739.1099147733466,3434.2132091286626,6599.7187913753596,-4701.6750404413015,5136.7036348992488,8491.0549583223092,-2901.0658110751001,3109.6342490278621,-3109.6342490278621,2901.0658110751001,16330.624475462817,0.0
285012.02908761695,3942225.878295721,-47500.0,3977.8694158980129,-5044.3526949094403,4210.4506222768878,6868.925996908245,-5455.1256447713404,5794.4385373404948,9208.4091969621513,-2648.8946048380953,2382.8763152802217,-2382.8763152802217,2648.8946048380953,17609.361724334449,0.0
290012.02908761695,3942225.878295721,-47500.0,2991.1200478774672,-5239.7690286507341,5131.2513665869856,6986.8960278016721,-6273.5248658333467,6466.8167947413267,9936.7934198710009,-2183.4668367410986,1374.1706677654151,-1374.1706677654151,2183.4668367410986,18870.856152613324,0.0
295012.02908761695,3942225.878295721,-47500.0,1669.807994391364,-5253.5539715327159,6199.1419266994908,6877.6611167863966,-7123.5683497851587,7108.9784235093412,10652.442140947775,-1435.2323734178235,37.176595792569856,-37.176595792569856,1435.2323734178235,20060.046237454419,0.0
300012.02908761695,3942225.878295721,-47500.0,-13.68957849905234,-4990.9330761153597,7397.0436828036527,6446.2210817509595,-7942.3221313628801,7647.3941233983605,11323.286606843712,-327.9188823224149,-1658.7059942194176,1658.7059942194176,327.9188823224149,21106.110567335942,0.0
305012.02908761695,3942225.878295721,-47500.0,-2048.245754025952,-4335.8411963655626,8673.874575239488,5582.9170569726293,-8622.7605092168087,7967.689616313055,11910.630019464321,1209.2201283081818,-3707.3515639380043,3707.3515639380043,-1209.2201283081818,21928.342460853532,0.0
310012.02908761695,3942225.878295721,-47500.0,-4352.276965641523,-3163.0054606441936,9925.4058422317321,4178.9849919573271,-8997.1068505194307,7901.0673061005155,12376.960884601192,3216.1232649876047,-6033.8027409075848,6033.8027409075848,-3216.1232649876047,22456.550530227662,0.0
315012.02908761695,3942225.878295721,-47500.0,-6734.6019024561938,-1369.8397575566521,10974.096607958087,2162.4865808861091,-8824.0207153764804,7215.0455640487107,12706.794084452795,5657.8767233711651,-8452.8713665796367,8452.8713665796367,-5657.8767233711651,22680.586816471059,0.0
320012.02908761695,3942225.878295721,-47500.0,-8863.6338233325714,1061.459019081128,11559.796942067616,-435.9213112220491,-7794.7624714930544,5622.9425825368126,12949.813638175718,8361.5264210274236,-10632.346946133135,10632.346946133135,-8361.5264210274236,22745.042620679371,0.0
325012.02908761695,3942225.878295721,-47500.0,-10283.221896258601,3971.3526879970118,11365.833345062318,-3389.8120162645519,-5585.7945931269951,2838.3920376305118,13284.797133651484,10952.146757143615,-12097.479373731876,12097.479373731876,-10952.146757143615,23068.99449273384,0.0
330012.02908761695,3942225.878295721,-47500.0,-10531.777015669217,6934.0064258271877,10112.551487386332,-6196.033115883366,-1988.3218259334385,-1296.4124741169508,14043.36164997067,12843.073398943683,-12335.608739051224,12335.608739051224,-12843.073398943683,24333.031944790877,0.0
335012.02908761695,3942225.878295721,-47500.0,-9388.7445165925037,9261.8443935749328,7725.7832830607858,-8102.6672677053575,2891.5268192042031,-6617.837356493219,15535.154080291457,13365.943166930481,-11037.239195686312,11037.239195686312,-13365.943166930481,27065.659755076489,0.0
340012.02908761695,3942225.878295721,-47500.0,-7140.186716213123,10209.342166382032,4505.9559492836297,-8350.5738088066319,8465.9653963989858,-12490.224280128305,17686.932175027086,12077.193702985398,-8386.8748052449373,8386.8748052449373,-12077.193702985398,31039.793864560117,0.0
345012.02908761695,3942225.878295721,-47500.0,-4606.6557388143756,9352.0907219952442,1136.9741330366126,-6583.0893318741537,13721.17105240588,-17884.045245032674,19962.674495944815,9096.9518918763079,-5154.2319935618934,5154.2319935618934,-9096.9518918763079,35252.607994480459,0.0
350012.02908761695,3942225.878295721,-47500.0,-2775.2280269535895,6885.1658191437728,-1564.7045631200579,-3134.1212487085299,17580.348251000047,-21753.394071925486,21702.884910381443,5180.953607248247,-2388.8485291269653,2388.8485291269653,-5180.953607248247,38516.233924677013,0.0
355012.02908761695,3942225.878295721,-47500.0,-2268.9131453226232,3559.4023222789397,-3022.5508722627314,1092.6608832021316,19367.3915493975,-23487.55802158107,22461.086351145044,1387.7052664475709,-887.53706138737914,887.53706138737914,-1387.7052664475709,40021.057123601029,0.0
360012.02908761695,3942225.878295721,-47500.0,-3086.7910947363916,294.60299282099885,-3117.7599656927732,5072.298662433519,19033.742137756464,-23101.619524637506,22123.397312422399,-1414.2529165172803,-857.26679281198199,857.26679281198199,1414.2529165172803,39550.847181106248,0.0
365012.02908761695,3942225.878295721,-47500.0,-4752.4644150418608,-2213.4103346877696,-2134.5632916255217,8072.5957398903629,17040.49442092844,-21085.913725540202,20851.493888098739,-2838.8816793921674,-1973.0052910289546,1973.0052910289546,2838.8816793921674,37386.195850435179,0.0
370012.02908761695,3942225.878295721,-47500.0,-6645.2220056167453,-3660.4356918186559,-547.19896891241115,9801.9454251937859,14067.587265706148,-18109.413970771384,18950.930624815213,-2966.4889964471099,-3666.1082391327986,3666.1082391327986,2966.4889964471099,34068.229983708181,0.0
375012.02908761695,3942225.878295721,-47500.0,-8260.0889974025686,-4084.6931756552285,1184.7499773175075,10329.776698316655,10758.422051597292,-14782.232349826527,16749.716309899497,-2152.6830779081602,-5396.3787704957667,5396.3787704957667,2152.6830779081602,30178.500309848405,0.0
380012.02908761695,3942225.878295721,-47500.0,-9312.3104775811953,-3723.1159672673562,2730.7284488961077,9924.2900320016652,7586.4122358061204,-11545.177756005622,14523.783536133255,-825.80545242075868,-6794.8855514599363,6794.8855514599363,825.80545242075868,26203.650846575205,0.0
385012.02908761695,3942225.878295721,-47500.0,-9724.2493422479456,-2873.2849706339002,3914.9658045417641,8909.8085710346677,4828.581731819223,-8657.5012011322688,12466.986540852604,645.93538365234599,-7688.1620495975421,7688.1620495975421,-645.93538365234599,22482.960314876527,0.0
390012.02908761695,3942225.878295721,-47500.0,-9559.8454610432691,-1803.3467648809642,4689.0800468792277,7578.6191041032698,2598.9073770477585,-6232.8379218533246,10688.028123695527,2009.1571492369121,-8056.6437046625406,8056.6437046625406,-2009.1571492369121,19209.896267492273,0.0
395012.02908761695,3942225.878295721,-47500.0,-8953.6362402232953,-711.92278698291591,5086.3801373746655,6153.0139049545878,901.13140428203076,-4287.3391814765328,9220.2365185934632,3125.6435216548161,-7973.7838135620314,7973.7838135620314,-3125.6435216548161,16459.55214843545,0.0
400012.02908761695,3942225.878295721,-47500.0,-8056.8000076777653,276.9806948365927,5179.7094525699968,4780.4181173296784,-322.30456828208139,-2781.8534864304956,8041.272615681266,3946.4224773839705,-7552.6627370075385,7552.6627370075385,-3946.4224773839705,14223.478889219798,0.0
405012.02908761695,3942225.878295721,-47500.0,-7005.1795716266406,1101.0991845465933,5051.6808490505364,3545.0928668869183,-1154.3147964331133,-1652.3042026782282,7100.537150317954,4479.933135573282,-6909.840816016208,6909.840816016208,-4479.933135573282,12442.665439586182,0.0
410012.02908761695,3942225.878295721,-47500.0,-5905.4129571810745,1741.5986960477603,4777.7760759275388,2485.0144469359975,-1680.8835057024578,-828.65744830415781,6342.9565248676436,4764.9201502507503,-6145.9977381937088,6145.9977381937088,-4764.9201502507503,11034.923297229214,0.0
415012.02908761695,3942225.878295721,-47500.0,-4832.7478034639516,2206.2036975292758,4419.1287048261456,1607.7890318625205,-1979.45021529376,-245.23078005482444,5721.2897547144621,4851.4403170942696,-5338.7604998205934,5338.7604998205934,-4851.4403170942696,9915.1914165509734,0.0
420012.02908761695,3942225.878295721,-47500.0,-3834.8846186120591,2516.3880084733319,4021.2461950205229,903.18475668116662,-2114.3241780364137,154.70413000618578,5199.3433698558511,4789.4635047419779,-4542.7402840119539,4542.7402840119539,-4789.4635047419779,9008.2091879254167,0.0
425012.02908761695,3942225.878295721,-47500.0,-2937.9995517749257,2698.8340218977596,3615.7079639503431,351.94810930082537,-2136.1133147535838,417.67427166623105,4751.0358339047143,4623.1154627928172,-3792.9665422187481,3792.9665422187481,-4623.1154627928172,8254.1615069354993,0.0
430012.02908761695,3942225.878295721,-47500.0,-2152.8122990264651,2780.3464233665727,3222.9474605010764,-68.508124525164945,-2083.1061061219457,580.50403871877404,4358.2395961078337,4388.5366265166813,-3109.3540066670153,3109.3540066670153,-4388.5366265166813,7609.1531168112269,0.0
435012.02908761695,3942225.878295721,-47500.0,-1479.7335685247183,2785.1997917149915,2855.0921779022283,-380.73647736023094,-1983.3740490601851,671.58318281198569,4008.5995559705798,4113.7792925725662,-2500.9579787146986,2500.9579787146986,-4113.7792925725662,7042.8337382332011,0.0
255012.02908761695,3947225.878295721,-47500.0,4728.0941293464375,-3079.88112691162,1575.6397073065032,4084.3968202150163,-2261.8362659437253,2392.9386707918502,5157.2900444517809,-2465.9563746628619,3484.1365564986545,-3484.1365564986545,2465.9563746628619,10093.614518677983,0.0
260012.02908761695,3947225.878295721,-47500.0,4706.2520675399555,-3404.5226149151117,1907.3148718937439,4415.0334641399286,-2635.1146475755809,2731.2191105001025,5616.3876800402586,-2563.995265883801,3410.4870229664284,-3410.4870229664284,2563.995265883801,10967.596965284298,0.0
265012.02908761695,3947225.878295721,-47500.0,4590.7307723838558,-3738.9137836016989,2308.7636418814118,4740.2784825256504,-3065.0666827648461,3109.4418886018266,6109.4479504435658,-2619.6861934768353,3245.4819299563355,-3245.4819299563355,2619.6861934768353,11897.663158243862,0.0
270012.02908761695,3947225.878295721,-47500.0,4354.3554359421778,-4070.4295546473572,2792.0649428780926,5044.087383405652,-3555.6590869334759,3526.7310894516795,6634.2525505068352,-2611.8299071785259,2962.7798384077751,-2962.7798384077751,2611.8299071785259,12876.121368451204,0.0
275012.02908761695,3947225.878295721,-47500.0,3965.7620200456995,-4379.6771489434832,3369.4628485318599,5303.8265758341013,-4108.0769397439672,3978.6239335775149,7186.2711121388147,-2512.728049192141,2531.7484938385223,-2531.7484938385223,2512.728049192141,13889.87908277912,0.0
280012.02908761695,3947225.878295721,-47500.0,3390.3955660805109,-4638.1964823615417,4051.8561968850813,5488.5430780436691,-4718.4962189250364,4455.0619524469694,7757.8837894017488,-2287.1632102098074,1918.3350040601536,-1918.3350040601536,2287.1632102098074,14918.79166254647,0.0
285012.02908761695,3947225.878295721,-47500.0,2592.9000144525094,-4805.8425509079971,4846.1546582935653,5557.2144920589253,-5374.7397498026285,4937.565906859998,8337.5467914194323,-1891.9147345684908,1087.3002863590793,-1087.3002863590793,1891.9147345684908,15933.964794288186,0.0
290012.02908761695,3947225.878295721,-47500.0,1541.7585352110061,-4828.2226534783831,5750.9391081714002,5457.4071578467519,-6051.430361531663,5395.3677344218504,8909.0932699195619,-1276.5561036930576,6.7082680221082001,-6.7082680221082001,1276.5561036930576,16896.493034785886,0.0
295012.02908761695,3947225.878295721,-47500.0,217.33681731266662,-4635.0670061012843,6749.7753016855286,5125.2120562928785,-6703.2876297633247,5780.3255341069844,9451.6213212675448,-386.80482612433337,-1344.1066435723956,1344.1066435723956,386.80482612433337,17757.726315456246,0.0
300012.02908761695,3947225.878295721,-47500.0,-1375.3737770755758,-4141.2995163695887,7801.6153901388125,4488.08205713597,-7256.4917275514263,6020.6769016916223,9940.9259551553732,827.56378081220373,-2961.641437714803,2961.641437714803,-827.56378081220373,18463.341034128156,0.0
305012.02908761695,3947225.878295721,-47500.0,-3188.4586941885459,-3253.9497219804834,8828.3653837878064,3473.324394062859,-7598.8904994022505,6014.3659256204692,10354.321233318411,2397.4499557516028,-4799.2545930050919,4799.2545930050919,-2397.4499557516028,18965.580436983877,0.0
310012.02908761695,3947225.878295721,-47500.0,-5108.4016332365691,-1889.726024794332,9701.5214163800392,2026.2935510441687,-7571.8163719398299,5624.2491018875298,10681.991717257559,4308.8381419924845,-6742.815433589989,6742.815433589989,-4308.8381419924845,19251.022844374238,0.0
315012.02908761695,3947225.878295721,-47500.0,-6935.2995675735065,-8.9313870229699113,10233.668104789544,142.73354986177898,-6970.0712086925641,4680.5127771926291,10948.848676979951,6465.9767653920544,-8586.6107314205765,8586.6107314205765,-6465.9767653920544,19392.681005948343,0.0
320012.02908761695,3947225.878295721,-47500.0,-8379.59500328391,2331.6123536277692,10186.897292964115,-2083.5905035517007,-5562.1355985141026,3000.0668102081549,11247.167314339764,8649.7225985630048,-10024.711717925094,10024.711717925094,-8649.7225985630048,19623.360815441218,0.0
325012.02908761695,3947225.878295721,-47500.0,-9102.6945705004237,4916.2682333914508,9316.1821962294707,-4408.6041816771403,-3146.6537210362471,435.79884057146973,11761.217211508572,10492.826909283041,-10685.116666789036,10685.116666789036,-10492.826909283041,20373.273783627523,0.0
330012.02908761695,3947225.878295721,-47500.0,-8826.6968139769815,7333.5031330535903,7461.9201106409955,-6414.2444200770578,345.84407435211608,-3037.7561007833342,12725.426046072596,11513.340790000482,-10236.174846692713,10236.174846692713,-11513.340790000482,22128.358765203731,0.0
335012.02908761695,3947225.878295721,-47500.0,-7501.6133940251357,9023.7539023436493,4677.075124350853,-7567.4608053624142,4728.6956880220923,-7222.9495831578497,14262.734379637894,11248.430412556694,-8562.1433305587398,8562.1433305587398,-11248.430412556694,25063.316402967212,0.0
340012.02908761695,3947225.878295721,-47500.0,-5440.9627769963645,9456.1149629332795,1320.1343159034159,-7396.5943920551426,9487.603924322475,-11646.548987935113,16211.956861298322,9477.0151694325086,-5926.1773492445391,5926.1773492445391,-9477.0151694325086,28785.505833046638,0.0
345012.02908761695,3947225.878295721,-47500.0,-3286.2314134480089,8383.5226854715256,-1986.2587002244702,-5729.120744324623,13858.873526520854,-15636.973888688741,18159.83994857666,6413.8846167161564,-2974.6003097726652,2974.6003097726652,-6413.8846167161564,32493.235520421847,0.0
350012.02908761695,3947225.878295721,-47500.0,-1749.7239950341109,6011.6675973145866,-4564.6070668906113,-2832.8488480959768,17075.05688144295,-18540.403708263908,19650.465935332239,2706.9375966945872,-504.68792038742072,504.68792038742072,-2706.9375966945872,35351.873133606008,0.0
355012.02908761695,3947225.878295721,-47500.0,-1285.6656328294309,2935.1454974223157,-5950.0948651801527,668.24101628189635,18649.442486878219,-19959.996805881718,20371.2954852037,-809.45645833673666,881.56655726003692,-881.56655726003692,809.45645833673666,36796.364484294252,0.0
360012.02908761695,3947225.878295721,-47500.0,-1922.0441196630991,-123.2655194947092,-6042.9818341042183,4054.8301392334752,18519.953626579671,-19866.138286142854,20225.776777326071,-3447.4421098908642,1000.2184142376752,-1000.2184142376752,3447.4421098908642,36651.912927303689,0.0
365012.02908761695,3947225.878295721,-47500.0,-3335.3938117932125,-2585.5219544474089,-5072.9026821304979,6768.844497236506,16989.925649725403,-18533.382126077802,19307.386696219852,-4873.3716452395065,66.252666062397111,-66.252666062397111,4873.3716452395065,35086.612916210157,0.0
370012.02908761695,3947225.878295721,-47500.0,-5057.9931434609825,-4156.164018968233,-3443.9467057593365,8532.8279721551626,14549.909448851062,-16384.16346909192,17823.362923067361,-5114.8095188546722,-1488.2506065508423,1488.2506065508423,5114.8095188546722,32473.318241124052,0.0
375012.02908761695,3947225.878295721,-47500.0,-6666.9034311330834,-4811.3478483007038,-1572.7407876114034,9329.4362330600761,11700.930714318209,-13842.371367309323,16015.273299690563,-4436.7239067235605,-3211.3658799361765,3211.3658799361765,4436.7239067235605,29245.316175895143,0.0
380012.02908761695,3947225.878295721,-47500.0,-7882.7662459613975,-4707.0485922788475,214.38591120057723,9310.6276605437633,8844.8411723065947,-11247.198959381347,14102.855792733335,-3191.9371747867044,-4755.9843167590288,4755.9843167590288,3191.9371747867044,25794.408926791046,0.0
385012.02908761695,3947225.878295721,-47500.0,-8584.2310385713354,-4075.9207470086217,1716.7579620131298,8701.1596033894402,6246.3425954804979,-8825.8907305911362,12255.58440846813,-1710.0550019412367,-5921.0127573761474,5921.0127573761474,1710.0550019412367,22420.491079039439,0.0
390012.02908761695,3947225.878295721,-47500.0,-8774.2201283153936,-3150.2432593655544,2848.3741298189343,7728.1601297868228,4042.766665109204,-6703.2182936581557,10584.291660460754,-240.93110851135998,-6636.4786950830949,6636.4786950830949,240.93110851135998,19320.473429403002,0.0
395012.02908761695,3947225.878295721,-47500.0,-8531.3943225348012,-2119.6684885436835,3606.0422807438727,6582.4160421999013,2275.4150838190053,-4926.4060982814517,9143.6600145045886,1058.1895742511783,-6924.3671185674357,6924.3671185674357,-1058.1895742511783,16599.822864747486,0.0
400012.02908761695,3947225.878295721,-47500.0,-7966.8363975010188,-1117.3002772702196,4034.9797621362823,5404.6401485242586,924.29293691166481,-3491.9112166324721,7941.7428922882127,2110.2069533865747,-6857.4011784770501,6857.4011784770501,-2110.2069533865747,14293.34651468109,0.0
405012.02908761695,3947225.878295721,-47500.0,-7193.7890727840686,-223.19233053204195,4201.2056482025801,4287.0640667130165,-62.933487987139173,-2367.6607734026552,6956.0178885825753,2896.0058823258078,-6526.6703788922077,6526.6703788922077,-2896.0058823258078,12387.162460241238,0.0
410012.02908761695,3947225.878295721,-47500.0,-6310.6867992422349,524.31673364971459,4173.3112782822718,3282.2220372198231,-750.57719035871912,-1508.9235027286077,6150.8854130628988,3432.3704677363348,-6020.8630028492698,6020.8630028492698,-3432.3704677363348,10838.045776262279,0.0
415012.02908761695,3947225.878295721,-47500.0,-5394.3388665270986,1115.7326491962722,4012.505194534594,2413.6036261943955,-1202.5062975146304,-868.37115132690883,5489.7928367425411,3754.4256401857015,-5415.5256667664889,5415.5256667664889,-3754.4256401857015,9588.9058833189629,0.0
420012.02908761695,3947225.878295721,-47500.0,-4499.4941059700468,1559.2222227273378,3768.5520180003432,1685.3620978323909,-1475.7025830120015,-401.71064084860132,4940.7950320132213,3903.6075907002387,-4769.3328066605018,4769.3328066605018,-3903.6075907002387,8580.1926378113603,0.0
425012.02908761695,3947225.878295721,-47500.0,-3661.6758798662277,1872.2181324899168,3479.2666127481557,1089.9832484136962,-1617.7494873770977,-70.317210778061948,4478.1018848883577,3920.4327570703435,-4124.4741911107412,4124.4741911107412,-3920.4327570703435,7757.3425804598764,0.0
430012.02908761695,3947225.878295721,-47500.0,-2901.2127045728334,2075.7521820437532,3171.8122389673181,613.80110520988296,-1666.6045007562268,157.96713011880644,4081.848752929257,3840.7847479449497,-3509.0266256064847,3509.0266256064847,-3840.7847479449497,7074.6693366445788,0.0
435012.02908761695,3947225.878295721,-47500.0,-2227.2688115599931,2190.9880125817676,2864.674594306789,240.6686785896382,-1651.524742325026,309.05434147992429,3737.1996353566219,3694.4870032730805,-2939.9523487213219,2939.9523487213219,-3694.4870032730805,6496.4344379710528,0.0
255012.02908761695,3952225.878295721,-47500.0,4007.8763944192092,-3153.8502560138454,1920.0957066232197,3621.7463287373912,-2343.0703536944852,2168.8313836450698,4833.1173979558234,-2236.2723242726679,2839.9657490967975,-2839.9657490967975,2236.2723242726679,9463.7615070771735,0.0
260012.02908761695,3952225.878295721,-47500.0,3894.8714429200181,-3438.4274331724237,2286.7543786367623,3864.6410149350359,-2700.3395346158909,2452.1609387483809,5233.3431798894235,-2267.6454963167735,2679.7068328388214,-2679.7068328388214,2267.6454963167735,10222.407137258237,0.0
265012.02908761695,3952225.878295721,-47500.0,3684.0830105460795,-3717.5913898280114,2720.8638149090912,4087.4366786869114,-3103.6427367012516,2762.0525146088294,5657.2565509436627,-2244.3126598956028,2423.3123616199805,-2423.3123616199805,2244.3126598956028,11016.8272077247,0.0
270012.02908761695,3952225.878295721,-47500.0,3352.1900624519039,-3975.4075921127601,3230.8953320569431,4273.0807624109084,-3552.9907020332544,3094.7745800833777,6101.331057587262,-2144.7409725495968,2047.9909042983841,-2047.9909042983841,2144.7409725495968,11836.816927003531,0.0
275012.02908761695,3952225.878295721,-47500.0,2873.9648691383882,-4189.1986351692713,3823.7679713668608,4398.8495425156216,-4044.5637604468593,3442.736951158287,6559.9274224366718,-1942.1768581075826,1528.9474222194353,-1528.9474222194353,1942.1768581075826,12667.228649987599,0.0
280012.02908761695,3952225.878295721,-47500.0,2224.0430401182607,-4327.8281709704388,4502.8223221530307,4435.3552895192297,-4568.444591326408,3792.73491826087,7024.8311990701759,-1604.5166914446265,841.09966852671346,-841.09966852671346,1604.5166914446265,13486.971650083911,0.0
285012.02908761695,3952225.878295721,-47500.0,1380.1122784453451,-4350.1000986766712,5264.6774615182776,4345.8885649883805,-5105.4599335860912,4123.6458804831855,7484.9376826201797,-1095.0803662238982,-37.75452997259265,37.75452997259265,1095.0803662238982,14268.388361751149,0.0
290012.02908761695,3952225.878295721,-47500.0,328.14023676075743,-4203.8271654337659,6094.6032694201931,4086.6051036760855,-5622.9732720526972,4403.5401581014512,7926.3708853125381,-375.05042127916852,-1121.6416774881536,1121.6416774881536,375.05042127916852,14977.694582996593,0.0
295012.02908761695,3952225.878295721,-47500.0,-929.71823560452083,-3826.5938768630458,6960.1326989646022,3608.4154244898077,-6069.6440994008244,4586.3057493693977,8333.5796674841222,591.3024207503081,-2408.2488281836027,2408.2488281836027,-591.3024207503081,15577.799831239829,0.0
300012.02908761695,3952225.878295721,-47500.0,-2364.1583792763458,-3149.9273664692164,7803.00548339754,2861.9247307438263,-6369.6055645071965,4608.2023429051469,8692.3721129023997,1827.1281233925852,-3867.3557498294062,3867.3557498294062,-1827.1281233925852,16035.881421244605,0.0
305012.02908761695,3952225.878295721,-47500.0,-3905.2723926963513,-2109.4020063300854,8530.4776145549204,1807.2961734323096,-6417.4295741144761,4385.3999987406523,8996.3880820854101,3327.7016963833889,-5426.2061885107851,5426.2061885107851,-3327.7016963833889,16339.531619898095,0.0
310012.02908761695,3952225.878295721,-47500.0,-5429.3849431010549,-663.69750907820514,9008.9230137672876,431.09764334535998,-6076.8997946722302,3814.6857436272362,9258.787523370178,5038.6880263575276,-6954.357512096838,6954.357512096838,-5038.6880263575276,16526.160842645211,0.0
315012.02908761695,3952225.878295721,-47500.0,-6752.9310135545447,1175.334788475649,9065.6925371178586,-1228.8750182531392,-5189.0146589347696,2781.1671509315652,9529.4386959869225,6830.3587970385061,-8254.6830699304337,8254.6830699304337,-6830.3587970385061,16726.141979164393,0.0
320012.02908761695,3952225.878295721,-47500.0,-7645.3000715550779,3304.0751868545826,8508.6120579387243,-3053.7701182366827,-3596.9079932693376,1178.3044283601062,9910.9841328418988,8476.6309354641344,-9072.958128545517,9072.958128545517,-8476.6309354641344,17199.117924001184,0.0
325012.02908761695,3952225.878295721,-47500.0,-7875.1575486911179,5492.6770685036718,7173.1058619654223,-4820.1364149361061,-1194.5966634002637,-1055.1357949751959,10552.012516962175,9657.2871537284409,-9142.322209663278,9142.322209663278,-9657.2871537284409,18298.20421402976,0.0
330012.02908761695,3952225.878295721,-47500.0,-7296.2789242249964,7381.6012776752523,4998.3779985579649,-6204.8681614480547,2002.6090502438328,-3883.4626575146112,11586.989895807485,10008.205739257866,-8272.174112421706,8272.174112421706,-10008.205739257866,20293.917970034814,0.0
335012.02908761695,3952225.878295721,-47500.0,-5950.977725640143,8542.329658189059,2111.0746700503623,-6844.3153141410539,5789.0104363129985,-7125.4102365744975,13032.075063854065,9233.5920868021949,-6463.6641949818259,6463.6641949818259,-9233.5920868021949,23148.010428822239,0.0
340012.02908761695,3952225.878295721,-47500.0,-4130.5187600998343,8612.8189979340186,-1134.2553932085154,-6452.5340723091213,9747.2380696797482,-10443.031304223057,14720.546139763461,7253.5320970564608,-3991.558391431583,3991.558391431583,-7253.5320970564608,26461.535291248303,0.0
345012.02908761695,3952225.878295721,-47500.0,-2322.8669945749652,7460.3004912386568,-4212.3680722428298,-4955.4249544602726,13319.582054860786,-13400.268947070123,16350.60437394998,4306.7164937728458,-1374.2625087438234,1374.2625087438234,-4306.7164937728458,29634.760728876347,0.0
350012.02908761695,3952225.878295721,-47500.0,-1039.5043842234122,5273.2824132027754,-6585.566986895491,-2558.5516542043956,15966.953218733741,-15585.072278670497,17607.367241625125,920.35948518989767,792.26171182760777,-792.26171182760777,-920.35948518989767,32086.657551516299,0.0
355012.02908761695,3952225.878295721,-47500.0,-612.10762981896892,2509.2445568407079,-7887.2230900304621,308.38861140227488,17340.795507658764,-16737.318582239754,18269.419253844088,-2262.8243712205062,2056.5707997485329,-2056.5707997485329,2262.8243712205062,33420.364504007106,0.0
360012.02908761695,3952225.878295721,-47500.0,-1083.2935202939555,-276.24920192819343,-8027.1762455916323,3143.0979656924237,17374.329476312305,-16813.086153076936,18255.535608147504,-4705.1377674048663,2258.3353447941672,-2258.3353447941672,4705.1377674048663,33494.569079518355,0.0
365012.02908761695,3952225.878295721,-47500.0,-2240.5944689552189,-2614.6902547717496,-7173.6983736275533,5528.2381275940797,16256.779556617626,-15961.003916042937,17614.861789831113,-6120.1034991576453,1529.4965961310454,-1529.4965961310454,6120.1034991576453,32402.834051076876,0.0
370012.02908761695,3952225.878295721,-47500.0,-3742.0615323759043,-4233.1317595925093,-5648.9752836622474,7220.538605568554,14329.016731622602,-14442.112534035181,16483.795026950178,-6492.6499325560499,184.81824329898518,-184.81824329898518,6492.6499325560499,30394.937824077137,0.0
375012.02908761695,3952225.878295721,-47500.0,-5247.8430970929085,-5065.4184963861735,-3808.3606880472371,8157.4218034740961,11966.679380206375,-12543.020906964372,15035.435677437988,-6005.2385747453736,-1414.5643000558234,1414.5643000558234,6005.2385747453736,27784.946288371844,0.0
380012.02908761695,3952225.878295721,-47500.0,-6504.0695982000561,-5199.4289340842952,-1953.1483260288612,8411.060445150375,9495.9333072748614,-10514.561500887976,13439.141662542926,-4933.1740771759833,-2962.1673806209001,2962.1673806209001,4933.1740771759833,24877.793469782901,0.0
385012.02908761695,3952225.878295721,-47500.0,-7370.4805229071862,-4804.791324863274,-290.75384483239145,8127.2149468666166,7153.7006124047421,-8543.1038009467484,11836.180097833014,-3556.3931881427807,-4252.902972339758,4252.902972339758,3556.3931881427807,21925.753174138241,0.0
390012.02908761695,3952225.878295721,-47500.0,-7808.5836256938819,-4071.0173927888682,1067.3295640564907,7473.0569089438877,5083.1120408922743,-6746.9269583730857,10329.208474839044,-2106.1906428397829,-5185.9772048880077,5185.9772048880077,2106.1906428397829,19111.754184419988,0.0
395012.02908761695,3952225.878295721,-47500.0,-7851.769343981613,-3167.6046544593564,2086.612757944918,6602.939887081473,3348.9142100148515,-5186.5658302907295,8980.4562644376474,-744.85738974366677,-5743.4625449824198,5743.4625449824198,744.85738974366677,16550.837441985735,0.0
400012.02908761695,3952225.878295721,-47500.0,-7573.2645521819386,-2225.4036218051078,2784.0833882393144,5641.3970363953049,1959.9317229936878,-3880.163947524552,7815.3777025645459,432.33190716740546,-5961.2788169543983,5961.2788169543983,-432.33190716740546,14301.058106889253,0.0
405012.02908761695,3952225.878295721,-47500.0,-7060.2725744193558,-1333.2469985861164,3204.8349838447025,4678.6523556341172,890.62490607316352,-2818.4455069517212,6831.4418282039533,1383.8795899900306,-5902.7767541086459,5902.7767541086459,-1383.8795899900306,12377.575021151424,0.0
410012.02908761695,3952225.878295721,-47500.0,-6396.8318938482616,-543.16579369520434,3404.5897299518497,3773.4606919692565,98.111609462631463,-1976.8238479839151,6010.0255617071234,2105.7369804058449,-5639.2344713698549,5639.2344713698549,-2105.7369804058449,10766.287949821128,0.0
415012.02908761695,3952225.878295721,-47500.0,-5654.5892238720089,120.99549246675639,3438.5521562801946,2959.2056067850008,-466.1066762406096,-1324.0571877689815,5326.5789241380335,2616.5194006246829,-5237.7343675161492,5237.7343675161492,-2616.5194006246829,9435.4102887882545,0.0
420012.02908761695,3952225.878295721,-47500.0,-4889.3828516827552,654.77224544122248,3355.4503661658246,2250.659811436311,-849.02043679356234,-827.8222637231587,4756.5483645990535,2946.1461710333729,-4755.0462902137933,4755.0462902137933,-2946.1461710333729,8344.5644281062087,0.0
425012.02908761695,3952225.878295721,-47500.0,-4141.4291550723601,1065.6506405309524,3195.1785258723085,1650.0303337078985,-1092.4103233854462,-457.90970167188738,4277.9724578954374,3128.112762093117,-4235.6301289548946,4235.6301289548946,-3128.112762093117,7451.4633345623488,0.0
430012.02908761695,3952225.878295721,-47500.0,-3437.3698669629912,1367.4930476714269,2988.6179143936047,1151.768595765823,-1231.406265885515,-187.77763625739297,3872.3451197443983,3194.8053596227765,-3712.0767218961973,3712.0767218961973,-3194.8053596227765,6716.4155052344249,0.0
255012.02908761695,3957225.878295721,-47500.0,3304.4560288246457,-3123.4302499900568,2216.2880889464054,3159.7038900652215,-2360.5824900335897,1941.5611134587443,4496.2705941221966,-1947.1622624019922,2209.1175427339226,-2209.1175427339226,1947.1622624019922,8803.0800370372126,0.0
260012.02908761695,3957225.878295721,-47500.0,3116.842283620027,-3355.7757239833736,2601.4595068361386,3323.2595927423499,-2690.5682741080655,2172.9744319648507,4840.5704447434273,-1912.931351330446,1978.3790017715128,-1978.3790017715128,1912.931351330446,9450.0465976571613,0.0
265012.02908761695,3957225.878295721,-47500.0,2832.5501427884979,-3568.1572916405089,3047.5264451547287,3455.9478639521376,-3054.8189641724716,2419.61457507359,5200.1053543690232,-1815.2193345125816,1652.1628218091346,-1652.1628218091346,1815.2193345125816,10115.692015648619,0.0
270012.02908761695,3957225.878295721,-47500.0,2433.0211459450338,-3742.5809203542049,3558.7295434487551,3541.0356246050696,-3449.8611924094571,2675.8604587911836,5570.7224013975883,-1633.6972592644333,1212.3197333246535,-1212.3197333246535,1633.6972592644333,10788.650820904437,0.0
275012.02908761695,3957225.878295721,-47500.0,1899.8597260187419,-3854.9206978923121,4136.2581946831706,3557.3149409344001,-3867.7953016825636,2932.3371690710701,5946.5602708176611,-1344.4455706949013,640.84564208343522,-640.84564208343522,1344.4455706949013,11453.501116415802,0.0
280012.02908761695,3957225.878295721,-47500.0,1217.043798181779,-3873.9143344254167,4775.9866203341635,3478.7785139463026,-4294.2206066056287,3174.5121693719038,6319.9193958972219,-920.62642102778466,-77.876556553993282,77.876556553993282,920.62642102778466,12090.474223106183,0.0
285012.02908761695,3957225.878295721,-47500.0,374.38550805682667,-3760.6337337527457,5465.2742503304116,3274.8455402657069,-4705.5566332947446,3380.9940516957054,6681.4362155800281,-334.24566804285837,-953.51165526384534,953.51165526384534,334.24566804285837,12675.892923072515,0.0
290012.02908761695,3957225.878295721,-47500.0,-627.42265165880269,-3469.0428056767955,6178.6899894425642,2911.6176571693063,-5065.7981404481479,3521.6168324601472,7020.8793092057967,440.34632716921885,-1984.4852775013851,1984.4852775013851,-440.34632716921885,13184.124026632375,0.0
295012.02908761695,3957225.878295721,-47500.0,-1770.0146143109723,-2948.6055180433609,6872.7521738932737,2354.8589886116101,-5322.974495533972,3555.5504202422894,7329.0833438165728,1420.4138488582364,-3150.7260101577822,3150.7260101577822,-1420.4138488582364,13592.370013932134,0.0
300012.02908761695,3957225.878295721,-47500.0,-3009.1176011228426,-2150.3138435407195,7480.2696660657584,1575.6228335133005,-5406.0332424953476,3429.9652930912243,7601.775753873324,2605.4356611454532,-4404.6334202984981,4404.6334202984981,-2605.4356611454532,13890.352648914501,0.0
305012.02908761695,3957225.878295721,-47500.0,-4266.2268851174213,-1037.7618451851067,7905.8281874115564,559.51576074871809,-5223.6275462141984,3080.2376607816027,7846.1382467592339,3963.9676639707441,-5661.5206543656923,5661.5206543656923,-3963.9676639707441,14097.403016088225,0.0
310012.02908761695,3957225.878295721,-47500.0,-5423.3220800688514,395.45211988693364,8025.4595194683261,-679.82331957819451,-4667.3636138476895,2433.3236746208868,8090.2719369864863,5417.7413625023901,-6792.6654412080325,6792.6654412080325,-5417.7413625023901,14287.853997486311,0.0
315012.02908761695,3957225.878295721,-47500.0,-6326.1804503081512,2102.4805823839961,7695.3359446392988,-2083.9102476044086,-3623.1965694812584,1416.5715555842885,8392.9645102617942,6826.8042869940664,-7626.8040920046542,7626.8040920046542,-6826.8042869940664,14617.112784244287,0.0
320012.02908761695,3957225.878295721,-47500.0,-6803.7735565836574,3958.827092254221,6775.3328771390625,-3533.315548250338,-1994.8978351405349,-25.721808707778962,8845.0008695093165,7983.93857150034,-7968.3802651569213,7968.3802651569213,-7983.93857150034,15320.018772349211,0.0
325012.02908761695,3957225.878295721,-47500.0,-6709.7556631441394,5748.1728326807734,5171.0790466492563,-4841.0607834933489,258.97733829243379,-1907.4382315723208,9547.5316045255386,8630.9618318325847,-7640.14846163312,7640.14846163312,-8630.9618318325847,16637.134234697169,0.0
330012.02908761695,3957225.878295721,-47500.0,-5983.1404960811951,7176.0216577034735,2889.5960211008828,-5768.2529608069244,3080.501097931146,-4171.7156107985611,10562.055271654232,8509.0409248362248,-6549.3123753219324,6549.3123753219324,-8509.0409248362248,18673.697167103895,0.0
335012.02908761695,3957225.878295721,-47500.0,-4707.7938736075257,7926.6539086353177,88.681333620669349,-6072.1351539235093,6277.6131085752213,-6669.7370303169319,11856.218862468839,7442.8488574548001,-4758.0419933868534,4758.0419933868534,-7442.8488574548001,21297.865823601202,0.0
340012.02908761695,3957225.878295721,-47500.0,-3133.7084223049687,7759.9358209763732,-2912.6817351755767,-5581.841637292925,9525.2679110964855,-9164.3361458456311,13286.795158758396,5432.7840694008237,-2519.3042276570004,2519.3042276570004,-5432.7840694008237,24167.397865023995,0.0
345012.02908761695,3957225.878295721,-47500.0,-1627.5296302096788,6612.2488017940886,-5689.5866495857499,-4273.3882690123437,12421.366236383499,-11370.238173497979,14637.418612752084,2705.4556237179231,-238.79038096336035,238.79038096336035,-2705.4556237179231,26845.247278445924,0.0
350012.02908761695,3957225.878295721,-47500.0,-557.57784325889804,4645.3676866196456,-7825.0066456006798,-2301.8134052251098,14587.886853937654,-13023.546115943289,15688.967147376832,-321.53876123287,1640.3958673829643,-1640.3958673829643,321.53876123287,28925.300962611378,0.0
355012.02908761695,3957225.878295721,-47500.0,-167.09400172055715,2206.9072537686675,-9033.1854793505481,34.891306194922038,15775.000379220484,-13951.684371166404,16282.719284324627,-3158.1327519908864,2780.2294515362919,-2780.2294515362919,3158.1327519908864,30125.968076215097,0.0
360012.02908761695,3957225.878295721,-47500.0,-502.81341680861789,-280.7982809214426,-9232.1455692433683,2384.9485617254222,15919.133137013627,-14111.300493734956,16351.542435966152,-5387.0911680371328,3044.4312484097072,-3044.4312484097072,5387.0911680371328,30334.073877664774,0.0
365012.02908761695,3957225.878295721,-47500.0,-1428.2706371441468,-2444.8622161640965,-8537.1779872158622,4439.708035345132,15133.875179380429,-13580.919316371575,15917.790474730333,-6766.1961687592657,2507.9479586689349,-2507.9479586689349,6766.1961687592657,29597.280112108914,0.0
370012.02908761695,3957225.878295721,-47500.0,-2698.54916667619,-4043.9916673027551,-7193.667200828515,5996.9708266796579,13650.455648362527,-12520.298193351326,15069.299827091912,-7252.7811484145004,1393.1585949816581,-1393.1585949816581,7252.7811484145004,28079.891741863084,0.0
375012.02908761695,3957225.878295721,-47500.0,-4049.0038739106412,-4989.2586759376354,-5491.1070555586857,6976.9244948893656,11742.898317891408,-11120.075204297527,13927.774523146565,-6963.0082794600939,-21.275263529157201,21.275263529157201,6963.0082794600939,26005.384292952807,0.0
380012.02908761695,3957225.878295721,-47500.0,-5261.3339109224444,-5317.4978313644497,-3693.2697797603219,7401.8341446206423,9666.7467129067336,-9560.6136987303289,12620.638727423961,-6101.9447917860152,-1477.5800759437388,1477.5800759437388,6101.9447917860152,23605.316137386839,0.0
385012.02908761695,3957225.878295721,-47500.0,-6194.5177342267398,-5143.7160146087299,-1999.1796184923242,7359.5410566303699,7623.5137107377232,-7987.7585658686376,11261.652927384592,-4896.9255969308961,-2783.2919581068218,2783.2919581068218,4896.9255969308961,21084.489253956555,0.0
390012.02908761695,3957225.878295721,-47500.0,-6786.1660519626112,-4614.3336443388571,-532.72285254909832,6967.1732762536249,5749.271240890519,-6504.3405867576394,9940.4745772540828,-3551.1700280079858,-3823.9782997071434,3823.9782997071434,3551.1700280079858,18603.378527412009,0.0
395012.02908761695,3957225.878295721,-47500.0,-7036.6031685585385,-3872.610704576487,648.89298833135047,6343.6386295175353,4119.590722220496,-5172.4248831697842,8718.6944593280969,-2220.514359400393,-4554.6923433730926,4554.6923433730926,2220.514359400393,16274.045414656724,0.0
400012.02908761695,3957225.878295721,-47500.0,-6987.0458682017543,-3038.7836084077203,1538.1113040921493,5592.9771216146473,2762.5024948441119,-4021.0203563399805,7630.1109895166346,-1008.3396549924689,-4981.5966462980141,4981.5966462980141,1008.3396549924689,14164.421459792518,0.0
405012.02908761695,3957225.878295721,-47500.0,-6699.270519508018,-2202.45550935132,2158.8542533302093,4796.9850974453502,1673.3348985980053,-3055.3590672384184,6684.9171762918286,28.45368526772836,-5142.1510837490841,5142.1510837490841,-28.45368526772836,12306.584448730113,0.0
410012.02908761695,3957225.878295721,-47500.0,-6240.2024785264357,-1423.1030473813605,2551.2479235660148,4014.2300356667588,827.89545071080215,-2265.4430434858987,5877.2269617646434,868.66140312056768,-5088.4880185114689,5088.4880185114689,-868.66140312056768,10706.000192674952,0.0
415012.02908761695,3957225.878295721,-47500.0,-5672.0705249650573,-734.83356903870106,2760.6355042329756,3282.6738802540358,192.56803045668784,-1632.8519416807767,5192.9300332571665,1515.3711264552142,-4875.5939712605305,4875.5939712605305,-1515.3711264552142,9350.0431395710002,0.0
420012.02908761695,3957225.878295721,-47500.0,-5047.2991651091252,-152.59302727093632,2830.7021085057681,2623.8182014070071,-268.79735494726452,-1135.6251953417127,4615.1382749151544,1986.1591070330546,-4554.1177348429737,4554.1177348429737,-1986.1591070330546,8215.0958977445371,0.0
425012.02908761695,3957225.878295721,-47500.0,-4406.7896337808243,321.85236137074861,2799.8376010062448,2047.0391031567112,-590.69928660278708,-751.43777282277279,4127.049334612454,2305.6889935065083,-4166.8093966016877,4166.8093966016877,-2305.6889935065083,7272.0675253583249,0.0
430012.02908761695,3957225.878295721,-47500.0,-3780.3008886784955,694.94222504926552,2699.729592382977,1553.425940983378,-803.7941805760986,-459.46040645294283,3713.2676644036992,2500.6728751666492,-3747.4373930530305,3747.4373930530305,-2500.6728751666492,6490.463373390452,0.0
260012.02908761695,3962225.878295721,-47500.0,2397.3559688786618,-3180.653500694099,2841.037110668623,2808.1529770981151,-2618.5520631349927,1902.4877269841481,4450.5678348544388,-1529.3720645459605,1332.3716822172839,-1332.3716822172839,1529.3720645459605,8674.0184150051591,0.0
265012.02908761695,3962225.878295721,-47500.0,2062.1639624944592,-3321.8888158900522,3279.8069046334053,2865.2749723672678,-2936.1244288421212,2092.729479675429,4752.1985069960729,-1367.3361352362242,959.12381117302471,-959.12381117302471,1367.3361352362242,9221.8809687217545,0.0
270012.02908761695,3962225.878295721,-47500.0,1622.272651247984,-3411.8864409952389,3769.722676018901,2869.203253392056,-3270.0317558864858,2282.4470682553429,5058.2651502760382,-1119.1775371488991,482.66139691782593,-482.66139691782593,1119.1775371488991,9763.6515987457442,0.0
275012.02908761695,3962225.878295721,-47500.0,1066.0151566714474,-3426.841707832888,4306.5962196618075,2801.3181276656874,-3609.484930435241,2461.5976997261282,5363.3738522206786,-765.11684569326599,-108.14039535657065,108.14039535657065,765.11684569326599,10285.112751804885,0.0
280012.02908761695,3962225.878295721,-47500.0,385.86609770387304,-3337.5517137777288,4879.8686990377637,2639.9901845858953,-3937.3821653502796,2615.7137173951637,5661.112099647602,-284.76749993198138,-820.06275809878389,820.06275809878389,284.76749993198138,10769.525179086344,0.0
285012.02908761695,3962225.878295721,-47500.0,-418.26952787517121,-3109.8194562895969,5469.7251764280145,2361.4077459107975,-4228.2580323335051,2724.7691842192639,5944.6124533921493,340.49630169289003,-1652.0591033963103,1652.0591033963103,-340.49630169289003,11198.979749730219,0.0
290012.02908761695,3962225.878295721,-47500.0,-1334.7265830206557,-2706.1243882257586,6043.6168281538794,1941.4151128761398,-4446.0760662216317,2762.0847208996879,6207.8020127757845,1123.6179542842724,-2590.5885112691917,2590.5885112691917,-1123.6179542842724,11557.487458660515,0.0
295012.02908761695,3962225.878295721,-47500.0,-2334.8908962342171,-2089.3253873794274,6552.5367766432055,1358.8401832791405,-4542.2604059907289,2693.5479642813821,6447.7346775165006,2065.936907231021,-3603.8911794367841,3603.8911794367841,-2065.936907231021,11836.94435975233,0.0
300012.02908761695,3962225.878295721,-47500.0,-3367.8459516222883,-1229.2968295889855,6927.8959856711308,600.8135110719445,-4454.728053313358,2477.6325170298269,6668.4272892139652,3149.046756784016,-4635.8569571957432,4635.8569571957432,-3149.046756784016,12047.349565422021,0.0
305012.02908761695,3962225.878295721,-47500.0,-4356.406327253233,-113.26531639251365,7080.6043578249473,-329.59582732041792,-4109.1945643406789,2066.9693048992613,6886.3007715198282,4324.8552719546087,-5601.0507098324315,5601.0507098324315,-4324.8552719546087,12231.990002031502,0.0
310012.02908761695,3962225.878295721,-47500.0,-5197.2568880174031,1240.1301045738542,6904.9031552399656,-1403.7069155763625,-3424.578332999939,1412.4957218740381,7136.1138045442895,5505.5790269405716,-6383.7651890559628,6383.7651890559628,-5505.5790269405716,12484.66983805408,0.0
315012.02908761695,3962225.878295721,-47500.0,-5769.0243996760582,2764.8283534232273,6290.2121534413545,-2557.0680992697635,-2324.6010809917702,471.29846191559881,7473.6033834019618,6557.4919036964757,-6845.3348398794178,6845.3348398794178,-6557.4919036964757,12956.589671939882,0.0
320012.02908761695,3962225.878295721,-47500.0,-5952.1367031524242,4334.2324777027952,5143.8141590148844,-3682.4005888782281,-757.01186157220764,-781.20840420889363,7967.9245483046725,7304.6566289872226,-6844.3314737971377,6844.3314737971377,-7304.6566289872226,13828.897113309331,0.0
325012.02908761695,3962225.878295721,-47500.0,-5661.6167310048641,5759.4670149342273,3424.1990752342344,-4631.4517167709992,1280.6559397766384,-2335.670405684536,8678.5571485851215,7550.0017538321854,-6271.8561796349923,6271.8561796349923,-7550.0017538321854,15237.476396748343,0.0
330012.02908761695,3962225.878295721,-47500.0,-4887.1222400681618,6809.1236853676228,1178.3857516759172,-5232.2247070238873,3714.6946313691901,-4133.4830386448066,9622.7506357612619,7118.0678226626496,-5097.1647451374101,5097.1647451374101,-7118.0678226626496,17187.351322991981,0.0
335012.02908761695,3962225.878295721,-47500.0,-3724.9546310585215,7256.1213624219927,-1431.8473571608856,-5324.4768519114859,6379.7590222675062,-6058.7727751754237,10751.857739313467,5914.0280946658877,-3408.1819984928534,3408.1819984928534,-5914.0280946658877,19523.441600457263,0.0
340012.02908761695,3962225.878295721,-47500.0,-2380.844787339026,6944.1948463946783,-4134.2400319535282,-4807.1963600400213,9028.0601483771461,-7945.7337559801099,11951.520375323225,3979.1239506086836,-1423.3995127573858,1423.3995127573858,-3979.1239506086836,21972.607517472581,0.0
345012.02908761695,3962225.878295721,-47500.0,-1129.3113894758385,5849.6510267383883,-6592.6425894777449,-3680.6002947762327,11370.328296202479,-9605.195348040028,13067.092716417899,1513.169841860147,543.47192050213675,-543.47192050213675,-1513.169841860147,24218.398772119384,0.0
350012.02908761695,3962225.878295721,-47500.0,-237.42657616851253,4106.7833644996854,-8486.9432109055979,-2061.0991185177613,13140.080520820791,-10864.872631083028,13944.464276551102,-1157.2223000458446,2162.6406893604599,-2162.6406893604599,1157.2223000458446,25974.07143982155,0.0
355012.02908761695,3962225.878295721,-47500.0,115.33003455451019,1978.9592758191766,-9595.6172870741029,-157.79666237430669,14157.415086846793,-11608.695424311645,14468.558337008304,-3659.2867908160592,3180.4245588653507,-3180.4245588653507,3659.2867908160592,27037.467001273595,0.0
360012.02908761695,3962225.878295721,-47500.0,-115.83323839891187,-213.91441608907172,-9845.583479555673,1781.0445469083518,14366.23715297028,-11799.495151761441,14584.719269704088,-5670.2280631742251,3483.4071693686565,-3483.4071693686565,5670.2280631742251,27318.799939135562,0.0
365012.02908761695,3962225.878295721,-47500.0,-844.63127902768429,-2178.4847555146148,-9311.8914714028124,3528.1661083042513,13832.616613691291,-11477.83953623325,14300.016855445379,-6988.4075351088304,3109.9519613854191,-3109.9519613854191,6988.4075351088304,26838.974922871188,0.0
370012.02908761695,3962225.878295721,-47500.0,-1897.8149425847355,-3708.4549474167234,-8175.8166002695016,4921.0894431785164,12711.272400566264,-10741.40986400773,13670.057879601904,-7556.9798323754203,2213.8345921682976,-2213.8345921682976,7556.9798323754203,25704.882585027775,0.0
375012.02908761695,3962225.878295721,-47500.0,-3073.8046107390496,-4707.2145047324457,-6665.564807283743,5878.9996732140235,11198.557041242901,-9716.0672150016362,12779.372218119808,-7443.3972149325245,1004.7476133036334,-1004.7476133036334,7443.3972149325245,24073.79354086172,0.0
380012.02908761695,3962225.878295721,-47500.0,-4192.155309144272,-5177.0626661289198,-5002.9117750325204,6395.8369882123679,9489.5866655413174,-8529.2123818770178,11722.253889730737,-6794.475837239519,-308.17393193486623,308.17393193486623,6794.475837239519,22118.634319717137,0.0
385012.02908761695,3962225.878295721,-47500.0,-5122.2882930296937,-5189.6926529432985,-3368.4801572284832,6519.7266110859427,7749.3265294694638,-7291.3772128629244,10588.075400544445,-5788.1459112604389,-1554.4476362289611,1554.4476362289611,5788.1459112604389,20001.509324078303,0.0
390012.02908761695,3962225.878295721,-47500.0,-5791.5061168982338,-4852.6771844193545,-1887.3521272620794,6328.995979970854,6099.254837783913,-6087.127016659455,9452.1026000760266,-4595.5481870389176,-2618.8592830102848,2618.8592830102848,4595.5481870389176,17857.790631740994,0.0
395012.02908761695,3962225.878295721,-47500.0,-6178.512671509784,-4281.4824515803748,-630.19167656451248,5911.5405443039863,4616.3001143935271,-4973.4558193212188,8370.8454452627084,-3358.2656483003366,-3441.1783450591438,3441.1783450591438,3358.2656483003366,15789.644601944876,0.0
400012.02908761695,3962225.878295721,-47500.0,-6299.8495165843806,-3580.804404474698,376.83689077803695,5350.4139955984037,3339.1621503253646,-3982.8679135366415,7380.5634753689483,-2179.3405745623472,-4006.0558214393118,4006.0558214393118,2179.3405745623472,13866.292492106191,0.0
405012.02908761695,3962225.878295721,-47500.0,-6195.0452783273631,-2835.0010309142035,1139.0779290473527,4715.7476778651844,2277.7094032450354,-3128.6262262863506,6498.6332200115849,-1124.0046725889467,-4329.3532386194174,4329.3532386194174,1124.0046725889467,12128.198352895686,0.0
410012.02908761695,3962225.878295721,-47500.0,-5913.894074513918,-2105.4464601831169,1681.0488639055388,4061.6930552817871,1422.5043697131514,-2410.3790748281676,5727.8754401774449,-225.76522079791948,-4445.0575477906023,4445.0575477906023,225.76522079791948,10592.926930078644,0.0
415012.02908761695,3962225.878295721,-47500.0,-5507.2217107578672,-1432.2057344870404,2036.5740894247931,3426.6898068789083,752.87940768484543,-1819.1476513931905,5062.2377601246108,505.56783910030776,-4394.847287279289,4394.847287279289,-505.56783910030776,9261.1769686880543,0.0
420012.02908761695,3962225.878295721,-47500.0,-5021.1606386812355,-837.82913069612789,2241.8517385014288,2835.555681652545,243.01195960087813,-1341.2572405914309,4491.4379652027383,1076.0728944300815,-4220.8639789093168,4220.8639789093168,-1076.0728944300815,8122.1930135112561,0.0
425012.02908761695,3962225.878295721,-47500.0,-4494.2839032249276,-331.72829009079356,2331.1584276517319,2302.2835826061905,-133.95392574004092,-961.15379750804709,4003.7366102197147,1501.2114443904852,-3961.3782018931729,3961.3782018931729,-1501.2114443904852,7158.2111308767962,0.0
260012.02908761695,3967225.878295721,-47500.0,1752.545672211304,-2937.8765236522609,3002.288495221349,2331.4686416124455,-2497.9915661762043,1647.2457937683885,4072.6721383503454,-1141.9224597268803,758.48699996611333,-758.48699996611333,1141.9224597268803,7913.5972878725133,0.0
265012.02908761695,3967225.878295721,-47500.0,1387.6731134850629,-3009.4999252560197,3417.5529037551032,2328.103033952686,-2765.5061512487505,1788.8125290559367,4323.5493991926342,-928.75266079050925,359.82439926530083,-359.82439926530083,928.75266079050925,8357.1881293383831,0.0
270012.02908761695,3967225.878295721,-47500.0,931.63008795552651,-3020.6267096001839,3868.4881943009746,2269.9970122989553,-3036.6749370985663,1922.5987581529896,4574.3964771428018,-631.81603083892549,-128.25985021841177,128.25985021841177,631.81603083892549,8785.9103429589195,0.0
275012.02908761695,3967225.878295721,-47500.0,378.77011992980732,-2949.2094713424281,4346.4193296664344,2141.6650719351087,-3299.0301779523097,2038.7239690466845,4820.7625717758492,-236.1157936079465,-710.61052711225602,710.61052711225602,236.1157936079465,9187.8218397399269,0.0
280012.02908761695,3967225.878295721,-47500.0,-271.41206038299094,-2769.6499266008095,4835.9364821319414,1926.1404716398536,-3534.4027746174402,2123.719447874465,5057.9614278083445,272.03175464683159,-1386.5614512710426,1386.5614512710426,-272.03175464683159,9550.2793192473546,0.0
285012.02908761695,3967225.878295721,-47500.0,-1011.4588396403509,-2453.8865539476469,5312.5634973472897,1606.1262008735273,-3717.5136346366949,2159.8639515373229,5281.8897418456691,902.40939137566147,-2146.8744706693847,2146.8744706693847,-902.40939137566147,9861.9650802878823,0.0
290012.02908761695,3967225.878295721,-47500.0,-1822.5956022003247,-1973.7228046051043,5740.2721937966417,1166.0142304651897,-3814.7009176796359,2124.6990013033951,5490.4859814080319,1657.0882173305417,-2970.0264109447571,2970.0264109447571,-1657.0882173305417,10116.648590697463,0.0
295012.02908761695,3967225.878295721,-47500.0,-2671.2191001047991,-1304.9111214086599,6069.3214027695612,595.04349218088328,-3783.1931959916365,1990.9738139346541,5686.0521062409516,2525.2621237609828,-3818.1982479265371,3818.1982479265371,-2525.2621237609828,10319.460582046526,0.0
300012.02908761695,3967225.878295721,-47500.0,-3506.0381514454361,-433.45144082729388,6235.3002600184891,-108.21856073866438,-3571.5911928437281,1727.3930617703932,5878.498752856538,3476.9206157336139,-4633.7874218478955,4633.7874218478955,-3476.9206157336139,10496.162011935507,0.0
305012.02908761695,3967225.878295721,-47500.0,-4257.2623352148612,635.76942765813055,6160.7542882974476,-930.15354774698176,-3122.5005421445126,1300.6658895167893,6089.0106582297949,4456.1890230110657,-5337.9215862393394,5337.9215862393394,-4456.1890230110657,10704.262793447118,0.0
310012.02908761695,3967225.878295721,-47500.0,-4839.8420128667549,1868.6803955539735,5761.2134598921011,-1835.7654772283324,-2378.4392914598907,679.41147149171047,6352.395740584675,5376.1823093330295,-5833.185069791698,5833.185069791698,-5376.1823093330295,11040.450539675727,0.0
315012.02908761695,3967225.878295721,-47500.0,-5163.0111822107829,3192.1854920444293,4957.4503740154078,-2763.2905367786821,-1291.9787081336278,-159.66317626453753,6714.743293033087,6118.4889113374884,-6013.1945620987844,6013.1945620987844,-6118.4889113374884,11632.116643099795,0.0
320012.02908761695,3967225.878295721,-47500.0,-5147.6043694993978,4488.7936461852651,3694.765828146411,-3622.3913507147936,159.80680402530479,-1223.4207988446203,7222.8475394914276,6541.3701820871165,-5781.0521742033698,5781.0521742033698,-6541.3701820871165,12600.683341958113,0.0
325012.02908761695,3967225.878295721,-47500.0,-4750.0534176185356,5601.2988727533084,1967.4170535223511,-4299.3713937635548,1958.4317967912282,-2492.9582045408765,7906.0444549281974,6500.3084080265762,-5076.1633534984139,5076.1633534984139,-6500.3084080265762,14005.024581394129,0.0
330012.02908761695,3967225.878295721,-47500.0,-3987.4954345409269,6352.6575105924712,-157.96606483044491,-4672.2913580196991,4029.2762163076159,-3915.9341518719093,8758.2294145402029,5881.2446141694063,-3904.0848592879711,3904.0848592879711,-5881.2446141694063,15800.672852830725,0.0
335012.02908761695,3967225.878295721,-47500.0,-2953.6771714197926,6581.9428757902015,-2530.2907316182282,-4635.9275457690874,6236.1355442519052,-5404.4593732373469,9729.6482446270493,4640.2789674638479,-2358.4396272855097,2358.4396272855097,-4640.2789674638479,17841.882347373397,0.0
340012.02908761695,3967225.878295721,-47500.0,-1814.0579702520572,6189.0347751431082,-4924.0931458806272,-4131.285408384806,8391.9469888262884,-6842.217894712654,10731.833342966747,2836.0576702293511,-621.42200941331407,621.42200941331407,-2836.0576702293511,19917.487072822307,0.0
345012.02908761695,3967225.878295721,-47500.0,-774.47602850554426,5172.2560306891301,-7076.3137422226564,-3169.2953540245612,10287.84345960925,-8101.7843246971397,11653.797069445696,638.04181912690728,1065.4539092884763,-1065.4539092884763,-638.04181912690728,21797.620587781905,0.0
350012.02908761695,3967225.878295721,-47500.0,-30.305972101534788,3641.21910217915,-8741.9417356110844,-1837.5317337702193,11734.303762240163,-9068.4705407202,12385.907127247225,-1699.4610040640082,2455.5996682667155,-2455.5996682667155,1699.4610040640082,23277.252229905949,0.0
355012.02908761695,3967225.878295721,-47500.0,285.06497429737567,1795.9562235404969,-9749.4365690148716,-284.7257308551757,12600.886032288563,-9663.1036024296191,12843.838132162191,-3892.3164155490567,3357.7430572611702,-3357.7430572611702,3892.3164155490567,24209.480275496346,0.0
360012.02908761695,3967225.878295721,-47500.0,131.60982114952071,-120.91923755447641,-10035.124030925317,1312.1293780618723,12840.337389232294,-9855.8396389222125,12983.537990044402,-5690.7396779972969,3678.9054592792018,-3678.9054592792018,5690.7396779972969,24523.531375458864,0.0
365012.02908761695,3967225.878295721,-47500.0,-436.80156571837216,-1880.0471715214201,-9645.6673603439031,2785.6429745643595,12489.860641059468,-9667.0305481741107,12803.856391731306,-6928.9209946684041,3435.17169448809,-3435.17169448809,6928.9209946684041,24225.470176754225,0.0
370012.02908761695,3967225.878295721,-47500.0,-1298.3971264602824,-3309.148720325365,-8712.376285252396,4007.9007942118255,11652.31749404386,-9156.6834141518448,12339.432881141875,-7545.4592569837496,2731.3002386950679,-2731.3002386950679,7545.4592569837496,23384.381339261115,0.0
375012.02908761695,3967225.878295721,-47500.0,-2301.8366080696856,-4313.7465473659186,-7411.1341732487572,4905.1053214695048,10466.957684199293,-8407.8143634813641,11648.548968557367,-7574.3940156118588,1722.4139397152503,-1722.4139397152503,7574.3940156118588,22110.351436322304,0.0
380012.02908761695,3967225.878295721,-47500.0,-3302.0388782383598,-4875.077291425393,-5922.9744078889034,5457.0320647851595,9080.1671752400398,-7509.5319582965849,10800.242291125349,-7117.2270411684312,573.85620881800924,-573.85620881800924,7117.2270411684312,20531.190258150007,0.0
385012.02908761695,3967225.878295721,-47500.0,-4184.3902509238515,-5032.8686635167423,-4405.185704136089,5686.1294357805891,7623.3095925368134,-6543.8622839144346,9863.5304912014253,-6309.1290732889574,-569.41591130548295,569.41591130548295,6309.1290732889574,18772.984591554101,0.0
390012.02908761695,3967225.878295721,-47500.0,-4875.1818315992268,-4862.3803214928466,-2976.0910889772272,5642.3182909280022,6200.1478612416049,-5577.838011387812,8899.886941609162,-5289.4389601175353,-1599.6442616569325,1599.6442616569325,5289.4389601175353,16946.848496599927,0.0
395012.02908761695,3967225.878295721,-47500.0,-5340.8610327898505,-4452.9368459524003,-1711.7338982351807,5388.2790783474638,4882.9117514392956,-4660.4853685353755,7958.7518809520743,-4181.3961176033172,-2450.5524257516572,2450.5524257516572,4181.3961176033172,15141.974127439878,0.0
400012.02908761695,3967225.878295721,-47500.0,-5580.5293888359711,-3891.7995736734601,-650.49272012343022,4987.920411657552,3714.4187187590856,-3823.3821992531707,7075.2974903358618,-3081.6838348556885,-3093.0501802615136,3093.0501802615136,3081.6838348556885,13423.751667941755,0.0
405012.02908761695,3967225.878295721,-47500.0,-5615.833822694849,-3254.3161214396559,198.43678690326985,4498.8559076336805,2713.4607700630099,-3083.2871305045655,6270.1914014406466,-2057.8425734038133,-3526.6267093220308,3526.6267093220308,2057.8425734038133,11835.288987163507,0.0
410012.02908761695,3967225.878295721,-47500.0,-5481.1658295031293,-2599.5183926108029,845.76806551850257,3968.5306188895361,1881.2442676622939,-2445.5980164218181,5551.7049064731264,-1150.7841211678328,-3769.7609359150197,3769.7609359150197,1150.7841211678328,10400.786556610108,0.0
415012.02908761695,3967225.878295721,-47500.0,-5215.7256178516645,-1969.6124086104326,1313.9032112774541,3433.0940618171066,1207.4561222942521,-1907.7920868033677,4919.5437468348919,-379.85497108319805,-3851.3872625448607,3851.3872625448607,379.85497108319805,9129.5823144850256,0.0
420012.02908761695,3967225.878295721,-47500.0,-4857.948406745857,-1391.7859921542313,1630.560843340862,2918.0375227314848,675.25700688869097,-1462.3950664363861,4368.5932706109188,251.40814039537395,-3804.322636444228,3804.322636444228,-251.40814039537395,8020.1250170879921,0.0
425012.02908761695,3967225.878295721,-47500.0,-4442.1367669186093,-881.0680490348027,1824.3632959285478,2439.7558830454527,264.98618468888492,-1099.2921913168886,3891.4346679598439,749.96518617577954,-3660.7964374827789,3660.7964374827789,-749.96518617577954,7063.45660516714,0.0
265012.02908761695,3972225.878295721,-47500.0,814.4502516756769,-2658.6198384800164,3467.2414271343305,1851.2052614730471,-2559.7797450881926,1512.4054196464849,3920.4957844372575,-520.03566423930101,-139.79175463160726,139.79175463160726,520.03566423930101,7537.638307435298,0.0
270012.02908761695,3972225.878295721,-47500.0,362.05889447879804,-2600.7640477557811,3866.8799242334267,1748.5273633533357,-2770.5603154315509,1600.6097012383209,4125.1874660459307,-192.29455480483227,-618.95631134580435,618.95631134580435,192.29455480483227,7872.0300900974953,0.0
275012.02908761695,3972225.878295721,-47500.0,-167.26876992405462,-2457.8991848959399,4274.7436779717764,1580.3977994061854,-2961.5304486257774,1667.081065277981,4323.997375400997,223.36852393207374,-1171.6635575409096,1171.6635575409096,-223.36852393207374,8177.8281786949447,0.0
280012.02908761695,3972225.878295721,-47500.0,-768.75368049679662,-2208.8768184641403,4672.3238360949645,1334.2786698390055,-3114.7582606111164,1699.8785784330125,4514.110233640451,734.40856547809256,-1791.5507574535709,1791.5507574535709,-734.40856547809256,8446.9471680918778,0.0
285012.02908761695,3972225.878295721,-47500.0,-1429.9305324356324,-1832.2039535271952,5032.910582774377,998.58236432999036,-3206.6202084315069,1683.9756645180798,4694.0725907322658,1343.0728118419217,-2463.8371496834907,2463.8371496834907,-1343.0728118419217,8674.6584812126512,0.0
290012.02908761695,3972225.878295721,-47500.0,-2128.301552446414,-1308.6137062298662,5320.0880217710173,564.59549270374362,-3207.2661645160565,1601.1812154772501,4865.2396343814544,2043.0545628851701,-3162.652060667268,3162.652060667268,-2043.0545628851701,8863.5371527068692,0.0
295012.02908761695,3972225.878295721,-47500.0,-2829.2991681638364,-624.9928213738574,5486.9070298259767,29.185298628873451,-3080.7488996958687,1430.4923315192675,5033.7729686548364,2815.3908637698705,-3848.5966870971088,3848.5966870971088,-2815.3908637698705,9029.244123992572,0.0
300012.02908761695,3972225.878295721,-47500.0,-3485.3041416965407,220.21116682781019,5476.50450150097,-601.72698715459546,-2786.3236777198172,1149.1347134260511,5212.9509287703559,3624.0166458086342,-4467.3314587904415,4467.3314587904415,-3624.0166458086342,9207.6917496849001,0.0
305012.02908761695,3972225.878295721,-47500.0,-4036.8005602740586,1210.3627795712518,5225.1985880117018,-1309.1998034701485,-2281.5340027899542,734.58134966911143,5424.955486201291,4411.9034250404138,-4950.380111679423,4950.380111679423,-4411.9034250404138,9461.0420745144547,0.0
310012.02908761695,3972225.878295721,-47500.0,-4416.9616818614986,2303.7401189984275,4669.1841804237811,-2057.5042704992911,-1527.6729115536286,167.79731424400612,5700.4417932578745,5099.3827255477609,-5219.6449251638769,5219.6449251638769,-5099.3827255477609,9876.3988048355113,0.0
315012.02908761695,3972225.878295721,-47500.0,-4560.7672808929792,3428.288488018829,3755.6080783818429,-2791.8003947280422,-497.89084381391211,-562.23393975275462,6073.7665523847481,5586.8792444582605,-5197.0300596168317,5197.0300596168317,-5586.8792444582605,10549.06080773949,0.0
320012.02908761695,3972225.878295721,-47500.0,-4418.7989877200462,4480.9537632942238,2457.7138567235252,-3439.0076470470722,812.55534335126674,-1453.0595707009659,6573.1593908420682,5764.4228693899004,-4819.663656920191,4819.663656920191,-5764.4228693899004,11549.285399052475,0.0
325012.02908761695,3972225.878295721,-47500.0,-3973.9049898977805,5334.9309138555582,791.73970321932927,-3913.7229889413666,2375.6958440942058,-2483.3834018161101,7208.7147501534419,5529.3084302860971,-4059.1549245138162,4059.1549245138162,-5529.3084302860971,12887.888358828764,0.0
330012.02908761695,3972225.878295721,-47500.0,-3256.2803592167438,5857.0612139811001,-1169.2661748640089,-4130.225817359812,4123.1460171513008,-3609.4827907551953,7963.7996210681722,4810.6035609971659,-2940.3339692374825,2940.3339692374825,-4810.6035609971659,14502.079574470576,0.0
335012.02908761695,3972225.878295721,-47500.0,-2350.410644491335,5934.3443710909505,-3291.3303519419542,-4019.5759914633782,5945.4500657336093,-4765.5119998725086,8793.6558821677481,3595.1466078592907,-1552.2246808065179,1552.2246808065179,-3595.1466078592907,16266.870019822563,0.0
340012.02908761695,3972225.878295721,-47500.0,-1387.7436497557792,5503.6630310506252,-5390.9301565022261,-3547.9562876460013,7701.8006348977133,-5869.3032974803682,9630.7033384734605,1945.9913201172017,-43.773942263828303,43.773942263828303,-1945.9913201172017,18021.02829383752,0.0
345012.02908761695,3972225.878295721,-47500.0,-523.26451470725476,4574.7390536002285,-7263.0424891084231,-2730.1693087014473,9240.3677670003053,-6833.6568010687552,10394.683814648908,3.8210192938796581,1399.0839629421453,-1399.0839629421453,-3.8210192938796581,19596.285107308708,0.0
350012.02908761695,3972225.878295721,-47500.0,98.733558664597552,3236.3203714125216,-8719.8710647339522,-1632.4171482834711,10424.96464435386,-7580.8104659826104,11006.725056885527,-2033.3211675621758,2590.7756149568077,-2590.7756149568077,2033.3211675621758,20844.079516120324,0.0
355012.02908761695,3972225.878295721,-47500.0,378.34760540853279,1641.1470995904713,-9628.3611005741586,-361.94486758520702,11160.244625513769,-8056.0121685276799,11404.427546384646,-3947.8577292824061,3386.2141360866876,-3386.2141360866876,3947.8577292824061,21656.378887437972,0.0
360012.02908761695,3972225.878295721,-47500.0,281.20441688109298,-26.032514265139945,-9934.0738844300213,953.65674101628235,11407.506255835542,-8236.0828009171746,11552.489856897413,-5546.0356655855321,3709.9076838857836,-3709.9076838857836,5546.0356655855321,21977.571443790908,0.0
365012.02908761695,3972225.878295721,-47500.0,-159.5024602915168,-1586.2772852939245,-9664.5696489561669,2190.6625365231489,11186.809548471092,-8130.7321234645733,11445.687842193183,-6692.6512901026963,3565.0307429279419,-3565.0307429279419,6692.6512901026963,21805.955347678118,0.0
370012.02908761695,3972225.878295721,-47500.0,-858.3700735260793,-2897.9446608022349,-8913.8083307374072,3249.5297408975989,10566.423157993395,-7777.1106841008195,11105.183770535992,-7327.7118262570639,3022.1731599809568,-3022.1731599809568,7327.7118262570639,21185.986991157679,0.0
375012.02908761695,3972225.878295721,-47500.0,-1702.7538989727193,-3874.1254450856854,-7815.36622426332,4066.5373915424912,9644.6286893188517,-7230.1594539019034,10570.989976773788,-7463.6305656416953,2194.8321390918722,-2194.8321390918722,7463.6305656416953,20194.619702131913,0.0
380012.02908761695,3972225.878295721,-47500.0,-2578.1882846527978,-4484.810987147559,-6513.9619364453929,4615.8717809480104,8530.0461573180037,-6551.9495803670652,9893.3378120684702,-7168.27463589736,1211.4010809835163,-1211.4010809835163,7168.27463589736,18925.795520161853,0.0
385012.02908761695,3972225.878295721,-47500.0,-3387.6432912991381,-4747.5474562364143,-5142.4896086797298,4904.3034565499674,7325.2819093475555,-5802.5676143418787,9124.920171603284,-6541.8827688888723,191.60151015509791,-191.60151015509791,6541.8827688888723,17476.469520823743,0.0
390012.02908761695,3972225.878295721,-47500.0,-4061.9838424851318,-4712.3100195997113,-3807.8398483601918,4961.8909997250139,6116.2412803576499,-5033.867381252534,8314.9953788365474,-5694.9247852615117,-768.61763988664507,768.61763988664507,5694.9247852615117,15936.124101788751,0.0
395012.02908761695,3972225.878295721,-47500.0,-4562.2867703654319,-4445.7211491918197,-2585.3877861475298,4831.8859663408821,4967.2553142853976,-4286.2911919469034,7505.4607015942402,-4731.1712462189707,-1603.3643359032883,1603.3643359032883,4731.1712462189707,14380.342117997539,0.0
400012.02908761695,3972225.878295721,-47500.0,-4876.4280530925907,-4017.9218947737172,-1520.0434043851596,4561.9888401117205,3920.8111717776906,-3588.2200957000291,6728.4812909559441,-3737.3685091639072,-2276.1949486052781,2276.1949486052781,3737.3685091639072,12868.0096581663,0.0
405012.02908761695,3972225.878295721,-47500.0,-5012.6969776793085,-3493.4776087468704,-631.195122790087,4197.9610377394793,3000.2165308856747,-2957.033104201123,6005.4566801297888,-2778.9009740452898,-2775.3085225018363,2775.3085225018363,2778.9009740452898,11441.245697852577,0.0
410012.02908761695,3972225.878295721,-47500.0,-4992.6864038657041,-2926.2940253189577,80.789709531121929,3779.7215925155983,2213.6584687744053,-2401.073535706515,5347.6858594995583,-1899.857012375358,-3106.9928599329132,3106.9928599329132,1899.857012375358,10127.065651885898,0.0
415012.02908761695,3972225.878295721,-47500.0,-4844.9120294584072,-2357.7553934792818,628.13873605857952,3339.5430209403412,1558.5094222731484,-1921.894934360123,4758.7196389334667,-1125.7424420748066,-3289.0778817187875,3289.0778817187875,1125.7424420748066,8939.9117322675174,0.0
420012.02908761695,3972225.878295721,-47500.0,-4599.851973857536,-1817.0601224124439,1030.221505527509,2901.7687040632754,1025.2012799766994,-1516.3880265226057,4237.2299267604212,-467.37909400638819,-3345.3839701729007,3345.3839701729007,467.37909400638819,7884.4384072478015,0.0
270012.02908761695,3977225.878295721,-47500.0,-92.998816706280593,-2177.7052771089061,3780.9083653456419,1304.38449214766,-2489.0735929974021,1317.7924312592024,3713.6186192957721,187.55787381022452,-995.93396431025849,995.93396431025849,-187.55787381022452,7032.0789272163929,0.0
275012.02908761695,3977225.878295721,-47500.0,-584.94028473242645,-1979.7182800274759,4113.9567270464604,1113.3995453073298,-2616.9631343497049,1346.4334710383023,3874.865679039011,604.68751515439828,-1504.4493988567442,1504.4493988567442,-604.68751515439828,7263.3896032842722,0.0
280012.02908761695,3977225.878295721,-47500.0,-1126.6920810352208,-1681.94701295508,4418.8717929299009,855.00180226703208,-2700.5477632478182,1341.3822569282313,4029.3736538343546,1098.9534653757783,-2056.481428241691,2056.481428241691,-1098.9534653757783,7464.3554245911855,0.0
285012.02908761695,3977225.878295721,-47500.0,-1703.0045173179126,-1269.1688177767498,4668.7370913594686,522.258986200761,-2718.7407118265255,1290.3183767880046,4177.9651019028097,1666.7352164355993,-2634.0964588630336,2634.0964588630336,-1666.7352164355993,7636.2083541525935,0.0
290012.02908761695,3977225.878295721,-47500.0,-2290.287725973154,-729.90430638310534,4829.0243427338601,111.63552414352209,-2646.1301752230324,1178.957642444085,4324.5783464957676,2295.9299329173318,-3209.9902372819924,3209.9902372819924,-2295.9299329173318,7788.6655089368669,0.0
295012.02908761695,3977225.878295721,-47500.0,-2855.7184221930129,-59.863350741528627,4857.7584627720162,-374.85317649933575,-2453.6194289812079,991.58773102345413,4477.753085173932,2962.959947071161,-3746.3138538308185,3746.3138538308185,-2962.959947071161,7944.5845511361631,0.0
300012.02908761695,3977225.878295721,-47500.0,-3357.5053018381755,733.75436633806055,4707.1091852336049,-927.12389407083947,-2110.0695658044929,712.13849201401592,4651.919224395655,3629.9767133188839,-4194.6981202658517,4194.6981202658517,-3629.9767133188839,8144.3810329355538,0.0
305012.02908761695,3977225.878295721,-47500.0,-3747.0607548595121,1627.5392628421655,4327.0924770938609,-1524.4707992404351,-1585.2998024360231,325.93372391412652,4867.614030272407,4243.1062470842216,-4498.3319267588204,4498.3319267588204,-4243.1062470842216,8447.0980284926954,0.0
310012.02908761695,3977225.878295721,-47500.0,-3973.8075145793341,2577.6716029464556,3671.9603630416245,-2133.5745831486429,-854.68489540896348,-177.80310783224269,5149.4011057492207,4732.9550138560053,-4596.9841773829658,4596.9841773829658,-4732.9550138560053,8923.28977075683,0.0
315012.02908761695,3977225.878295721,-47500.0,-3992.998502104444,3517.7657517996513,2709.4145944615766,-2707.970820773834,94.73115908280684,-802.7857788538189,5520.6644100761114,5018.8106249716611,-4435.5472028449158,4435.5472028449158,-5018.8106249716611,9636.8014677619212,0.0
320012.02908761695,3977225.878295721,-47500.0,-3776.0869431942665,4360.711525690409,1431.8597378236016,-3190.0468271017348,1257.2634834421319,-1542.222811379258,5996.0933923840748,5017.7278460012913,-3975.8184964943307,3975.8184964943307,-5017.7278460012913,10620.628889532303,0.0
325012.02908761695,3977225.878295721,-47500.0,-3321.862944208156,5006.3335418022098,-132.4279642592557,-3516.470700155272,2602.1891278463554,-2375.83273827828,6574.6893103174971,4658.6742615496387,-3209.7879993113083,3209.7879993113083,-4658.6742615496387,11859.644039038043,0.0
330012.02908761695,3977225.878295721,-47500.0,-2665.1232542206599,5355.556986232129,-1911.7024234698972,-3627.2410277575823,4070.0724594657299,-3268.3644288986907,7236.373231874918,3900.0040122195087,-2170.9797282520785,2170.9797282520785,-3900.0040122195087,13289.059828467642,0.0
335012.02908761695,3977225.878295721,-47500.0,-1878.8735784378973,5329.5141084563138,-3790.7861225799043,-3477.2478118751505,5574.1541028160927,-4170.7229444897112,7943.154350087907,2746.1737779840287,-939.25946336215168,939.25946336215168,-2746.1737779840287,14806.237481513725,0.0
340012.02908761695,3977225.878295721,-47500.0,-1066.9210780719543,4889.2412256476837,-5621.688295054576,-3047.7204001215086,7008.3335995836651,-5024.3718708882052,8643.5664392272392,1257.9442817011545,364.9310977576057,-364.9310977576057,-1257.9442817011545,16288.404211995388,0.0
345012.02908761695,3977225.878295721,-47500.0,-346.61661073396164,4049.7223476752602,-7244.6273360467194,-2353.9859960343674,8261.3425750676233,-5768.7440186207659,9279.0399200343927,-449.24045310084364,1598.0749645393871,-1598.0749645393871,449.24045310084364,17611.188815537273,0.0
350012.02908761695,3977225.878295721,-47500.0,174.44631352219486,2882.5896345545611,-8515.1043901049143,-1446.3951860577349,9234.262793505075,-6350.223940262189,9792.2221243349795,-2220.7242020448693,2619.4877939051612,-2619.4877939051612,2220.7242020448693,18665.533329691691,0.0
355012.02908761695,3977225.878295721,-47500.0,420.84688244912053,1505.2542554223157,-9329.5662902092281,-403.28863392409812,9856.8020410635017,-6730.4517231800601,10136.527485071383,-3888.9087454237201,3318.3743563316261,-3318.3743563316261,3888.9087454237201,19371.072463231918,0.0
360012.02908761695,3977225.878295721,-47500.0,363.74870359507736,59.207797489621633,-9642.1041851600949,682.32074036721122,10097.783788507919,-6891.7237339234052,10283.740258274926,-5302.9239770026252,3633.7727275101556,-3633.7727275101556,5302.9239770026252,19684.122948741937,0.0
365012.02908761695,3977225.878295721,-47500.0,23.255147249493742,-1315.8540920819537,-9467.844901562763,1718.4909588805685,9967.2709964764326,-6838.216857793831,10226.912345158573,-6353.0797010322885,3561.8133519360808,-3561.8133519360808,6353.0797010322885,19599.269980904304,0.0
370012.02908761695,3977225.878295721,-47500.0,-540.70608738381247,-2504.6053551293326,-8873.5273677300574,2628.1979286665305,9510.6204997930581,-6593.1376926888997,9978.6080304919869,-6984.0027637843923,3149.6321466108475,-3149.6321466108475,6984.0027637843923,19145.002790111594,0.0
375012.02908761695,3977225.878295721,-47500.0,-1244.660804462439,-3430.0934053115539,-7959.6844033190437,3358.1940379304838,8797.1332594338437,-6193.0630682692363,9566.2198994372357,-7194.890196903837,2479.7184124799342,-2479.7184124799342,7194.890196903837,18375.180912549527,0.0
380012.02908761695,3977225.878295721,-47500.0,-1999.4143416286283,-4057.6298319938928,-6840.3653148150106,3881.8831008854368,7906.9096415060549,-5681.22476185713,9026.179555534065,-7029.5085209177187,1650.5784420492973,-1650.5784420492973,7029.5085209177187,17358.711345676234,0.0
385012.02908761695,3977225.878295721,-47500.0,-2724.8303934837236,-4390.2405920944939,-5625.4375646808976,4197.0662119903745,6919.0636577970026,-5101.3176594294446,8398.4285816556894,-6560.7181628553208,759.0845086453287,-759.0845086453287,6560.7181628553208,16169.632497858436,0.0
390012.02908761695,3977225.878295721,-47500.0,-3359.169871921732,-4459.0515589596316,-4408.320962474666,4320.4459890682283,5903.1714088600011,-4492.8212532187199,7721.9237716505686,-5874.2940580588784,-112.19359906401633,112.19359906401633,5874.2940580588784,14879.07903665495,0.0
395012.02908761695,3977225.878295721,-47500.0,-3862.7433741338518,-4312.0733536172966,-3259.7746383046779,4280.9025225392634,4914.4931165816533,-3888.181483668006,7031.3931998466614,-5055.3964766676017,-901.69652924527827,901.69652924527827,5055.3964766676017,13549.78204993406,0.0
400012.02908761695,3977225.878295721,-47500.0,-4217.0406761767072,-4003.9771390811188,-2226.8045185778283,4113.116127998901,3992.5286924389834,-3311.7080174395796,6355.1492822677437,-4179.2677757525107,-1570.3542685621919,1570.3542685621919,4179.2677757525107,12233.085020215809,0.0
405012.02908761695,3977225.878295721,-47500.0,-4421.0528585999346,-3588.2681498490451,-1335.0556690990372,3852.4570293399388,3161.969296385947,-2779.7659497602776,5713.7607017971677,-3306.2558256676184,-2099.4121220000397,2099.4121220000397,3306.2558256676184,10968.027375565296,0.0
410012.02908761695,3977225.878295721,-47500.0,-4486.4017815925499,-3112.2409298023076,-593.03754078308486,3531.4704872147431,2435.0462142930382,-2301.7817143359653,5119.8556573164324,-2480.3879821978048,-2486.2843612395432,2486.2843612395432,2480.3879821978048,9781.904759253559,0.0
415012.02908761695,3977225.878295721,-47500.0,-4432.4818023892076,-2614.433808455924,3.1374602378217595,3177.8736243347644,1814.424735085805,-1881.6287998741668,4579.3587390620478,-1730.37866072722,-2739.8158043673234,2739.8158043673234,1730.37866072722,8691.7088458102171,0.0
275012.02908761695,3982225.878295721,-47500.0,-890.98021292613453,-1532.9950114485275,3886.7780417451968,732.70155006532229,-2280.1917189403071,1074.0983635067898,3472.816165166349,907.08524055460475,-1726.4078589926371,1726.4078589926371,-907.08524055460475,6446.5832800918661,0.0
280012.02908761695,3982225.878295721,-47500.0,-1368.2005283834512,-1205.2470266099451,4103.7539497332355,475.42297234339088,-2307.0840134928167,1042.8646275641338,3601.1319346156752,1370.4210185320226,-2205.6101799193416,2205.6101799193416,-1370.4210185320226,6600.4647070476403,0.0
285012.02908761695,3982225.878295721,-47500.0,-1860.120779810934,-777.25227784900494,4253.4826806507972,158.15723345015834,-2268.4220932016101,969.74751091901885,3728.0640264603185,1885.2746854822612,-2689.1467914519067,2689.1467914519067,-1885.2746854822612,6738.5629076464647,0.0
290012.02908761695,3982225.878295721,-47500.0,-2343.8913962627494,-243.83725130087862,4304.7642470447063,-218.99973406759312,-2143.2764166760949,843.81728566258653,3859.2363820466753,2436.052359302088,-3150.3697508632176,3150.3697508632176,-2436.052359302088,6875.7025130217653,0.0
295012.02908761695,3982225.878295721,-47500.0,-2790.0018263439847,392.81730117306438,4221.6349836983381,-650.87670811719011,-1908.8264765064173,653.62102868401246,4004.2252761343257,2997.3558078850738,-3554.8780974622596,3554.8780974622596,-2997.3558078850738,7038.5261006435903,0.0
300012.02908761695,3982225.878295721,-47500.0,-3163.2666062631101,1119.968005125744,3965.4339897640994,-1125.5101577808243,-1542.0373084162907,388.14805111242288,4176.944238598524,3532.4803564716503,-3861.4169271849514,3861.4169271849514,-3532.4803564716503,7267.110016823086,0.0
305012.02908761695,3982225.878295721,-47500.0,-3425.3555668092663,1911.1822736243162,3498.522972098277,-1622.6275518099833,-1022.3011165087925,38.24222527627682,4394.8017131407842,3993.0874982417195,-4024.4903237306903,4024.4903237306903,-3993.0874982417195,7612.291740995418,0.0
310012.02908761695,3982225.878295721,-47500.0,-3539.2082224354081,2724.0930355016148,2789.8720639850721,-2112.7949996760872,-335.08170723935382,-401.55283845033676,4675.9928805879654,4320.8996808649708,-3999.1431847158647,3999.1431847158647,-4320.8996808649708,8126.1467945145505,0.0
315012.02908761695,3982225.878295721,-47500.0,-3475.3131471782199,3500.1394193568563,1822.3077649477443,-2557.8271427172381,523.66158465763056,-930.8556529809299,5034.9899504026507,4452.2528747722499,-3748.0114869293452,3748.0114869293452,-4452.2528747722499,8846.6101611693466,0.0
320012.02908761695,3982225.878295721,-47500.0,-3219.1951645445806,4167.5049166078152,600.53683516353203,-2913.0658881088029,1542.884290063002,-1541.3315878324725,5477.4839662526392,4325.9791205675265,-3250.0567497184297,3250.0567497184297,-4325.9791205675265,9782.648702133245,0.0
325012.02908761695,3982225.878295721,-47500.0,-2778.6271660394209,4648.1404526563756,-841.76751882948179,-3131.9096311799867,2692.7502928345689,-2215.1028705943022,5996.7570918744696,3894.2541640973841,-2509.457797600111,2509.457797600111,-3894.2541640973841,10907.448495943252,0.0
330012.02908761695,3982225.878295721,-47500.0,-2188.349647489888,4868.8297008319878,-2438.2003650000706,-3172.4376750655883,3923.1681051880951,-2924.304702996953,6572.8560992474304,3134.785660032599,-1562.2113554299908,1562.2113554299908,-3134.785660032599,12161.558725937488,0.0
335012.02908761695,3982225.878295721,-47500.0,-1509.9188846089764,4774.7817196442838,-4091.5977230955996,-3005.1848328501569,5165.8594966191131,-3632.3525190733349,7174.4604104943846,2061.4128066629028,-477.61786865740896,477.61786865740896,-2061.4128066629028,13462.454836453917,0.0
340012.02908761695,3982225.878295721,-47500.0,-825.14092493784426,4342.6865746022895,-5683.1577995696471,-2620.3314406836321,6340.6115208989095,-4297.1758134778165,7762.2995051557591,729.51369214002568,647.47170840670526,-647.47170840670526,-729.51369214002568,14716.433132837428,0.0
345012.02908761695,3982225.878295721,-47500.0,-223.43242936489051,3589.3351851265988,-7088.0680531372045,-2032.1969227368686,7365.1750549241497,-4876.1278234176643,8293.2099750192301,-766.73724226700244,1701.8285364341905,-1701.8285364341905,766.73724226700244,15830.622322238811,0.0
350012.02908761695,3982225.878295721,-47500.0,214.22732221819976,2572.530288477466,-8194.5672602328814,-1279.3232865681439,8166.940688102889,-5331.6824843259119,8725.0671431803876,-2306.0574942701655,2577.9817010156225,-2577.9817010156225,2306.0574942701655,16723.965637826146,0.0
355012.02908761695,3982225.878295721,-47500.0,430.44606380345539,1383.1802784482672,-8921.703366431675,-419.6280456115158,8693.6349541040418,-5636.633908972025,9022.8104466061959,-3758.5035792064809,3190.7259515220803,-3190.7259515220803,3758.5035792064809,17336.020654539829,0.0
360012.02908761695,3982225.878295721,-47500.0,401.36180276979536,130.35912025673713,-9231.1168648036546,478.34557587607605,8920.3760961921435,-5777.5641650829211,9163.8995182735689,-5006.0415236530198,3490.9506801600196,-3490.9506801600196,5006.0415236530198,17632.417641569642,0.0
365012.02908761695,3982225.878295721,-47500.0,138.83355510193189,-1076.6012099188051,-9130.0618056409239,1345.8340261792732,8851.5062850414743,-5755.8293492900621,9140.9460360921184,-5959.8949934501561,3471.2915673553252,-3471.2915673553252,5959.8949934501561,17606.276353425823,0.0
370012.02908761695,3982225.878295721,-47500.0,-314.99642119283197,-2144.3183210826082,-8665.7331046570653,2123.3468851598222,8517.231460882258,-5586.0543663149683,8961.0610276352745,-6570.709123036524,3162.9373375030559,-3162.9373375030559,6570.709123036524,17275.747234770086,0.0
375012.02908761695,3982225.878295721,-47500.0,-898.35862673626832,-3006.3111947226253,-7913.414926099299,2767.2554561953757,7966.4944000945834,-5292.7674555321255,8642.9460707643975,-6830.1511585859953,2625.6195042752956,-2625.6195042752956,6830.1511585859953,16678.631444447092,0.0
380012.02908761695,3982225.878295721,-47500.0,-1542.2856404858151,-3627.2805770145101,-6962.1523425632113,3252.6312251487657,7258.2063179570096,-4906.151952150999,8212.9924150121024,-6765.1900384688506,1934.3344845859588,-1934.3344845859588,6765.1900384688506,15865.492248710765,0.0
385012.02908761695,3982225.878295721,-47500.0,-2181.7037479833311,-4001.3396529734259,-5901.390195628549,3572.5952345651463,6452.8692940738119,-4457.8783123868234,7701.3513909061603,-6427.866003421097,1166.3562845893848,-1166.3562845893848,6427.866003421097,14892.663153426713,0.0
390012.02908761695,3982225.878295721,-47500.0,-2763.2551175153999,-4146.122473973669,-4810.8464526194903,3735.1882217992984,5605.9805104968282,-3977.7045050386782,7138.5625537663909,-5883.6924324979818,391.05215973461327,-391.05215973461327,5883.6924324979818,13816.213731128288,0.0
395012.02908761695,3982225.878295721,-47500.0,-3249.2685182505688,-4095.0318715698172,-3754.4798014516423,3758.9993352788379,4763.8230698169855,-3491.1809608945978,6552.9692302475614,-5201.179895335441,-336.3984799743489,336.3984799743489,5201.179895335441,12687.460738539015,0.0
400012.02908761695,3982225.878295721,-47500.0,-3618.3294048633461,-3889.5414780835417,-2778.28280531463,3668.6466445148071,3961.5812905902985,-3018.4809765553878,5968.8455213273446,-4443.9266611885369,-977.48092606729756,977.48092606729756,4443.9266611885369,11550.172210660048,0.0
405012.02908761695,3982225.878295721,-47500.0,-3863.4464560652614,-3572.7826272727489,-1910.9761471502386,3490.854902016039,3223.3042105926461,-2574.1639087689146,5405.0659836950535,-3665.7041976038354,-1509.8553193996995,1509.8553193996995,3665.7041976038354,10439.286611097821,0.0
410012.02908761695,3982225.878295721,-47500.0,-3988.909849949272,-3184.9545733480195,-1166.5036719815782,3251.4992925088322,2563.1011491475347,-2167.5992271604805,4874.4610591130513,-2908.2618754886698,-1924.9860252122608,1924.9860252122608,2908.2618754886698,9380.8146243846149,0.0
275012.02908761695,3987225.878295721,-47500.0,-1103.3863724190724,-1128.8634517349917,3614.242255387142,428.32373399846387,-1961.4827045801837,845.91105063681016,3115.7235863035999,1135.1467647348647,-1856.429678393911,1856.429678393911,-1135.1467647348647,5724.9754522374678,0.0
280012.02908761695,3987225.878295721,-47500.0,-1515.9154377533741,-787.00269250874294,3751.5386322631061,181.35422739961174,-1943.9751392265925,797.64615843104161,3225.266643075382,1558.4544196586826,-2262.9474155055432,2262.9474155055432,-1558.4544196586826,5848.5866669004272,0.0
285012.02908761695,3987225.878295721,-47500.0,-1928.2175425601561,-360.22622289327944,3814.5414035450499,-112.78834488536026,-1863.4601459710077,712.27639903705631,3337.6794609303452,2014.2786380150467,-2657.8729309500441,2657.8729309500441,-2014.2786380150467,5969.310842761638,0.0
290012.02908761695,3987225.878295721,-47500.0,-2319.3136834304019,151.85846739174377,3776.1089258146581,-451.64684894604108,-1703.1712164452847,581.62446493639845,3459.4388142567,2485.3918147599925,-3016.547607222481,3016.547607222481,-2485.3918147599925,6104.9724927141688,0.0
295012.02908761695,3987225.878295721,-47500.0,-2663.7113465585344,742.69489274648129,3606.4866956794112,-828.37458904539255,-1445.6986669756589,397.54084934717702,3600.0930695027855,2946.5722645177784,-3308.9476178134837,3308.9476178134837,-2946.5722645177784,6282.9551460922103,0.0
300012.02908761695,3987225.878295721,-47500.0,-2932.7243525399094,1396.5218817693494,3275.4930778690082,-1230.6343614056016,-1074.5270797276942,152.71176502855647,3771.9791516471796,3364.0299123333725,-3501.0271670410275,3501.0271670410275,-3364.0299123333725,6539.4838971993786,0.0
305012.02908761695,3987225.878295721,-47500.0,-3096.9613100232864,2086.469903230322,2755.9179109103138,-1639.7938736846895,-576.22023215803097,-158.25557227511544,3988.8419774300246,3695.9485277705721,-3557.3929792591821,3557.3929792591821,-3695.9485277705721,6914.8555966578078,0.0
310012.02908761695,3987225.878295721,-47500.0,-3130.0826009010952,2773.6287820623311,2028.1309954873898,-2030.7501731919413,56.807366334145392,-537.51832609590963,4263.2010575808836,3894.6879242252003,-3445.4848969214377,3445.4848969214377,-3894.6879242252003,7444.200872059575,0.0
315012.02908761695,3987225.878295721,-47500.0,-3013.6244697110365,3407.837359519815,1085.5574902395888,-2372.7579173356821,823.18720270683343,-982.58877591047042,4602.9428218719731,3911.0775812624979,-3141.1217847933221,3141.1217847933221,-3911.0775812624979,8146.5165669744374,0.0
320012.02908761695,3987225.878295721,-47500.0,-2742.2447866719222,3930.8944872165216,-59.78730873437128,-2631.5813611606227,1709.6588565962509,-1485.0671085995648,5008.2374452490785,3700.8783563641873,-2634.7791016936408,2634.7791016936408,-3700.8783563641873,9016.8733039491544,0.0
325012.02908761695,3987225.878295721,-47500.0,-2328.2577864847681,4282.5465298136733,-1372.992548195569,-2773.082635571805,2689.0279623981583,-2029.8445117279812,5469.9109051789865,3232.8677752904978,-1937.3856866544427,1937.3856866544427,-3232.8677752904978,10024.954300588113,0.0
330012.02908761695,3987225.878295721,-47500.0,-1803.9936032984576,4408.9158725781253,-2794.7450309488136,-2767.990492346556,3719.855693803157,-2595.1365700783649,5969.737736766524,2497.2154280165705,-1083.9740771445317,1083.9740771445317,-2497.2154280165705,11119.198726580973,0.0
335012.02908761695,3987225.878295721,-47500.0,-1220.5974088778569,4272.1075454757593,-4244.0214999596801,-2597.1234229201336,4748.5747970601124,-3153.6317240954409,6482.2779740783344,1512.1207152377713,-133.48053089146697,133.48053089146697,-1512.1207152377713,12233.890593454867,0.0
340012.02908761695,3987225.878295721,-47500.0,-642.55646278209645,3858.8836735065884,-5625.5875035101608,-2255.9376702129898,5714.2654034958914,-3674.8289930716223,6977.4296740118643,326.47656180015213,836.38509303313424,-836.38509303313424,-326.47656180015213,13297.163913625467,0.0
345012.02908761695,3987225.878295721,-47500.0,-138.45276405702478,3185.9672163220171,-6841.5849277708412,-1757.1421583306092,6555.6030947771897,-4128.3265351487189,7423.0657815181803,-983.08081334769395,1738.9950053267162,-1738.9950053267162,983.08081334769395,14238.961518391654,0.0
350012.02908761695,3987225.878295721,-47500.0,230.21878985057651,2300.0679941295434,-7805.0664162572411,-1130.4300419204653,7218.7485914020663,-4487.5029377397532,7787.9523575678922,-2320.9703449303602,2491.6221862674161,-2491.6221862674161,2320.9703449303602,14998.333750377979,0.0
355012.02908761695,3987225.878295721,-47500.0,419.44290278983169,1272.0903180916785,-8452.4283041773215,-419.09274532589961,7664.4957305634134,-4732.8436298191309,8045.510196918065,-3585.7653402767392,3028.2754462156663,-3028.2754462156663,3585.7653402767392,15529.35203476292,0.0
360012.02908761695,3987225.878295721,-47500.0,409.62547902971028,186.69804152606304,-8751.8012213385937,325.83784754419179,7873.0764606630391,-4854.2010995013015,8177.7160881998188,-4684.6377326327129,3309.4009732215127,-3309.4009732215127,4684.6377326327129,15804.88931702951,0.0
365012.02908761695,3987225.878295721,-47500.0,207.46035888811224,-870.22318446636609,-8705.5920791993794,1052.5764602793665,7845.6424546122871,-4851.5468538120967,8177.4094722023247,-5545.771102928381,3326.2205946533149,-3326.2205946533149,5545.771102928381,15817.799927113305,0.0
370012.02908761695,3987225.878295721,-47500.0,-157.32858036976774,-1823.2502039515741,-8347.0803592963894,1715.1422613287525,7602.3623037243178,-4734.1690949033509,8048.2643900959702,-6126.1416696379192,3099.1436542949968,-3099.1436542949968,6126.1416696379192,15579.535172457003,0.0
375012.02908761695,3987225.878295721,-47500.0,-639.00424995365518,-2615.859657200876,-7732.5154610229283,2278.2048750813296,7177.9097507373826,-4518.6443674765987,7802.9992606564856,-6413.572684421868,2671.3463095484331,-2671.3463095484331,6413.572684421868,15116.719910110607,0.0
380012.02908761695,3987225.878295721,-47500.0,-1184.4708145569709,-3214.4615584358321,-6931.0249538523731,2719.5670708457792,6615.602608896641,-4226.1309921481979,7460.7305910514206,-6423.597855113444,2099.6660803336226,-2099.6660803336226,6423.597855113444,14466.5315246925,0.0
385012.02908761695,3987225.878295721,-47500.0,-1741.4840277356657,-3608.1538356081201,-6014.6581279964375,3030.2956418903914,5961.4908933285142,-3879.5704616700154,7044.1740086795353,-6192.773840193202,1445.1494920333948,-1445.1494920333948,6192.773840193202,13671.778716254998,0.0
390012.02908761695,3987225.878295721,-47500.0,-2264.9538473216644,-3805.2640660472866,-5050.2788935564804,3213.0236195617767,5259.3870770130334,-3501.2619754561319,6577.1361556489474,-5770.4798801380584,765.08751358974587,-765.08751358974587,5770.4798801380584,12776.427390350973,0.0
395012.02908761695,3987225.878295721,-47500.0,-2720.698925633159,-3828.118882939968,-4094.154779929198,3279.1684561908987,4547.3697707110714,-3111.07795498511,6082.498462574129,-5210.986701057047,107.5378286249711,-107.5378286249711,5210.986701057047,11822.040591189294,0.0
400012.02908761695,3987225.878295721,-47500.0,-3086.7292251019426,-3707.3977263010902,-3189.3144290017626,3245.7996344456301,3855.8697871651502,-2725.4035743940358,5580.6864962393802,-4566.9915841326711,-491.46932705637892,491.46932705637892,4566.9915841326711,10845.339163255316,0.0
405012.02908761695,3987225.878295721,-47500.0,-3352.5927599570159,-3477.0630751188278,-2365.2033507985616,3132.7161500200277,3207.1222388587116,-2356.7255780330024,5088.4824029393985,-3885.1485757519404,-1008.4277132729794,1008.4277132729794,3885.1485757519404,9876.8372498887948,0.0
410012.02908761695,3987225.878295721,-47500.0,-3517.4930058231394,-3170.4152863700879,-1638.9456367211078,2960.0715478687412,2615.6311308358149,-2013.7265295040213,4618.2130647156237,-3203.5983657543429,-1431.2147079181739,1431.2147079181739,3203.5983657543429,8940.3918193149693,0.0
285012.02908761695,3992225.878295721,-47500.0,-1930.4746739492693,-16.03186447005891,3373.0157162989062,-308.27382024328369,-1506.7108408294298,508.06583992381547,2999.710248593668,2070.3084887120062,-2565.0973513426638,2565.0973513426638,-2070.3084887120062,5313.8607392454824,0.0
290012.02908761695,3992225.878295721,-47500.0,-2241.0620074515386,464.50263432807515,3263.6512899539357,-607.65649103950477,-1325.2228555020351,379.30441063754364,3115.7102557368962,2464.9090698134332,-2834.9991511312401,2834.9991511312401,-2464.9090698134332,5455.9597653746796,0.0
295012.02908761695,3992225.878295721,-47500.0,-2500.9033584446015,1002.9134128905712,3030.3788980922818,-931.88867959079937,-1058.9464826304809,206.6775436641226,3253.6196276114997,2835.104091149557,-3034.7315319103486,3034.7315319103486,-2835.104091149557,5651.2425160236953,0.0
300012.02908761695,3992225.878295721,-47500.0,-2687.2134932862277,1582.2631553524805,2650.3907771634222,-1269.1728777448168,-696.42441302987743,-14.498454536852176,3423.6800465784463,3150.9098018250361,-3136.9356719581865,3136.9356719581865,-3150.9098018250361,5930.0607222957606,0.0
305012.02908761695,3992225.878295721,-47500.0,-2778.0135253972862,2176.8750237257773,2104.8807411432645,-1603.0623851603525,-229.41842489426577,-287.12327251749809,3636.0829953799998,3377.1147410676008,-3114.7634509490149,3114.7634509490149,-3377.1147410676008,6322.0342466402299,0.0
310012.02908761695,3992225.878295721,-47500.0,-2755.1745177328826,2752.2212934623572,1382.6932095757331,-1912.6529874986925,345.04683039433735,-611.39889016845302,3898.7725154249165,3475.5692581769558,-2945.3404813216398,2945.3404813216398,-3475.5692581769558,6848.5856735513844,0.0
315012.02908761695,3992225.878295721,-47500.0,-2608.0075482796883,3266.20689066761,484.33328555316552,-2173.5330266939468,1022.5594777233283,-983.91963961421709,4215.1095734637047,3408.9410063239548,-2613.9843651139845,2613.9843651139845,-3408.9410063239548,7516.1122582576054,0.0
320012.02908761695,3992225.878295721,-47500.0,-2336.8499948495341,3672.2203197265867,-574.32758569359135,-2359.6433333065074,1789.4922276248999,-1396.9341687797375,4582.1574077295827,3145.8222497935139,-2118.6088957006386,2118.6088957006386,-3145.8222497935139,8312.6113710425998,0.0
325012.02908761695,3992225.878295721,-47500.0,-1955.8280093989979,3924.0253719223274,-1759.5739068838659,-2446.0352410692058,2621.9597625116726,-1837.9872950956969,4990.1358541898608,2666.6425352829115,-1473.4095965555475,1473.4095965555475,-2666.6425352829115,9208.5006885971889,0.0
330012.02908761695,3992225.878295721,-47500.0,-1493.8502387427791,3982.0832739271682,-3019.6056280809375,-2412.2713671626593,3486.0666439486181,-2290.1478647784243,5423.1121714147866,1969.3621957006408,-710.72524439766539,710.72524439766539,-1969.3621957006408,10160.372385351184,0.0
335012.02908761695,3992225.878295721,-47500.0,-993.04170642004499,3820.3233343596858,-4287.3231247776275,-2245.940767230069,4339.8091917519077,-2732.9611153022261,5860.5701715195964,1073.5717435867975,119.93625418641881,-119.93625418641881,-1073.5717435867975,11116.07025094484,0.0
340012.02908761695,3992225.878295721,-47500.0,-504.3311911147328,3431.9279315683498,-5486.3421629584946,-1945.556144535552,5136.6768308514102,-3144.1279358524048,6279.3005289900357,21.617067972951759,956.22520292296838,-956.22520292296838,-21.617067972951759,12020.139955185748,0.0
345012.02908761695,3992225.878295721,-47500.0,-80.671451795199545,2832.5970154024239,-6539.5932391975985,-1522.0772550081365,5830.5604592587542,-3501.7308516846651,6655.1556128424945,-1124.1542440306491,1730.3135043319919,-1730.3135043319919,1124.1542440306491,12819.213854689531,0.0
350012.02908761695,3992225.878295721,-47500.0,230.84047152205329,2060.1681264784943,-7379.01834483731,-998.52362664672228,6381.1560542040079,-3786.6541117547572,6964.7696736404632,-2288.0177295821591,2378.0446904058203,-2378.0446904058203,2288.0177295821591,13466.964451897027,0.0
355012.02908761695,3992225.878295721,-47500.0,396.19144662416619,1170.3405364419903,-7954.3751620034027,-407.58082101751381,6758.813636937728,-3984.7514003666856,7187.8576850529207,-3390.2747011837305,2847.950245267522,-2847.950245267522,3390.2747011837305,13928.151725502084,0.0
360012.02908761695,3992225.878295721,-47500.0,399.35387200812119,229.28778036105061,-8239.269035128691,212.38915172429594,6947.8506198044442,-4088.3414929577898,7309.9818594385424,-4357.5199950303368,3108.1337452654798,-3108.1337452654798,4357.5199950303368,14181.277737204413,0.0
365012.02908761695,3992225.878295721,-47500.0,243.80906639494256,-695.22207664114637,-8233.2243275328328,822.10870400747467,6947.7109426086727,-4096.7653301812634,7324.5270005166603,-5131.6013222743732,3149.5779128903619,-3149.5779128903619,5131.6013222743732,14219.533696386457,0.0
370012.02908761695,3992225.878295721,-47500.0,-49.408940280262044,-1542.2985625811066,-7959.6546889073916,1385.9551253522641,6771.8895980874831,-4015.9582248447491,7233.0218138092496,-5675.5483747334874,2985.4362844514762,-2985.4362844514762,5675.5483747334874,14050.026939424446,0.0
375012.02908761695,3992225.878295721,-47500.0,-446.36686949579769,-2264.376307750138,-7460.5704640099511,1875.5077738662681,6445.0506334671109,-3857.2099542090887,7044.0614746900446,-5975.6388969345107,2646.8987574436514,-2646.8987574436514,5975.6388969345107,13691.580486246843,0.0
380012.02908761695,3992225.878295721,-47500.0,-906.26568489883732,-2830.7468853404662,-6789.4716125402501,2271.5959088089548,5999.0917895661323,-3635.4254346444241,6771.4981817522694,-6039.79334462513,2176.9406396669565,-2176.9406396669565,6039.79334462513,13171.611545811276,0.0
385012.02908761695,3992225.878295721,-47500.0,-1387.4710403729694,-3228.085037904646,-6003.9863431771582,2564.7660904344239,5468.9861892554218,-3367.2448503390028,6432.4373298553573,-5893.2472592478225,1623.4844476671028,-1623.4844476671028,5893.2472592478225,12522.666087395746,0.0
390012.02908761695,3992225.878295721,-47500.0,-1852.468066620715,-3458.5366233680352,-5159.5105980742683,2754.4288643763921,4889.0897782635157,-3069.3286402506124,6045.3749246672469,-5572.8095384043072,1033.2821182125617,-1033.2821182125617,5572.8095384043072,11779.122577708418,0.0
395012.02908761695,3992225.878295721,-47500.0,-2271.162557383765,-3536.267805735873,-4304.5833295215207,2847.125749886171,4290.3416515427016,-2757.0094299903058,5628.6444371682783,-5120.9537810876645,447.34137727124153,-447.34137727124153,5120.9537810876645,10974.422793335407,0.0
400012.02908761695,3992225.878295721,-47500.0,-2622.4284023878658,-3483.4096440176941,-3478.216663506917,2854.3956067678378,3698.5190426070822,-2443.4010823670574,5199.1990287962772,-4580.6779171039989,-101.79945183573182,101.79945183573182,4580.6779171039989,10139.029254202349,0.0
290012.02908761695,3997225.878295721,-47500.0,-2128.2358612488752,703.94077308993224,2781.0512630125295,-705.00211437781684,-1005.7129243823944,225.32204485282676,2819.3585601403165,2393.1567643622652,-2626.1835547046499,2626.1835547046499,-2393.1567643622652,4908.9816255390724,0.0
295012.02908761695,3997225.878295721,-47500.0,-2319.2018573602145,1187.6204898799344,2503.6788677514396,-981.16109464512465,-740.86481833449966,66.967801077460265,2954.7162912608414,2683.18026781654,-2751.1579972496224,2751.1579972496224,-2683.18026781654,5119.7434581234493,0.0
300012.02908761695,3997225.878295721,-47500.0,-2441.1583249616224,1695.1003933275708,2095.4291318001369,-1261.6149728478731,-395.45921377473451,-129.91213507458204,3121.2871241947032,2913.3591347196725,-2784.568301267278,2784.568301267278,-2913.3591347196725,5413.0944243919475,0.0
305012.02908761695,3997225.878295721,-47500.0,-2478.0581686889373,2202.813041080286,1544.0243698975185,-1532.2388966783296,35.085006325944455,-366.61497699143962,3326.174343684208,3054.6470712373689,-2706.5234557806784,2706.5234557806784,-3054.6470712373689,5809.2218386607401,0.0
310012.02908761695,3997225.878295721,-47500.0,-2417.8897505956011,2680.8454920863078,844.38341741140607,-1775.9119437803581,550.81178707730669,-642.25584299183674,3573.8917935883228,3076.9890836370796,-2501.5020106979655,2501.5020106979655,-3076.9890836370796,6319.4356845690718,0.0
315012.02908761695,3997225.878295721,-47500.0,-2255.284570660021,3094.3801220750638,1.4845100084818306,-1973.4352029558252,1145.8047697264922,-953.19145702708795,3864.8850236557082,2952.4571093293644,-2161.4815139775983,2161.4815139775983,-2952.4571093293644,6942.4376059488777,0.0
320012.02908761695,3997225.878295721,-47500.0,-1993.9165979483955,3406.3911134767782,-967.22639376726863,-2105.0616029566058,1807.0854049901207,-1292.6055972522236,4194.676580568871,2659.1892592210484,-1688.967505146376,1688.967505146376,-2659.1892592210484,7663.3496627775066,0.0
325012.02908761695,3997225.878295721,-47500.0,-1648.1179311377568,3581.5361490702862,-2030.5244542376197,-2152.5764847143987,2514.1531930745855,-1650.3857840999369,4553.8533487599489,2185.6563684807275,-1099.2709862771771,1099.2709862771771,-2185.6563684807275,8455.248761211551,0.0
330012.02908761695,3997225.878295721,-47500.0,-1243.1119848677613,3590.8544611477723,-3143.8267745046628,-2101.7118277980849,3239.4678561838273,-2013.4071954900371,4928.826616381546,1534.499019698517,-421.31461780278278,421.31461780278278,-1534.499019698517,9282.1711362339211,0.0
335012.02908761695,3997225.878295721,-47500.0,-813.42461468053284,3416.5382725565673,-4251.7749965531038,-1944.5192467562274,3950.0556929341951,-2366.2884965499557,5303.0965054284516,725.01509764663274,303.62228386305929,-303.62228386305929,-725.01509764663274,10102.714288809178,0.0
340012.02908761695,3997225.878295721,-47500.0,-399.39121072217796,3055.8063416225391,-5292.9920476575644,-1681.2283101389892,4610.2084314247886,-2692.5960365650417,5658.6532524293889,-206.55318637778987,1025.4447871255356,-1025.4447871255356,206.55318637778987,10873.803239805076,0.0
345012.02908761695,3997225.878295721,-47500.0,-42.166806247704798,2522.9075875986928,-6206.4828408778167,-1321.1299240654205,5184.9761789489321,-2976.3659546429108,5977.175187378135,-1209.4261450795773,1690.7511429641747,-1690.7511429641747,1209.4261450795773,11554.404389766976,0.0
350012.02908761695,3997225.878295721,-47500.0,221.88608540035131,1848.5859612829931,-6938.6443598487176,-882.1787290061842,5643.9146879732907,-3203.7201470587534,6241.034750409106,-2223.2857355592996,2249.426437670043,-2249.426437670043,2223.2857355592996,12108.94973604629,0.0
355012.02908761695,3997225.878295721,-47500.0,366.29028273677983,1076.8993347130861,-7449.5697830613162,-389.28109688258132,5964.4216088240873,-3364.3020608503484,6434.6536823807901,-3185.0962015203968,2661.0541594942724,-2661.0541594942724,3185.0962015203968,12510.153129121303,0.0
360012.02908761695,3997225.878295721,-47500.0,377.95296928182216,259.92307222168427,-7717.425302986393,128.463673263711,6134.0480547082561,-3452.2806280942559,6546.4372731234453,-4036.4877626882421,2899.8544705189929,-2899.8544705189929,4036.4877626882421,12740.897704186546,0.0
365012.02908761695,3997225.878295721,-47500.0,258.38066595971378,-548.60925961788996,-7740.1084085036118,641.05225824890022,6151.3902906133671,-3466.7576790292574,6570.4391412811474,-4730.2803791222832,2957.1994525330115,-2957.1994525330115,4730.2803791222832,12794.982324542241,0.0
370012.02908761695,3997225.878295721,-47500.0,22.5055395588675,-1299.4899162803031,-7534.0498842978304,1120.7919698523951,6025.4864201963055,-3411.5411293893835,6506.8695917324339,-5234.9959832780642,2841.3763065854482,-2841.3763065854482,5234.9959832780642,12676.697056521645,0.0
375012.02908761695,3997225.878295721,-47500.0,-304.42392147543427,-1952.9472455472423,-7130.6502968741743,1544.8961672110138,5773.958783137663,-3294.3773955152074,6361.4779526176262,-5536.7408918833635,2574.9149381074558,-2574.9149381074558,5536.7408918833635,12399.395568397107,0.0
380012.02908761695,3997225.878295721,-47500.0,-691.06290234328833,-2481.6148406151297,-6571.265091590878,1897.1199671427894,5420.3561214819529,-3125.8234390392663,6144.3057761771142,-5638.4883104733299,2190.2843552442373,-2190.2843552442373,5638.4883104733299,11983.370270130639,0.0
385012.02908761695,3997225.878295721,-47500.0,-1104.38217206064,-2871.3958183898476,-5901.7836539913005,2168.3332869643227,4991.2286871403248,-2917.9793710826166,5868.2402748179129,-5557.3066386575374,1724.9592261860751,-1724.9592261860751,5557.3066386575374,11453.40485962964,0.0
390012.02908761695,3997225.878295721,-47500.0,-1513.5032325994964,-3120.5066632484495,-5167.7050016651056,2356.1518515624498,4513.4078150583919,-2683.2819535835974,5547.6279504410304,-5320.3674105346627,1216.7740362005225,-1216.7740362005225,5320.3674105346627,10836.353437275931,0.0
395012.02908761695,3997225.878295721,-47500.0,-1892.4768203576584,-3237.2530012910656,-4410.307079993785,2463.8825013606724,4011.8150355396724,-2433.5027806721669,5197.0839452532218,-4960.5934954714176,700.21131718167499,-700.21131718167499,4960.5934954714176,10159.011681001724,0.0
295012.02908761695,4002225.878295721,-47500.0,-2131.0420148944045,1310.4720278259797,2031.0937138668439,-991.66359415860109,-482.81129292194294,-33.14422942299214,2694.9688178682427,2506.7851064289794,-2471.2699189552845,2471.2699189552845,-2506.7851064289794,4668.4402863823443,0.0
300012.02908761695,4002225.878295721,-47500.0,-2203.8064528091359,1750.9555783746412,1610.6533298075128,-1223.3358713950663,-159.56161836522114,-206.5324641560232,2856.3005856628406,2666.319121537877,-2453.374717845441,2453.374717845441,-2666.319121537877,4968.3250215321186,0.0
305012.02908761695,4002225.878295721,-47500.0,-2202.0855977153369,2181.257219781397,1067.7931011548712,-1441.4764564343261,232.6198262136115,-410.6360393629468,3051.3288418127358,2740.7468865347064,-2337.220293317806,2337.220293317806,-2740.7468865347064,5358.4628136286337,0.0
310012.02908761695,4002225.878295721,-47500.0,-2118.3204027106017,2575.9030140021678,401.62964717870392,-1632.2261841842158,692.01300417243499,-644.02863772755472,3282.142324005526,2706.7076069958839,-2112.7359609378773,2112.7359609378773,-2706.7076069958839,5843.2443737183248,0.0
315012.02908761695,4002225.878295721,-47500.0,-1950.6774065628683,2906.3904692873548,-380.24490742971301,-1780.5826807662681,1212.160610448296,-903.19636505530752,3547.4339240352797,2543.5950464124353,-1776.4440880602351,1776.4440880602351,-2543.5950464124353,6417.1034947581038,0.0
320012.02908761695,4002225.878295721,-47500.0,-1704.6193051925788,3143.4719603545955,-1260.250972019526,-1871.6210299810402,1781.2320714135519,-1182.3172909035834,3842.1464063037615,2236.5447112904235,-1333.5052298089538,1333.5052298089538,-2236.5447112904235,7064.677979006542,0.0
325012.02908761695,4002225.878295721,-47500.0,-1393.794109782347,3260.1978228104613,-2210.2317369079346,-1892.0456082111261,2381.8910680146587,-1473.257350760756,4157.6904438615311,1779.4830242185315,-799.07452873626266,799.07452873626266,-1779.4830242185315,7762.3709321080769,0.0
330012.02908761695,4002225.878295721,-47500.0,-1039.8697576270788,3235.3899479013203,-3192.1797424265637,-1831.9008668574359,2991.8424760665143,-1765.8475483575949,4482.6415680255932,1177.693359168152,-198.50725340462731,198.50725340462731,-1177.693359168152,8480.6334482324401,0.0
335012.02908761695,4002225.878295721,-47500.0,-671.07663913407271,3057.00831221506,-4160.5001069316095,-1686.1801387332823,3585.1435415608644,-2048.4690991617958,4803.731724615689,449.28715024066804,433.92433125931262,-433.92433125931262,-449.28715024066804,9186.5256237920348,0.0
340012.02908761695,4002225.878295721,-47500.0,-319.47169479507369,2724.7553382156907,-5065.7436272809091,-1456.0243015468129,4134.2222975850555,-2308.9180223481812,5106.8945014715882,-374.94393656070434,1057.878067821116,-1057.878067821116,374.94393656070434,9846.3606453705943,0.0
345012.02908761695,4002225.878295721,-47500.0,-17.247778809810207,2251.2969578364082,-5859.3903835076462,-1149.2284195413374,4612.3820277788291,-2535.4565740279218,5378.1042763936548,-1253.5578757970522,1631.0754173687981,-1631.0754173687981,1253.5578757970522,10428.310823347047,0.0
350012.02908761695,4002225.878295721,-47500.0,207.30457302625018,1661.6987729710843,-6498.9626650374876,-779.87895449478367,4996.4306105146725,-2717.9067890998463,5603.956279652597,-2138.2483321670306,2114.0972236395919,-2114.0972236395919,2138.2483321670306,10904.813211767409,0.0
355012.02908761695,4002225.878295721,-47500.0,333.42844748705414,991.04110517592483,-6952.5878091378017,-367.116733853803,5269.0059341983306,-2848.6162851956296,5772.4159849994103,-2978.84250702908,2474.9954323153138,-2474.9954323153138,2978.84250702908,11254.558810992316,0.0
360012.02908761695,4002225.878295721,-47500.0,350.42454689343299,280.57754374007186,-7202.2022446919473,66.797186091562878,5420.2068827186313,-2923.1405815300845,5874.1436477382376,-3728.6679940328295,2692.8720977187686,-2692.8720977187686,3728.6679940328295,11463.850541194555,0.0
365012.02908761695,4002225.878295721,-47500.0,258.60868512797151,-426.86879552981412,-7244.8658665699186,498.78309033189879,5448.2732711016552,-2940.5395752451846,5903.8801244027291,-4349.3450891155908,2759.7937500690377,-2759.7937500690377,4349.3450891155908,11527.185342060071,0.0
370012.02908761695,4002225.878295721,-47500.0,68.61093260421427,-1091.4511475864301,-7092.0685170540301,907.22455581819668,5359.2535330463515,-2903.2599323735394,5861.0467493615724,-4814.2245132232947,2680.7978327353903,-2680.7978327353903,4814.2245132232947,11447.029889457277,0.0
375012.02908761695,4002225.878295721,-47500.0,-200.71787489305922,-1680.0371953889121,-6767.3162303733943,1273.8714214726576,5165.7961170865965,-2816.6538789395954,5749.4261451935699,-5110.0173280743638,2472.1594446561976,-2472.1594446561976,5110.0173280743638,11232.884882174129,0.0
380012.02908761695,4002225.878295721,-47500.0,-525.27033013154528,-2168.645382587858,-6302.5807344401837,1585.1222983668974,4885.3432949648377,-2688.2409070235362,5576.297629133921,-5236.5771778699273,2158.4172384062317,-2158.4172384062317,5236.5771778699273,10899.827917160628,0.0
385012.02908761695,4002225.878295721,-47500.0,-878.90745515267145,-2543.4088058795455,-5734.3128335911024,1832.5918094803153,4538.0693309036151,-2526.8495078170472,5351.3817987987886,-5205.1474167871056,1768.8150664966925,-1768.8150664966925,5205.1474167871056,10466.777475914489,0.0
390012.02908761695,4002225.878295721,-47500.0,-1236.3972445692953,-2800.191283262986,-5099.6623075701964,2013.0080493075866,4144.8850038417768,-2341.7688702970718,5085.8023109865835,-5035.5995940652447,1333.7993564004287,-1333.7993564004287,5035.5995940652447,9954.7151023118495,0.0
305012.02908761695,4007225.878295721,-47500.0,-1952.05786870152,2125.8721788764497,668.4299851728955,-1340.663391888892,376.47496886896687,-429.63407211196005,2805.6782478423665,2443.161472845612,-2007.8627473474767,2007.8627473474767,-2443.161472845612,4956.8710394445079,0.0
310012.02908761695,4007225.878295721,-47500.0,-1854.630218219492,2449.8857899777736,42.184403607144269,-1489.208048173432,783.39847384705661,-626.78037031523263,3018.7503123066153,2368.5025779827315,-1775.5131637999871,1775.5131637999871,-2368.5025779827315,5410.7947571662471,0.0
315012.02908761695,4007225.878295721,-47500.0,-1688.8191377716457,2712.259460902731,-677.01760451280506,-1599.6010947493828,1236.747620759244,-842.717645625356,3259.0352282956655,2181.4049128523884,-1450.9914405807731,1450.9914405807731,-2181.4049128523884,5934.4252004529708,0.0
320012.02908761695,4007225.878295721,-47500.0,-1460.8810544612402,2889.9757160037293,-1472.3218295834968,-1660.5772597276343,1726.0306016363652,-1072.5642194580121,3521.4531725732704,1872.0689099435217,-1040.8279994334816,1040.8279994334816,-1872.0689099435217,6513.1664985988791,0.0
325012.02908761695,4007225.878295721,-47500.0,-1183.3350922119098,2962.5153617842293,-2318.7843529725806,-1662.4291308914876,2236.726999909808,-1309.813775481148,3798.4053051274896,1438.0509325023986,-559.31800849862759,559.31800849862759,-1438.0509325023986,7126.7789654354037,0.0
330012.02908761695,4007225.878295721,-47500.0,-874.60916845999498,2914.4185305619649,-3184.2006808763949,-1598.2199464004568,2750.8164976130938,-1546.5801858063553,4080.3653403165263,885.96491600174295,-28.402165471597527,28.402165471597527,-885.96491600174295,7751.0761033428889,0.0
335012.02908761695,4007225.878295721,-47500.0,-557.77164954376815,2737.6661035333073,-4031.0261002857837,-1464.879031714144,3247.8276559527435,-1774.0443685300772,4356.6486738323665,232.31840947420525,523.52409493389962,-523.52409493389962,-232.31840947420525,8359.7609676534266,0.0
340012.02908761695,4007225.878295721,-47500.0,-258.39923006578186,2433.4366267938799,-4819.2939373509462,-1263.9788782100352,3706.3484514692473,-1983.0768838375106,4616.1985041261059,-496.84128540914361,1063.8773097418939,-1063.8773097418939,496.84128540914361,8926.3108926462864,0.0
345012.02908761695,4007225.878295721,-47500.0,-1.833343742242266,2012.8407539988307,-5510.2079768479871,-1002.0192908066414,4105.8355915559987,-2164.9710440921685,4848.1882826031142,-1267.6036901164962,1558.9990698900406,-1558.9990698900406,1267.6036901164962,9425.8343061917549,0.0
350012.02908761695,4007225.878295721,-47500.0,189.75461405039425,1496.3887172396232,-6069.9049666273431,-690.11474173352644,4428.479772321436,-2312.192522092208,5042.3481236237576,-2041.0759935397869,1977.6762830972903,-1977.6762830972903,2041.0759935397869,9836.7856593512643,0.0
355012.02908761695,4007225.878295721,-47500.0,299.98146096987392,912.18932459822418,-6472.7890578121751,-343.09219140454553,4660.8462844696987,-2419.0375036751102,5189.3285139050486,-2777.0789367616089,2294.4933043115198,-2294.4933043115198,2777.0789367616089,10142.38937607562,0.0
360012.02908761695,4007225.878295721,-47500.0,320.09093332786472,293.13295758245323,-6703.8990311966445,21.882397567277501,4795.038080669322,-2482.1021799476025,5281.5795357268462,-3438.0885646502429,2492.4517887699258,-2492.4517887699258,3438.0885646502429,10331.62779310031,0.0
365012.02908761695,4007225.878295721,-47500.0,249.70358334625942,-326.4748490811815,-6759.9449735825547,386.93361592439385,4829.2123213703771,-2500.4986588922889,5314.4941323404682,-3992.7863156334506,2564.4310605238952,-2564.4310605238952,3992.7863156334506,10399.693234493478,0.0
370012.02908761695,4007225.878295721,-47500.0,96.403183395196734,-914.28025200937918,-6648.9191401611706,735.11151234910108,4767.4036566835493,-2475.7963251590713,5287.0423779911844,-4418.6850890068326,2513.3112314768623,-2513.3112314768623,4418.6850890068326,10347.87773490146,0.0
375012.02908761695,4007225.878295721,-47500.0,-125.68311135079773,-1442.7304320917201,-6388.4514694601066,1051.7919597907485,4618.7312095146808,-2411.7168549589815,5201.647707076756,-4703.4997146090136,2350.8465899030439,-2350.8465899030439,4703.4997146090136,10182.954592137681,0.0
380012.02908761695,4007225.878295721,-47500.0,-397.97836899157448,-1891.0452402914279,-6003.2853244301878,1325.6723549658261,4396.1624373939103,-2313.6468204731491,5063.5835389576187,-4845.1995209315201,2095.6008604121134,-2095.6008604121134,4845.1995209315201,9916.1712567802224,0.0
320012.02908761695,4012225.878295721,-47500.0,-1255.5636787353694,2649.8654723692512,-1619.4901522562172,-1471.6522106027167,1651.921654245248,-967.29243215828797,3229.8189165594495,1559.4529593095567,-800.8085444556018,800.8085444556018,-1559.4529593095567,6005.7996582544683,0.0
325012.02908761695,4012225.878295721,-47500.0,-1008.844241842301,2689.2570048212197,-2372.493347009321,-1461.0571073096257,2086.7164588500173,-1161.3515895345695,3472.8797449905214,1152.0824918991823,-368.71579962208449,368.71579962208449,-1152.0824918991823,6545.1020565165791,0.0
330012.02908761695,4012225.878295721,-47500.0,-739.75739521577395,2625.8550833354857,-3135.1568084822802,-1396.1965022442203,2521.1007270218415,-1353.7231460152359,3717.9537201909952,648.22407946373619,100.13588877037171,-100.13588877037171,-648.22407946373619,7088.4049330611106,0.0
335012.02908761695,4012225.878295721,-47500.0,-467.16417891804105,2454.4376414077428,-3876.5403495910268,-1275.2689594087121,2938.8649404737712,-1537.6795950812959,3956.4159550777918,62.643658360570043,582.23404394149236,-582.23404394149236,-62.643658360570043,7614.628418865911,0.0
340012.02908761695,4012225.878295721,-47500.0,-211.55617713821962,2177.0097825461175,-4564.2268457621449,-1099.9978669580105,3323.2858696870994,-1706.3432753195482,4179.522099719039,-582.6756521530682,1051.1731974954459,-1051.1731974954459,582.6756521530682,8102.7527468832368,0.0
345012.02908761695,4012225.878295721,-47500.0,6.9963104241727088,1803.2347879053984,-5167.0351586391116,-875.78436416024078,3658.4436217410184,-1853.2024223966719,4378.8507829095051,-1259.9024656267172,1480.0109284045323,-1480.0109284045323,1259.9024656267172,8533.1591597104816,0.0
350012.02908761695,4012225.878295721,-47500.0,170.9965252597965,1349.9585234292192,-5657.8117037503371,-611.44635953779061,3930.5586724212917,-1972.6307515645192,4546.4793910326362,-1937.5593651321101,1843.8736398139454,-1843.8736398139454,1937.5593651321101,8888.8688476200259,0.0
355012.02908761695,4012225.878295721,-47500.0,267.42895474144484,839.83944192069532,-6015.8907810921273,-318.55451133989715,4129.1623434773464,-2060.3416319583639,4675.1050548852445,-2583.2808825503503,2122.4179326195631,-2122.4179326195631,2583.2808825503503,9156.5748350675658,0.0
360012.02908761695,4012225.878295721,-47500.0,289.11131160966983,299.26215853106623,-6228.8583780461031,-10.445954293647308,4247.9343727559817,-2113.7149561179472,4758.5999768422353,-3166.7361114752657,2301.7661281752589,-2301.7661281752589,3166.7361114752657,9327.3680287522875,0.0
365012.02908761695,4012225.878295721,-47500.0,235.28068247775991,-244.14838367341613,-6293.3678757998496,298.94278860448031,4285.0955371576993,-2131.9543806707625,4792.9490999449245,-3662.2804574000575,2375.6243296834682,-2375.6243296834682,3662.2804574000575,9397.088113857646,0.0
